LAMMPS (16 Mar 2018)
# 1. INITIALIZATION
#allows pair, bond, bending and dihedral interactions
atom_style molecular

  # periodic (video game) boundaries in all cartesian directions
boundary p p s

  # uses real units (instead of units based on pair potential parameters).  List of units used in manual
units real

###########
# 2. ATOM DEFINITION
##########

   ##
   # Read in data from starting configuration file
   ##

#read_data chainconfig.dat

 #use to restart
read_restart RESTART
  orthogonal box = (-400 -400 -0.0371672) to (400 400 123.895)
  2 by 2 by 1 MPI processor grid
  196 atoms
  194 bonds
  192 angles
  190 dihedrals
  2 = max # of 1-2 neighbors
  2 = max # of 1-3 neighbors
  4 = max # of 1-4 neighbors
  6 = max # of special neighbors

   ##
   # Specify the nature of the bond interactions
   ##


bond_style harmonic
bond_coeff 1 450 1.54

special_bonds lj 0.0 0.0 0.0 angle no dihedral no

angle_style harmonic
angle_coeff 1 62.1  114.00

dihedral_style opls
dihedral_coeff * 1.4110 -0.2708 3.143 0.0

mass * 14.0

pair_style lj/cut 14.0
pair_coeff 1 1 0.0912 3.95 14.0
#pair_modify tail yes

group twistables type 3
6 atoms in group twistables
group freeze type 2
6 atoms in group freeze
fix startend freeze setforce 0.0 0.0 0.0
fix startend0 twistables setforce 0.0 0.0 0.0

################
# 3.  Simulation Settings
###############

neighbor        2.0 bin
neigh_modify    every 1 delay 0 check yes



# Define some variables
variable Lx          equal xhi-xlo   # Ang
variable Ly          equal yhi-ylo   # Ang
variable Lz          equal zhi-zlo   # Ang

variable dz          equal ${Lz}/30  # Ang
variable dz          equal 123.931948666893/30  

variable zzlo        equal zlo+0.05  # Ang
variable zzhi        equal zhi  # Ang
variable vol         equal ${Lx}*${Ly}*${Lz}  # Ang^3
variable vol         equal 800*${Ly}*${Lz}  
variable vol         equal 800*800*${Lz}  
variable vol         equal 800*800*123.931948666893  
variable TEMP        equal 300.00 # K
variable TThi        equal 320.00 # K
variable TTlo        equal 280.00 # K
variable dt          equal 1.25 # fs

timestep     ${dt}
timestep     1.25

variable zlo1      equal ${zzlo}+2.7
variable zlo1      equal 0.0128327665533126+2.7
variable zlo2      equal ${zzlo}+8.4
variable zlo2      equal 0.0128327665533126+8.4
variable zhi1      equal ${zzlo}+115.5
variable zhi1      equal 0.0128327665533126+115.5
variable zhi2      equal ${zzlo}+121
variable zhi2      equal 0.0128327665533126+121

# heat layers

region          hot  block  INF INF INF INF ${zlo1} ${zlo2}
region          hot  block  INF INF INF INF 2.71283276655331 ${zlo2}
region          hot  block  INF INF INF INF 2.71283276655331 8.41283276655331
region          cold block INF INF INF INF ${zhi1} ${zhi2}
region          cold block INF INF INF INF 115.512832766553 ${zhi2}
region          cold block INF INF INF INF 115.512832766553 121.012832766553
compute         Thot all temp/region hot
compute         Tcold all temp/region cold


# 1st equilibration run
fix             1 all nvt temp ${TEMP} ${TEMP} 50
fix             1 all nvt temp 300 ${TEMP} 50
fix             1 all nvt temp 300 300 50
thermo          100
run             8000
Unused restart file peratom fix info:
  fix style: STORE, fix ID: layers_COMPUTE_STORE
Neighbor list info ...
  update every 1 steps, delay 0 steps, check yes
  max neighbors/atom: 2000, page size: 100000
  master list distance cutoff = 16
  ghost atom cutoff = 16
  binsize = 8, bins = 100 100 16
  1 neighbor lists, perpetual/occasional/extra = 1 0 0
  (1) pair lj/cut, perpetual
      attributes: half, newton on
      pair build: half/bin/newton
      stencil: half/bin/3d/newton
      bin: standard
Per MPI rank memory allocation (min/avg/max) = 9.015 | 9.015 | 9.015 Mbytes
Step Temp E_pair E_mol TotEng Press Volume 
302492000    296.11009    1482.3027    5283.7223    6938.1413   -7.9795453     79316447 
302492100    303.04563    1510.8561    5286.7027    6973.7065   -8.0546875     79316447 
302492200    292.06585    1496.4284    5284.5291    6950.7231   -7.8307125     79316447 
302492300     318.9824     1493.681    5296.6269     6975.719   -8.1425969     79316447 
302492400    313.50657    1501.7796    5278.8494    6962.8571    -7.684373     79316447 
302492500    283.89398    1514.6053      5274.63     6954.251   -8.0605588     79316447 
302492600    291.12616     1514.544    5300.2773    6984.0407   -7.7476741     79316447 
302492700    276.13894    1508.3017    5284.4482    6953.2578   -8.1324987     79316447 
302492800    265.07804    1515.2643    5290.3437    6959.6867   -7.8039286     79316447 
302492900    295.47193    1483.4046    5315.9027    6971.0527   -8.1788631     79316447 
302493000    266.35331    1514.0964    5284.6782    6953.5946     -7.90181     79316447 
302493100    299.74643    1515.6465    5290.5124     6980.389   -7.8948948     79316447 
302493200    311.14227    1482.9028    5288.7121    6952.4689   -7.9171039     79316447 
302493300    281.70944    1540.0682    5244.3891    6948.2032   -7.8485045     79316447 
302493400     273.5252    1489.4774     5316.648    6965.1141   -8.0676296     79316447 
302493500    276.77908    1536.2895    5247.2977    6944.4673    -7.758572     79316447 
302493600    258.79762    1471.2608    5343.3304    6965.0194   -8.1294291     79316447 
302493700    282.11753     1537.926    5241.4051    6943.3141   -7.6610011     79316447 
302493800     294.7356    1480.3156    5309.9843    6961.6173   -8.0325715     79316447 
302493900    311.41833    1521.5261    5260.0489    6962.5894   -7.8382731     79316447 
302494000    276.60984    1494.7768     5301.528    6957.0865   -8.0050708     79316447 
302494100     301.0735    1545.1144    5242.7495    6962.8653   -7.8668514     79316447 
302494200    281.76249    1448.2342    5380.6948    6992.7057   -8.1793106     79316447 
302494300    303.18165    1532.5455    5248.6484    6957.4206   -7.7685282     79316447 
302494400    319.32081    1461.9749    5332.9039    6980.4866    -8.254225     79316447 
302494500    292.94119    1572.0191    5226.4062    6968.6997   -7.3677512     79316447 
302494600    294.05726     1499.261     5286.543    6956.7272   -8.2174445     79316447 
302494700     270.3186    1520.8226    5250.3121    6928.2596   -7.5777985     79316447 
302494800     327.4895    1516.6769    5263.0181    6970.0509   -7.9884431     79316447 
302494900    249.36268    1510.0324    5282.8693    6937.8458   -7.8459622     79316447 
302495000    316.00785    1506.1597    5284.3882      6974.23   -7.8379479     79316447 
302495100    302.59092    1482.9015    5286.5686    6945.3534   -8.0442176     79316447 
302495200    319.05096    1514.7374    5275.0096    6975.1979   -7.7937107     79316447 
302495300     304.3043    1491.9756    5294.6331     6963.488   -8.0977595     79316447 
302495400    301.59415    1513.3158    5261.3619    6949.9818   -7.6697114     79316447 
302495500    336.77491     1489.134     5305.691    6990.5781   -8.0901688     79316447 
302495600    294.03022    1471.1086    5310.7995    6952.8155   -7.8829224     79316447 
302495700    312.21794    1525.7442    5279.8578    6987.0812   -7.9290883     79316447 
302495800    312.93133    1480.2581    5297.5328    6959.6847   -7.9345013     79316447 
302495900    296.49022    1546.3453    5247.3922    6966.0748    -7.782714     79316447 
302496000    290.41407     1482.173    5275.0687    6926.0472   -8.0053328     79316447 
302496100    306.64153     1524.052    5260.4076    6962.6974    -7.792674     79316447 
302496200    303.38089    1469.2273    5302.5935    6948.1634   -8.0615443     79316447 
302496300     316.1897     1498.474    5271.7716    6954.0333   -7.9089924     79316447 
302496400    290.39398    1483.7141    5297.6425    6950.1504   -8.0161515     79316447 
302496500    297.79513    1537.3336    5254.7649    6965.1943   -7.8233151     79316447 
302496600    293.90381     1493.593    5293.8215    6958.2485   -8.0606368     79316447 
302496700    297.88963    1519.4048    5263.5635     6956.119   -7.9231686     79316447 
302496800    287.78245    1502.7304    5305.6309    6975.6371   -7.9536393     79316447 
302496900    278.28993    1485.0485    5309.7971    6956.6039   -8.0894297     79316447 
302497000    278.66883    1512.1606    5272.4493    6946.5884   -7.7975256     79316447 
302497100    287.64855    1508.2841    5298.8153    6974.2974   -8.1297608     79316447 
302497200    285.34032    1526.2459     5262.895    6954.9972   -7.7809971     79316447 
302497300    312.27246    1493.2182    5287.3515    6962.0806   -8.0166938     79316447 
302497400    287.01326    1531.5317    5231.7362    6930.0967   -7.8007268     79316447 
302497500    285.79854     1489.352    5310.5138    6965.9885   -8.0084664     79316447 
302497600     315.6135    1535.6597    5245.2544     6964.367   -7.7503701     79316447 
302497700    281.51076    1484.3783    5292.4829    6940.4916   -8.0338855     79316447 
302497800    308.31904      1520.83    5258.6896    6958.7325    -7.890667     79316447 
302497900    321.10024    1498.1395    5295.4289    6980.2105   -7.8173899     79316447 
302498000    297.55441    1497.0985    5286.8999    6956.9542   -7.9686041     79316447 
302498100    298.24922    1516.5123    5272.4087    6962.2807   -7.7650556     79316447 
302498200    347.51228    1479.6905    5322.6453    7004.3301   -8.1081133     79316447 
302498300    295.08754    1515.5161    5267.7328    6954.7709   -7.8696539     79316447 
302498400    302.71012    1536.5086    5257.5851    6970.0465   -7.8385103     79316447 
302498500    288.48931    1492.8661    5291.1399    6951.6927   -8.0058667     79316447 
302498600    312.23276    1510.8213     5263.734     6956.043   -7.8678091     79316447 
302498700    331.64113      1498.83    5297.2012    6988.8003   -7.9547948     79316447 
302498800    292.77706    1460.2315    5331.9106    6962.3211    -8.193629     79316447 
302498900     308.1931    1543.4805       5244.1    6966.7202   -7.7034008     79316447 
302499000     290.6412     1479.803    5300.5833    6949.3239   -8.0704728     79316447 
302499100     283.7661     1542.056    5264.3812    6971.3785   -7.7293662     79316447 
302499200    302.19022    1500.7004    5288.3154    6964.6663     -8.03531     79316447 
302499300    283.04442     1515.221    5275.1235    6954.8664    -7.767445     79316447 
302499400    307.78883    1501.1409     5296.542    6976.5876   -7.9501939     79316447 
302499500     298.5335    1478.8949    5305.9014    6958.3212   -7.9892677     79316447 
302499600    336.33793    1511.7628    5285.1353    6992.3972   -7.9976641     79316447 
302499700     310.3254    1495.0179    5288.7043    6964.1013   -7.9028964     79316447 
302499800    278.56551    1498.7714     5287.632    6948.3218   -7.9549743     79316447 
302499900    325.95643    1515.2843    5276.7472    6981.4962    -7.946046     79316447 
302500000     316.9628    1475.9893    5293.1891    6953.4155   -7.9869683     79316447 
Loop time of 0.490166 on 4 procs for 8000 steps with 196 atoms

Performance: 1762.669 ns/day, 0.014 hours/ns, 16321.009 timesteps/s
100.0% CPU use with 4 MPI tasks x no OpenMP threads

MPI task timing breakdown:
Section |  min time  |  avg time  |  max time  |%varavg| %total
---------------------------------------------------------------
Pair    | 0.10271    | 0.12265    | 0.14392    |   4.3 | 25.02
Bond    | 0.22145    | 0.22728    | 0.23346    |   1.0 | 46.37
Neigh   | 0.0023437  | 0.0023744  | 0.002403   |   0.0 |  0.48
Comm    | 0.079301   | 0.10119    | 0.11954    |   4.5 | 20.64
Output  | 0.00090528 | 0.00095689 | 0.0011108  |   0.0 |  0.20
Modify  | 0.021187   | 0.025777   | 0.030267   |   2.0 |  5.26
Other   |            | 0.009935   |            |       |  2.03

Nlocal:    49 ave 60 max 38 min
Histogram: 2 0 0 0 0 0 0 0 0 2
Nghost:    147 ave 158 max 136 min
Histogram: 2 0 0 0 0 0 0 0 0 2
Neighs:    976.25 ave 1288 max 728 min
Histogram: 1 0 0 1 1 0 0 0 0 1

Total # of neighbors = 3905
Ave neighs/atom = 19.9235
Ave special neighs/atom = 5.87755
Neighbor list builds = 27
Dangerous builds = 0
velocity        all scale ${TEMP}
velocity        all scale 300
unfix           1

# Second Equilibration
fix             1 all nve
fix             hot all langevin ${TThi} ${TThi}  50.0 599804  tally yes
fix             hot all langevin 320 ${TThi}  50.0 599804  tally yes
fix             hot all langevin 320 320  50.0 599804  tally yes
fix             cold all langevin ${TTlo} ${TTlo} 50.0 27859 tally yes
fix             cold all langevin 280 ${TTlo} 50.0 27859 tally yes
fix             cold all langevin 280 280 50.0 27859 tally yes
fix_modify      hot temp Thot
fix_modify      cold temp Tcold


variable        tdiff equal c_Thot-c_Tcold
thermo_style    custom step c_Thot c_Tcold f_hot f_cold v_tdiff
thermo          4000
run             1600000
Per MPI rank memory allocation (min/avg/max) = 10.01 | 10.11 | 10.14 Mbytes
Step c_Thot c_Tcold f_hot f_cold v_tdiff 
302500000    280.66311    636.45246           -0           -0   -355.78935 
302504000     364.5838    588.50562   -5.9329615   -1.1794821   -223.92182 
302508000    239.75672    461.46905   -32.403304    41.945535   -221.71234 
302512000    430.60198    316.26939   -60.651067    62.684022    114.33258 
302516000    308.70807    362.18177   -76.812737    91.612939   -53.473692 
302520000    310.40106    255.89333    -129.3484    106.62412    54.507737 
302524000    582.29685    291.21213   -149.21273    157.05887    291.08472 
302528000    495.49735    390.77302   -200.09128    200.14043    104.72433 
302532000    644.32008    509.93326   -232.39342    226.78125    134.38682 
302536000    380.60025    280.48127   -225.00082    233.79217    100.11898 
302540000    480.10554    443.85337   -253.88082    255.34111    36.252171 
302544000    295.55616    301.90324   -274.27422     267.5105    -6.347071 
302548000    412.21151    270.74397   -297.07527    286.68472    141.46754 
302552000    412.99217     215.3507    -325.4058    316.78187    197.64147 
302556000    213.11373    357.01347   -344.86864    357.79679   -143.89974 
302560000    311.73578    217.41759   -393.45812    392.56609    94.318188 
302564000    297.81947    407.57724   -416.63542    413.49611   -109.75777 
302568000    367.24376    277.68253   -460.12207    464.34209    89.561227 
302572000    278.23932    320.86214    -516.0033    521.66193   -42.622821 
302576000    492.76109    183.99892   -541.01977    521.57892    308.76217 
302580000    246.73802    218.49667   -562.50348    555.33535    28.241349 
302584000    234.57229    442.10809    -567.2609    588.90541   -207.53579 
302588000    208.98535    333.88861   -572.70375    577.86186   -124.90326 
302592000    408.52777    340.64036   -565.23753    571.91269    67.887406 
302596000     384.1327    336.92487   -589.88299     592.8879    47.207837 
302600000    332.90313    452.82657   -612.98849    634.61046   -119.92344 
302604000    542.82321    353.31298   -664.99855    657.33906    189.51023 
302608000    393.08133     215.7357   -691.82479    713.65566    177.34563 
302612000    452.73877    378.02601    -701.2856    720.69555    74.712765 
302616000    526.81748    315.30916   -732.45241    747.52684    211.50832 
302620000    305.23364     149.3492   -761.70565    763.88514    155.88445 
302624000    508.21366    314.12893    -804.9885    792.89417    194.08473 
302628000    511.43228    352.29666   -799.74352    799.37945    159.13562 
302632000    363.54318    224.94574   -837.45102    836.11768    138.59744 
302636000    347.34169    284.80648   -854.71337    851.93418    62.535214 
302640000    201.72627    265.07657   -848.74128     869.0439     -63.3503 
302644000    328.82645    356.48209   -878.50465    889.30773   -27.655648 
302648000    416.84562    367.65106   -903.84299    904.28756    49.194558 
302652000    359.96628    413.40012   -902.50719    891.07927   -53.433841 
302656000    322.18369    619.90744   -912.90245     926.8628   -297.72376 
302660000    244.25507    227.98975   -929.28644    941.14386    16.265328 
302664000    319.56613    298.93481   -978.17946    979.24352    20.631319 
302668000    259.06718     336.1168   -1011.7296     985.7658   -77.049612 
302672000    416.67206    301.33401   -1009.2465    989.15132    115.33805 
302676000    398.23841    340.67083   -1011.7622    1011.6499    57.567577 
302680000    410.50311    261.10022     -1047.85    1044.2492    149.40289 
302684000    433.47952    279.04907   -1093.4396    1074.4386    154.43045 
302688000    463.04541    277.01073   -1111.4237    1113.7027    186.03468 
302692000     522.1499    328.19306   -1145.6626    1159.6901    193.95684 
302696000    409.31925    371.62811   -1151.1407    1157.2877    37.691147 
302700000    380.51767    490.99449   -1126.8202    1152.5932   -110.47682 
302704000    228.47145    277.96379   -1146.2399    1173.7626   -49.492336 
302708000    308.40927    398.34468   -1173.8392    1196.7901   -89.935404 
302712000    257.52024    281.44273   -1196.6481     1208.777   -23.922493 
302716000    280.19156    334.56619   -1224.7381    1213.9276   -54.374628 
302720000    201.01493     156.8339    -1238.229    1248.1443     44.18103 
302724000    386.02392    494.49387    -1248.619    1263.9212   -108.46995 
302728000    233.46304    350.81247    -1276.445    1286.4192   -117.34943 
302732000    320.87262    470.49225   -1275.3244    1306.4428   -149.61963 
302736000    338.40912    261.87415   -1309.9429    1337.7635    76.534977 
302740000    249.95208    430.50258   -1338.6374    1348.3607    -180.5505 
302744000    386.76086    283.90675   -1360.2525    1377.8596    102.85411 
302748000    321.23309    472.64163   -1358.1744    1375.7996   -151.40853 
302752000     304.6223    370.31389   -1392.0156    1393.5441   -65.691581 
302756000     404.7352    398.73405   -1420.1919    1410.6168    6.0011561 
302760000    568.97816    274.31725   -1416.5836    1434.0986    294.66091 
302764000    406.25741    276.23613   -1428.5604    1444.2125    130.02128 
302768000    550.70651    340.11159   -1460.2971    1445.8663    210.59493 
302772000    354.25747    451.63941   -1477.4498    1463.0197   -97.381936 
302776000    289.20195    173.45706    -1481.059    1480.4499    115.74489 
302780000    470.40882    611.32448   -1453.5068    1468.8448   -140.91566 
302784000    467.22132    410.67263   -1463.0802    1439.6176    56.548688 
302788000    258.00245    219.69342   -1456.7191    1448.6111    38.309038 
302792000    215.05265    215.10581   -1483.3298    1486.7044 -0.053152629 
302796000     364.9193     139.8524   -1511.4022    1501.9535     225.0669 
302800000    252.33181    413.45421   -1514.3702    1523.3574    -161.1224 
302804000    370.73009    265.51594   -1569.7301     1555.058    105.21415 
302808000    323.34162     163.8377   -1559.8734    1544.9177    159.50393 
302812000    367.36592    300.30694    -1548.403    1564.6755    67.058983 
302816000    541.83045    476.64727   -1572.8993    1595.0549    65.183179 
302820000    335.15191    214.49384   -1591.3195    1602.7112    120.65808 
302824000    404.33801    356.31785    -1626.393    1613.2579    48.020156 
302828000    238.01617    306.66586   -1620.0057    1631.9816   -68.649692 
302832000    556.00453    316.37325   -1656.6236    1646.8331    239.63128 
302836000    484.49699    438.63193   -1651.3034    1669.3069    45.865059 
302840000    511.77005    255.38444   -1688.9587    1674.9357     256.3856 
302844000    386.28665    399.66717   -1699.7416    1710.1875   -13.380516 
302848000    244.44192    306.94329   -1733.9435    1739.0024   -62.501363 
302852000    256.92385    412.55465   -1742.3844    1729.0324    -155.6308 
302856000    342.38575    450.09373   -1751.1999    1760.7283   -107.70797 
302860000    341.50868    402.94664   -1749.3451    1779.2668   -61.437963 
302864000    402.34972    358.79906   -1800.0295    1800.7277    43.550657 
302868000    328.72699    337.36082   -1817.1679     1814.533   -8.6338238 
302872000      281.183    173.30455   -1852.9129    1871.9027    107.87845 
302876000    236.42791    267.95069   -1879.7078    1888.6211   -31.522773 
302880000    450.58935    195.31177   -1887.8981    1901.5072    255.27758 
302884000    358.37258    362.16503   -1903.6975    1928.9635   -3.7924535 
302888000    397.05968    430.95421   -1933.5598    1938.6004   -33.894529 
302892000    408.93871    591.08634   -1977.1788    1967.6317   -182.14763 
302896000    225.63397    221.94604   -1987.8175    1997.2167    3.6879247 
302900000     281.1987    295.15745   -2023.4343    2040.6477   -13.958753 
302904000    323.36484    413.14587   -2061.8008     2087.236   -89.781032 
302908000    374.35949    266.39922   -2083.4518    2104.0612    107.96027 
302912000    428.58327    249.61627   -2111.4917    2119.5395    178.96701 
302916000    229.35286    358.50616    -2117.033     2138.774   -129.15329 
302920000     542.8803    387.68899   -2161.8654    2158.5832    155.19131 
302924000    378.81876    206.72928   -2200.5392    2194.0022    172.08948 
302928000    555.58674    358.80488   -2246.3257      2219.19    196.78186 
302932000    323.61816    166.22957   -2242.1663    2248.4756    157.38859 
302936000     457.6175    443.35123   -2251.6886    2260.8935    14.266271 
302940000    349.57006     210.6711   -2253.7681    2281.9713    138.89896 
302944000      507.071    254.49293   -2296.4105    2296.8347    252.57807 
302948000    180.53371     324.6838   -2332.7678    2332.3906   -144.15009 
302952000    584.10024    447.47578   -2366.0361    2353.3656    136.62445 
302956000    218.66551    284.22674   -2397.7082     2371.392   -65.561225 
302960000    419.95012    213.51838   -2415.4325    2414.5418    206.43174 
302964000    362.21575    425.21768    -2444.079    2440.3876    -63.00193 
302968000    300.70953    397.19128   -2450.8256    2454.7447   -96.481751 
302972000    296.07376    283.12679   -2472.7342    2458.9371    12.946967 
302976000    459.31095     318.4104   -2505.5652    2477.0805    140.90055 
302980000    614.57776     455.8934   -2531.2545    2515.4391    158.68436 
302984000     312.0732    302.90788   -2520.2159    2537.2819    9.1653207 
302988000    208.17211    206.95437   -2564.5066    2553.9798    1.2177366 
302992000    464.37774    238.74877   -2558.1104    2565.8318    225.62898 
302996000    390.54001    296.81438   -2603.8094    2587.1644    93.725624 
303000000    409.60626    378.92007   -2628.7279    2627.4505    30.686195 
303004000    298.69524    370.07495   -2632.1213    2639.2306   -71.379708 
303008000    377.61254    329.58014    -2652.367    2652.0339    48.032395 
303012000    319.19144     170.5119   -2672.0791    2682.6428    148.67954 
303016000    391.85217     157.2029   -2702.0483    2710.7952    234.64927 
303020000    373.77437     362.1223   -2673.6699    2682.1373    11.652075 
303024000    306.49736    304.11901   -2712.6951    2724.0907    2.3783508 
303028000    375.54948    254.09376   -2724.0851    2731.4528    121.45572 
303032000    382.02547    208.89567   -2740.5308     2755.541     173.1298 
303036000    376.87843     280.6484   -2767.9191     2793.406    96.230034 
303040000    171.02653    342.13985   -2785.6461    2795.1033   -171.11332 
303044000    210.84601    164.66226    -2773.301    2802.7517    46.183755 
303048000    224.50179    260.85254   -2775.7269    2793.6669   -36.350753 
303052000    287.88724    307.04621   -2836.7363    2829.7628   -19.158966 
303056000    314.58336     264.6911   -2831.5175    2833.1275    49.892259 
303060000    290.65366     285.9684   -2869.5703     2878.478    4.6852625 
303064000    479.04611     354.3277   -2912.3587    2905.2562    124.71841 
303068000    438.61851    562.60672   -2917.6748    2893.8325   -123.98822 
303072000    297.82003    352.76177   -2921.9936    2916.5608   -54.941741 
303076000    329.50126     282.6577   -2918.0388    2933.9749    46.843559 
303080000    345.67705    321.63245   -2938.5786    2946.6386    24.044602 
303084000    284.71033    222.18849   -2973.9578    2972.7827    62.521844 
303088000    268.24419    209.64412   -2981.9581    3005.2571     58.60007 
303092000    471.90648    257.69853    -3019.833    3010.6884    214.20795 
303096000    310.87638    220.55144   -3018.7344     3020.227    90.324948 
303100000    321.15378    262.53128   -3027.4898    3041.1824    58.622506 
303104000    366.33622    335.63892   -3047.8464    3070.8811    30.697307 
303108000    590.37372      391.857   -3078.4533    3058.6957    198.51672 
303112000    269.47353    259.15023   -3103.3445    3103.2531    10.323302 
303116000    569.86782    284.25996   -3131.2456    3122.0225    285.60786 
303120000    551.32638     223.5367   -3145.4948    3160.1695    327.78968 
303124000     347.8646    437.36631   -3153.8779     3173.713   -89.501704 
303128000     247.2121    298.22582   -3156.6831    3174.6862   -51.013722 
303132000    442.29246    291.86759   -3192.2396    3193.4078    150.42487 
303136000    504.99806    375.26706   -3251.9512    3225.8517      129.731 
303140000    427.52546    405.46733   -3270.7198    3284.2943    22.058134 
303144000    449.65336    350.14925   -3307.1567    3310.8548    99.504109 
303148000    480.27095    528.89144   -3354.2953    3347.8943   -48.620494 
303152000    347.82597     388.8215   -3378.5871    3390.3643   -40.995538 
303156000    295.17803    360.56513    -3410.296    3407.3303   -65.387107 
303160000    263.20343    305.54551   -3430.4795    3423.3994   -42.342087 
303164000    354.54226    313.18939   -3459.3647    3428.6544    41.352865 
303168000    293.07219    261.83247   -3454.3553    3477.7152    31.239715 
303172000    342.65643    310.28717   -3488.2329    3475.8445    32.369266 
303176000    368.55339    330.94389   -3487.0669    3501.9278      37.6095 
303180000    205.48948    242.62059   -3501.9825    3522.2703   -37.131106 
303184000    382.61019    412.69754   -3501.2387    3533.9076   -30.087356 
303188000     336.1268    378.63164   -3520.6129    3552.2226   -42.504847 
303192000    410.96806    378.60594    -3549.239    3567.2403    32.362122 
303196000    397.61402    300.00699   -3564.3392    3579.9737    97.607029 
303200000    354.98978     315.4036   -3566.8625    3579.3629    39.586176 
303204000    347.99413    288.69144   -3630.1387    3616.8862    59.302692 
303208000    300.95178    284.54591   -3635.5382    3631.1532    16.405864 
303212000    312.36919    307.82634   -3658.1888    3635.9012    4.5428475 
303216000    344.13029    246.82076   -3644.5689    3640.1692    97.309527 
303220000    489.29919    198.20209   -3680.5891    3679.3425    291.09711 
303224000    376.03608    327.89252   -3714.2987     3706.894    48.143552 
303228000    287.15396    391.02012   -3725.7021    3725.2172   -103.86617 
303232000     391.6966    286.98117   -3746.8396    3756.3863    104.71543 
303236000    351.29744    414.10044   -3732.6032     3738.468   -62.802998 
303240000    329.66566    225.56256   -3740.0571    3749.3115    104.10311 
303244000    449.22146    219.91144   -3774.3995    3771.2114    229.31001 
303248000    311.45823    319.93004   -3795.3852    3802.3418   -8.4718063 
303252000    469.64286    286.67592   -3811.6904    3806.7229    182.96694 
303256000    407.59658    374.67738   -3804.8198    3806.7905    32.919196 
303260000    219.57609    301.32899   -3822.7918    3836.8248   -81.752905 
303264000     379.4934    323.57329   -3889.1863    3885.5276    55.920108 
303268000    515.66412    305.97811   -3890.8448    3924.4678      209.686 
303272000    475.12464    314.09456   -3890.2767    3900.0822    161.03008 
303276000    621.02527    462.14992   -3925.2258    3922.2484    158.87535 
303280000    472.97248    252.86853   -3922.7256    3928.2021    220.10395 
303284000     361.4128    475.48499   -3938.9399    3932.0388   -114.07219 
303288000    223.71387    465.98655   -3936.2922    3932.3796   -242.27268 
303292000    414.27932    240.32407   -3965.1052    3952.9842    173.95525 
303296000    314.72333    338.05261   -3983.5481    3984.5229   -23.329286 
303300000    437.80669    341.06615   -4009.8267    4005.5032    96.740546 
303304000    372.60634    167.19105   -4057.0599    4054.8238    205.41529 
303308000    437.18846     379.9295   -4083.7803    4102.5423    57.258954 
303312000    365.40159    216.34052   -4108.4305    4126.8508    149.06106 
303316000    289.31623    464.20998   -4143.6262    4151.2751   -174.89376 
303320000     373.9414    327.84355   -4168.5912    4170.5953    46.097846 
303324000    445.08214     378.1171   -4220.2505     4236.489    66.965042 
303328000     416.1756    265.80632   -4272.0482    4273.2569    150.36929 
303332000    405.52091    345.64464   -4280.8563     4278.629    59.876276 
303336000    425.14861    380.61994   -4321.9833    4307.9013    44.528674 
303340000    418.09709    411.85378   -4339.0857    4337.6963    6.2433099 
303344000    372.90127    201.31162   -4349.4435    4355.3425    171.58965 
303348000    197.88955     567.3456    -4382.534    4386.7732   -369.45605 
303352000    345.06239    323.86732    -4406.039    4402.7402    21.195071 
303356000    393.25682    444.25325   -4415.5805    4406.7458   -50.996435 
303360000     428.7904     316.4551   -4391.9771    4422.4843     112.3353 
303364000    477.55461    318.65975   -4413.8857    4435.7602    158.89486 
303368000    226.00057    555.14502   -4441.7427    4439.8664   -329.14444 
303372000    409.48007    350.37559   -4472.3882    4473.6356    59.104474 
303376000    244.94881    330.21779   -4493.7434    4524.3063   -85.268973 
303380000    285.49203     420.1683   -4536.4388    4548.5045   -134.67627 
303384000    340.07445    529.08014   -4560.5748    4581.0409   -189.00569 
303388000    335.65901    240.84391   -4608.9339    4614.2353    94.815103 
303392000    409.63151    244.43283    -4657.591    4620.6129    165.19869 
303396000    439.93076    301.24119   -4668.3791    4684.1046    138.68957 
303400000    342.48507    206.06889   -4674.4716    4682.4565    136.41618 
303404000    358.54899    278.79481   -4690.7551    4704.0832    79.754182 
303408000    174.03014     234.4818   -4713.4709    4726.8437   -60.451655 
303412000    255.84676    254.35932   -4733.8034    4760.6427    1.4874476 
303416000    304.77318    293.15834   -4757.7592    4766.2629    11.614845 
303420000    408.71557    289.68049   -4783.3092    4789.0624    119.03507 
303424000    516.50282    157.79157    -4815.181    4814.9929    358.71125 
303428000    376.73819     309.3829     -4824.93    4839.5552    67.355293 
303432000    332.83861    217.52905   -4852.8352    4860.6682    115.30956 
303436000    281.37231    424.43717   -4872.4559    4885.8124   -143.06486 
303440000    235.33187    255.53539   -4885.9058    4922.7025   -20.203524 
303444000    410.03423    334.01519   -4895.4756     4921.873    76.019037 
303448000    256.93996    338.72282   -4929.0458    4945.0864   -81.782856 
303452000    323.96591    375.03028    -4970.162    4966.3632   -51.064376 
303456000    278.95147    404.81022   -4989.9645    4979.5263   -125.85875 
303460000    271.04365    382.77301   -5010.2048    5002.9322   -111.72936 
303464000    456.03659    330.32688   -5022.7627    5021.5705    125.70971 
303468000    181.91292    427.96379   -5030.5065    5031.6625   -246.05087 
303472000    451.31048    305.55678   -5036.7594    5055.3402     145.7537 
303476000    447.49963    394.16535    -5059.275    5073.7822    53.334278 
303480000    466.19439    496.34731   -5077.5795    5087.9981    -30.15292 
303484000     270.6619    126.99769   -5122.4076    5141.5722    143.66421 
303488000    247.86187    384.93278   -5132.1659     5166.624   -137.07091 
303492000    295.35728     316.4064   -5179.9169    5172.4506   -21.049119 
303496000    283.57631    467.48845   -5193.9721    5199.0941   -183.91213 
303500000    295.92844      403.393   -5238.9091    5232.8808   -107.46456 
303504000    336.87634    394.79433   -5252.1482    5257.9791   -57.917995 
303508000    344.95399    440.77711   -5284.9536    5273.7839   -95.823118 
303512000    565.19559    543.05518   -5286.2187    5290.9494    22.140406 
303516000    464.06708    498.95685   -5289.8647    5286.0892   -34.889769 
303520000     364.8142    325.69539   -5297.3867    5318.7022     39.11881 
303524000    275.96412     453.7546   -5306.4894    5299.1071   -177.79047 
303528000    405.84358    321.34073   -5305.1754    5308.3337    84.502845 
303532000    352.42811    398.72858   -5309.2332    5316.9138   -46.300472 
303536000    419.97535    159.29979   -5346.4578    5347.2294    260.67555 
303540000    242.51695    475.62152   -5355.8638    5358.3156   -233.10456 
303544000    322.30515    337.21671   -5372.6062    5366.5143   -14.911559 
303548000    361.67563    231.21396   -5391.6743    5391.3169    130.46167 
303552000    248.66259    407.98763    -5400.044    5391.5371   -159.32505 
303556000    266.62729    167.93359   -5452.4775    5435.4113    98.693704 
303560000    283.78788    219.56112   -5458.5533    5467.4531    64.226761 
303564000      228.562    245.43214   -5508.6076    5504.9463    -16.87014 
303568000    453.08084    433.84893   -5500.7885     5492.881    19.231919 
303572000    480.36837    302.36219   -5519.8267    5506.4155    178.00618 
303576000     327.0581    396.12514   -5524.9769    5540.2856   -69.067049 
303580000    470.19145    399.18907   -5542.2361    5562.2847     71.00238 
303584000    314.87298    326.25461   -5547.7474    5562.8879   -11.381628 
303588000    585.18336    285.78309   -5602.1824    5592.9263    299.40027 
303592000    339.17668    368.81301   -5610.9072    5598.0423    -29.63633 
303596000    402.56342    375.29914   -5610.8839    5588.9418    27.264278 
303600000    452.29534    397.49691   -5617.3413    5626.1325    54.798432 
303604000    460.43234    386.44598   -5632.9122    5631.2392    73.986359 
303608000    250.59305    262.57689    -5645.089    5652.5487   -11.983839 
303612000    541.29458    320.62487    -5686.647    5682.8084    220.66971 
303616000      483.605    189.75495    -5654.232    5697.1297    293.85006 
303620000    284.89941    346.00803    -5673.173    5700.1207   -61.108621 
303624000    462.00908     295.6612   -5701.0506    5717.3058    166.34788 
303628000    260.75484    357.77591    -5728.295    5728.3225   -97.021067 
303632000    262.99522    351.32974   -5740.5755    5757.7874   -88.334521 
303636000     301.0881    336.14518   -5765.4316    5790.7173   -35.057087 
303640000    331.26445    396.46824   -5780.8303    5790.6186   -65.203789 
303644000    286.65586    227.19806   -5780.0842    5798.0916    59.457797 
303648000     246.2647    425.49136   -5811.3771    5834.8438   -179.22666 
303652000    322.51699    412.20912   -5829.3435    5853.0917   -89.692131 
303656000    374.53485    354.78616   -5868.5311    5874.8471    19.748693 
303660000    440.91065     233.4547   -5886.1981    5887.8373    207.45595 
303664000    344.89319    244.77206   -5898.4327    5915.3731    100.12114 
303668000    403.43321    283.71729    -5943.806    5956.5695    119.71593 
303672000    591.24951    338.25392   -5959.5293    5975.9524    252.99558 
303676000    437.53502    460.28111   -5976.9446    5993.3989   -22.746081 
303680000    375.43191    406.36127   -6022.9217    6042.7977    -30.92936 
303684000    279.36546    357.03981   -6063.7598    6067.9572   -77.674348 
303688000    422.24953    274.54313   -6125.2707    6089.9917     147.7064 
303692000    241.78893    145.17238   -6128.1887    6151.0581    96.616542 
303696000     288.0904    183.76365   -6173.9468    6178.5218    104.32675 
303700000    463.54921    435.44208   -6174.3504    6201.3494    28.107133 
303704000    375.95517    417.03933   -6215.7529    6213.9992   -41.084158 
303708000    313.28028    301.58789   -6223.1112    6235.7922    11.692395 
303712000     360.8926    335.56592   -6240.7975    6245.3001    25.326674 
303716000    393.17338    384.96029   -6251.5431     6274.461    8.2130876 
303720000    426.45794    371.53318    -6277.075    6290.6632    54.924757 
303724000    483.14315    266.74373   -6282.9452     6291.592    216.39942 
303728000    362.20354     347.3209   -6299.7066    6302.8833    14.882641 
303732000    352.52004    200.49398   -6317.1129    6313.8598    152.02606 
303736000    213.61794    375.32123   -6331.7878    6346.7976   -161.70329 
303740000    347.70541    218.82677   -6336.5274    6365.4349    128.87864 
303744000     321.8234    323.58427   -6351.3935    6365.5194   -1.7608734 
303748000    339.45577    568.78844   -6360.3262    6361.4686   -229.33267 
303752000    414.43297    196.26471   -6373.1713    6390.6762    218.16826 
303756000    350.40091    372.06442   -6399.5188    6422.1657   -21.663517 
303760000    501.12019    312.42096   -6416.0675     6428.719    188.69923 
303764000     394.6389    180.84029   -6464.3941    6454.5594    213.79861 
303768000    579.26772    311.87259   -6479.1296    6480.8985    267.39513 
303772000    519.66047    269.65083   -6510.8129    6527.2589    250.00963 
303776000    520.18404    253.73338    -6549.962    6538.2711    266.45066 
303780000    388.41537    394.41927   -6585.1798     6602.573   -6.0039029 
303784000     336.9933    415.04989   -6603.3999    6629.4629   -78.056597 
303788000    351.78946    255.20284   -6642.7604     6661.684    96.586625 
303792000    267.10059    317.81509   -6647.3255    6672.6743   -50.714504 
303796000    178.28541    587.00813   -6668.4688    6688.5129   -408.72272 
303800000    449.83601    161.82551   -6700.4306    6726.3685     288.0105 
303804000    511.04242    253.15197   -6745.0993    6759.3129    257.89045 
303808000    398.22806    242.87987   -6790.3987     6792.446    155.34819 
303812000    197.44247    432.90391   -6788.5654    6803.6737   -235.46144 
303816000    302.35968    281.89984   -6828.6374    6828.3284    20.459844 
303820000     283.7908    377.26839   -6849.8335    6836.0122   -93.477596 
303824000    727.91608    467.98604   -6877.9085    6887.4089    259.93005 
303828000    434.28118    400.87026   -6901.2527    6909.6032     33.41092 
303832000    368.35341    400.71156   -6920.3068    6944.7321   -32.358154 
303836000    367.03587    330.14407   -6951.1513    6942.2535    36.891797 
303840000    433.00608     305.2968   -6992.6039    6983.9989    127.70927 
303844000    519.46407    527.08037   -6979.3506    6974.0951   -7.6162974 
303848000    669.69264    200.62379   -6997.9248    6980.8496    469.06885 
303852000    349.40531    226.24962   -7018.3524    7001.0071     123.1557 
303856000    198.56509    428.57257   -7020.9952     7018.076   -230.00747 
303860000     405.0285    406.80723    -7082.071     7078.155   -1.7787283 
303864000    195.14036    246.59814   -7091.1602    7114.3819   -51.457782 
303868000    285.63726    242.02945   -7130.0689    7129.5547    43.607811 
303872000    522.82168    347.49816   -7182.8764    7156.8305    175.32352 
303876000    338.22658    450.00006   -7189.8729    7174.1788   -111.77348 
303880000    392.53401    166.24261   -7213.4602    7236.9464     226.2914 
303884000    219.03527    197.53646   -7232.1583    7242.2173    21.498809 
303888000    344.24831    471.15882   -7266.5379    7254.6156   -126.91051 
303892000    388.45263    388.48574   -7306.1223    7301.8021  -0.03310895 
303896000    541.91807    398.37604   -7323.3704    7323.9335    143.54203 
303900000    467.44926    234.50041    -7345.433    7352.6659    232.94885 
303904000    330.00514    365.20932   -7369.0349    7354.9217   -35.204179 
303908000    425.74909    445.17983   -7377.9217    7376.4662   -19.430738 
303912000     395.0782    208.99576   -7405.5464    7414.0308    186.08244 
303916000     387.9545    403.33747   -7406.7196    7396.3549   -15.382967 
303920000    436.91338    310.80115   -7402.1943    7400.2743    126.11223 
303924000    192.20926    355.16396   -7403.2468    7410.2542    -162.9547 
303928000    307.15279    157.76272   -7430.1734    7432.5496    149.39007 
303932000    207.80008    270.39204   -7440.8788    7443.8128    -62.59196 
303936000    463.55837    376.50726   -7450.8675    7447.3562    87.051107 
303940000    303.24351    426.99698   -7468.9014    7479.5716   -123.75347 
303944000    486.18774    363.01379    -7500.737    7501.1311    123.17395 
303948000     357.4752    271.87156   -7492.4506    7533.3794    85.603641 
303952000    416.91774    258.87497   -7537.6371    7554.6207    158.04277 
303956000     462.5747    470.60816   -7538.8142    7546.6236   -8.0334599 
303960000    394.36098    327.15285   -7530.9901    7536.6606    67.208127 
303964000    146.87581    488.85249   -7544.5169    7555.8729   -341.97668 
303968000    465.95376    305.80452   -7580.5583    7584.4968    160.14924 
303972000    352.99467    345.59004   -7593.6823    7606.7568    7.4046244 
303976000    518.53011    239.07087   -7620.0735    7614.6702    279.45924 
303980000    481.21754    308.90056   -7609.8956    7599.7736    172.31698 
303984000    405.35322    498.26615   -7631.0724     7622.036    -92.91293 
303988000    231.94427    280.70713   -7641.4159    7650.4412   -48.762854 
303992000    450.14056    307.49035   -7645.7296    7664.2072     142.6502 
303996000    409.16573    258.05848    -7682.372    7682.3532    151.10724 
304000000    333.03676     314.8267   -7693.5395    7693.6234    18.210053 
304004000    335.80475     492.9246   -7733.9611    7706.4477   -157.11986 
304008000    276.01919    365.33844   -7738.0341    7735.7237   -89.319247 
304012000    352.30633    174.79283   -7757.4578    7770.3212    177.51349 
304016000    439.13548    291.33574   -7765.2106    7796.2224    147.79974 
304020000    242.49471    384.17004    -7776.367    7796.5135   -141.67532 
304024000    321.50466    450.62892   -7786.7585     7786.666   -129.12427 
304028000       364.59    204.64799    -7785.472    7805.9909    159.94201 
304032000    299.38069    485.66853   -7837.1548    7839.0703   -186.28784 
304036000    278.00952    320.63131   -7860.7824    7866.7375   -42.621781 
304040000    574.97093    345.15077   -7888.6329    7895.3603    229.82016 
304044000    723.54611    404.05651   -7899.0398    7902.4249     319.4896 
304048000    292.31893    266.72242    -7928.237    7938.5124    25.596517 
304052000    256.26666    313.43276   -7965.4377    7973.5517   -57.166097 
304056000    352.16238    227.02805    -7982.175    7989.7876    125.13433 
304060000    237.12802    257.22209   -7999.4841    8022.2745    -20.09407 
304064000    333.26894    500.48681   -8027.4848     8026.785   -167.21787 
304068000    287.14238    267.37765   -8068.8182     8079.108    19.764738 
304072000    227.79787    337.85695   -8088.7661    8089.7178   -110.05907 
304076000    308.28618    178.10253   -8110.4355    8133.1763    130.18365 
304080000    430.77411    310.16001   -8152.9968    8156.8739    120.61409 
304084000    291.09639    316.78719   -8181.1606    8169.6993   -25.690796 
304088000    211.70003     392.8246   -8193.1174    8195.9727   -181.12457 
304092000    373.32456    208.28264   -8217.7767    8219.4919    165.04192 
304096000    458.72151    333.17991   -8209.7186    8232.6772     125.5416 
304100000     526.0562    590.02669   -8226.5269    8215.0343   -63.970492 
Loop time of 112.275 on 4 procs for 1600000 steps with 196 atoms

Performance: 1539.074 ns/day, 0.016 hours/ns, 14250.688 timesteps/s
100.0% CPU use with 4 MPI tasks x no OpenMP threads

MPI task timing breakdown:
Section |  min time  |  avg time  |  max time  |%varavg| %total
---------------------------------------------------------------
Pair    | 21.007     | 24.448     | 28.335     |  56.3 | 21.78
Bond    | 44.16      | 45.383     | 48.03      |  22.9 | 40.42
Neigh   | 0.43597    | 0.44207    | 0.44787    |   0.7 |  0.39
Comm    | 15.246     | 18.765     | 21.189     |  53.9 | 16.71
Output  | 0.0058026  | 0.0063607  | 0.0076287  |   0.9 |  0.01
Modify  | 19.873     | 20.378     | 20.919     |  10.6 | 18.15
Other   |            | 2.852      |            |       |  2.54

Nlocal:    49 ave 54 max 44 min
Histogram: 1 0 1 0 0 0 0 0 1 1
Nghost:    147 ave 152 max 142 min
Histogram: 1 0 1 0 0 0 0 0 1 1
Neighs:    976.25 ave 1071 max 878 min
Histogram: 1 0 0 1 0 0 0 1 0 1

Total # of neighbors = 3905
Ave neighs/atom = 19.9235
Ave special neighs/atom = 5.87755
Neighbor list builds = 5241
Dangerous builds = 0
unfix 1


# PRODUCTION

fix             1 all nve
fix             hot all langevin ${TThi} ${TThi}  50.0 52804  tally yes
fix             hot all langevin 320 ${TThi}  50.0 52804  tally yes
fix             hot all langevin 320 320  50.0 52804  tally yes
fix             cold all langevin ${TTlo} ${TTlo} 50.0 297859 tally yes
fix             cold all langevin 280 ${TTlo} 50.0 297859 tally yes
fix             cold all langevin 280 280 50.0 297859 tally yes
fix_modify      hot temp Thot
fix_modify      cold temp Tcold


variable        tdiff equal c_Thot-c_Tcold
thermo          4000

dump gigo all atom 40000 dump.cords_xyz.dat
dump_modify gigo scale no
dump vfgigo all custom 800 dump.velo.dat id vx vy vz fx fy fz

# thermal conductivity calculation
# # reset langevin thermostats to zero energy accumulation
#
compute         ke all ke/atom
variable        temp atom c_ke/1.5/0.0019872

fix             ave all ave/time 100 40 4000 v_tdiff ave running
thermo_style    custom step temp c_Thot c_Tcold f_hot f_cold v_tdiff f_ave

#compute         layers all chunk/atom bin/1d z lower 0.05 units reduced
compute         layers all chunk/atom bin/1d z lower ${dz} units box
compute         layers all chunk/atom bin/1d z lower 4.1310649555631 units box
fix             2 all ave/chunk  100 40 4000 layers v_temp file profile.langevin

#dump mydump2 all xyz 40000 prod-coord.xyz
#dump_modify mydump2 element C S S

run             32000000
Per MPI rank memory allocation (min/avg/max) = 11.52 | 11.52 | 11.52 Mbytes
Step Temp c_Thot c_Tcold f_hot f_cold v_tdiff f_ave 
304100000    292.02865     526.0562    590.02669           -0           -0   -63.970492            0 
304104000    278.12634    491.60556    335.28046   -6.0623507    27.822713    156.32511    3.7141967 
304108000    264.51059    635.47407    366.89923   -35.153187    51.906502    268.57484    27.524517 
304112000       306.07    293.26619    308.19211   -52.682256    48.457895   -14.925927    30.810068 
304116000    294.50783    317.08876    396.56544   -86.771435    106.65621    -79.47668    31.739862 
304120000    292.87132    330.08933    504.70724     -109.096    122.19929   -174.61791    23.468463 
304124000    320.61532    408.99254    286.10781   -147.32101     145.0909    122.88473    24.973426 
304128000    307.35015     279.1787    317.86728    -170.9291     173.1712   -38.688578    23.708473 
304132000    277.83251    442.95209    233.76965    -179.4691    209.87504    209.18244     29.47707 
304136000    286.49113    345.09563    228.16788   -203.72774    225.48503    116.92775    31.775447 
304140000    277.18754    311.75035    488.23608   -198.12758    219.46013   -176.48574    27.258766 
304144000    281.03016    418.70711    230.56778   -241.65349    256.53584    188.13932     29.57882 
304148000    314.11818    292.72883    354.84482    -248.0136    257.98989   -62.115998    28.262178 
304152000    278.17219    338.80172    261.87673   -288.48922     302.1359    76.924991    29.198205 
304156000     310.2659    383.25296    437.31953   -300.58558    299.17159   -54.066568    30.830516 
304160000    315.31958    540.47024    299.43913   -343.91786    328.14911    241.03111    31.940239 
304164000    301.11686    224.60566    243.99735    -349.9334    344.18835   -19.391688    31.463573 
304168000    286.10034    440.93305    352.96113   -377.74885     386.6745    87.971919      31.2051 
304172000     277.1636    203.96626    307.90397   -402.43518    413.40757   -103.93772    31.147372 
304176000    304.17584    377.64873    351.27383   -415.18328    425.46099    26.374893    31.373407 
304180000    293.60811     373.5627    315.11559   -420.86619    424.79368    58.447102    29.883277 
304184000    312.59067    405.10597    435.26621   -446.00502    444.39822   -30.160235    28.266706 
304188000    347.55061    436.25643    378.41779   -489.42617    473.33155     57.83864    29.044918 
304192000    290.13718    323.23161    273.41445   -503.95874     505.9736    49.817158    29.311898 
304196000    258.37481    175.16429    413.75621   -516.69436    544.91056   -238.59192    30.141228 
304200000    290.80285    360.63626    206.73236   -519.39174    549.41286     153.9039    29.462751 
304204000    295.74629    494.08699    260.51249   -572.95498    577.80321    233.57449    30.351727 
304208000    299.89047    215.35101    269.48679   -631.05844    621.10961   -54.135772    30.666005 
304212000    283.16321    389.08659    276.12126   -660.18763    674.71255    112.96533    31.079876 
304216000    292.99118    475.19244    463.50221   -674.49463    688.59798    11.690235     30.74103 
304220000    262.00325    417.19184    189.14552   -692.08469    715.76078    228.04632    32.354386 
304224000    283.11684    435.90789     226.4233   -702.22848    732.23624    209.48459    32.715808 
304228000    284.67947    383.41151    185.96009   -708.06213    735.76896    197.45142    32.518065 
304232000     283.4852     390.9873    273.67313   -720.36494     733.9703    117.31417    32.646466 
304236000    277.11082    373.77283    372.51527   -720.88702    741.40866    1.2575636    32.662452 
304240000    251.52279    382.13627     282.7288   -738.54829    752.52361    99.407473    33.537773 
304244000    301.63452    407.44704    313.79569    -767.7203    783.00313    93.651346    33.190164 
304248000    279.08334    208.59366    315.46223   -805.60383    800.22624   -106.86857    32.193246 
304252000    275.17156    524.79351    326.88067   -829.89237    854.12282    197.91284    32.326737 
304256000    265.03574    395.41938    183.43864   -841.92591     875.7368    211.98074    31.849207 
304260000    278.28589    388.67367    308.52105   -870.23211    910.21547    80.152613    33.086273 
304264000    262.33065    216.65234    320.17999   -901.98038    929.15123   -103.52766    32.556827 
304268000    297.98872    241.03126    224.03561   -920.97685    942.73775    16.995647    32.845084 
304272000    270.18864     291.2816    154.14067   -940.35262    958.99417    137.14093    33.131691 
304276000    289.63464    107.62641     414.7431   -973.52061    977.63056   -307.11669    33.254258 
304280000    275.59341    363.62781     327.4433    -1000.602    1023.7052    36.184511    33.723664 
304284000    286.02914    517.24997    286.83769   -1024.0626    1047.5948    230.41228    34.513118 
304288000     294.7764    465.12285    290.22737   -1032.3827    1038.5674    174.89548    34.539446 
304292000    304.40727     319.1272    331.55574   -1042.2107     1058.905   -12.428542    34.239515 
304296000    262.67623    424.01736    270.32134   -1057.9876    1108.7974    153.69602    34.139239 
304300000    285.07513    315.34403    316.40069   -1102.8963    1114.6333   -1.0566547    34.070193 
304304000    273.21937     269.8046    168.98811   -1116.3167    1137.9784    100.81649    34.236802 
304308000    266.76093    210.03589    227.97377   -1138.2508    1178.7943   -17.937878    33.922275 
304312000    312.76292    395.83188    362.06249   -1198.2977    1207.9899    33.769393    33.427469 
304316000    283.92252    322.08779    296.23468   -1245.9776    1257.3508     25.85311    33.726652 
304320000    290.02469    278.75971    305.12612    -1269.279    1272.0178   -26.366405    33.261583 
304324000    272.30737    324.39753    688.97814   -1262.2222    1300.6571    -364.5806    32.963948 
304328000    271.32271    469.23018    286.42989   -1296.9557    1312.4251    182.80029    32.921999 
304332000    290.31465    371.50177    244.32432   -1293.0954    1328.4563    127.17744    32.451424 
304336000    275.79473    380.95895    331.26499   -1328.7756    1331.3704     49.69396    32.284534 
304340000    276.26864    357.40887    318.16084   -1356.1074    1373.7856    39.248032    32.426655 
304344000     299.4251    470.97387    309.45041   -1380.2766    1389.0258    161.52346    32.832469 
304348000    298.64797    433.10334    284.52566   -1400.1141    1404.3309    148.57768    32.554887 
304352000    315.17579    390.27008    320.44833   -1408.1125    1428.3555     69.82175    32.665401 
304356000    294.39011    516.58008    427.92658    -1444.189    1476.7391    88.653497    32.915792 
304360000    285.99645    464.04948      255.043   -1462.2834    1483.7073    209.00649    32.900245 
304364000    252.82855    491.49655    230.35729   -1461.5617    1491.0517    261.13926    33.064335 
304368000    280.71883    404.21109    321.15083   -1498.3588    1512.7786    83.060265    33.118244 
304372000    275.23589    345.40858    529.94335   -1509.2452    1533.8443   -184.53477     33.23272 
304376000    273.65614    214.98633    252.61102   -1536.6444    1566.3284   -37.624687    32.605474 
304380000    281.32743    447.30375    337.14776   -1573.4175    1591.4721      110.156    32.779789 
304384000    271.79531    404.29879    427.34272   -1618.7874    1625.6939   -23.043924    32.995936 
304388000    260.57849     239.8583    220.48248    -1638.303    1664.9321    19.375817    33.241561 
304392000    303.20153    581.45492    204.70294   -1662.9966    1671.5453    376.75198    33.503223 
304396000    310.20947    391.34431    432.44712   -1677.3704    1691.2981   -41.102812    34.075776 
304400000     314.4695    418.23911    291.20046   -1700.0533    1709.5831    127.03865    34.247871 
304404000    287.71869    288.09075    370.51552   -1724.5432    1736.5577   -82.424764    33.782328 
304408000    271.26172    401.14585    261.53075   -1728.4167    1743.9122     139.6151    34.159469 
304412000    295.55179    295.29462    387.39721   -1757.1646    1768.3773   -92.102597    34.677229 
304416000    281.35323    298.81842    215.93954   -1777.3099    1802.1353    82.878875    34.851285 
304420000     262.2302    520.56286    261.50071   -1783.3053    1820.7569    259.06215    34.874833 
304424000    248.18866    369.22706    402.18343   -1797.8926    1830.1741   -32.956368    34.838251 
304428000    303.21845    351.44593    406.84944   -1835.0566    1846.6219   -55.403518     34.89767 
304432000    252.03217    214.65744    287.05182   -1838.6851    1862.1718   -72.394379    34.973741 
304436000    274.26419    379.05887    184.78254   -1844.4698    1878.5681    194.27633    34.569038 
304440000    261.85899    419.76953    306.03595   -1852.0899    1888.5098    113.73358    34.969265 
304444000    261.93907    317.00247     283.3044   -1856.8676    1890.7747    33.698072    34.416241 
304448000    284.78772      356.985    394.86919   -1867.8663     1886.439   -37.884189    34.047594 
304452000    253.33221    394.48869    139.96182   -1874.3095    1908.4742    254.52687    33.930467 
304456000    285.79183    258.07304    368.60107   -1938.4087     1957.956   -110.52802    34.011563 
304460000    285.96121    388.00673    294.07542   -1976.8818     1988.905    93.931307     34.49518 
304464000    258.58814    390.87064    352.54124   -2004.6514    2035.0568    38.329403    34.899644 
304468000    284.92106    378.33241     296.5887   -2032.4205    2045.0999    81.743711    34.901201 
304472000    272.09926    289.80123    340.83181   -2029.7872    2053.7357   -51.030577    35.025449 
304476000    291.99361    563.49214    267.97448   -2041.7752    2056.6451    295.51767    35.403092 
304480000    317.91334    487.23179    779.06075   -2086.4628    2058.9242   -291.82896    35.147982 
304484000     275.9491    248.33254    340.07381   -2102.2892    2110.5225   -91.741278    35.362568 
304488000    268.03206    223.99975    178.42688   -2120.0372    2133.0733    45.572874    35.153388 
304492000     270.1741    313.93606     369.5217   -2132.1609    2155.3659   -55.585636    35.281476 
304496000     323.4712    535.78865    229.41505   -2167.0112    2163.8083     306.3736    35.323101 
304500000    289.04231    177.81536    531.90094   -2171.9361    2188.8522   -354.08558    35.420774 
304504000    306.11631    562.08245    363.41391   -2208.7529    2193.4922    198.66854    35.960509 
304508000    309.19803    551.27857    461.44597   -2231.9509    2235.0826    89.832601    36.151517 
304512000     274.1084    387.27907    378.32157   -2258.6517    2250.1244    8.9575018    36.135701 
304516000    329.41864    403.45789    453.72202   -2281.3414    2288.5235   -50.264137    36.110526 
304520000    296.52885     348.4182     367.9185   -2308.6429     2314.874   -19.500297    36.306495 
304524000    295.88703    501.38811     211.7342   -2329.1671    2344.1719    289.65391    36.455964 
304528000     263.7672    262.76333    219.13934   -2342.2723    2395.0718    43.623995    36.354783 
304532000    271.83122    469.44459    317.28546   -2383.6358    2412.7398    152.15913    36.405799 
304536000    258.57358     293.1244    146.20918   -2403.1702    2438.3714    146.91522    36.186759 
304540000    276.40394    501.64664    301.51567   -2437.9315    2466.0597    200.13097    36.474914 
304544000    277.55486    428.53801     239.1743   -2455.7124    2483.7441    189.36371    36.441472 
304548000    294.84196    419.95042    475.16584   -2496.2581    2506.9256   -55.215419    36.657032 
304552000    296.70551    198.06424    428.11325   -2541.2563    2544.6632   -230.04901    36.810354 
304556000    280.82779    453.75193    243.37718   -2573.3861    2577.2666    210.37475    37.413759 
304560000    256.73705    409.33732    402.62383   -2598.4033    2628.3201    6.7134912    37.408107 
304564000    289.42137    107.32112    334.69316   -2620.2553    2634.4038   -227.37204    37.409123 
304568000    283.23313    380.07398    315.17637   -2636.2198    2634.9024    64.897618    37.243047 
304572000    279.68762    421.50294    270.57782   -2661.8074      2684.19    150.92512    37.146565 
304576000    278.94553    260.87646    287.13903   -2698.9967    2707.9515   -26.262569     37.33255 
304580000    280.76588    262.31361    422.25452   -2722.7884    2752.1608   -159.94092    37.057383 
304584000    259.98107    306.77225    491.37843   -2752.8514    2788.0487   -184.60618    37.400697 
304588000    277.61423    345.90448    370.90588   -2780.4284    2795.7125   -25.001397     37.40561 
304592000    297.09802    348.07874    502.93206   -2788.0734    2789.7545   -154.85332    37.596745 
304596000    271.77545    200.96598     306.3095   -2815.5209    2824.1897   -105.34352    37.416072 
304600000    277.76704    306.96476    173.61716   -2807.7335    2833.2801     133.3476    37.494305 
304604000    277.94691     385.4236    310.10116   -2811.9378    2832.2658    75.322442    37.406076 
304608000    324.82743    452.98359    343.01713   -2864.5397    2836.6389    109.96646    37.453211 
304612000    295.19033    489.29899    286.16196   -2829.5947    2862.7968    203.13704    37.219637 
304616000      265.028    536.52641    270.12148   -2854.5033    2880.0372    266.40493    36.900388 
304620000    282.52504    472.97483    622.67132   -2891.0992    2904.0579   -149.69649    36.829964 
304624000    280.13695    179.03898    200.81182   -2886.7679    2916.6781    -21.77284     36.82059 
304628000    254.82154    315.89617     244.1859   -2898.4627     2939.884    71.710271    36.544983 
304632000    264.84943    475.10734    287.58061   -2916.4355    2959.8102    187.52674     36.52367 
304636000    286.75055    461.83025    441.18673   -2961.0827    2977.5509    20.643522    36.588987 
304640000    267.66738    214.19525    328.35478   -2972.5861    3005.5997   -114.15953     36.55084 
304644000    278.88712    389.53995    134.25193    -2997.287    3015.6052    255.28802     36.75231 
304648000    289.18672    387.07136    256.79429   -3030.3696    3039.9691    130.27706    36.892842 
304652000     271.8472    293.73301    317.69549   -3040.7506    3051.1302   -23.962481    36.567498 
304656000    293.36821    204.51909    359.69039   -3065.3899    3090.3097    -155.1713    36.388645 
304660000    260.50805    202.57984    234.51849   -3070.5045    3106.8165   -31.938655    36.271389 
304664000    256.30247    660.54649    261.32699   -3088.4182    3119.0086     399.2195    36.181298 
304668000    287.11633    498.17546    253.13279   -3107.4883     3117.345    245.04266    36.205063 
304672000    267.60039    421.13591    248.25149    -3107.095     3144.951    172.88442    36.583251 
304676000    251.38888    349.02017    161.63877   -3141.5834    3187.9484    187.38141    36.769241 
304680000    287.11742    276.70789    377.06288   -3173.6999    3184.3651   -100.35499    36.758066 
304684000    276.26983    558.17921    522.80965   -3195.7405    3218.3386     35.36956     36.72872 
304688000    261.27256    273.52009    257.24878   -3201.6052    3240.6956    16.271306    36.618904 
304692000    267.97864    165.07052     517.7419   -3225.6906    3254.0474   -352.67138    36.309089 
304696000    270.78733    435.91002    197.19853   -3260.9177    3274.9139    238.71149    36.123015 
304700000    254.37513    242.24976    294.44139   -3289.2546    3318.7109   -52.191636    35.754915 
304704000    281.74893    280.44996    268.65472    -3320.574    3341.3343    11.795234    35.752897 
304708000    288.11749    166.02091    322.28924   -3340.3349    3371.3574   -156.26833    35.510742 
304712000    273.01988    377.39973    405.15471   -3348.9917    3374.8213   -27.754981    35.610536 
304716000    298.43025    448.46289    339.28084   -3407.7464    3407.5929    109.18205    35.812769 
304720000    275.92039     311.9494    312.71425   -3398.2181    3419.1178  -0.76484919    35.970566 
304724000     272.3287    309.43436    503.85919   -3387.4832    3420.9765   -194.42483    35.783314 
304728000    282.44899    276.55907    285.33818   -3419.4307    3429.1389   -8.7791023    35.691759 
304732000    269.80357      335.348    272.74257   -3423.2009     3456.501    62.605428    35.581467 
304736000    304.97051    295.96036      353.688   -3437.9317    3452.6022   -57.727634    35.410322 
304740000    285.14442    377.39181    223.33735   -3472.2327    3494.6665    154.05446    35.430961 
304744000    266.59997    229.72647    283.57058   -3467.6517    3484.0783   -53.844111    35.147382 
304748000    282.28078    326.57236    271.91554   -3490.2968    3512.4055    54.656826    35.247069 
304752000    279.80576    418.44404    476.72853   -3517.7231    3551.1594   -58.284488    34.973532 
304756000     283.2557    475.56462    522.89181   -3560.4599    3572.6719   -47.327194    34.793472 
304760000    265.17519    298.23851    329.11273   -3578.9037    3610.3033   -30.874224    34.738171 
304764000    282.45838    328.58007    343.85212   -3626.0596    3652.7517   -15.272048    34.581065 
304768000    302.11867    525.21683    359.60444   -3662.6543    3655.3476    165.61239    34.578729 
304772000    318.66319    426.77334    433.89283   -3673.6915    3677.1595   -7.1194942     34.52255 
304776000    305.74363    370.37893    588.72923   -3698.4118    3678.0405    -218.3503    34.681657 
304780000    271.04405     347.0627     244.5192   -3715.6315    3729.8368     102.5435    34.578401 
304784000    269.97816    502.08903    203.89097   -3745.8766    3770.0067    298.19806    34.617215 
304788000    276.95996    183.95052    519.64086   -3776.6131    3797.7202   -335.69033    34.591663 
304792000    271.82004    157.12826    348.96409   -3820.6084    3850.9445   -191.83584    34.552401 
304796000     272.3532      209.036    375.29992   -3853.3381    3872.5139   -166.26392    34.276519 
304800000    277.41049    304.76726    271.41486   -3890.1117    3917.9001      33.3524    34.340201 
304804000    315.41225    326.58191    346.64879   -3928.5354    3933.6454   -20.066879    34.199259 
304808000    279.74766    451.87931    315.91304   -3950.5623    3962.6444    135.96628    34.391952 
304812000     284.2111    355.51005     218.1075   -3959.1642    3972.9388    137.40255    34.317689 
304816000    292.95225    226.52605    288.46306   -3983.3582    3983.0894   -61.937016    34.424026 
304820000    318.76083    273.08258      235.078   -4014.4323    4012.6065    38.004579    34.213967 
304824000    266.86027    503.79056    205.28497   -4022.6546      4045.36    298.50558    33.994268 
304828000    321.21256    450.27362    354.88844   -4052.2512    4057.0912    95.385177    33.965075 
304832000    301.59004    279.82662    199.85807   -4080.7982    4097.7435    79.968547    34.126499 
304836000    251.74337    327.05587     363.9193   -4060.2443    4109.7121   -36.863435    33.939882 
304840000    302.11618    226.91836    608.85354   -4098.4285    4096.1832   -381.93518     34.03602 
304844000    284.52163    368.34818     373.2397   -4124.6507    4131.0579   -4.8915289    34.065998 
304848000     264.8454    374.58272    250.07963    -4123.464    4168.3119    124.50309    34.182586 
304852000     301.3881    251.33812    285.24104   -4142.9565     4155.228   -33.902922    34.305837 
304856000    286.83493    299.12447    188.78128   -4214.1668    4215.7189    110.34318    34.378046 
304860000    328.28639    578.38935    392.11988   -4263.1126    4247.9912    186.26947    34.391631 
304864000    307.72165    333.72566    292.94694   -4296.8024     4286.906    40.778727    34.325967 
304868000    281.05194    347.41412    272.01704   -4318.3897    4334.5544    75.397087    34.240353 
304872000    286.83591    483.85099    160.36334    -4344.713    4363.9391    323.48765    34.255263 
304876000    283.06708    320.97451    312.71484   -4366.4714    4379.9586    8.2596696    34.115058 
304880000    304.09019    421.97518    338.55171   -4398.3268    4401.2985    83.423468    34.118649 
304884000    328.16154    448.62157    340.71001   -4436.2767    4421.6417    107.91156    34.027423 
304888000    290.47704    372.46171    256.97872   -4443.3682    4456.0002      115.483    33.855308 
304892000    278.49303    459.56401    435.49861   -4447.4469    4467.6769    24.065399    33.921929 
304896000    275.81585    362.35744    367.64153    -4492.843    4511.8971   -5.2840885    33.896393 
304900000    295.15779    315.39318    380.40235   -4500.1954    4527.7034   -65.009166    34.024593 
304904000    321.67761    431.29472    345.91284   -4521.6365    4528.9732    85.381889    34.146098 
304908000    285.20045     398.3772    237.44027   -4525.9192    4552.2763    160.93693    34.376006 
304912000    285.27498    268.26302    277.28285   -4552.1258    4576.7695   -9.0198358    34.556141 
304916000    281.29112    303.57596    214.30325   -4569.2683    4589.0511    89.272709     34.68469 
304920000    275.13609    296.08332    218.16057   -4575.4666     4607.532    77.922753    34.715495 
304924000    290.88881    345.20519    427.77621   -4599.0958    4633.2163   -82.571024    34.722903 
304928000    310.55033    246.17944    324.21822   -4644.2464    4645.3255   -78.038788    34.859581 
304932000     289.4345    241.26072    281.86435   -4667.4479    4677.6289   -40.603636    34.821116 
304936000    304.58774    256.63563    533.56051   -4699.0581      4692.58   -276.92488    34.813081 
304940000     294.8389    475.82979    316.36545   -4737.8877    4746.0555    159.46434    34.701614 
304944000    266.46076    270.60934    267.64878   -4782.9271     4801.341    2.9605525    34.600441 
304948000    288.82445    479.12526    369.65412   -4803.2125    4826.3043    109.47114    34.801879 
304952000     264.7533    461.59606    214.28101   -4820.1194    4866.6057    247.31505    34.884438 
304956000    298.84031    295.42734    403.51143   -4869.4474    4882.8258    -108.0841    34.861709 
304960000    273.45801    349.39476    273.20712   -4881.9008    4908.2015    76.187632    34.819786 
304964000    300.55551    237.34318    456.43943   -4925.0345    4925.6302   -219.09626    34.603675 
304968000    278.30882    311.62105     142.5395   -4948.5758    4964.3431    169.08156    34.786935 
304972000    300.47079    399.20203    382.11254   -4948.0514    4950.0125    17.089489    34.846217 
304976000    301.41187     399.5907    311.19888    -4954.512    4967.4775    88.391827    34.931666 
304980000    295.88952    472.53032    424.51709   -4977.3905    5001.1428    48.013225    34.870216 
304984000    288.33686    340.97933    249.25641   -5013.8087    5027.3445    91.722926    34.878719 
304988000    297.27731    274.26993    416.88636   -5046.5964    5051.8957   -142.61643    34.915859 
304992000    277.90607    246.49278    281.41102   -5051.3435    5091.5148   -34.918231    34.928514 
304996000     281.2299    336.22146    345.86436   -5075.8791    5103.2551   -9.6429044    34.835753 
305000000    296.34222    295.78536    291.37728   -5116.0463     5120.899    4.4080719    34.879583 
305004000    271.14304    326.58096    425.28603   -5119.4112    5141.0012   -98.705078    35.000799 
305008000    275.69509     573.3223     361.2798    -5149.756    5177.3561     212.0425    35.049019 
305012000    288.17585    480.33297    203.26256   -5178.7452     5199.437    277.07041    35.212195 
305016000    271.25321    383.55525     260.2754   -5207.8766    5240.2087    123.27985    35.179587 
305020000    271.93817    234.30789    174.84675   -5208.6587    5237.4794    59.461133    35.095749 
305024000    301.59203    317.95767    349.81544   -5234.3913    5252.6416   -31.857775    35.001311 
305028000    281.29005    399.75963    186.37451   -5242.3826    5252.5415    213.38512    34.955558 
305032000     285.4344    605.91441    404.36725   -5284.0943    5308.2173    201.54715    35.029286 
305036000    289.75122    273.12363    355.40496   -5347.4698    5337.9536   -82.281325      34.8087 
305040000     292.9857    483.63133    395.70223   -5342.1621     5363.435    87.929092    34.818931 
305044000    286.18269    204.87124    425.38281   -5363.3248      5386.97   -220.51157    34.871893 
305048000    281.70588    321.32691    390.00504   -5404.5381    5416.6701   -68.678133     35.12071 
305052000    296.50911    362.06526     248.7361   -5396.2473    5409.6334    113.32916    35.158504 
305056000     284.5365    333.76997    355.79234   -5447.4925     5469.462   -22.022367    35.087793 
305060000    269.38107    360.68391    404.74134   -5451.8984    5483.2213   -44.057424    35.117714 
305064000    278.02248    282.34716    407.87128   -5466.1717    5485.0057   -125.52411     35.06812 
305068000    301.93234    350.99235    357.65641   -5514.8958    5523.4088   -6.6640628    35.025118 
305072000    276.54525    339.76593     387.9529   -5538.4245    5533.4453   -48.186974    35.208307 
305076000    304.99733    375.55874    466.71466   -5552.2248    5543.9896   -91.155924    35.197044 
305080000    300.23993    258.16184     212.5165   -5528.7875    5546.1512     45.64534    35.120034 
305084000    305.12238     464.6204    279.27947   -5567.2883    5570.9742    185.34093    35.211583 
305088000    315.75191    284.33879    399.00966   -5568.6968    5574.5043   -114.67086    35.130432 
305092000    278.12237    342.76886    423.99065   -5576.9632    5584.1727   -81.221792    35.117483 
305096000    290.70217    431.76479    252.28771     -5592.12    5605.0152    179.47707    35.177587 
305100000    288.46384    217.88478    479.54224   -5594.3253    5624.2638   -261.65746    35.204486 
305104000    283.23078    202.25905    390.96954   -5646.3358    5647.0858   -188.71049    35.339203 
305108000    300.77592    411.38757    183.11802   -5662.1571    5669.7882    228.26955    35.469236 
305112000     303.6396    256.20457    345.89424   -5682.0725    5671.1234   -89.689662    35.522981 
305116000    300.74724    374.41966    301.07677   -5681.0082    5686.3002    73.342897    35.531683 
305120000    287.17814    281.17722    260.94895   -5690.3481    5717.5277    20.228278     35.46776 
305124000    289.19353    483.39378     483.7338   -5734.8713     5744.758  -0.34002472    35.397969 
305128000    274.83897     376.3165    299.89121   -5768.5937    5800.9166    76.425295    35.419074 
305132000    280.99961    303.50057    183.39176   -5805.0286    5829.1543    120.10882    35.502137 
305136000    273.76276    466.84176    402.75305   -5838.0051    5850.2923    64.088712    35.445119 
305140000    289.09835    369.34856    138.13255   -5853.4514    5874.1921    231.21601    35.581778 
305144000    282.69992    355.46505    463.37794   -5880.6899    5897.0203    -107.9129    35.682312 
305148000    271.02424    261.50897     262.4025   -5899.5954    5942.1827  -0.89352865    35.740507 
305152000    286.97403     312.0543    288.91189   -5911.8573    5945.0876    23.142408    35.645487 
305156000    268.61402    302.06993    203.49043   -5943.4926    5955.1148    98.579502    35.650992 
305160000    291.27607    373.69891    346.45673   -5948.5187    5966.2641    27.242187    35.685807 
305164000    273.39691    366.01022    232.19016   -5951.5479    5982.2568    133.82006    35.658083 
305168000    283.64803    591.32878    338.87529   -5977.9111    5992.0619    252.45349    35.558527 
305172000    290.17518    386.92408    252.23722   -5989.3599    6007.3377    134.68686    35.561014 
305176000    312.80921    518.80426    398.58932    -6029.991     6041.845    120.21494    35.546333 
305180000    287.39444    197.93796    356.44015   -6052.0314    6053.2185   -158.50219    35.600684 
305184000    268.73856    270.64383    356.08795    -6041.219    6065.2267   -85.444117    35.601907 
305188000    281.23116     171.2571     331.4776   -6044.6772    6080.6675    -160.2205    35.572476 
305192000    294.43912    587.52885    340.12232   -6096.6998    6104.9067    247.40654    35.555337 
305196000    280.96181     423.3287    319.15939   -6088.2391    6111.4382    104.16931      35.6305 
305200000    288.54403    336.16982    367.96862   -6096.4225    6094.8882   -31.798799    35.606369 
305204000     300.9894    378.24467    289.85133   -6131.9878     6133.411     88.39334    35.764285 
305208000    295.79705    299.52828    427.43084   -6126.4418    6134.6831   -127.90256    35.774563 
305212000    322.95978    437.00082    419.16313   -6175.3268    6149.7277     17.83769    35.969146 
305216000    241.22219    350.55287     293.6856   -6174.9107      6227.64    56.867272    36.004397 
305220000    289.10705    541.29045    209.20622   -6196.3117    6221.2447    332.08423    36.013989 
305224000    273.80247    262.08952    408.16774   -6238.8288    6261.0003   -146.07822    35.993145 
305228000    270.95397    421.87004    234.86859   -6279.1242    6307.3513    187.00146    36.167321 
305232000    326.59527    602.30791    672.02204   -6317.0223    6300.8473   -69.714122    36.163091 
305236000     283.0255    686.23608    364.90491   -6325.6458    6339.4569    321.33117    36.180188 
305240000    280.87505    377.95972     322.4365   -6344.0819    6360.4279    55.523225    36.273845 
305244000     272.0577    302.12719    330.38166   -6389.9012    6398.3362   -28.254466    36.322074 
305248000    270.81391    425.73082    362.07379   -6401.2322    6425.5827    63.657026    36.251877 
305252000     270.0073    275.34182    239.19386   -6420.5405     6445.548    36.147954    36.200621 
305256000    282.26664    259.96881     292.3372   -6470.2694    6480.9839    -32.36839    36.220772 
305260000    286.46065    420.59878    426.86321   -6500.7396    6511.5668   -6.2644372    36.302736 
305264000    287.92302    272.08222    326.05668   -6512.9864    6538.6139   -53.974461    36.386092 
305268000    287.11046    334.01859    244.74593   -6551.3374    6554.0658    89.272655    36.385652 
305272000    290.23436    238.05685    380.12304    -6594.459    6604.6171   -142.06619    36.356765 
305276000    266.24531    365.50189    298.18124   -6640.2226    6650.3184    67.320651    36.428884 
305280000    268.37811    261.95268    367.28646   -6622.7511     6646.613   -105.33378    36.396446 
305284000    278.91617    307.04591    213.72575   -6646.8357    6677.3526    93.320158    36.392524 
305288000    262.33567    222.04549    242.97577   -6677.4053    6715.6307   -20.930282    36.355054 
305292000    271.36293    316.55039    452.38347   -6683.6328    6715.7494   -135.83308    36.291229 
305296000    291.75376    270.31312    285.29223   -6716.4364    6735.1468   -14.979113    36.108865 
305300000     296.0527    362.18505    425.83199   -6750.0366    6764.5239   -63.646937     35.96467 
305304000    297.42208    487.76167     408.0583   -6792.9572    6811.1704    79.703367    36.007238 
305308000    317.29164     356.2896    375.15996   -6811.8481    6826.4957    -18.87035    36.192481 
305312000    285.64221    187.70162    519.42091    -6814.149    6829.9525   -331.71929    36.120786 
305316000    311.11229    407.76484    294.92401   -6857.9062    6847.4669    112.84083    36.056597 
305320000    292.32442    210.19942    189.96009   -6886.0648     6901.779    20.239336     35.99695 
305324000    260.13328    336.02856    290.13775   -6900.8199    6931.8615    45.890801    36.082903 
305328000    273.52167    379.45506    308.34784   -6912.2971    6945.3513    71.107219    36.193547 
305332000    267.51671     368.2895    241.34537   -6938.3821    6968.5079    126.94413    36.142357 
305336000    274.72384    477.40111    113.19002   -6970.7347    6995.0118    364.21109    36.178733 
305340000    281.62085    463.40702    306.21304    -6982.912    7006.9502    157.19398    36.117284 
305344000    295.92737     356.1502    477.43963   -7008.5659    7029.1151   -121.28943    35.908296 
305348000    276.50479     380.3411    212.55658    -7017.165    7031.3381    167.78452    35.957913 
305352000    291.04536     267.4977    231.38519   -7036.5426    7063.5896     36.11251    35.873648 
305356000    280.54474    448.98541     359.5265   -7054.9868    7070.2865    89.458914    35.822073 
305360000    285.01422     221.1589     254.0154   -7059.0625    7089.6778   -32.856493    35.780134 
305364000    269.43422    484.83098    239.71955   -7081.5234    7112.7537    245.11142    35.765118 
305368000    243.00684    264.66963    307.21506   -7097.1428    7133.7233   -42.545429    35.863547 
305372000    287.63828     381.8965    310.50854   -7137.9234    7169.0454    71.387962    35.859199 
305376000    278.84136    380.99356    242.49952   -7193.0422    7217.0159    138.49404    35.788837 
305380000    251.57183    269.07292    275.69756   -7208.9474    7235.3044   -6.6246456    35.724504 
305384000    287.61026    270.22987    335.91071   -7259.6994    7254.9247   -65.680836    35.640858 
305388000    275.43551    182.27644     261.7891    -7269.484    7300.8843   -79.512662    35.569867 
305392000    267.62161     385.2969      438.604   -7278.1016    7305.5698   -53.307105    35.512928 
305396000    254.10571     290.5388    261.46592    -7281.252    7322.1253    29.072882    35.483919 
305400000    277.68982    282.74617    501.86033   -7295.1231    7327.9295   -219.11415    35.496661 
305404000    264.29685    379.94839    333.63297    -7310.949    7344.0549    46.315426    35.527935 
305408000    268.10442    365.77134    471.32382    -7326.892    7342.7158   -105.55248    35.413288 
305412000    270.53393    423.38084    214.62772   -7337.9924    7371.7598    208.75311    35.424513 
305416000    299.39599    461.87799     275.5936    -7371.877    7386.1789    186.28439    35.504338 
305420000    289.35129    437.02594    367.41537   -7438.4815    7456.2593     69.61057    35.612491 
305424000    284.27471      331.559    284.50611   -7459.8905    7499.3156    47.052894    35.648804 
305428000    300.79952    411.16223    227.47195   -7515.9289    7538.3834    183.69027    35.714438 
305432000    296.04976    289.07288    349.54023   -7533.8376    7564.7133   -60.467347    35.770583 
305436000    269.50879    324.45025    347.26151   -7556.2588    7584.3533   -22.811258    35.800223 
305440000    306.38716    516.58259    314.34868   -7597.3316    7588.0047     202.2339    35.819055 
305444000    271.29649    284.52493    172.01705   -7594.3769    7624.0869    112.50787    35.881616 
305448000    270.27243    241.51771    291.21268   -7606.5771    7644.5217   -49.694971    35.754003 
305452000    260.29987    316.80216    308.28647   -7614.9268    7655.3506    8.5156881    35.741509 
305456000    289.87306    425.21283    259.81506    -7617.368    7647.0505    165.39776    35.678474 
305460000    268.19418    264.14444    413.05585   -7647.2276    7683.9755   -148.91141    35.607077 
305464000    280.40721    341.14785    411.06862   -7687.4654    7705.7849   -69.920773    35.570642 
305468000    281.60516    443.82172    278.17659   -7720.2996    7744.3247    165.64513    35.538435 
305472000    280.99214    427.39014    136.61081   -7736.9657    7770.4284    290.77934    35.534324 
305476000    256.89984    275.03024    365.02794   -7770.4935    7808.1054   -89.997705    35.424043 
305480000    290.15847    337.51618    288.29667   -7817.7729    7825.8357    49.219511     35.42506 
305484000    286.11676    343.84429    504.83744   -7869.1608    7879.8492   -160.99315    35.315565 
305488000    269.85048    418.53368    317.41401    -7892.899    7905.9513    101.11967    35.395163 
305492000    280.14461    355.23082    252.31529    -7913.956    7936.7246    102.91553    35.392437 
305496000    277.46365    378.29827     363.4487   -7923.4509     7956.813    14.849573    35.337407 
305500000    284.98608    204.00812    415.73128   -7938.1616    7965.3458   -211.72316    35.261361 
305504000    297.00672    337.41719    304.90869   -7979.5943     7989.778    32.508497    35.294184 
305508000    285.16966    466.98946     423.8248   -8006.2122    8027.4064    43.164655    35.350691 
305512000    301.82718    702.82325    475.84272   -8058.8791    8065.9223    226.98053    35.329093 
305516000    285.88708    388.92394     317.8153    -8086.856    8093.2305    71.108638    35.317115 
305520000    271.75225    362.44091    444.76332   -8100.3817    8136.4026   -82.322408     35.23402 
305524000    303.03841    352.84931    221.03364   -8116.6695    8136.5361    131.81567    35.287521 
305528000    290.44214    289.71271    305.23781   -8129.0188    8153.5334   -15.525092    35.290292 
305532000    275.77831    340.47869    356.09431   -8141.9585    8174.8209   -15.615613    35.132693 
305536000    282.57472    194.86047    215.75219   -8164.7737    8183.8999   -20.891725    35.174533 
305540000    294.00988     430.6905    275.94838   -8156.9603    8167.5188    154.74212    35.220401 
305544000    302.83122    428.00932    270.62927   -8171.7519    8168.7989    157.38004    35.189648 
305548000    301.71129    353.96664    288.14759    -8180.831    8189.3737    65.819047    35.165373 
305552000    272.88075    568.81748    243.30759   -8194.9668    8217.4712    325.50989    35.161671 
305556000    269.64102    510.91097    266.01664   -8201.7996    8219.1054    244.89434    35.187938 
305560000    272.22713     302.1926    312.25186   -8220.7723    8266.2046   -10.059266    35.157243 
305564000    282.55347    382.07118    228.57282   -8247.2425    8255.7777    153.49836    35.159986 
305568000      272.746    414.27613    321.68873   -8259.4426    8279.7403    92.587394    35.127166 
305572000    256.33453    311.88168    281.51041   -8265.6899    8296.1925    30.371267     35.21717 
305576000    283.91025    389.20625     362.3681   -8294.1774    8312.2128    26.838147    35.182433 
305580000    246.44134    231.18041    210.65853   -8296.9655    8346.8223    20.521876    35.135644 
305584000    278.91585    420.16007    339.96953   -8314.3148    8351.7729    80.190534    35.131039 
305588000    266.88399    309.96419    364.13026    -8340.165    8386.7579   -54.166062    35.141426 
305592000    263.69645    314.05826    363.29566   -8394.1188    8414.3488   -49.237405     35.17574 
305596000    297.85171       387.38    158.70412   -8421.0339    8443.2209    228.67588    35.198033 
305600000    277.49731    546.84298    354.84533   -8459.4736    8465.8297    191.99766    35.184397 
305604000    320.19998     229.8514    254.25141   -8481.4295    8489.1833   -24.400006    35.251388 
305608000    297.19305    362.80479    476.27303   -8510.7838    8516.1731   -113.46824    35.226598 
305612000    300.82957     254.5195    365.43446   -8533.9383    8529.6277   -110.91496    35.221158 
305616000    283.30486    309.52592    144.32828   -8554.9018     8572.132    165.19764    35.167646 
305620000    264.89487    341.01327    306.83229   -8558.7509    8597.4101    34.180978    35.132911 
305624000    268.82815    506.21091    203.90463   -8592.4115    8628.5896    302.30628    35.234252 
305628000    292.12201     363.8288    349.14933   -8619.8831    8636.7272    14.679469    35.297261 
305632000    241.92101    290.05225    245.99056   -8608.4396    8663.1096    44.061698    35.284589 
305636000    295.88082    297.21926    390.56785   -8622.7258     8649.471    -93.34859    35.311361 
305640000    284.89013    225.70326     400.4322   -8645.0384    8672.4081   -174.72893    35.249124 
305644000    268.01136    255.40358    233.83303   -8664.6436    8686.5499    21.570557     35.23536 
305648000    291.62266    467.79852    341.75901   -8669.6232    8686.7063    126.03952    35.142988 
305652000    286.94747    315.73409    273.30562   -8707.8571    8694.1468     42.42847    35.157157 
305656000    303.28302    316.60663    230.00355   -8720.2072     8703.063    86.603076    35.260491 
305660000    312.23679    208.04868    456.49618   -8742.9607    8735.5936    -248.4475    35.185526 
305664000    278.26712    325.35579    249.85964   -8747.4384    8773.4516    75.496151    35.239679 
305668000    241.45023    408.17557    263.52365   -8756.5331    8811.2937    144.65192    35.237566 
305672000    267.40048     408.9417    235.87796   -8794.6789    8839.5723    173.06374    35.185132 
305676000     270.2482    432.92541    413.84974   -8840.6107    8865.7013    19.075676    35.135747 
305680000    293.20038    514.63013    112.88577   -8880.4749    8872.7923    401.74437    35.209879 
305684000    291.95201    183.75327    497.48463   -8875.9758    8896.1133   -313.73136    35.173967 
305688000    282.72394     342.5534    427.07779   -8888.3723    8912.4106   -84.524398    35.097696 
305692000    307.34058    521.56156    439.26618   -8914.4655     8925.376     82.29538     35.22705 
305696000    288.86936    523.03801    431.22652   -8914.6448    8923.5267    91.811492    35.186393 
305700000    308.25181    375.49178    483.65414   -8941.2792    8946.4581   -108.16236    35.219784 
305704000       271.03    203.74279    419.09768   -8953.1853    8984.0205    -215.3549    35.221366 
305708000    288.37034    424.19392    289.18637   -9004.4822    9015.4812    135.00755    35.241466 
305712000    281.79495    408.13287    292.42423   -9007.0301    9030.9856    115.70864    35.253033 
305716000    287.44201    221.99782    378.19203   -9032.4406    9036.2759   -156.19421    35.192667 
305720000    276.46245    332.55262    473.71454   -9037.1415     9056.504   -141.16192    35.129096 
305724000    279.85619    296.56099    286.99541   -9077.3372    9094.4021    9.5655762    35.067867 
305728000    269.05608    362.95221    282.03954   -9088.8604    9124.7237    80.912664     35.05488 
305732000    268.98215    287.68569    352.02998   -9092.9241    9122.0649   -64.344288    35.044928 
305736000    272.15284    299.06968    278.67259   -9096.3125     9121.013    20.397089    35.030784 
305740000    289.46222    366.97683    339.43258   -9143.5245    9176.0061    27.544255    35.047331 
305744000    281.38958    393.67324    398.90259   -9194.3034    9208.1461   -5.2293534    34.970407 
305748000    281.51521    254.90287    321.96315   -9233.6429    9242.9736   -67.060279    34.964683 
305752000    275.98759    377.52066    342.52581   -9267.8349    9276.6457    34.994857    34.959856 
305756000      306.188    318.44495    398.76404   -9304.0542    9294.1541   -80.319083    34.973907 
305760000    326.05782    586.31755    358.45335    -9342.653    9325.8652     227.8642    34.980839 
305764000    284.99456    237.85725    449.63032   -9319.7156    9348.3792   -211.77307    34.935229 
305768000    297.35291     378.9009    375.57551   -9355.5799    9360.3874    3.3253913    34.885443 
305772000    296.69347    259.77434    291.44485   -9368.9775    9362.3381   -31.670506    34.875706 
305776000    271.36643    308.95272    326.43991   -9369.9634     9378.756   -17.487191      34.7826 
305780000    270.78278    427.05536    293.17029    -9401.621      9415.51    133.88507     34.83126 
305784000    297.01895    347.30122    466.95377   -9444.1741    9443.9181   -119.65255    34.815204 
305788000    288.04017    336.55279    292.80757   -9456.9105    9479.3943    43.745225    34.884103 
305792000    266.47562    359.67802    260.38905   -9489.5348    9520.7485    99.288974    34.893728 
305796000    261.23041    299.41697    287.66304   -9518.9886    9547.0225    11.753931    34.862408 
305800000    277.72864    449.46604    305.39768   -9517.6391    9545.3418    144.06835    34.860981 
305804000    277.97073    560.68461    263.73988   -9511.3298    9552.4427    296.94473    34.891071 
305808000    288.15147    281.65416    212.41741   -9542.0032    9575.5912    69.236753    34.804513 
305812000    295.12248    351.72332    250.00079   -9586.7352    9598.0013    101.72253    34.824508 
305816000    263.21228    317.46339    407.55344   -9592.7397    9616.4809   -90.090044     34.79567 
305820000    289.69074    427.57513    172.14323   -9648.9241    9660.8482     255.4319    34.736281 
305824000    288.87666    530.26715    346.96634   -9652.8619    9680.4836    183.30082    34.739708 
305828000    259.41293    250.56517    523.88984   -9658.6892    9697.6312   -273.32467    34.788723 
305832000    250.20374    202.19549     351.5491    -9709.236    9756.2866   -149.35361    34.748656 
305836000    253.87576     316.9114    438.86248   -9741.5426    9769.9154   -121.95108    34.788434 
305840000    277.09004    352.99569    284.93594   -9767.0126    9793.7853    68.059751    34.820589 
305844000    285.01914     449.3029    493.19191   -9774.1781    9802.3645   -43.889011    34.850777 
305848000    267.17309    311.57825    289.46044   -9792.9623    9826.8774    22.117811    34.893707 
305852000    281.88477    215.16278    301.97829   -9845.2729    9858.6092   -86.815514    34.862257 
305856000    314.28039    394.76858    374.44288   -9909.5771     9895.238    20.325703    34.798547 
305860000    294.70781    269.98303    263.94865   -9900.2507    9930.9641    6.0343829    34.854945 
305864000    301.30311    308.05985    359.11229   -9930.4773    9950.9244   -51.052439    34.942914 
305868000    314.37564    342.61948    379.55679   -9956.5291    9969.6063   -36.937309    34.973277 
305872000    289.76773    352.79776    254.12475   -9992.5351    9986.6616    98.673006    34.935056 
305876000    271.41597    542.58485    341.27013   -9980.9852    10007.858    201.31472    35.016303 
305880000    262.07173    312.50863     351.7911   -10020.909    10048.681   -39.282465    34.977229 
305884000    276.49378    377.81184    306.90022    -10049.68    10074.511    70.911623    35.043273 
305888000     307.4249    248.70867    328.23229   -10075.358    10089.841    -79.52362    34.947157 
305892000    292.57973    330.04454    356.90319    -10098.11    10113.802   -26.858656    34.969272 
305896000    281.39964    416.74439    385.50288   -10108.011    10133.609    31.241515     34.95713 
305900000    286.04252     271.2622    309.12206   -10122.985    10151.781   -37.859856    35.031284 
305904000    295.60897    374.66107    246.34139   -10159.355    10177.266    128.31968    34.972888 
305908000    278.44443    453.01756    283.19546   -10154.724    10200.722     169.8221    35.022571 
305912000    318.25798    489.47028      397.281    -10178.65    10189.453    92.189285    35.054593 
305916000     269.3696    420.96255    361.41386   -10185.153    10207.409    59.548693    34.977458 
305920000    313.01746    255.88951    314.22209   -10221.743    10232.246   -58.332581    35.091772 
305924000    300.36725    515.30136    417.41323   -10236.318    10242.085    97.888135    35.110697 
305928000    303.30089    434.58946    272.80232   -10245.566    10262.017    161.78715    35.044765 
305932000    260.21637    391.77602    322.68092   -10258.622    10288.673    69.095097    35.074892 
305936000    260.70797    309.03253    291.74847   -10272.999    10303.867    17.284061    35.087781 
305940000    255.75764    300.45654    377.65111   -10286.855    10328.467   -77.194569    35.039795 
305944000    288.08775    231.32421    263.91439    -10318.68    10337.246   -32.590177     35.10956 
305948000    310.19355     335.4602    548.82022   -10331.725    10343.095   -213.36002    35.112977 
305952000    291.01488    315.69571    266.71008   -10355.772    10376.272    48.985624    35.148188 
305956000    314.80303    435.38955    354.65019   -10360.221    10359.159    80.739355    35.156526 
305960000    260.21557    264.85664    368.56869   -10389.184    10406.356   -103.71205    35.226975 
305964000    254.81286     306.8192    399.04597   -10415.429    10431.798    -92.22677    35.270374 
305968000    299.38915    321.81297    304.16386   -10439.275    10455.454    17.649106    35.324305 
305972000    265.66789    256.38782    364.41713   -10456.923    10475.095   -108.02931    35.294243 
305976000    281.53742    531.62011    379.60483   -10485.099    10510.744    152.01528    35.299245 
305980000    305.91664    508.55846    199.71956   -10542.185     10548.75     308.8389    35.322891 
305984000     274.3828    394.29949    322.25732   -10561.224    10577.473    72.042169    35.290479 
305988000      295.839    632.57797    331.32432   -10575.668    10611.621    301.25365    35.296036 
305992000    266.71071    253.14794    176.48041   -10601.566    10633.018    76.667539    35.278827 
305996000    275.21878    343.49425    430.48216   -10618.092    10638.616   -86.987909    35.327949 
306000000    305.61751    517.73137    300.59236   -10653.614    10664.896    217.13901    35.333849 
306004000    241.10356    352.33641    313.16293   -10673.945    10720.629    39.173476    35.341009 
306008000     277.6636    363.49086     442.7608   -10713.906    10728.606   -79.269937    35.330746 
306012000    264.07143     339.4699     333.2754   -10739.542    10769.899    6.1944968    35.321189 
306016000    284.20471    430.90973    322.40388   -10771.599    10781.294    108.50585    35.318562 
306020000    266.85812    415.36379    168.96553   -10807.139    10833.361    246.39826    35.335719 
306024000    296.70004    391.36562    258.25292   -10843.495    10851.254     133.1127    35.319758 
306028000     255.5198    382.10889    193.31789   -10837.013    10882.339      188.791    35.306818 
306032000    277.47324    174.03481    380.27574   -10870.107     10909.17   -206.24093    35.337549 
306036000    290.09852    282.69427    410.55188   -10914.126     10930.87    -127.8576    35.380245 
306040000    283.41057    321.60386    302.10477   -10960.625     10973.12    19.499082    35.372733 
306044000    285.99754    313.77579    356.13506   -10957.751    10981.574   -42.359272    35.309161 
306048000    271.36994    389.23959    245.20489   -10944.577    10977.667     144.0347    35.361026 
306052000    282.54342    249.36245    358.47767    -10962.22    10979.433   -109.11522    35.393778 
306056000    294.06164     250.6306    506.04954   -10994.491    11003.748   -255.41894    35.370619 
306060000    265.96981    511.46072    154.97433     -11000.2    11057.655    356.48638    35.364403 
306064000    283.08194    297.16467    335.82735   -11018.411    11048.968   -38.662681    35.244473 
306068000    286.17102    240.77626     169.6006   -11031.333    11056.804    71.175661     35.19378 
306072000    249.69164    179.35349    115.47694   -11039.481    11082.287    63.876553    35.209134 
306076000    298.94582     419.9533    457.13872   -11057.104    11077.628   -37.185427    35.190034 
306080000    262.53799    281.51237    293.79356    -11062.54    11088.718   -12.281189    35.128438 
306084000    295.60114    258.07084    441.90128    -11096.47    11107.278   -183.83044    35.112996 
306088000    296.00239    392.72081    218.16893   -11124.503    11142.129    174.55189    35.126257 
306092000    284.34471    281.78508    348.55988   -11150.515    11161.306   -66.774803    35.121491 
306096000    295.68306     400.2333    487.33125   -11175.418    11176.479   -87.097951     35.15747 
306100000    290.07129    394.83252    315.42751   -11186.359    11211.291    79.405009    35.184504 
306104000    290.64801    234.53859     493.8034   -11221.795    11251.769   -259.26481     35.21283 
306108000    253.08738    260.18424    465.14146   -11254.967    11305.036   -204.95722    35.204556 
306112000    303.14519    251.87307    284.26231   -11298.359    11300.818   -32.389233    35.143589 
306116000    291.38697    337.37756     426.7358   -11293.915    11320.237   -89.358238    35.132289 
306120000    267.52178    409.62572    261.36309   -11311.973    11335.154    148.26263    35.138394 
306124000     287.0776    423.91819    324.46919   -11352.712    11360.431    99.448998    35.173933 
306128000     277.4869    379.94982    461.19172   -11367.144    11404.619     -81.2419    35.181039 
306132000    253.86262    235.46515    279.68796   -11414.218    11447.998   -44.222818    35.152174 
306136000    278.43226    510.07603    244.45286   -11443.541     11472.84    265.62317    35.231081 
306140000     293.8321    421.93112    409.52948   -11481.736    11491.456    12.401644    35.247011 
306144000    267.68793    452.63176    291.34702   -11510.713    11527.643    161.28474    35.237929 
306148000    285.20468    219.82039    395.88825   -11540.559    11560.762   -176.06786    35.324261 
306152000    261.19303    287.44748    386.16241   -11568.943    11597.266   -98.714925    35.320421 
306156000    275.15508    161.04347    211.14878   -11575.557    11604.713   -50.105319    35.339493 
306160000    271.87623    285.74451    264.26978   -11622.459    11640.661    21.474731    35.304953 
306164000    283.92602    254.70879    233.13014   -11633.213    11660.282    21.578653    35.243024 
306168000    279.94566     299.4724    308.20289   -11657.258    11675.775   -8.7304934    35.222871 
306172000    274.45056    217.67536    402.97358   -11699.457    11723.237   -185.29822    35.209276 
306176000    296.05152    295.64214    372.02062   -11743.689    11761.297   -76.378477    35.201347 
306180000    266.45627    371.00257    264.25849   -11751.622     11789.63    106.74408    35.209702 
306184000    270.76813    335.92528    353.54665   -11751.397    11785.335   -17.621365    35.220525 
306188000    315.57279    325.71825    571.41218   -11768.315     11790.73   -245.69393    35.209641 
306192000    281.70998    278.88238    317.29775   -11785.708    11808.005    -38.41537    35.207883 
306196000    305.87084    264.45461     330.5223   -11823.205    11821.622   -66.067688    35.163949 
306200000    301.58592     340.7879    377.67981    -11831.63    11833.328   -36.891906    35.109907 
306204000    254.42867    257.96364     249.8629   -11826.985    11857.996    8.1007391    35.159233 
306208000    300.40026    283.74477    347.51954   -11863.079    11869.836   -63.774769    35.204117 
306212000    264.89978    331.90163    676.21058   -11886.152    11904.593   -344.30895    35.173652 
306216000    278.94734    443.78826    271.36915   -11930.521     11934.32    172.41911    35.187445 
306220000    304.92024    391.28595    366.50908   -11946.801    11947.049    24.776876    35.157056 
306224000    271.36343    225.41375    423.38876   -11965.661    12005.101   -197.97501    35.080419 
306228000    296.22836    509.81515    234.27487   -12019.248    12039.752    275.54028    35.103096 
306232000    281.31003    362.53532    353.09984   -12045.849    12056.285    9.4354816    35.051462 
306236000    283.27768    425.86518    323.17589   -12058.409    12080.309    102.68929    34.999905 
306240000    281.84099     319.0913    207.33414   -12069.249    12094.886    111.75716    35.017026 
306244000    271.90584    366.94116    295.37708   -12074.651    12106.685    71.564085    35.048724 
306248000     317.1009    468.40725    295.66385   -12122.922    12130.273     172.7434    35.067894 
306252000    270.19881    244.51144    214.83086   -12102.317     12142.25     29.68058    35.066949 
306256000    286.95598    333.13011    245.21025   -12115.745    12149.159    87.919861    35.064069 
306260000    274.45121    314.98054    178.30704   -12133.792    12164.945     136.6735    35.091796 
306264000    315.44056     647.0116    305.22748   -12169.579    12173.578    341.78412    35.193094 
306268000    272.98327    450.90236    638.03599   -12168.429    12205.139   -187.13363    35.149335 
306272000    260.39918    256.02631    362.73523   -12167.645    12217.055   -106.70892    35.147805 
306276000    277.56153    362.66523    493.84449   -12199.402    12208.016   -131.17927    35.202287 
306280000    274.11215    412.82801    307.80163   -12219.204     12238.39    105.02637    35.187343 
306284000    292.90139    284.09142      309.236   -12242.437    12248.021   -25.144577    35.188052 
306288000    292.65693    270.42321    214.80307   -12270.094    12293.738    55.620136    35.247126 
306292000     269.7795    355.62051    194.79151    -12302.41    12333.136      160.829    35.222162 
306296000    297.80783      391.747    342.69802   -12321.816    12334.737    49.048983    35.167279 
306300000    289.66375    474.48562      211.701   -12354.973     12355.63    262.78461    35.135563 
306304000    259.03584    215.29012    237.93567   -12369.324    12402.433   -22.645547    35.125855 
306308000    277.35435     312.1883    153.11632   -12400.781     12433.39    159.07197    35.080211 
306312000    289.69728    363.06536    422.28097   -12434.625    12456.774   -59.215609    35.112489 
306316000    285.79555    340.33632    385.52998   -12474.572    12484.177    -45.19367    35.087634 
306320000    233.23019     286.4704    384.28881   -12484.278     12526.78   -97.818409    35.100311 
306324000    275.80434    250.76256    234.19736   -12506.194    12549.225    16.565197    35.098639 
306328000    305.40451    336.12807    384.57169   -12568.274    12574.067   -48.443619    35.148567 
306332000     292.7203    451.32163    287.95741   -12596.988    12609.944    163.36422    35.151104 
306336000    293.95247    427.52322    443.05456   -12603.893    12621.394   -15.531337      35.1512 
306340000    280.55611     185.1359    260.87868   -12623.938    12630.508   -75.742776    35.174924 
306344000    295.88035    616.17607     506.3521   -12650.427    12663.429    109.82397    35.126828 
306348000    271.93191    208.22502    413.02099   -12668.099    12676.924   -204.79597    35.121513 
306352000    286.77615    399.61847    209.96163   -12698.619    12715.775    189.65684    35.070041 
306356000    291.06599    387.62853    318.48336   -12719.403    12725.583     69.14517    35.092987 
306360000    297.67995    360.05086    435.05171   -12718.561    12736.433   -75.000848    35.113416 
306364000    302.39236    236.80814     278.3025   -12737.493    12758.247   -41.494361    35.094178 
306368000    305.46234    353.62221    276.62323   -12774.818    12792.202    76.998973    35.146971 
306372000    296.16324    485.20449     169.2935   -12791.414    12802.777    315.91099    35.142878 
306376000    268.91754    152.45611    190.72165   -12788.228    12800.155   -38.265536    35.166774 
306380000    277.12303    440.67321    423.07192     -12825.9    12853.716    17.601293    35.206086 
306384000    279.76382    537.93171    295.99083   -12852.479    12877.877    241.94088    35.189753 
306388000    284.35049    287.21333    533.98595   -12864.626    12884.132   -246.77262    35.195735 
306392000    302.47322    380.71591    402.59593   -12903.391    12923.083   -21.880018    35.214163 
306396000    302.12274    367.94535    279.58028   -12922.373    12940.063    88.365067    35.209127 
306400000    282.29499    281.85998     233.3791   -12945.754    12956.446    48.480877    35.194352 
306404000    273.78756    224.98467    486.64375   -12952.358    12971.126   -261.65908    35.178225 
306408000    260.93688    464.76385    254.62035   -12980.799    13028.205    210.14349    35.160924 
306412000    269.30085    362.39887    380.48807   -13000.729    13043.784   -18.089193      35.1702 
306416000    299.50966    280.32603    414.25313   -13049.064    13073.886    -133.9271    35.146593 
306420000    290.01271    379.39796    282.11371    -13095.25    13107.909    97.284256    35.175994 
306424000    292.50414    328.34114    298.29511   -13100.994    13098.694    30.046028    35.170956 
306428000    294.18825    528.94125    310.76968    -13124.73    13138.797    218.17157    35.180769 
306432000    269.69305    490.86755    276.70274   -13160.523    13166.085    214.16481    35.197677 
306436000    303.22315    420.38404    396.43819   -13173.312    13186.377    23.945848    35.164861 
306440000    279.26945    186.91624    370.61445   -13178.394    13204.835   -183.69821    35.150948 
306444000    276.41291    303.84904    181.49871   -13198.146    13209.597    122.35033    35.103199 
306448000    274.11082    330.13439    257.68823   -13202.827    13232.953    72.446158    35.071859 
306452000    261.30906    372.61974    302.34976   -13229.245    13261.186    70.269979    34.997336 
306456000    274.85893    471.40987    371.86151   -13266.149    13293.227    99.548361    34.958569 
306460000    262.11788    220.05125    435.89387   -13272.912    13318.628   -215.84262    34.967267 
306464000     283.2241    595.05108    296.03743   -13314.497    13336.346    299.01365    34.984964 
306468000    288.66437    560.11928    362.24251   -13344.644    13365.876    197.87677    34.990801 
306472000    286.70368    525.97786    294.40591   -13352.733    13382.156    231.57195    34.951809 
306476000    292.91821    275.35772    394.06994   -13346.187    13357.323   -118.71222    34.866944 
306480000    290.17693    452.41981    275.04663   -13340.681    13362.383    177.37318    34.827431 
306484000    300.03157    445.12097    295.80942   -13350.303    13349.652    149.31155    34.835539 
306488000    278.89708    229.19378     322.3953   -13347.544    13368.638   -93.201518    34.796942 
306492000    301.65755    489.65386    358.56718   -13386.296    13395.057    131.08668    34.801587 
306496000    279.99759    189.69385    347.23774   -13402.774    13411.259   -157.54389    34.774593 
306500000       315.84    491.60969     462.0362   -13441.127    13446.335    29.573486    34.760962 
306504000    283.43865    285.81819    472.12478   -13478.622    13481.593   -186.30659    34.780547 
306508000    307.31103    503.51809     398.5973    -13529.76    13520.374    104.92079    34.868903 
306512000    287.68205    342.52833    207.30848   -13556.549    13536.137    135.21985     34.80258 
306516000    267.15259    241.34816    409.20616   -13534.901    13555.652     -167.858    34.829157 
306520000    272.81519    299.81747    387.98334   -13554.567     13562.27   -88.165871    34.858038 
306524000    293.09848    444.43131     414.0394   -13588.874    13590.314    30.391918    34.865477 
306528000    272.22687    242.28427    340.09771   -13622.247    13631.515   -97.813433    34.878345 
306532000    285.44117    492.31295    388.98374   -13649.179    13673.315    103.32921    34.963233 
306536000    290.30256    370.92384    492.06438   -13677.359    13671.583   -121.14053    34.985522 
306540000    264.07613    368.98777    447.01454   -13689.263    13709.935   -78.026769    34.990357 
306544000    294.32236    253.39373    377.34414   -13718.098    13730.563    -123.9504     35.02162 
306548000    273.66641    342.55851     282.8901   -13744.379    13760.466    59.668409    35.004185 
306552000     258.8569      247.306    370.47039   -13760.261    13802.371   -123.16439    34.961052 
306556000    292.31795    400.45739    359.99154   -13773.248    13808.164    40.465845    34.936059 
306560000    275.41413    330.59009    208.77334   -13794.571     13815.34    121.81675    34.876544 
306564000    288.92618    468.07845    343.77259   -13805.922    13814.247    124.30586    34.845309 
306568000    290.89481    356.76013    392.02936   -13840.595    13849.857   -35.269239    34.795212 
306572000    295.76605    256.93657    374.22679   -13835.266    13874.588   -117.29022    34.835287 
306576000    299.90701    326.28455     298.7611   -13877.961    13881.686    27.523443    34.795581 
306580000    286.76323    380.21515    426.90418   -13884.313    13903.598   -46.689025    34.809308 
306584000     274.5729     324.4708    330.18508   -13902.574     13936.76   -5.7142785    34.766679 
306588000     309.3924    178.76553    525.53953   -13928.551     13937.88   -346.77399    34.741678 
306592000    256.26846     424.3701    255.37324     -13941.3    13966.252    168.99686    34.680261 
306596000    282.42487    238.14274    206.07285   -13964.699     13990.12    32.069893    34.695969 
306600000    276.91617    372.60467    359.72296   -13988.399    14016.231    12.881703     34.76598 
306604000    271.99486    459.75573    226.82802   -14019.517    14051.036    232.92771    34.814663 
306608000     280.2941    369.57772    296.01198   -14028.337    14073.393    73.565746    34.855924 
306612000    271.26838     274.9979    340.09562   -14066.784    14081.477   -65.097723    34.884597 
306616000    282.19257    523.67538     374.0249   -14090.454    14105.206    149.65047     34.92721 
306620000    288.79703    235.77937    386.95385   -14121.829    14149.865   -151.17448    34.957199 
306624000    323.52297    434.78671    270.18939   -14184.406    14170.766    164.59732     34.98215 
306628000    301.34423    388.31776    253.57894   -14217.621    14218.994    134.73881    35.011828 
306632000    280.44506    450.85348    277.93434   -14232.228    14239.977    172.91914    35.001222 
306636000    284.25352    587.76925    426.08232    -14231.07    14250.975    161.68693    34.986601 
306640000    268.50079    310.37752    338.07313   -14259.827    14294.253   -27.695607     34.95261 
306644000    283.38821    326.99877     457.2348   -14250.298    14275.349   -130.23603    34.952775 
306648000    292.54255    467.91332    386.86071   -14268.584    14284.412    81.052609    34.930346 
306652000    295.08595    432.90808     262.9285   -14261.054    14292.802    169.97958    34.996435 
306656000    301.72544    344.94615    327.82538   -14310.267    14312.245    17.120772    35.015933 
306660000    265.66768    391.56981    283.22709   -14323.273     14360.71    108.34272    35.028391 
306664000    281.53554    317.08941     368.5695   -14346.343    14384.804   -51.480088    34.961326 
306668000    281.19453    376.81189    111.65531   -14368.747    14393.716    265.15658    34.962767 
306672000    267.66769    291.23849    337.82766   -14390.802    14417.394   -46.589168    34.962469 
306676000    293.21773    396.64428     179.5258   -14426.615    14446.907    217.11848    34.993741 
306680000    278.81966    433.80229    253.80876   -14440.554    14465.565    179.99353    34.982675 
306684000    272.85193    635.58341    401.70397   -14471.913    14484.978    233.87944    34.997779 
306688000    248.00601    216.35348     356.7831   -14473.154    14498.507   -140.42962      34.9791 
306692000    263.99393    203.40064    166.74704   -14523.688    14549.657    36.653609    34.989727 
306696000    321.12728    437.43427    500.33182   -14537.318    14537.856   -62.897546    35.033113 
306700000    275.63073    320.29076    162.92825   -14559.168    14576.282    157.36252    35.050874 
306704000    295.13335    268.61223    221.78191   -14590.002    14600.445    46.830318    35.016025 
306708000    298.57815    331.85889    303.76752   -14610.039    14626.955    28.091367    35.017945 
306712000    275.29237    438.18723    324.55229   -14626.135    14642.972    113.63494    34.979699 
306716000    271.25285    553.46279    320.53918   -14647.433    14693.794     232.9236    34.911569 
306720000    260.81432    191.28316    323.55571   -14657.999    14691.251   -132.27255    34.935191 
306724000    288.67051    185.34469    220.82267   -14660.324    14692.835   -35.477971    34.829823 
306728000    264.14566    500.08197    432.16438   -14679.273    14710.132    67.917587    34.875525 
306732000    273.38471    285.45137    317.48761   -14702.717    14735.808   -32.036249    34.858264 
306736000    281.17033    437.83685     341.6525   -14741.297    14765.314    96.184349    34.811283 
306740000    291.63196    244.92737    379.10467   -14796.162     14806.09    -134.1773    34.857945 
306744000    286.30341    241.06073    451.18714   -14808.723    14803.124   -210.12641    34.843793 
306748000    295.35541    386.26923    315.62513   -14804.455    14817.098    70.644101     34.80005 
306752000    268.38867    405.98087    386.54387    -14820.64    14836.512    19.436995    34.778319 
306756000    293.13967    491.13878    286.85162   -14835.695    14852.824    204.28716    34.778215 
306760000    300.57153    307.63753    347.79523   -14875.765    14878.229   -40.157708    34.815613 
306764000    292.94143    302.90013    280.49846   -14873.869    14890.957    22.401663     34.83422 
306768000    255.45683      413.733    314.40841   -14891.236    14930.803    99.324594    34.832406 
306772000    256.51355    257.15856    351.78936   -14916.215    14946.607   -94.630792     34.81408 
306776000    302.68676    242.18743    322.79163   -14950.336    14972.685   -80.604198    34.758204 
306780000    275.99667    220.31821    228.24633   -14960.126    14974.419   -7.9281161    34.728447 
306784000     252.0079    420.45097    175.81518   -14973.909    15003.157    244.63579    34.709806 
306788000    272.29893    348.08971    474.54821   -14995.036    15022.608   -126.45851    34.686872 
306792000    310.08274    370.05977    412.37962    -15023.38    15037.202   -42.319853     34.69235 
306796000    280.98084    236.62278    208.87062   -15048.432    15072.206    27.752159    34.703005 
306800000    295.82124    318.82686    292.16865   -15076.981    15101.201    26.658219    34.752306 
306804000    299.10806     426.4265    380.30531   -15114.388    15112.392    46.121191    34.725208 
306808000    277.38325     404.7298    122.90363   -15143.714    15173.894    281.82617    34.734227 
306812000     273.1976    388.38112    220.11037   -15152.612    15179.927    168.27075    34.748468 
306816000     290.9502    237.00027    286.03271   -15177.559    15186.157   -49.032445    34.728459 
306820000     250.1302    221.62614    339.98521   -15157.561     15202.64   -118.35908    34.757298 
306824000    268.38844    387.04896     462.0688   -15187.265    15228.901   -75.019837    34.761777 
306828000     288.3329    347.43932    295.68593   -15232.083    15234.993    51.753388    34.760693 
306832000    295.60005    574.21983     337.3068   -15253.221    15264.532    236.91302    34.754189 
306836000    301.33671    384.93091    227.21844     -15253.1    15268.366    157.71247    34.734898 
306840000    276.12956     272.3632    309.60891   -15313.803    15321.958   -37.245711    34.683424 
306844000    275.90234    384.54597    380.34808   -15341.281    15374.442    4.1978859    34.709723 
306848000    269.65862    413.27206    431.46311   -15363.943    15388.652   -18.191047    34.701449 
306852000    266.72711     423.5241    178.04551   -15370.834    15380.013     245.4786     34.79655 
306856000    263.53711    271.78638     316.9109   -15365.658    15389.067   -45.124513    34.759457 
306860000    297.67143    473.98898    393.16769   -15383.056    15397.184    80.821288    34.768887 
306864000    278.45018    313.42957    432.92332   -15388.723    15401.441   -119.49374    34.730894 
306868000    268.57705    230.34813    251.81586   -15394.756    15450.034   -21.467731    34.723504 
306872000    284.32102    246.56275    275.33392   -15453.351    15475.521   -28.771167    34.734126 
306876000    279.97102     213.2209    457.92208   -15462.707    15489.482   -244.70118    34.706071 
306880000    250.90864    228.97389    405.59871   -15450.508    15496.522   -176.62483    34.719522 
306884000    286.14786    423.99181    364.50661   -15487.889    15518.537    59.485199     34.74894 
306888000    264.59023    235.86458    385.50135   -15472.284    15526.843   -149.63677    34.740934 
306892000    257.59505    428.50797     424.6022   -15529.362      15559.4    3.9057733    34.785738 
306896000     278.7658    430.59619    210.22901   -15588.464    15610.271    220.36717    34.737247 
306900000    288.14769    307.15012    299.32493   -15604.089    15617.744    7.8251903    34.685565 
306904000    268.63461    272.97771    334.24498   -15650.789    15674.803   -61.267274    34.658172 
306908000    284.88484    452.72991    352.75055   -15684.238    15691.771    99.979356    34.662245 
306912000    302.72789    272.79124    462.51753   -15703.935    15690.187   -189.72629    34.598636 
306916000     299.8711    340.28558    488.66603   -15712.828     15724.27   -148.38044    34.593257 
306920000    237.46266     279.0444    212.14512   -15699.405    15751.849    66.899282    34.597585 
306924000    257.20451     262.5435    164.44185    -15714.77    15750.507    98.101656    34.647689 
306928000     271.8603    277.30742    297.04361   -15738.589    15769.346   -19.736196    34.648847 
306932000    283.22018    428.09605    486.54496   -15770.318    15797.151   -58.448906     34.65689 
306936000    291.15482    492.91746    319.34337   -15807.967    15834.268    173.57409    34.646304 
306940000    302.60537    644.75719    260.37282   -15802.375    15801.995    384.38438    34.643907 
306944000      288.246    202.17445     308.4899   -15816.785     15827.36   -106.31545    34.678075 
306948000    297.28829    331.93457    539.07176   -15869.762    15873.682   -207.13719    34.675664 
306952000    274.13582    414.35076    321.46369   -15882.239    15912.352    92.887073      34.6849 
306956000    247.81299    402.38489    301.99529    -15894.22     15942.57     100.3896    34.710885 
306960000    251.99846    344.09023    260.15216   -15891.183    15947.502    83.938072     34.67421 
306964000    282.68684    418.27364    412.54313   -15934.023    15958.689    5.7305067    34.607228 
306968000    279.66536    398.67152     473.4448    -15957.15    15987.576   -74.773276    34.589334 
306972000     284.8459    196.12959    299.71974   -15987.789    16023.488   -103.59016    34.619377 
306976000    293.86672    330.98718    352.29791   -16013.074    16018.657   -21.310729    34.581605 
306980000    305.36462    632.16055    287.77644   -16058.453     16058.25    344.38411    34.624881 
306984000    314.28268    243.89348    289.78243   -16079.098    16076.344   -45.888957    34.654008 
306988000    298.82962    324.30463    377.49364    -16133.31    16126.498   -53.189009    34.654196 
306992000    310.93938    500.20136     448.0834   -16133.572    16144.201    52.117969    34.658792 
306996000    271.73671    152.44074    371.47722   -16159.993    16180.499   -219.03648     34.68245 
307000000    313.45779    296.30059    229.06776   -16203.482    16223.557    67.232829    34.683788 
307004000    277.41112    330.31039    329.61998   -16237.933    16252.848     0.690414    34.635888 
307008000    284.50294    227.69131    204.79302   -16234.623    16270.811    22.898293    34.632197 
307012000    257.19827    420.94274    322.06247   -16237.948    16275.091    98.880272    34.653661 
307016000    292.39436    427.14189    322.97903   -16279.041    16306.986    104.16286    34.677186 
307020000    265.07574    409.20169    151.03168   -16312.327    16337.441       258.17    34.687393 
307024000      280.987    304.60903    317.92538   -16339.483     16359.74    -13.31635     34.67724 
307028000     299.5994    473.80059    257.23975   -16382.908    16395.154    216.56084    34.674071 
307032000    308.23734    295.72355    486.61456   -16391.056    16412.297   -190.89101    34.651982 
307036000    277.83642    381.97361    314.48807   -16405.535    16422.812    67.485538    34.625914 
307040000    315.98816     278.1182    418.89316   -16439.986    16442.316   -140.77497    34.667612 
307044000    270.39261    375.22383    228.78871   -16429.124    16453.218    146.43512    34.660446 
307048000    264.31201    310.31177    404.58822   -16422.699    16469.797   -94.276452    34.668812 
307052000    288.82932    298.72936    454.69612   -16478.428    16488.936   -155.96676    34.640411 
307056000    293.26271    607.74348    306.60997   -16507.178    16526.578    301.13351    34.727161 
307060000    328.55076    453.68098     439.4074   -16539.352    16543.167    14.273578    34.758594 
307064000    262.30709    266.42431    396.87496   -16544.448    16569.979   -130.45065    34.799744 
307068000    288.03837    258.81442    376.45633   -16560.141    16572.176   -117.64191    34.809011 
307072000    269.89138     453.6503     333.6659   -16587.959    16610.226     119.9844    34.814851 
307076000    302.18646    415.26099    250.64702   -16625.054     16623.37    164.61397    34.839079 
307080000    309.34664     272.0241    313.42661    -16637.26    16648.484   -41.402506    34.838892 
307084000    292.69745     429.3391    204.13598   -16673.186    16664.273    225.20312      34.8362 
307088000    309.18474    241.58654     581.3826   -16686.311    16689.499   -339.79606    34.825541 
307092000    287.99458    330.32349    567.87843   -16696.743    16701.928   -237.55494    34.800819 
307096000    281.69708    215.82621    432.50432   -16721.412    16741.931   -216.67811    34.741583 
307100000    269.14112    464.15778    415.59336   -16725.686    16754.589    48.564421    34.725097 
307104000    265.88148    515.54942    397.15495   -16740.588    16766.167    118.39447    34.704041 
307108000    298.62951    506.83579    312.14923   -16763.777    16758.842    194.68656    34.708212 
307112000    276.11186     300.4467    311.32912   -16761.107    16790.351   -10.882417    34.686181 
307116000    266.14794    302.75801    312.40697    -16761.83    16789.053   -9.6489647    34.710398 
307120000     270.2716    303.81929    251.41074   -16782.547    16812.263    52.408553    34.758991 
307124000    272.89951    324.33121    300.49547   -16812.581    16840.909    23.835736    34.786657 
307128000    289.59291    231.15005    295.01264   -16848.863    16868.429   -63.862582    34.767767 
307132000    302.66321    321.74729    458.28128   -16892.732    16891.276   -136.53399    34.740016 
307136000     269.0663    358.06826    100.63184   -16906.842    16916.774    257.43642    34.751605 
307140000     321.0225    233.70136    386.71643   -16909.664    16917.461   -153.01506    34.757252 
307144000    256.13517    285.81998    444.56355   -16928.756    16954.576   -158.74357      34.7902 
307148000    275.90345    310.46696    256.55935   -16944.138    16974.316    53.907614    34.774329 
307152000    265.58634    374.86758    197.54895     -16963.6    17004.904    177.31863    34.792105 
307156000    280.30384    468.97085     263.6857   -17009.667    17027.195    205.28515    34.761408 
307160000     281.2825    362.15799    268.51225   -17039.883    17058.652    93.645744    34.696759 
307164000    292.04682    282.99995    310.06724   -17052.083    17071.258   -27.067289    34.683423 
307168000    311.81101    433.89334     245.8859   -17097.274    17097.372    188.00744     34.69186 
307172000    296.18398    395.12665    438.69957   -17110.631    17128.129   -43.572924    34.706365 
307176000    290.47391    454.13205    316.94458   -17153.458    17155.118    137.18746    34.682673 
307180000    279.62732    367.77375     361.4724   -17172.178    17183.639    6.3013497     34.76681 
307184000    282.02539    396.86597    458.72187   -17198.221     17196.04   -61.855909    34.792648 
307188000    294.40433     295.3932    355.72618   -17234.434    17253.894    -60.33297    34.815792 
307192000    274.03788    366.79392    236.12847   -17226.797    17267.356    130.66545    34.785744 
307196000    267.98683    231.44071    127.52599   -17250.082    17279.211    103.91472    34.801088 
307200000    286.51318    342.19453    353.59251    -17311.59    17320.455   -11.397975    34.785953 
307204000    290.79719     324.5175    230.70057   -17335.601     17337.58    93.816931    34.792876 
307208000    297.32639    235.58236    308.51758   -17355.727    17360.822    -72.93522    34.815428 
307212000     283.3845    304.72797    406.36381   -17383.726    17397.823   -101.63584    34.850491 
307216000    280.03707    368.50993    301.48447   -17397.195    17429.881    67.025459    34.821572 
307220000    286.86262     456.7441    405.19895   -17441.145    17457.895    51.545151    34.813565 
307224000    257.27034    467.26669    319.03564   -17438.702    17472.229    148.23105    34.882863 
307228000    275.46442    376.27205    471.75907   -17460.944    17495.964   -95.487018    34.847726 
307232000    291.37582    397.16697    271.91242   -17487.535     17491.66    125.25455    34.871325 
307236000    301.56742    477.41033    462.46367    -17522.58    17520.688     14.94666    34.887578 
307240000    315.48671    276.12696    478.33942   -17562.286    17558.251   -202.21245    34.942933 
307244000    273.26708    327.12653    254.54864   -17584.215    17609.132    72.577885    35.010145 
307248000    275.31638    449.62349    236.71691   -17591.142     17624.94    212.90658     35.00365 
307252000    243.92489    293.67665    257.83894   -17587.534    17635.268    35.837708    34.978102 
307256000    269.66029    364.32519    270.12119    -17633.04    17670.359    94.203996    34.943028 
307260000    320.37151    277.10536    488.15935   -17670.199     17668.91   -211.05399     34.95361 
307264000    294.60237    512.43474    302.77488   -17697.559    17694.021    209.65987    34.939525 
307268000    306.64322    340.02886    184.22046   -17696.567    17706.572     155.8084    34.946614 
307272000    269.07103    413.41277     247.5108   -17693.643    17732.306    165.90197    34.962432 
307276000     260.2462     462.5948    373.60891   -17724.575    17751.658    88.985899    34.940027 
307280000    284.24387    364.34247    267.66152   -17736.739    17765.892    96.680952      34.9474 
307284000    275.38138    270.10371    257.16605    -17741.36    17756.079    12.937665    35.031158 
307288000    301.60943    396.24307    547.04841   -17754.778    17757.347   -150.80533    34.989957 
307292000    294.42855    333.06885    490.26294   -17763.005    17783.686   -157.19409    34.947568 
307296000    252.55668    308.76922    307.36276   -17781.039    17814.059    1.4064589    34.927199 
307300000    273.09367    179.02958    325.41988    -17806.71    17831.357    -146.3903    34.950635 
307304000     266.0096    364.94827    212.38629   -17815.549    17840.211    152.56197    34.949122 
307308000    266.42501    402.15067    488.99629   -17855.664    17883.642   -86.845617    34.964949 
307312000    293.34776    525.10726     380.5951   -17890.955    17884.597    144.51215    34.968128 
307316000    283.80747    194.52175    337.64693   -17890.958    17914.642   -143.12518    34.947655 
307320000    271.27267    314.66415    323.81753   -17920.443    17949.889   -9.1533729    34.903845 
307324000     272.3177    471.53075    372.19336    -17956.33    17976.287    99.337395    34.920538 
307328000    262.99169    458.38391    198.45244   -17987.756    18011.781    259.93147    34.904477 
307332000    262.69115    487.74829    391.18357   -18022.267    18050.848    96.564724    34.914444 
307336000    286.39014    386.47538    342.92468   -18041.005    18070.144    43.550694    34.922434 
307340000    282.81282    418.66074    287.62595   -18081.241    18095.517    131.03479    34.910545 
307344000    276.34349    379.16865    264.92213    -18090.08    18116.318    114.24652    34.919886 
307348000    272.91079    167.18995    416.98901   -18116.239    18135.669   -249.79906     34.90525 
307352000     308.5498    528.29305    321.63657   -18130.482    18136.791    206.65648    34.916642 
307356000    296.64272    246.66198    388.86001   -18148.038    18158.123   -142.19803    34.909674 
307360000    305.83835    393.85674    304.51261    -18157.81    18179.461    89.344132    34.904011 
307364000    275.71348    619.90979    271.88904   -18174.105    18185.952    348.02075     34.92003 
307368000    297.12128    288.88513    456.78553   -18187.766    18220.343    -167.9004    34.973107 
307372000    284.44891    309.65288    247.47732   -18221.185     18246.08    62.175555    34.943946 
307376000    287.34101     306.9021       224.37    -18238.34    18257.374    82.532107    34.983515 
307380000    320.89067     405.5382    249.30026   -18280.757    18284.694    156.23794    34.940463 
307384000    306.18369     444.7879    199.76101   -18316.458    18312.751     245.0269    34.893248 
307388000    288.67717    462.90174    363.49604   -18326.933    18331.336    99.405694    34.945246 
307392000     329.8525    422.63824    434.36389   -18356.317    18369.202   -11.725646    34.916446 
307396000    267.56066    265.21254    433.36902   -18364.238    18387.991   -168.15648     34.90677 
307400000    285.19299    351.94599    408.42809   -18383.203    18412.383   -56.482097    34.963831 
307404000    266.11838    242.57778    335.80975    -18432.78    18447.394   -93.231972    34.965367 
307408000    245.19446    251.29011    324.30962   -18416.312    18471.171   -73.019505    34.992454 
307412000    284.97863    388.73937    163.98805   -18469.388    18507.313    224.75132    35.034984 
307416000    278.56417    341.76063    312.21531    -18487.71    18517.693    29.545315    35.073521 
307420000    272.39152    422.88577    328.34045   -18486.923    18518.757    94.545318    35.040469 
307424000    276.86334    278.58934    412.30472    -18535.36    18563.922   -133.71537    34.980619 
307428000     276.6652    511.07566     250.0371   -18535.488    18565.753    261.03856    34.957315 
307432000    252.26982    253.02922    335.41824   -18554.406     18594.33   -82.389022    35.002587 
307436000    287.54991    324.40188    433.73604   -18583.449    18625.542   -109.33416    34.985205 
307440000    299.22742    277.17758    417.58176   -18635.368    18658.515   -140.40418    34.957989 
307444000    289.77569    402.70883    290.43835   -18668.587    18699.083    112.27048    34.952852 
307448000    288.61314    311.40244    324.07691   -18697.911    18730.818   -12.674463    34.950115 
307452000    255.95983    230.50885    435.64608     -18702.5     18731.31   -205.13723    34.952754 
307456000    257.67977    223.71734      490.492   -18694.294    18727.988   -266.77466    34.937738 
307460000    286.51585    303.65282    344.67302    -18722.72    18727.962   -41.020196    34.966748 
307464000    285.18137    319.88284     384.9341   -18722.123    18726.969   -65.051261    34.988681 
307468000    297.33404     426.9411    467.68505   -18716.577        18747   -40.743957    34.936979 
307472000    286.73286    540.27314    418.28477   -18770.741    18774.877    121.98837    34.989784 
307476000    297.04615    421.71647    408.76872   -18777.668    18787.692    12.947745     35.04517 
307480000    302.56287    276.74858    227.60457   -18795.921    18800.259    49.144015    35.096846 
307484000    273.50204    267.84228    295.16993   -18804.048    18828.689   -27.327649    35.149308 
307488000    281.24451    454.88891    208.98632   -18814.972     18839.73    245.90259     35.16612 
307492000    283.80806    245.45245    292.22586   -18875.038    18898.009   -46.773412    35.122209 
307496000    285.54121    384.41642    318.35435   -18889.336    18919.302    66.062065    35.131156 
307500000     273.7263    312.58316    276.82817   -18907.526     18935.83    35.754983    35.135899 
307504000     289.9472     288.3724    192.65793   -18930.456    18946.675    95.714466     35.12158 
307508000    288.38096    345.85364    244.15639   -18958.836    18979.012    101.69725    35.121039 
307512000    268.68945    306.34918    357.12567   -18996.936    19027.667   -50.776496    35.091463 
307516000    304.27575    415.05409    359.99725   -19052.637    19043.316    55.056839    35.157248 
307520000    270.42367    158.40337    247.73188   -19075.933    19090.833   -89.328502    35.182557 
307524000    290.08088    540.19881    366.75344    -19082.34    19091.232    173.44538    35.169731 
307528000    293.41157     546.6572    290.68938   -19092.506    19116.705    255.96783    35.208651 
307532000    304.82464    312.79623      243.306   -19115.836    19135.268    69.490229    35.175906 
307536000    296.25664    338.57351    447.96076   -19150.471    19141.997   -109.38725    35.171545 
307540000    286.87082    323.17283     267.4699   -19146.512    19191.296    55.702925    35.184954 
307544000    279.02443    404.26228    363.95889   -19167.165    19174.662    40.303393    35.187589 
307548000    278.85625    229.75003    324.71968   -19183.044    19214.366   -94.969655     35.16019 
307552000    293.98419    215.93112    459.17465   -19193.192    19212.763   -243.24353    35.146586 
307556000    288.54298    433.77759    507.12546   -19221.856    19244.723   -73.347877    35.129178 
307560000    288.61749    246.23245    314.35137   -19221.466    19268.711    -68.11892    35.110377 
307564000    296.04061    508.45998    315.74796   -19234.311    19242.679    192.71202    35.115446 
307568000    290.81034    385.35421    249.30277   -19251.027    19261.963    136.05144    35.144653 
307572000    287.73323    207.17635    420.09127     -19241.8    19272.284   -212.91492    35.126517 
307576000    281.79008    559.64447    326.86095   -19266.301    19279.474    232.78353    35.132486 
307580000    314.85181    427.90944    285.77051   -19276.879    19279.604    142.13893    35.100864 
307584000    299.72009    487.21189    405.24509   -19295.725    19299.057    81.966801    35.104896 
307588000    268.29811    336.67808    202.38832   -19314.227    19336.461    134.28975     35.08779 
307592000    277.89945    398.05569    218.58636   -19325.736    19344.668    179.46933    35.066726 
307596000    306.38409    346.16915    422.97539   -19358.203    19375.317   -76.806233    35.075883 
307600000    288.03352    390.60394    559.24931   -19384.908    19405.666   -168.64537    35.040895 
307604000    292.02535    358.63218    285.83747   -19420.308    19439.252    72.794719     35.08373 
307608000    262.85482    249.05038    262.50321   -19417.961    19447.679   -13.452833    35.097225 
307612000    291.58536    222.09839    467.70186   -19440.262    19456.288   -245.60348    35.106946 
307616000    264.68827    522.57045    393.32428   -19452.343    19472.775    129.24617    35.059627 
307620000    268.29576     231.5957    308.99433   -19462.368      19491.7   -77.398628    35.083486 
307624000    283.06144    361.01979    400.61574   -19499.694    19513.565   -39.595953    35.101654 
307628000    286.19505    427.54784    367.53281   -19508.101     19544.96    60.015032    35.106728 
307632000    259.46933    339.40591    253.33673   -19523.175    19563.616    86.069186    35.079976 
307636000    293.32512    244.88459    532.32631   -19567.936    19586.949   -287.44173    35.057719 
307640000    257.72131    322.80526    348.98485   -19580.393    19610.342   -26.179587     35.10545 
307644000    296.29793    366.19285    393.07687   -19623.489    19633.659   -26.884026    35.102036 
307648000    287.46068    299.05481     351.3914   -19640.723    19667.606   -52.336597    35.129462 
307652000    294.86772    426.84395    443.37716   -19689.423    19694.607   -16.533214    35.093829 
307656000    284.40375    542.85335    196.82775   -19712.478    19727.938     346.0256    35.076535 
307660000    273.81548    391.76262    357.18125   -19709.016    19735.582    34.581372     35.10696 
307664000    265.01389    496.86809    278.99238   -19730.849    19760.762    217.87571    35.086089 
307668000    304.66838    303.33605    561.17798   -19769.656    19782.005   -257.84193    35.089761 
307672000    276.00498    277.96566    404.01661   -19803.712    19829.657   -126.05095    35.086554 
307676000    274.30208    288.65758    248.85445   -19831.711    19867.343    39.803127    35.108486 
307680000    274.62227    358.67804    225.96213   -19868.807    19900.995    132.71591     35.12792 
307684000    279.57568    230.75453    375.62656   -19884.087     19908.58   -144.87203    35.135096 
307688000     265.0615    406.65747    264.92201    -19891.41    19932.782    141.73546    35.155921 
307692000    282.64202    261.65194    373.85892   -19923.052    19929.291   -112.20698    35.182249 
307696000    294.85891     359.1499    368.53439   -19940.787    19955.458   -9.3844903    35.242031 
307700000     300.1877    210.12109     314.9338     -19985.2    19996.175   -104.81271    35.241357 
307704000    279.89872    253.19979     183.1599   -20034.687    20051.475    70.039888    35.243968 
307708000    298.00588    451.88226    251.41061   -20090.269    20099.941    200.47165    35.228297 
307712000    288.55098    307.99586    296.90075   -20101.923     20113.76    11.095103    35.277338 
307716000    267.46331    420.36819    362.24263   -20109.342    20126.374    58.125562    35.316309 
307720000    277.35654    388.60048    271.54415   -20125.182    20143.163    117.05633    35.359338 
307724000    289.44187    292.60761    283.39399   -20147.944    20161.615    9.2136183    35.344574 
307728000    265.11095    250.57364    216.02531   -20175.012    20199.966    34.548325     35.36077 
307732000    308.12009    418.65081    498.63114   -20222.868    20214.928   -79.980327    35.343082 
307736000    305.83682    253.41592     441.2568   -20256.773    20244.389   -187.84088    35.321368 
307740000     294.0499    283.87171    239.83669    -20257.87    20279.558    44.035019    35.307488 
307744000    267.97483    331.77285    158.07451   -20273.825    20294.341    173.69834    35.287477 
307748000     288.9754    330.07007    304.75808   -20279.901    20317.825    25.311991    35.267645 
307752000    275.32305    371.78048    237.31584   -20313.306    20337.368    134.46464    35.220619 
307756000    268.11299    332.92278    299.16158   -20306.212    20343.765    33.761202    35.219833 
307760000    308.48881    468.28252    201.99427   -20348.155     20357.06    266.28825     35.19063 
307764000      282.394    258.36805    394.13415    -20347.17    20375.906    -135.7661    35.147435 
307768000    256.09304    340.49368    253.74405   -20348.851    20398.259    86.749632    35.133176 
307772000    273.35508    375.13183    397.90994   -20384.838    20418.893   -22.778111    35.123861 
307776000    296.19813    301.16807    345.88051   -20412.089    20428.864   -44.712442    35.105214 
307780000    277.05513    276.60066    237.43852   -20422.727    20438.911    39.162138    35.059591 
307784000      260.918    417.48515    200.75001   -20467.632     20494.04    216.73514    35.056048 
307788000    281.31565    409.85756    281.03109   -20506.815    20522.959    128.82647    35.008961 
307792000    282.32801    246.21922    263.24322   -20541.024    20555.198   -17.023997    35.032173 
307796000    278.33818    260.13368    397.70213   -20527.226    20546.647   -137.56845    35.042705 
307800000    288.27419     483.9645      286.759    -20546.08    20558.594     197.2055    35.051133 
307804000    270.95086    340.01206    160.08322   -20586.511    20587.836    179.92884    35.036853 
307808000    244.99928    258.25714    405.56355   -20598.601    20634.396   -147.30641    35.016396 
307812000     251.5757    203.45905    353.54298    -20636.11    20665.675   -150.08393    35.000225 
307816000    279.05289    433.18906    292.57147   -20675.427    20684.614    140.61759    35.031809 
307820000    283.75355    407.23012    515.77694   -20694.385    20694.036   -108.54682    34.999442 
307824000    251.74112    482.28445    183.52986   -20683.545     20729.38    298.75459    35.012899 
307828000    282.81437    337.33897    335.74119   -20728.319    20743.636    1.5977799    35.043062 
307832000    297.48299    405.18384    377.65452     -20774.3    20769.719    27.529321     35.02348 
307836000    264.10944    307.36399    188.74171   -20763.785    20801.347    118.62227    35.031434 
307840000    283.69227    174.47743    339.31346   -20793.875    20812.014   -164.83603    35.064901 
307844000    298.40852    330.98604    478.68419   -20833.608    20836.552   -147.69816    35.029276 
307848000     297.5056    430.36695    347.47054   -20861.595    20879.251    82.896414     35.03614 
307852000    335.82068    496.26516    330.80173    -20905.37    20901.428    165.46343    35.044016 
307856000    274.68623    380.51845     345.8143   -20923.312    20947.943    34.704146    35.058829 
307860000    302.74459    445.67777    361.36487   -20963.868    20963.672    84.312898    35.056789 
307864000    283.67948    344.81726    235.45826   -20975.684    20989.763      109.359    35.052447 
307868000    263.46737    342.48129    308.10467   -20969.931    21005.425    34.376612    35.016074 
307872000    295.11858      421.787    341.12851   -20999.884    21029.204    80.658486     35.03332 
307876000    275.19596    387.88427    215.41476   -21029.366    21043.599     172.4695    35.046188 
307880000    276.99164    217.57235      238.092   -21044.033    21072.576   -20.519653      35.0518 
307884000    301.44369    613.12232    327.77054    -21083.96    21091.742    285.35178    35.092905 
307888000    298.77347    508.41205    263.47801   -21120.308    21122.257    244.93404    35.116815 
307892000    281.01005    328.21797    374.77343   -21136.505    21151.962   -46.555457     35.12702 
307896000    300.65218    248.95475    459.04143    -21183.95    21180.999   -210.08668    35.123251 
307900000    271.87576    289.27163    366.08507    -21206.31    21226.073   -76.813442    35.105167 
307904000    283.95057    276.30218    386.36808   -21237.226      21246.7    -110.0659    35.079121 
307908000    303.13297     291.1752    205.67557   -21251.176    21246.931    85.499632    35.057195 
307912000    276.30039    548.77955    393.92266   -21245.026    21262.777    154.85689    35.051165 
307916000      280.622    125.83924    340.10627   -21264.076    21287.975   -214.26704    35.019739 
307920000    277.69441    363.07796    338.14133   -21283.032    21316.884    24.936633    35.016259 
307924000    267.96391     318.4641    171.70133   -21282.211    21317.442    146.76277    34.993698 
307928000    283.77693     361.5884    303.93658   -21298.275    21325.574    57.651822    34.992029 
307932000    267.87578    370.48001     242.8628   -21312.623     21360.68    127.61721    34.995401 
307936000    278.36147    244.22313    317.65031   -21350.563    21388.029   -73.427182    34.986278 
307940000    286.95368     326.3107    313.06594   -21368.025    21392.553    13.244757    34.991429 
307944000    261.12528    386.23577    217.04476   -21410.501    21442.472    169.19101    34.973628 
307948000    269.64156    373.65745    308.27044   -21423.865    21451.991    65.387014    34.970357 
307952000     264.6484    208.43072     205.3299   -21457.041    21485.773    3.1008219    34.974293 
307956000    295.65927    294.31259    473.64717   -21463.738    21467.461   -179.33458    34.987048 
307960000     282.8603    277.52982    441.05001   -21472.387    21502.773    -163.5202     34.98523 
307964000    285.71035      294.089    239.29609   -21498.156     21527.76    54.792911    35.001751 
307968000    288.00989    246.76911    473.86821   -21518.437    21548.832    -227.0991    35.000857 
307972000     277.5354    397.64662    545.59506   -21556.164    21586.622   -147.94844    35.008047 
307976000    292.19612    369.06778    381.73815   -21582.988    21610.573   -12.670374    34.974212 
307980000    310.27404    495.54597    368.76633   -21613.214    21619.649    126.77964    34.994237 
307984000     309.0931    292.79264    213.32112   -21654.613    21648.965    79.471521     34.97935 
307988000    238.81848    187.35049    378.86034   -21642.145    21683.965   -191.50985    34.976098 
307992000    261.86782    577.59764    253.64428   -21683.731    21718.812    323.95336    34.997411 
307996000    255.87521    204.19944    225.64434   -21696.162    21736.712   -21.444902    34.962802 
308000000    267.50875    286.05769     448.5307   -21706.194    21744.101   -162.47302     34.95461 
308004000    266.32039    321.79551    389.21095   -21719.012    21746.211   -67.415432    34.968936 
308008000     301.2024    208.13999    306.73161    -21777.65    21775.446   -98.591627    34.932251 
308012000    313.11448     300.2868    271.72312   -21832.374    21813.732    28.563681    34.971751 
308016000    308.78432    516.95776    389.54221   -21866.545    21862.865    127.41556    34.953779 
308020000    295.20978    332.37719    481.46174   -21898.904    21899.303   -149.08455    34.982802 
308024000    278.98883    219.90146    310.87304   -21930.615    21944.901   -90.971584    34.952063 
308028000    281.46527    267.07396    146.61456    -21980.57    22018.726     120.4594    34.947103 
308032000    305.69615    297.12723    275.53675   -22026.586    22026.129    21.590484    34.922218 
308036000    298.76473    386.78633    584.12782   -22064.982    22083.898   -197.34148     34.92726 
308040000    243.68006     448.9422    255.88171   -22085.004    22131.041    193.06049    34.905892 
308044000    294.03389    321.60302    334.87299   -22109.362    22126.763   -13.269964    34.901278 
308048000     278.5426    385.39331    233.77731   -22127.546     22144.84    151.61601    34.879836 
308052000    298.31436    291.77322    379.74366   -22134.381    22147.565    -87.97044     34.87197 
308056000    313.29209    366.05282    360.98958   -22143.251    22151.314    5.0632483    34.865325 
308060000    315.62239    217.68296    317.77197    -22174.47    22177.989     -100.089    34.841498 
308064000    279.83314    291.77293    458.85426   -22172.289    22202.656   -167.08133    34.798423 
308068000    285.08587    386.22487    493.45689   -22187.448    22224.922   -107.23201    34.764288 
308072000    293.44888     341.2127     574.2576   -22240.127    22256.988    -233.0449     34.77212 
308076000    249.85021     368.0562    189.48615   -22235.079    22293.938    178.57005    34.762522 
308080000    247.61096    411.32117    321.52706   -22254.017    22307.865     89.79411     34.79905 
308084000    248.29433    305.83482    226.94005   -22269.903    22322.239    78.894773    34.773936 
308088000    284.33028    420.96446    295.97712   -22332.243    22347.256    124.98734    34.771912 
308092000    319.97721    385.49233    361.16818   -22357.731    22362.368    24.324144    34.798166 
308096000    264.23292    245.01648    411.07073   -22366.237    22391.102   -166.05425    34.830648 
308100000     245.9568     613.0626    333.87681   -22348.129    22386.482    279.18579    34.845435 
308104000    324.30692     459.6142    408.85744   -22368.969    22373.902    50.756758    34.861646 
308108000    301.09779    261.09153    272.14356   -22393.751    22400.383   -11.052031    34.851603 
308112000     279.9348    341.90023    280.30827   -22407.979    22428.884    61.591953    34.863935 
308116000    285.55497    143.43639    335.93114   -22407.881    22431.651   -192.49475    34.863608 
308120000    283.17162    285.84519    285.40944   -22436.791    22464.782   0.43575726    34.902735 
308124000    260.59871    302.38897    241.86612   -22450.894    22491.494    60.522853    34.909337 
308128000    281.28204    205.55129    235.70648   -22485.224    22506.011   -30.155187    34.882884 
308132000    297.28066    362.43629    347.76481   -22517.882    22525.812    14.671484    34.915949 
308136000    276.80781     553.4095    220.29175   -22517.402    22533.224    333.11776    34.915676 
308140000    316.04337    269.54902    367.33923   -22542.644    22529.062   -97.790211    34.906127 
308144000    294.97078    289.74724    450.98133   -22573.935    22586.718    -161.2341    34.912308 
308148000    248.86581    352.98437    269.57718   -22591.394    22635.355     83.40719    34.884375 
308152000    284.77779    280.21747    311.56442   -22601.347    22635.487   -31.346951    34.893117 
308156000    286.34746    416.01647    278.80562   -22632.051    22649.151    137.21085    34.929196 
308160000    286.94232    165.81262    297.37403   -22671.822    22694.945   -131.56141    34.911298 
308164000    282.63911    266.78769    238.33091   -22685.978    22701.468    28.456777    34.912683 
308168000    299.45587    224.39441    252.63755   -22717.454    22712.162   -28.243134    34.931774 
308172000    313.64064    307.24869    516.77856   -22755.742    22791.264   -209.52987    34.935578 
308176000    277.55121    419.90285    228.98298   -22822.066     22818.32    190.91987     34.92176 
308180000    304.86101    208.00722    214.64758   -22862.235    22876.399   -6.6403626    34.915844 
308184000    275.95859    367.45788    276.93462   -22896.348    22919.861    90.523254     34.93277 
308188000    287.36196    378.87115    377.40476   -22930.231    22961.383    1.4663903      34.9641 
308192000    274.71628    292.95688    424.11581   -22931.115    22958.932   -131.15893    34.947432 
308196000    286.17293    274.00823    246.11502   -22967.704    22996.028    27.893208    34.940565 
308200000    275.45219    318.80895    262.06305   -23014.623    23018.996      56.7459    34.957365 
308204000    270.41882    251.04617    346.62461   -23015.962    23054.062   -95.578441     34.92506 
308208000    281.76998     334.2336    266.29666   -23052.106    23062.164    67.936936     34.92966 
308212000    281.83083    439.75985    428.15147   -23073.156    23085.211    11.608378     34.93994 
308216000    301.95263    294.84788    526.07314   -23074.278    23101.112   -231.22526    34.951203 
308220000    292.28812    449.54484    354.04322   -23104.228    23127.304    95.501613    34.970324 
308224000    265.63022    495.73634    248.08951   -23125.032    23167.947    247.64683    34.959989 
308228000    290.55185     612.4513    255.80299   -23148.256    23177.488    356.64831    34.962474 
308232000    277.44138    242.67118    241.86358   -23169.505    23185.402   0.80759415    34.996106 
308236000    296.30167    305.33857    365.08553   -23194.596    23214.561   -59.746964    34.984864 
308240000    258.47149    302.52054    280.10811   -23206.392    23249.765    22.412433    35.002404 
308244000     302.6938    491.91076    459.09984   -23225.301    23223.127    32.810921    34.988587 
308248000    281.83968    171.25966    341.63844    -23234.92     23258.55   -170.37878    34.972277 
308252000    274.23538    367.71572    295.26511   -23271.907    23298.699    72.450606    34.975294 
308256000    266.88492    427.91394    379.13012   -23296.459    23312.687    48.783821    34.973895 
308260000    307.82669    269.14494    286.69162   -23302.211    23308.119   -17.546675    34.947499 
308264000    300.44229    358.25421    306.55787   -23331.915    23344.302    51.696343    34.963778 
308268000    282.24142    227.05782    223.78436   -23352.471    23364.892    3.2734574    34.966944 
308272000    316.75754    484.45433     318.3573   -23373.987     23367.98    166.09704    34.946295 
308276000    282.90263    470.19462    343.81541    -23350.08    23388.151    126.37921    34.965148 
308280000    244.43345    404.17791    291.16242   -23383.611    23426.712    113.01549    34.970416 
308284000    273.82881    367.75793    336.72396   -23398.655    23434.611    31.033969    34.990798 
308288000    297.12765    351.02976    373.12182   -23438.787    23454.428    -22.09205    34.990015 
308292000    286.96142     354.9526    318.65404   -23440.276    23465.748     36.29856    34.969157 
308296000    260.72833    290.44785    251.12567    -23474.11    23522.994    39.322181    35.003448 
308300000    244.19801    258.83079    310.03166   -23493.046    23565.052   -51.200871    34.964656 
308304000    257.18316    517.23188    267.56196    -23542.03    23584.827    249.66992    34.959158 
308308000    285.99074    427.61857    323.86619   -23589.103    23602.742    103.75238    34.982396 
308312000    257.04528    469.48365    303.10114   -23612.297    23652.821    166.38251    34.958215 
308316000    302.78777    261.64918    316.01055   -23638.698     23655.03    -54.36137    34.949422 
308320000    263.91731    324.38911    175.06555   -23649.244    23684.853    149.32356    34.951342 
308324000    301.61437    386.30837    270.89133   -23677.288    23696.858    115.41703    34.968813 
308328000    264.39518    345.93114    408.40523   -23689.012    23728.425   -62.474084      34.9821 
308332000    295.21506    577.77462    274.10983   -23740.021     23751.16     303.6648    35.004122 
308336000    287.72892    345.02704    357.01381   -23759.785    23784.574   -11.986762    35.025399 
308340000    283.80542    399.12326    237.30299   -23781.061    23791.786    161.82027    35.020708 
308344000    303.21614          421    279.84234   -23814.019    23829.851    141.15766    35.036422 
308348000    284.83596    422.31937    203.42349   -23842.299    23871.629    218.89587     35.05586 
308352000     293.3197     271.0561    253.23674   -23859.386    23885.907    17.819362    35.102882 
308356000    285.57965    285.18231    334.96816   -23878.765    23904.421   -49.785849    35.109911 
308360000    303.97098    683.25263    327.17193   -23917.978     23916.53     356.0807    35.110172 
308364000    277.22448    320.11719    237.79607   -23939.731    23963.671    82.321123    35.056862 
308368000    293.04683    506.33693    303.27008    -23965.82    23985.973    203.06685    35.058559 
308372000    267.86282      397.778     361.8054   -23975.947    24009.149    35.972607    35.077111 
308376000    265.89745    334.66742    232.08084   -23999.455     24036.85    102.58658    35.063882 
308380000    284.48383     480.7698    337.02059   -24059.111    24061.028    143.74921    35.064077 
308384000    303.38491    342.37776    336.97161   -24068.766    24077.255    5.4061454     35.06816 
308388000    293.73549    356.77682    369.66441   -24093.274     24122.84   -12.887585    35.042768 
308392000    290.03331    465.75191    388.07424   -24118.178    24148.481     77.67767    35.015837 
308396000      296.685    486.00835    508.84205   -24145.048    24152.159   -22.833704    34.976559 
308400000    285.43673    332.89441    274.49975   -24149.469     24173.49    58.394658    34.970914 
308404000    293.27432    302.18077    523.55538    -24177.29    24190.185   -221.37461    34.913788 
308408000     311.1002    501.75949    371.48142   -24202.795    24212.291    130.27807    34.909701 
308412000    268.07449    224.03223    384.83253   -24227.881    24259.165    -160.8003    34.906332 
308416000    297.99263     339.4625    354.42094    -24263.51    24278.954   -14.958448    34.931595 
308420000    269.50482    356.46594    306.73534   -24279.333    24310.207    49.730598    34.895661 
308424000    300.74958    598.92463       260.08   -24314.415    24344.959    338.84462    34.885872 
308428000    254.84555    273.67514    369.93915   -24319.434    24377.366   -96.264015    34.863315 
308432000    300.11404    394.30653    537.02832   -24368.882    24382.633   -142.72179    34.894088 
308436000    284.23498    421.65275    492.16951     -24401.2    24410.591    -70.51676    34.901441 
308440000    298.46623    223.75719    287.45415   -24400.828     24418.09   -63.696956    34.907347 
308444000    301.13789    493.12836    440.42785   -24409.717    24437.537    52.700512     34.92426 
308448000    286.21828    261.99974    300.23608    -24450.41      24469.9   -38.236342     34.92086 
308452000    273.38184    363.90614    250.00845   -24476.494    24510.587    113.89768    34.893279 
308456000    314.79722    466.33183    500.23786   -24481.332     24493.11   -33.906036    34.895001 
308460000    291.44147    509.63918    373.40267   -24509.734    24526.543    136.23651    34.895025 
308464000    302.74299    448.15218    493.87184   -24538.143    24553.022   -45.719664    34.927866 
308468000     280.2763      254.689    291.03047   -24587.013    24608.282   -36.341477    34.971785 
308472000    286.16316    487.13041    173.59359   -24623.316    24643.227    313.53682    34.972639 
308476000     279.2524    356.04888    351.93111   -24628.389    24643.719     4.117771    34.960973 
308480000    279.76486    363.73535    245.48894    -24646.05    24650.993    118.24642    34.961361 
308484000    282.37608    242.83775    521.60586    -24664.84    24689.232   -278.76811    34.977824 
308488000    321.89453    579.81114    310.32449   -24689.693    24689.601    269.48665    34.971883 
308492000    321.34845    396.77989    253.02868   -24725.107    24704.806    143.75121    34.970185 
308496000    283.44094     382.2869    206.27755   -24729.264    24753.052    176.00935    34.950118 
308500000    280.50506    276.30048    331.97796   -24766.971    24787.245   -55.677478    34.941234 
308504000     278.5236    527.53609    295.78845   -24764.828    24786.068    231.74763    34.917254 
308508000     270.4299    300.23731    238.38965   -24788.644    24818.857    61.847653    34.922765 
308512000    318.35018    624.10381    413.15955   -24803.011    24811.303    210.94427    34.936473 
308516000      278.661    524.88705    176.18192   -24809.208    24836.051    348.70513     34.97882 
308520000    251.93756    336.13365    333.53774   -24791.536    24843.495    2.5959019     34.98493 
308524000    287.92892      384.607     369.7809   -24819.256    24845.225      14.8261    34.994938 
308528000    291.43442    300.52011    263.95578   -24847.048    24862.171    36.564331    35.012784 
308532000     274.3001    356.52985    309.75247   -24877.895     24880.64    46.777377    35.016798 
308536000      304.182    231.66509    320.35568   -24912.432    24936.072   -88.690584    35.044257 
308540000    280.55679    236.26227      318.821   -24951.128     24957.71   -82.558727    35.056622 
308544000    283.28419    319.10098    160.96477   -24969.218    25007.111     158.1362    35.032432 
308548000    284.41186    222.34745    356.13193   -25005.587    25029.564   -133.78448    35.057086 
308552000    305.24387    304.32001     371.1208    -25045.92    25053.938    -66.80079    35.043853 
308556000    270.76274    339.68938     332.0776    -25060.94    25094.592    7.6117766    35.055754 
308560000    272.17938    355.22923    491.15502   -25107.375    25146.497   -135.92579    35.057522 
308564000    285.28637    231.40959    340.97854   -25136.425    25157.514   -109.56896    35.045625 
308568000    297.11645    314.19549    469.37892   -25140.126    25178.438   -155.18343    35.034917 
308572000    282.87455    180.02394    299.28686   -25153.212    25199.468   -119.26292    35.024931 
308576000     270.1362    428.27774    371.54262    -25160.23    25209.918    56.735125    35.029286 
308580000    281.03763    479.90148     265.9499   -25197.552    25214.497    213.95158    35.036166 
308584000     310.4338    407.49281    260.88659   -25238.715    25263.241    146.60621    35.034934 
308588000    302.79518    369.78766    322.49286   -25254.534    25260.444    47.294799     35.05853 
308592000    292.69345    247.49782    317.79389   -25264.858     25275.43   -70.296066    35.062753 
308596000    272.04745    251.14805    275.32395   -25243.569    25282.465   -24.175894     35.03156 
308600000    288.26387    426.32125    214.12223    -25254.83    25292.514    212.19903    35.014231 
308604000    285.76966    568.61398    380.94974   -25275.081     25302.65    187.66424    35.009313 
308608000    288.54688    384.77592    248.65119   -25293.066    25331.749    136.12473    34.999847 
308612000    271.95575    369.90599    388.41817   -25338.323    25363.429   -18.512175     34.97599 
308616000    294.70348    352.82105    299.29855   -25347.474    25386.001    53.522495    34.985667 
308620000    314.85305    366.82802     271.7271    -25388.56    25409.245    95.100924    34.964661 
308624000    291.32495    308.58847    419.83757   -25388.431    25428.127    -111.2491    34.945182 
308628000    288.83135    364.56382    475.95098   -25420.543    25444.583   -111.38716    34.970231 
308632000    281.37269    213.14891    349.58988   -25450.654    25478.864   -136.44097    34.977455 
308636000    265.88126    346.14257    241.68837   -25467.621    25488.572     104.4542    34.962881 
308640000    304.66539    250.02029    327.92075   -25493.207    25500.868   -77.900452    34.963864 
308644000    267.11643    267.66151    317.08765    -25504.23    25531.548   -49.426138    34.907596 
308648000    260.40695    332.56464    377.16225   -25518.382     25563.75   -44.597609    34.905609 
308652000    305.11525    187.57357    238.99229   -25545.759    25553.976   -51.418719    34.897104 
308656000    283.31884    390.07358    236.46247   -25575.612    25592.515    153.61111    34.847011 
308660000    286.09544    381.26527    270.93651   -25562.852     25587.78    110.32876    34.843932 
308664000    288.62494    397.26902     255.7905   -25611.323    25617.442    141.47851    34.850637 
308668000    282.50483      456.027    139.29465   -25614.916    25645.278    316.73235    34.867138 
308672000    311.15842    446.98286    244.61384   -25630.585     25632.05    202.36902    34.871805 
308676000    271.24743    355.16602    327.89941   -25626.839    25656.834    27.266616    34.879648 
308680000     282.4506    642.14731    291.86472   -25635.997    25649.781    350.28259    34.925485 
308684000    295.13036    241.23671    271.08102   -25638.722    25648.601   -29.844305    34.918487 
308688000    276.17334     302.2929    275.67283   -25642.751    25702.374    26.620073    34.905546 
308692000    258.08834    391.42013     287.1047   -25651.721    25701.529    104.31543    34.920886 
308696000    253.00668    315.93761    565.60445   -25678.086    25711.039   -249.66683    34.886388 
308700000    280.72494    279.10403    238.11994   -25688.128     25731.67    40.984091    34.898695 
308704000    272.24066    297.30183    298.40298   -25671.432    25714.976   -1.1011572     34.90313 
308708000    275.46671    298.13584    295.84364   -25694.505    25726.218    2.2922078    34.896505 
308712000    262.76338    313.74013    232.47214   -25682.027    25734.479    81.267984    34.904565 
308716000    259.16804    366.99975    349.74412    -25692.22    25722.506    17.255636    34.946136 
308720000    295.73463    370.79472    312.08017   -25702.772    25725.253    58.714544    34.937477 
308724000    303.75511    505.35064    306.41328   -25754.391    25768.939    198.93736    34.932307 
308728000    291.98685    187.23051    424.42028   -25781.424    25806.243   -237.18977    34.920407 
308732000    254.57289     336.2263    254.34999    -25814.85    25867.322    81.876311    34.899847 
308736000    296.55389    348.22719    351.22185    -25854.78     25876.76   -2.9946606    34.881013 
308740000    308.04174      447.336    260.68903   -25860.981    25856.042    186.64697    34.869835 
308744000    311.52187    595.73673    324.65974   -25861.832    25869.061    271.07698    34.887954 
308748000    254.58602    310.70961    232.50916     -25860.8    25894.943    78.200444     34.87731 
308752000    291.81968    409.04054    347.23217   -25871.351    25905.109    61.808371    34.872766 
308756000    272.30478    326.58614    289.60223   -25914.259    25928.289    36.983909    34.909121 
308760000    269.84165    504.12889    276.21331   -25922.176    25960.654    227.91558    34.887215 
308764000      313.132    603.92191     345.8633    -25966.27    25990.013    258.05861    34.885365 
308768000    274.75472    235.37785    219.85233   -25976.453    25997.411    15.525519    34.907867 
308772000    293.89727    311.45065    258.05484   -26021.149    26041.919    53.395813    34.902538 
308776000    279.17393    409.07766    301.23213   -26050.281    26072.636    107.84553    34.895316 
308780000    302.13267    210.03732    182.79814   -26092.512    26112.219    27.239175    34.879519 
308784000    262.51509    357.16862    267.55419   -26112.985    26129.574     89.61443    34.857767 
308788000     274.3595     299.4671    298.22938    -26113.84    26169.915    1.2377144     34.85095 
308792000    262.66719    314.56736    485.95292   -26126.093    26173.836   -171.38556    34.824223 
308796000    264.17477     224.8254    205.07859   -26153.121    26196.051     19.74681    34.835159 
308800000    269.44989    501.76003    359.46921   -26189.485    26216.513    142.29082    34.827213 
308804000    285.64396    295.42123    446.43257   -26222.138    26261.621   -151.01134    34.817786 
308808000    270.05678    323.30019    146.45343   -26250.666    26278.956    176.84676    34.831015 
308812000    280.28584    379.00014    269.60096   -26276.876    26307.014    109.39918    34.810041 
308816000    279.11513    319.33096    488.56536   -26311.085      26341.2    -169.2344      34.7733 
308820000    280.56457    259.04343    390.88344   -26343.073        26364   -131.84001    34.785173 
308824000    277.99789    377.24218    249.63453   -26366.418    26395.622    127.60765    34.776407 
308828000    258.52353    353.55498    279.54535   -26401.314    26438.874     74.00963    34.784135 
308832000    268.41737    298.51472    166.56122   -26448.433     26476.35    131.95349    34.751511 
308836000    255.82154    328.22155    265.37803   -26461.748    26504.239    62.843528    34.766508 
308840000     308.6729    362.26857    364.14449   -26528.397    26543.709   -1.8759198    34.772427 
308844000    319.65527    419.68322    323.69563   -26580.572    26569.096    95.987585    34.764392 
308848000    333.28445    197.86091    360.64116    -26613.11    26597.749   -162.78026    34.759706 
308852000     325.6381    385.78865    221.90042   -26615.732    26608.256    163.88823    34.737785 
308856000    287.28677     415.0322    299.08025   -26661.282    26681.886    115.95195    34.752849 
308860000     295.9281    203.22027    323.40669   -26692.199    26712.141   -120.18641    34.735489 
308864000    275.35822    407.81729    267.75257   -26715.297    26751.433    140.06472     34.76149 
308868000     291.6813    365.04065    423.43301   -26754.991    26772.266   -58.392366     34.77834 
308872000    276.19166    584.58796    288.04123   -26760.272    26800.884    296.54673    34.791146 
308876000    299.42099    312.84649    391.61029   -26747.356    26771.574   -78.763802    34.750479 
308880000    261.06057    261.99954    348.92982   -26769.572    26808.294   -86.930285    34.718987 
308884000    280.52338    330.33311    407.45186   -26773.958    26815.957   -77.118756    34.703871 
308888000    277.97494    490.21061    337.71142   -26804.495    26852.706    152.49919    34.731067 
308892000    244.43573    260.32971    163.67513   -26832.599    26869.115    96.654574    34.748455 
308896000    264.76656    489.28539    235.39292   -26839.633    26879.982    253.89247    34.743819 
308900000    287.06073    357.90589    353.07601    -26846.58    26878.849    4.8298786    34.748535 
308904000    288.60857    419.51298    275.27532   -26853.411    26887.234    144.23766     34.76919 
308908000    315.17713     539.3736    375.06111   -26898.063    26910.536    164.31249     34.79452 
308912000    317.50459    338.14505    363.59544   -26922.005    26941.306   -25.450389    34.794646 
308916000    285.32328    353.87497    536.99275   -26917.562    26943.206   -183.11778    34.780823 
308920000    298.00698     448.1149    393.77324    -26959.18    26954.436    54.341666    34.758306 
308924000    283.94242    334.71219    369.27362   -26962.195    26993.108   -34.561426     34.77909 
308928000    253.91301    313.92114    226.11569   -26987.523    27020.124     87.80545    34.749098 
308932000    277.68562    345.37412    250.11442   -27001.641    27020.173    95.259699    34.763629 
308936000    287.46053    354.93888    285.58872   -27012.859    27051.488    69.350158    34.758059 
308940000    295.80801     473.5176    348.46813   -27040.361    27052.326    125.04947    34.745583 
308944000    276.14699    448.70972    325.21268   -27058.272    27084.277    123.49704     34.74161 
308948000    285.06797    394.73336    234.35194   -27067.011    27099.938    160.38142    34.702902 
308952000    270.01662    411.37471    278.94148   -27070.604    27109.917    132.43323    34.709742 
308956000    283.27862    519.87962    381.63115   -27104.289    27141.078    138.24847    34.696478 
308960000    302.89931    518.77721    273.97483   -27125.079    27138.081    244.80238    34.670968 
308964000    322.17869    435.08516    363.66942   -27140.668    27134.873    71.415734    34.713253 
308968000    278.44116    224.41626    257.82921   -27116.769    27149.214   -33.412943    34.688037 
308972000    271.85642    303.75557     416.1919   -27140.755     27182.52   -112.43633    34.684615 
308976000    296.99783    431.56228    321.49225   -27179.093    27192.292    110.07003    34.689591 
308980000    291.08064    257.52178     290.6267   -27170.202    27213.064   -33.104919    34.642538 
308984000     294.3391    419.99142    266.32405   -27209.757    27223.508    153.66737    34.669043 
308988000    273.54944    310.24871    244.91543   -27215.583    27248.937    65.333282    34.690306 
308992000    257.96264    333.12679    213.58657   -27246.769    27285.128    119.54021    34.684999 
308996000    264.75869    517.39338    306.90468   -27273.853    27301.141    210.48869    34.717879 
309000000      288.904    298.30002    448.55119   -27265.972    27302.907   -150.25117    34.700387 
309004000    260.24646    292.60353    405.61602   -27275.007     27305.56   -113.01249    34.702967 
309008000    303.52451    457.58334     477.7279   -27305.947    27322.174   -20.144558    34.700996 
309012000     311.6568    252.25108    360.68918   -27351.208    27364.697    -108.4381    34.688981 
309016000     267.9252     294.8625    236.09664   -27366.804    27408.751    58.765863    34.664745 
309020000    272.85831      317.228    356.66262   -27380.622    27414.559   -39.434625    34.678588 
309024000    243.18734    404.09412    319.69063    -27378.94    27431.538    84.403491    34.656055 
309028000    301.13387    264.45841    131.45898   -27418.875    27435.367    132.99943    34.656879 
309032000    253.40705     295.9836    237.29666   -27416.955    27457.651     58.68694    34.648181 
309036000    282.35439    219.78374    323.73875   -27440.451    27486.374     -103.955    34.628147 
309040000    296.23341    456.98747    356.51407   -27512.615    27525.985    100.47341    34.577795 
309044000    258.38138    386.17762    226.00347   -27529.127    27559.467    160.17415    34.568842 
309048000    285.63678    269.52566     382.0596   -27525.141    27557.145   -112.53394    34.534592 
309052000    266.90519    387.36319    285.15315   -27545.628    27587.886    102.21004    34.530897 
309056000    295.04947    406.87294    388.53013   -27603.737    27614.028     18.34281    34.528604 
309060000    296.43396    499.37988    346.71481   -27601.853     27616.55    152.66506    34.530981 
309064000    291.65894    189.42889    215.57234    -27627.09    27654.385   -26.143451     34.50409 
309068000     289.9565    496.15695    424.72737   -27652.733    27666.812    71.429575    34.515625 
309072000    323.63822    521.78628    283.98134   -27696.333    27706.218    237.80494    34.539583 
309076000    290.08901    556.25139    298.45911   -27738.996    27759.988    257.79228    34.544211 
309080000    282.50496    531.30015    323.19462   -27736.336    27781.576    208.10553    34.576133 
309084000    262.90061    330.00849    271.12445   -27749.568    27797.607    58.884038    34.560234 
309088000    299.77832    528.83369    203.14644   -27772.137    27795.777    325.68725    34.563797 
309092000    282.71291    231.24937    382.28201   -27791.027    27800.241   -151.03265    34.533667 
309096000    317.89919    197.54406    446.14113   -27794.294    27804.604   -248.59708    34.531118 
309100000    255.77987    312.01788    357.00035   -27805.498    27849.181   -44.982472    34.565248 
309104000    303.52165    373.30734    293.69197   -27847.483    27869.319    79.615368    34.568079 
309108000    306.23813    319.75856    192.57295    -27866.38    27893.028     127.1856    34.590081 
309112000    246.36348    209.30163    302.24612   -27885.487    27942.811   -92.944496    34.578289 
309116000    277.67997    382.75595     395.1643   -27928.009    27945.475   -12.408347    34.624444 
309120000    288.21788    417.01102    246.46561   -27952.948    27976.945    170.54541      34.6088 
309124000    290.90781    218.51172    247.57518   -27973.167    27995.165   -29.063463    34.572914 
309128000    264.94864    209.89615    287.37214   -27988.909    28040.853    -77.47599    34.570016 
309132000    293.66603    375.27381     363.7021   -28017.639    28043.517    11.571712    34.562333 
309136000     266.8106    266.31111    117.93146   -28046.091    28075.177    148.37965    34.537449 
309140000    297.03098    257.28835    340.89818   -28075.856    28104.859   -83.609829    34.569924 
309144000    287.25485    287.06711    564.60709   -28102.221    28132.835   -277.53998    34.571929 
309148000    285.64644    292.47814    345.57891    -28125.08    28152.028   -53.100768    34.572826 
309152000    306.46617    390.71543    295.51063   -28159.992    28165.513    95.204796    34.580016 
309156000     276.5759    371.73951    374.23644   -28160.868    28191.168   -2.4969266    34.570017 
309160000    283.90397    255.95058    432.23205   -28183.454    28206.167   -176.28147    34.534992 
309164000    277.13309     370.8806    237.94469   -28205.407    28232.058    132.93592    34.541141 
309168000    304.79338    186.73377    314.94463   -28244.255    28263.291   -128.21086    34.560641 
309172000    328.17746     326.9724    313.20684   -28248.772    28249.009    13.765566     34.55179 
309176000    283.48374    261.81029    311.74983    -28226.19    28247.276   -49.939533    34.548014 
309180000    268.79851     273.8659    497.06801   -28216.071    28262.083   -223.20211    34.562155 
309184000    258.41241    255.01224    461.20959   -28237.858     28271.54   -206.19735    34.544376 
309188000    289.93069    294.25747    378.42231   -28271.609    28295.119   -84.164841    34.526905 
309192000    291.04019    330.61323    516.75805   -28284.456    28304.403   -186.14482    34.518075 
309196000    275.57212    222.92563    316.91139   -28290.721    28329.158    -93.98576     34.50767 
309200000    305.90818    421.67773    435.76951   -28332.814    28344.042   -14.091778    34.533954 
309204000    312.29349    518.97319    480.31625   -28349.738     28369.72    38.656947    34.526202 
309208000    273.51689    477.10863    379.73843   -28359.832    28408.368    97.370196    34.528616 
309212000    297.85309    353.37551    535.85053   -28380.891     28422.18   -182.47502    34.535198 
309216000    260.92333    348.97756    273.06823    -28392.32    28446.513     75.90933     34.53131 
309220000    275.06334    408.41884    376.81316   -28435.502    28446.239    31.605678    34.538319 
309224000    293.28062    381.59761    390.77686   -28421.685     28462.08   -9.1792542    34.537503 
309228000    290.90629    265.09482    369.72443   -28442.166    28467.016   -104.62961    34.559482 
309232000    283.00192    478.08647    436.68901   -28474.087    28510.372    41.397465    34.555367 
309236000    285.88342    210.48729    336.06565   -28496.918    28527.533   -125.57836    34.568745 
309240000    307.83559    505.50904    244.98977   -28520.985    28547.434    260.51927    34.588817 
309244000    276.65992    300.65429    366.65596   -28542.346    28563.951   -66.001671    34.585369 
309248000    302.88572    269.63311    388.72186   -28562.396    28575.436   -119.08875    34.570116 
309252000    298.25731    567.04534    265.16537   -28569.613    28606.571    301.87997    34.569516 
309256000    289.06521    406.57201     326.2422    -28596.34    28624.894    80.329813    34.586385 
309260000    274.14031    326.23811    431.73444    -28621.54    28656.326   -105.49632     34.57791 
309264000    277.92195    479.10895    220.06286   -28649.385    28685.018    259.04609    34.555754 
309268000    289.82044    567.19197    282.80739   -28669.019    28689.323    284.38459    34.537217 
309272000    307.43538    469.45923    454.48883   -28685.519    28707.868    14.970397    34.540288 
309276000    262.77838    266.43016     235.5847   -28710.427    28745.552     30.84546    34.562676 
309280000     297.6018      424.564    376.17126   -28743.204    28778.233    48.392745    34.551629 
309284000    274.81394    332.47012    165.26208   -28774.688     28815.93    167.20803    34.500124 
309288000    277.01574    323.61839    300.11617   -28807.407    28824.405    23.502215    34.515129 
309292000    306.05379    517.69781    411.45002   -28826.689    28835.342     106.2478    34.481907 
309296000    303.84869    312.72661    353.83493    -28873.45    28877.661   -41.108317    34.477189 
309300000     279.2619    381.70171    309.51196    -28899.69    28917.052    72.189756    34.490737 
309304000      293.044    442.62018    224.99469   -28913.428    28935.095    217.62549    34.488577 
309308000    313.79559    390.22807    374.39824   -28935.466    28945.153    15.829829    34.483946 
309312000    274.80489    298.73892    316.08589   -28940.797    28972.016   -17.346972     34.48888 
309316000    295.48829    208.76293    445.50054   -28964.145    29003.487   -236.73762    34.496386 
309320000    314.45009    337.06307      251.288   -29020.204    29017.277    85.775064    34.498241 
309324000    301.82213    358.39308    529.49021   -29031.995    29045.555   -171.09713    34.469217 
309328000    264.86049    250.72907    237.50092   -29036.717    29085.968    13.228147    34.466555 
309332000     252.2019    358.56483    328.65711   -29043.659    29095.261    29.907714    34.457852 
309336000    257.90472     207.1883     266.4866   -29075.826    29114.542   -59.298299     34.44881 
309340000    259.04657     416.0905    315.48549   -29100.288    29149.007    100.60501    34.466082 
309344000    293.44127    300.35556    261.00044   -29158.123    29174.771    39.355118    34.461142 
309348000    277.75929    223.11548    366.90705   -29182.449    29221.433   -143.79157    34.474393 
309352000    260.59236    363.65975    210.82408    -29185.75    29246.356    152.83567      34.4623 
309356000    288.24178    363.17658    311.22217   -29228.289    29264.505    51.954416    34.448413 
309360000    308.76942    633.68741    284.64334   -29266.603    29290.841    349.04406    34.452756 
309364000    283.41954    674.59242    382.94806   -29283.149    29316.753    291.64436    34.456495 
309368000    273.66143    636.54535    315.18789   -29305.988    29348.907    321.35746    34.473392 
309372000    267.63586    330.27871     392.8918   -29312.705    29362.609   -62.613092    34.477251 
309376000    257.28591    261.96092    333.32409   -29326.958    29385.303   -71.363173     34.48369 
309380000    263.33722     555.8516    269.70881   -29330.607    29390.339     286.1428    34.493654 
309384000    277.51179    186.23285    362.02953   -29376.751    29413.468   -175.79669    34.454041 
309388000     301.7807    466.78316    266.66177   -29414.344    29421.163    200.12139    34.425198 
309392000    301.00511    398.83801    194.21963     -29427.7    29451.776    204.61837     34.39497 
309396000    273.16109    301.23952    293.38055   -29443.512    29484.613    7.8589688    34.414701 
309400000    273.66059    546.55987    337.37712   -29472.276    29504.091    209.18275    34.433748 
309404000    305.25086    293.85907    411.42513    -29494.07     29524.04   -117.56606    34.425477 
309408000    262.42198    265.83161    163.01447   -29517.128    29561.592    102.81713    34.432478 
309412000    269.78256    211.47969    402.99458   -29558.304    29587.595   -191.51489    34.436525 
309416000    279.36113     372.5564    448.47338   -29557.533    29602.899   -75.916979    34.455884 
309420000    270.90941    288.18688    350.46687   -29585.267    29625.891   -62.279984    34.455195 
309424000    287.07384    363.45237    303.68026   -29616.357    29646.385    59.772107    34.510828 
309428000    292.34185     383.1672    406.53305   -29637.759    29669.471   -23.365854    34.508916 
309432000    280.27013    157.77314    245.29915   -29657.947    29692.715    -87.52601    34.499493 
309436000    295.07581    210.79676    289.13633   -29695.343    29719.404   -78.339568    34.538802 
309440000    297.87635    471.67361    352.29079   -29702.474     29738.17    119.38283     34.53052 
309444000     301.2597    268.67625    322.63564    -29720.84    29756.168   -53.959387    34.545811 
309448000    278.83153     552.2114    392.05624   -29729.093    29792.449    160.15517    34.543696 
309452000    277.09072    382.60133    292.86226   -29778.946    29804.991    89.739066    34.531094 
309456000    312.95452    416.67853    345.33898   -29792.726    29813.086     71.33955    34.509491 
309460000    298.89676    200.26367    378.31424   -29799.248     29821.61   -178.05058     34.52204 
309464000    299.18557    376.11005    411.78056   -29827.886    29852.338   -35.670514    34.518316 
309468000    269.40347    295.98612    389.11058   -29834.205    29860.342   -93.124453    34.517418 
309472000    260.28313    318.91248    360.41018   -29874.492      29901.8   -41.497695    34.526178 
309476000    286.02793    200.23738    498.81398   -29896.555     29909.45    -298.5766    34.512156 
309480000    289.87759    247.84735    555.68402   -29921.988     29939.05   -307.83666    34.481885 
309484000    291.60701    474.70331    308.94831   -29953.763    29975.652      165.755    34.483588 
309488000    314.32582    541.21272    242.47522   -29974.881    30005.074     298.7375    34.479667 
309492000    282.37686    340.35591    226.47643   -30004.993    30032.653    113.87948    34.494829 
309496000    273.40987    482.98109     347.5587    -30019.29    30064.169    135.42239    34.483586 
309500000    297.81438    407.46852    311.80029   -30060.204    30068.691    95.668235    34.458541 
309504000    286.42595    317.98908    394.24306    -30064.23     30095.88   -76.253974    34.452652 
309508000    275.53071    398.82866    256.36435   -30098.995    30139.036    142.46431    34.486646 
309512000    297.90308    300.60977    327.03983   -30159.062    30178.552   -26.430056    34.484826 
309516000    304.87647    313.88234    247.13624   -30188.425    30199.284    66.746097    34.503735 
309520000    267.76402     323.1367    271.40697   -30201.934    30224.582    51.729729      34.4954 
309524000    271.74007    404.52762    202.01134    -30190.11    30247.791    202.51628    34.524638 
309528000    290.55462     513.5259    181.44561   -30234.699    30253.928     332.0803    34.534596 
309532000    291.76413    296.89472    418.96423   -30240.579    30274.947   -122.06951    34.513102 
309536000    276.49813    329.40615    297.10875   -30248.042    30283.832    32.297404    34.516953 
309540000    275.12467    391.24438    208.89248   -30261.505    30306.575     182.3519    34.535166 
309544000    266.93267    420.82072    271.04292   -30276.454    30316.251     149.7778    34.526745 
309548000    268.03182    401.77502    241.00393   -30287.933    30330.017    160.77109    34.527583 
309552000    306.16917    430.60657    407.34005   -30306.575    30319.871    23.266514    34.521728 
309556000    263.33883    504.59656    304.17054    -30293.18    30345.335    200.42603     34.49531 
309560000    312.42187    531.91555    235.95228   -30308.296    30321.083    295.96327    34.491166 
309564000    270.48125    415.92217    316.28961   -30315.298    30339.745    99.632561    34.499803 
309568000    293.32997    340.00032    463.99356   -30338.145    30364.224   -123.99324    34.499114 
309572000    309.00102    512.17887    362.35482    -30358.82    30379.233    149.82405    34.502558 
309576000    320.36331    402.83505    310.68871   -30380.541    30374.624    92.146341    34.487495 
309580000    299.58286    445.54209    392.05779   -30396.675    30422.349    53.484302    34.497709 
309584000    271.94693    160.16061      329.344   -30396.482    30422.424   -169.18338    34.481889 
309588000    326.04854    708.71479    202.19617   -30424.252    30435.647    506.51862    34.499045 
309592000     291.3259    230.56435    299.29538   -30442.347    30455.162   -68.731035     34.49913 
309596000    318.90456    306.70154    406.19683    -30445.31     30481.43   -99.495293    34.505531 
309600000    285.65832    428.37324    266.59355   -30456.838    30501.448     161.7797    34.493828 
309604000    279.31062    253.76321    249.78673   -30459.876    30504.932    3.9764773    34.485398 
309608000    302.02646    233.77857    451.02677   -30481.563    30519.623    -217.2482    34.488135 
309612000    250.67157    256.07885    158.01699    -30492.09    30548.148    98.061861    34.484656 
309616000    301.50762    343.17486    354.65106   -30530.805    30553.746   -11.476203    34.485269 
309620000    297.17833     324.5432    433.60758   -30549.379    30589.014   -109.06438    34.479207 
309624000    299.22761    378.27674    300.51194   -30579.276    30606.549    77.764803    34.462622 
309628000    286.52948    284.67772    298.92674   -30598.063    30630.428   -14.249015    34.477594 
309632000    312.42186    283.30581    422.47807   -30609.584    30632.264   -139.17226    34.481076 
309636000    279.91136     240.3579    246.84118   -30647.462    30679.611   -6.4832842    34.502791 
309640000    292.49598    272.74333    269.34761   -30690.464    30717.824     3.395723     34.51837 
309644000    268.18391    159.99864    147.27332   -30718.349    30762.594    12.725324    34.540418 
309648000    291.18583    220.60259    355.10096   -30741.664    30775.337   -134.49837     34.53753 
309652000    292.16655    447.10762     367.4089   -30800.069    30831.294    79.698721    34.539872 
309656000    289.06663    476.68921    321.98034   -30833.724    30860.079    154.70886    34.515163 
309660000    285.38058    292.83168    348.32128   -30832.673     30868.78   -55.489606    34.528525 
309664000    285.38539    226.63849    377.73574   -30868.119    30883.266   -151.09725    34.493187 
309668000    300.03994    582.32695    394.84824   -30899.368    30912.515     187.4787    34.507495 
309672000    277.63595    300.50853    242.84194   -30905.325    30943.069    57.666593    34.490643 
309676000    264.95968    366.10731    238.24397    -30919.87    30957.856    127.86334    34.502692 
309680000    260.13685    434.63093    306.47125   -30943.785    30985.014    128.15967    34.511656 
309684000    276.87512    259.65412    318.42234   -30988.406    31012.322   -58.768225    34.514492 
309688000     305.5624    400.19085    225.95322   -31011.879    31008.437    174.23763    34.502478 
309692000    304.39471    374.11923    421.62342   -31029.331    31032.553   -47.504195    34.503217 
309696000    294.37029    321.04281    472.98213   -31012.548    31039.501   -151.93933    34.513485 
309700000    272.13618    509.38685    285.03927   -31034.851    31068.387    224.34757    34.514253 
309704000     307.0812     222.1234    231.28594   -31069.502     31077.12   -9.1625375    34.516667 
309708000    294.91298    400.80845    311.29547   -31062.004    31091.169    89.512989     34.54142 
309712000    266.03002     330.9833    330.71849   -31063.177    31099.111   0.26481525    34.544539 
309716000    277.50471    411.07973    263.83232   -31080.675    31113.837    147.24741     34.55254 
309720000    302.11971    369.86558    311.43423   -31102.348    31130.696    58.431351    34.550535 
309724000    268.01349    378.11305    232.06291   -31106.308    31147.805    146.05014    34.576062 
309728000    312.88401    295.72304    371.04195   -31158.037    31158.653   -75.318905    34.584187 
309732000    286.41664    235.23249    368.25415    -31175.96    31208.579   -133.02166    34.575728 
309736000    306.55265    410.93887    438.54668   -31226.912    31227.218   -27.607812    34.594082 
309740000    278.72753    197.70905    445.21778    -31247.37    31278.342   -247.50873    34.592335 
309744000    288.46896    221.73572     392.0048   -31260.219    31279.814   -170.26908     34.61372 
309748000    289.53162    490.75631    281.24708   -31309.002    31318.163    209.50923    34.623604 
309752000    294.83994    214.11929    126.19837   -31345.898    31380.652    87.920915    34.633134 
309756000    283.66562    347.79763    408.01433   -31381.631    31401.317   -60.216702    34.623179 
309760000    259.29624    341.40277    308.32439   -31385.222    31445.101    33.078379    34.637805 
309764000    249.12048    280.37901    368.25365   -31419.492    31462.664   -87.874644    34.628359 
309768000    286.07778    350.93909    302.16414   -31451.268     31472.57    48.774943    34.636282 
309772000    301.17252    404.28065    219.87927   -31459.369    31484.794    184.40138    34.641683 
309776000    300.73928    403.27497    252.89038    -31475.38     31500.32    150.38459    34.648491 
309780000    275.64454     492.3099    324.24834   -31501.334    31556.081    168.06156    34.654889 
309784000    287.67703    397.67462    391.01014   -31537.615    31563.409    6.6644805    34.657111 
309788000    275.88254    442.59426    403.76853   -31545.829    31570.662    38.825732     34.65457 
309792000     295.3878    645.05235    512.87128   -31576.816    31604.841    132.18107    34.686031 
309796000    239.64123    238.28685      197.194   -31572.451     31633.48    41.092849    34.685111 
309800000    271.84309    201.09287    286.88434   -31588.028    31625.639   -85.791474    34.692483 
309804000    275.30932    413.47143     322.7591   -31600.431    31637.977    90.712328    34.708447 
309808000    283.08765    305.58552    427.12973   -31624.176    31652.965   -121.54421     34.72483 
309812000    278.31872    475.12519    219.67269   -31642.368    31689.706     255.4525    34.734225 
309816000    280.91973    328.00352    315.46306   -31670.826    31721.192    12.540463    34.735277 
309820000    278.05503    403.89029      435.563   -31704.492    31747.219   -31.672712    34.701932 
309824000    277.92467    325.19377    400.62409   -31729.536    31758.731    -75.43032    34.731801 
309828000    308.42859    341.58826    400.57945   -31751.885    31760.565   -58.991192    34.753361 
309832000    274.45126    510.16926    206.77989   -31757.823    31802.965    303.38936    34.730386 
309836000    272.73777    232.58069    332.94267   -31787.665    31828.151   -100.36198    34.732469 
309840000    300.63598    286.82113    283.07024   -31824.603      31850.1    3.7508899    34.704122 
309844000     257.5646     204.7015    295.06987   -31830.231    31877.709   -90.368371    34.691869 
309848000    261.52241    331.61052    356.19524   -31858.983    31912.291   -24.584719    34.683406 
309852000    274.11001    516.82313    354.97603   -31893.134     31932.76    161.84711     34.69339 
309856000    306.32773    257.51244    513.90825   -31925.545    31936.586   -256.39581    34.683148 
309860000    277.02852    315.45379    256.94601   -31903.198    31940.364    58.507775    34.675171 
309864000    264.86282    261.53823    256.38415   -31914.219    31962.703    5.1540709    34.675704 
309868000    285.53457    216.65629    449.05579   -31955.383    31977.405    -232.3995    34.669986 
309872000    262.61238    277.33979     433.7745   -31961.104    32006.968   -156.43471    34.650549 
309876000    254.88395    419.48104    249.24964   -32005.365    32043.218     170.2314    34.662593 
309880000    311.43135     312.4329    372.05593   -32060.198    32070.398   -59.623025    34.643219 
309884000    311.86691     314.9254    223.76858   -32083.551    32078.224    91.156818    34.647857 
309888000    271.97261    394.76081    345.24076   -32069.662    32101.551    49.520046    34.639589 
309892000    248.59626    326.95286    375.73574   -32072.506    32124.729   -48.782885     34.62898 
309896000    267.24152    280.18956    368.51008   -32102.423    32148.062   -88.320521    34.620189 
309900000    284.95093    461.79411    328.95936   -32126.807    32156.218    132.83475     34.65889 
309904000    291.68331    340.19257    220.96472    -32141.36    32170.017    119.22784    34.665391 
309908000    278.20813    348.13997     329.2573   -32163.381    32197.966    18.882668    34.659429 
309912000     271.9917    423.46888     264.9295   -32189.902    32226.775    158.53938    34.677189 
309916000     288.3075    331.81625    381.56791   -32214.758    32260.693   -49.751658    34.663024 
309920000    281.64074    304.88199    464.82459   -32203.218    32247.333   -159.94259    34.651114 
309924000    296.44653    333.18379    332.04984   -32243.986     32266.75    1.1339453    34.645828 
309928000    303.45435    509.34761    339.22347   -32273.845    32295.825    170.12414    34.663918 
309932000       273.45    367.56514    173.93303   -32312.553    32351.279    193.63211    34.649246 
309936000    261.27664    409.00317    337.87063   -32339.517    32364.407    71.132541    34.650188 
309940000    272.99874    484.41465    340.44816   -32337.297    32378.807    143.96649    34.635514 
309944000    302.50848     249.0784    434.40894   -32377.512    32385.855   -185.33054    34.607446 
309948000    269.78105    162.56887    273.45523    -32348.65    32385.081   -110.88636    34.590057 
309952000    287.50711    517.94564    493.67567   -32400.412    32425.525    24.269968     34.57981 
309956000     259.6113    310.55636    264.59279   -32425.444    32464.617    45.963576    34.572272 
309960000    273.41865    462.93932    375.09828   -32466.295    32500.202    87.841038    34.578625 
309964000    281.94725    560.24896    274.72793   -32514.383    32540.474    285.52103    34.567477 
309968000    286.78138    257.52394     170.7408   -32554.534    32573.306     86.78314    34.584818 
309972000    275.28898    404.65686    327.23003   -32582.056    32629.663    77.426824    34.589494 
309976000    299.15141    242.46051    225.40498   -32612.287     32652.49    17.055531    34.582757 
309980000    261.64207    287.94516    300.84991   -32615.198    32677.684   -12.904749    34.605927 
309984000    315.15909    430.88419    302.62402   -32681.994    32699.662    128.26018    34.608153 
309988000    284.32479      495.416    250.31426   -32691.423    32722.383    245.10173    34.600102 
309992000    291.85895    451.93375    280.44844   -32729.781    32761.468     171.4853    34.603721 
309996000     287.9043    462.42901    350.30096   -32766.393    32791.124    112.12805    34.602771 
310000000    273.75694    439.50739     252.2609   -32770.764    32811.115    187.24649     34.59213 
310004000    299.03888    500.38476    186.09713   -32797.735     32833.28    314.28763    34.606828 
310008000    230.23425    242.06185     211.1748   -32820.941    32872.855    30.887049    34.588203 
310012000    291.04637    437.80383    181.40312   -32862.171    32902.033    256.40071    34.589305 
310016000    296.55661    316.92522    336.90487   -32908.586    32919.558   -19.979647    34.610015 
310020000    308.41974    190.23164    378.33572   -32932.718    32947.996   -188.10409    34.601425 
310024000    282.62474    424.45054     317.4782   -32960.396    32961.287    106.97235    34.604368 
310028000     303.9256    321.56601    320.67596   -32975.208    32985.825   0.89004961    34.601442 
310032000    320.00844    465.05645    317.79997    -33020.29    33014.326    147.25648    34.583647 
310036000    270.57343    386.69968    321.95966   -33020.787    33057.584    64.740014    34.590967 
310040000    256.03881    240.45662    261.32374   -33042.618    33071.939   -20.867116    34.577616 
310044000    311.27232    414.27417    361.48292   -33070.075    33077.741    52.791249    34.607237 
310048000    265.68742    249.10217    259.64023   -33088.784    33111.794   -10.538061    34.625424 
310052000    281.91985    231.62107    380.69382   -33099.501    33123.897   -149.07276    34.609803 
310056000    266.24692    148.16841    168.74228   -33117.292    33149.354   -20.573871     34.59942 
310060000    290.98142    359.07116    216.73226   -33139.705    33188.039    142.33891    34.599827 
310064000    316.08886    309.27666    386.56159   -33169.274    33198.765   -77.284928    34.609949 
310068000    271.59668    304.57683    263.19022   -33192.548    33222.067    41.386605    34.589943 
310072000    285.28473    443.82553    314.06914   -33208.827      33244.2    129.75639    34.573352 
310076000    254.05084    350.14767    162.64731   -33243.757    33295.897    187.50037     34.58918 
310080000    272.21517    281.08501    240.43725   -33267.392    33308.461    40.647759    34.591711 
310084000    276.08812    418.07225    371.95867   -33287.631    33329.742    46.113582    34.600368 
310088000    284.29014      453.476    303.99594   -33316.352    33349.107    149.48006    34.619174 
310092000    298.32865    579.19532    257.22407    -33356.99     33384.72    321.97124    34.603139 
310096000     252.4727    206.03136    320.63805   -33377.606    33414.029   -114.60669     34.58168 
310100000    256.35631    419.37594    340.95576   -33369.935     33435.11    78.420175      34.5633 
310104000    297.93946    372.79721    186.31805   -33396.193    33442.315    186.47916    34.580875 
310108000     316.4873    354.29761    429.31466   -33429.089    33453.859   -75.017047     34.61217 
310112000    294.30996    386.22879    417.97839   -33454.217    33489.362   -31.749598    34.605204 
310116000    298.68626    325.45831    445.60351   -33490.414     33510.74    -120.1452    34.619273 
310120000    296.19917    330.57926    409.99167    -33545.34    33561.399   -79.412404    34.614336 
310124000    281.72209    262.06315    315.64933    -33574.01    33602.685   -53.586183    34.609231 
310128000    270.63565    344.95843    384.98153   -33599.673     33622.73     -40.0231    34.629966 
310132000    308.73966    511.03012    211.57581   -33614.641    33632.457    299.45431     34.65692 
310136000    278.35522    391.01529    529.21753   -33652.663    33659.042   -138.20224    34.647058 
310140000    268.25093    474.91765    318.85707   -33673.113    33703.421    156.06058    34.674995 
310144000     264.0322    375.43563    331.02212   -33702.484    33738.559    44.413506    34.692834 
310148000    310.19338    606.62102    378.41733     -33731.7    33747.622    228.20369    34.663077 
310152000    245.67977    488.86625    270.63605   -33758.642    33807.408     218.2302    34.675773 
310156000    265.03642    278.37125    326.69651   -33777.781    33819.119   -48.325258    34.663137 
310160000    291.33714    390.93481    193.79211   -33844.142    33854.834     197.1427    34.655586 
310164000    305.81221     469.9887    288.50426   -33865.197    33874.745    181.48444    34.657615 
310168000    295.21234    372.92412    427.72665   -33881.795    33891.667   -54.802532    34.668721 
310172000    301.47646    401.42548    387.06594   -33924.889    33955.026    14.359541    34.635003 
310176000    287.70506    453.65385    439.60052   -33979.981    33981.891     14.05333      34.6221 
310180000    286.43152    435.70064    220.14518   -34024.887    34047.142    215.55545    34.626609 
310184000    301.50466    376.44233    242.21272   -34054.794    34063.628    134.22961    34.598626 
310188000    332.90704    298.63501    338.90874    -34101.24    34100.675    -40.27373    34.598256 
310192000    292.84073    366.73479    224.42517    -34093.48    34118.774    142.30962    34.586383 
310196000    302.13229    357.49358    376.58288   -34107.099    34134.287   -19.089293    34.581331 
310200000    279.17295    352.49649    298.83948   -34122.563    34154.965    53.657009    34.595914 
310204000    274.13806    515.15168    304.15935   -34165.807    34184.602    210.99233    34.589118 
310208000    286.68246    322.80065     332.2373   -34183.758    34226.414   -9.4366548    34.616899 
310212000    284.66676    310.84941     480.3986   -34188.705    34237.263   -169.54919    34.617493 
310216000     276.7342     320.2158    338.29058   -34230.877    34256.028   -18.074783    34.628726 
310220000    275.24339    386.52285    171.11313   -34261.445     34299.68    215.40971    34.600918 
310224000    284.12971    278.35089      564.342   -34272.559    34295.428    -285.9911    34.590944 
310228000     271.6031    288.12146     154.7644   -34276.706    34330.782    133.35705    34.570642 
310232000     274.6828    346.88143    328.41747   -34293.373    34335.765    18.463964     34.58086 
310236000    247.93406    293.21768    285.13416   -34289.759    34357.037    8.0835216    34.588155 
310240000    286.73043    286.87282    188.47674   -34315.483    34369.259    98.396072    34.612964 
310244000     285.5034    476.38753    384.06846   -34366.771    34410.138    92.319069    34.605826 
310248000     270.0673    235.09355     211.3032   -34388.532    34437.836    23.790348    34.587454 
310252000    291.01601     301.7831    312.80282   -34395.025    34430.997   -11.019717    34.596826 
310256000    270.53126    236.78524    183.42514   -34391.772    34436.002    53.360106    34.591398 
310260000    289.22782    356.16815    326.98914     -34416.2    34480.407    29.179016    34.594747 
310264000     277.1753      371.546    280.16144   -34479.653    34504.614    91.384555    34.597834 
310268000    310.87129     350.1354    267.88652   -34491.536    34509.124    82.248884     34.58841 
310272000    302.95078    391.64593    374.63942    -34529.26    34539.257    17.006508    34.571015 
310276000    282.93556     447.5309    325.20073   -34534.824    34563.026    122.33017    34.561067 
310280000    302.33607    325.36958    347.63836   -34566.685    34594.472   -22.268781    34.574847 
310284000    280.13068    691.23139    198.62747    -34590.42    34615.923    492.60392    34.574977 
310288000    289.14834    290.91367    401.80917   -34609.802    34628.143    -110.8955    34.569768 
310292000    270.99612    419.62614    239.59699   -34644.041    34652.532    180.02915    34.568048 
310296000    299.71137    384.33454    266.98915   -34666.445    34698.031    117.34539     34.57995 
310300000    288.97995    659.14861    303.29474   -34706.121    34737.195    355.85388    34.588526 
310304000    269.40614    350.87354    190.39529   -34726.876    34773.958    160.47825    34.604746 
310308000    272.00344    227.71852     282.8256   -34760.781    34793.577   -55.107084    34.614913 
310312000     292.3273    279.76028    430.05051   -34786.807    34805.425   -150.29023    34.603743 
310316000    271.82963     181.5088    185.92468   -34793.187    34828.689   -4.4158802    34.643097 
310320000    302.75092    367.57961    385.21474   -34822.109    34847.312   -17.635128    34.627444 
310324000    287.78433    308.25884    230.80026   -34838.468    34863.808    77.458582    34.627065 
310328000    268.16187    201.62704    277.80476   -34857.645    34884.902   -76.177722      34.6213 
310332000    302.17703    320.75475     427.7512   -34868.528    34872.185   -106.99645      34.6101 
310336000    288.25178    366.78383    315.58722    -34914.17    34938.009     51.19661    34.626534 
310340000    318.18784    540.98911    180.35799   -34937.543    34964.621    360.63112    34.631858 
310344000    296.62203    218.49325    372.21989   -34975.916    34994.875   -153.72664    34.641337 
310348000    270.74189    336.49375    342.79061   -34987.101    35021.217    -6.296858    34.627344 
310352000    272.91015    212.52031    206.27348   -34987.555    35037.806    6.2468296     34.64071 
310356000    272.42849    165.66203    274.03556   -35018.607    35043.237   -108.37353    34.661992 
310360000    286.56111    365.61523    356.02332   -35063.743    35080.926    9.5919106    34.673147 
310364000    280.18406    328.04679    348.38396   -35110.953     35145.78   -20.337169    34.647486 
310368000    303.58579    400.38903    359.22076   -35146.346    35187.092    41.168267    34.655358 
310372000    293.64081    195.36893    441.12837   -35166.434    35196.792   -245.75944    34.649376 
310376000    272.23606     319.2059    555.21842   -35182.987    35224.928   -236.01252    34.637459 
310380000    297.91639    401.82759    347.12002   -35215.227    35268.954    54.707577    34.653489 
310384000    261.77164    335.07179    284.03223   -35235.132    35283.747    51.039566    34.663943 
310388000    285.28422    355.94825    382.76222   -35261.655    35298.454   -26.813965    34.676396 
310392000     285.1159    342.50977     206.8456   -35289.726    35312.883    135.66417    34.684426 
310396000    287.32823    403.34549    279.58704   -35332.363    35344.178    123.75845    34.681928 
310400000    331.49379    494.48874    466.66458   -35364.619    35366.156    27.824163     34.65514 
310404000    273.94611    348.99506    276.17742   -35364.567    35405.679    72.817639    34.673197 
310408000    259.13588    246.04218    432.31113   -35377.208    35404.349   -186.26894    34.682798 
310412000    296.63009    272.25546    332.36103   -35403.701    35424.447    -60.10557     34.67657 
310416000    297.93482    426.19844    203.63917   -35409.313    35433.249    222.55927    34.699653 
310420000    279.52293    314.45345    254.20677   -35407.551    35433.095    60.246673    34.685064 
310424000    305.41453     390.6808    278.03373   -35416.013     35435.79    112.64708      34.6878 
310428000    293.92389    474.00492    279.92837   -35469.104    35488.533    194.07656    34.675092 
310432000    284.15212    269.32415    211.55981    -35472.03     35501.86    57.764337    34.668839 
310436000    293.26844    198.89035    329.57526   -35484.912    35505.649   -130.68491    34.667194 
310440000    275.28488      222.208    361.58044   -35518.105    35537.667   -139.37244    34.684635 
310444000    313.56767    453.30149    422.14726    -35554.47    35591.586    31.154231    34.689786 
310448000     270.1695     233.8876    232.13864    -35570.17    35611.242    1.7489571    34.687056 
310452000    287.24445    428.98562      396.826   -35597.867     35612.43    32.159626     34.68807 
310456000    264.19583    342.95014    233.19762   -35616.997    35665.858    109.75252    34.675076 
310460000    271.17814    294.85153    338.31675   -35607.125    35656.614   -43.465224    34.656126 
310464000    276.98244    326.01627    395.21566   -35628.192    35676.338   -69.199386    34.667962 
310468000    276.00708    539.97592    247.67204   -35658.604     35711.39    292.30388     34.65759 
310472000    272.01132    401.87374    279.58746    -35700.87    35743.335    122.28628    34.650382 
310476000    283.10426    370.81716    249.33348   -35712.126    35748.454    121.48368     34.66529 
310480000    276.20468    531.65049    288.84761    -35724.67    35773.779    242.80287    34.640075 
310484000     284.6548    412.57421    332.67141   -35764.784    35804.944    79.902802     34.64546 
310488000    323.20354    408.87079    223.66676   -35787.637    35788.568    185.20403    34.662629 
310492000    292.62605    235.45507     385.8144   -35787.861    35801.587   -150.35933    34.633963 
310496000    307.75017    558.09036    306.69381   -35826.316    35844.185    251.39655     34.65131 
310500000    278.83051    398.86332    200.70624   -35871.152    35872.426    198.15708    34.628944 
310504000    297.94667    311.67618     399.7686   -35881.865    35898.006   -88.092418    34.656258 
310508000    256.02522    324.89269    403.56238   -35902.142    35938.334   -78.669687    34.657626 
310512000    285.26786    422.79845    374.32989   -35909.837    35949.786    48.468569    34.654585 
310516000    293.28605    423.82273    552.02587    -35941.59    35954.331   -128.20314    34.670789 
310520000    276.33429    234.20697    251.63384   -35929.865    35959.741   -17.426875    34.643721 
310524000    287.28605    228.04745    355.74156   -35942.318    35975.495   -127.69411    34.651966 
310528000    300.06513    517.02791    255.80782   -35953.607    35991.867    261.22009    34.652059 
310532000    248.56111    454.89207    296.40556   -35955.905     36021.35    158.48651    34.644062 
310536000     271.4474    223.82466    446.31981   -35983.669    36043.534   -222.49514    34.641568 
310540000    259.80037    295.31752    329.26387   -36007.896    36067.201   -33.946346    34.632737 
310544000    256.61245    380.02493    205.52322   -36027.998    36073.761    174.50171     34.63861 
310548000    278.94547    296.41644    287.19466   -36081.104    36115.496    9.2217885    34.662368 
310552000    279.50074    278.98948    147.21899   -36110.879    36140.898    131.77049    34.657587 
310556000    278.29736    595.39061    268.36126    -36137.18    36172.349    327.02935    34.662283 
310560000    253.09418    312.89584    234.84767   -36150.633    36203.392    78.048164    34.674506 
310564000    271.93209    121.89742    441.26203    -36183.11    36212.646   -319.36461    34.694399 
310568000    259.34356    311.05161    307.19779   -36196.018    36242.853    3.8538228    34.668167 
310572000    287.25448    351.66162    274.26107   -36225.355    36256.719     77.40055    34.646771 
310576000    299.85398    354.63028    237.79156   -36253.042    36282.487    116.83872    34.655938 
310580000    307.96861    269.51084    253.99329    -36294.12    36301.756    15.517542    34.649497 
310584000    287.08827    304.53795    200.14116   -36304.181    36340.511    104.39679    34.660388 
310588000    268.61027    219.01754    358.08727   -36299.813     36341.37   -139.06973    34.633258 
310592000     277.8753    343.20978    368.38238   -36330.525    36358.676   -25.172604     34.64559 
310596000    287.20523    334.27327    259.25888   -36349.063    36382.299    75.014387    34.641957 
310600000    306.47159    366.35999    318.02501   -36388.027    36408.481    48.334987    34.620342 
310604000    262.80158    215.63821    265.10669   -36419.661    36456.506   -49.468475    34.629885 
310608000    290.62531    234.18876    259.91918    -36449.13     36479.69   -25.730417     34.61276 
310612000     317.9484    362.12099    289.72986   -36484.469    36499.121    72.391138    34.614677 
310616000     269.4611    221.87812    194.37641   -36486.946    36544.251    27.501707    34.617643 
310620000    247.64125    256.35533    369.63755   -36505.941    36573.414   -113.28223     34.60373 
310624000     308.9763    637.33808    374.20168   -36559.958    36581.253    263.13639    34.617622 
310628000    276.19503    295.15431    289.40028   -36566.067    36602.816    5.7540344    34.620022 
310632000    296.56823    232.22391    407.41807    -36558.45    36593.972   -175.19416    34.617562 
310636000    274.87952    173.39627    375.62794   -36590.283    36612.733   -202.23167     34.61389 
310640000    257.91911    285.56987    341.41496   -36598.263    36652.356   -55.845096    34.619479 
310644000     276.8089    229.99567    217.41249     -36622.9    36665.688    12.583187     34.61379 
310648000    277.52296     299.6999    305.24294   -36652.146    36701.045   -5.5430334    34.628927 
310652000    278.26429    255.26464    326.70458   -36687.169    36723.689   -71.439939    34.598935 
310656000    277.74888     420.1555    289.68424   -36706.159     36756.42    130.47127     34.57338 
310660000    295.48572    430.83411    253.65986   -36758.647    36780.943    177.17426    34.567096 
310664000    288.54883    605.97749    408.88961   -36754.636    36791.126    197.08788    34.572369 
310668000    287.05866    274.91796    240.88483   -36774.059    36812.062    34.033129       34.569 
310672000    306.87579    253.68341    503.85709   -36824.065     36834.43   -250.17368    34.547111 
310676000    297.74173    556.06186    309.47806   -36830.243     36853.58     246.5838    34.549901 
310680000    281.09064      126.728    355.55107   -36843.966    36858.942   -228.82307    34.535963 
310684000    279.66593    431.22178    393.66131   -36858.251    36882.917    37.560463    34.557971 
310688000    310.91912    326.68452    374.19703   -36882.099    36899.618   -47.512507    34.540941 
310692000    286.98084    420.82365    281.37911   -36868.503    36911.057    139.44455    34.563702 
310696000    275.35259    308.26154    291.15998   -36875.958    36923.818     17.10156    34.532857 
310700000    281.12457    420.37719     460.2626   -36920.802    36950.587   -39.885408    34.497925 
310704000    286.84114    384.86182    372.64424   -36931.447    36984.473    12.217586    34.522027 
310708000    276.36241    422.24693    464.80123   -36963.196    36993.518     -42.5543    34.543172 
310712000    257.54758     255.6026    311.61854   -36983.356    37035.391   -56.015941     34.53843 
310716000    289.71833     275.8459    305.12971   -37016.491    37041.611   -29.283807    34.530341 
310720000     272.4206    342.33471    358.02681   -37011.172    37071.081   -15.692106    34.549801 
310724000    308.29723    478.81168    344.64705   -37050.296    37072.393    134.16464     34.52696 
310728000    304.20737    519.50354    407.74824   -37063.629    37067.926     111.7553    34.541986 
310732000    287.62179    515.78748    420.18826   -37041.482    37088.698    95.599222    34.542151 
310736000    251.19799    432.71132    204.36327   -37051.692    37114.434    228.34805    34.546466 
310740000    261.68424    243.04917    469.10239   -37064.266    37125.143   -226.05322     34.53359 
310744000    268.22643    243.28616    315.18237   -37098.023     37133.58   -71.896208    34.530515 
310748000    274.35573    401.95715    239.66663   -37125.688    37153.492    162.29052    34.545301 
310752000    294.20048    266.79023    280.60417   -37136.498     37178.88   -13.813936    34.547964 
310756000    268.50724    356.33486    330.52512   -37173.642     37227.58    25.809743    34.538025 
310760000     289.5327    298.58451    362.76836   -37203.713    37225.254    -64.18385    34.523691 
310764000    248.92112    239.57976    336.92446   -37213.956    37264.408   -97.344702    34.534795 
310768000     240.3216    224.07042    323.77712   -37219.493    37281.247     -99.7067    34.546086 
310772000    266.66715    447.62918    231.42485    -37240.43    37285.683    216.20433     34.56311 
310776000    269.36102    341.46562    522.37715     -37248.7    37308.543   -180.91153    34.561113 
310780000    292.62729     409.3606    439.00981   -37291.045    37306.139   -29.649218    34.520229 
310784000     264.6882    186.56584    298.75522   -37298.482    37337.039   -112.18938    34.537375 
310788000    276.40486     396.3056    241.61787    -37320.92    37376.103    154.68773    34.526496 
310792000    315.25705     411.2166    332.16813   -37358.672    37376.212    79.048465    34.528502 
310796000    283.67783    325.60425    417.30094   -37387.969    37423.789   -91.696682    34.542933 
310800000    282.58367     528.0272    361.22477   -37424.835    37457.735    166.80243    34.549575 
310804000    279.62496    432.55776    227.03504   -37412.457    37446.326    205.52272    34.539678 
310808000    308.29496    442.57472    272.86347   -37454.473    37457.908    169.71125    34.565975 
310812000     256.3204    291.86955    191.10014   -37454.485    37489.218    100.76941    34.559832 
310816000    297.75636    288.40492    268.10038   -37473.055    37493.164    20.304541    34.537348 
310820000    312.94239    406.03871    267.80809   -37524.707    37525.475    138.23062    34.546995 
310824000    270.05402    191.93962     366.0379    -37525.47    37578.756   -174.09828    34.538213 
310828000    256.01232    469.97954    149.71783   -37536.115    37608.728     320.2617     34.53802 
310832000    276.85219    402.88426    211.25601   -37570.385     37603.11    191.62825    34.550692 
310836000    288.18458    178.07468    221.08035   -37592.042     37636.95   -43.005672    34.536706 
310840000    305.04474    343.04426     504.4468   -37611.799     37646.35   -161.40255    34.490557 
310844000    299.43945    478.40663    348.70087     -37651.9     37670.18    129.70576    34.492733 
310848000    284.29478    325.61497    385.02023   -37682.126    37713.435   -59.405263    34.501066 
310852000    274.15495    338.40631    200.66527    -37684.32    37734.475    137.74103    34.543119 
310856000    286.93897    518.45772    448.80999   -37714.343    37747.257    69.647727     34.55299 
310860000    272.75187    284.51842    280.58308   -37725.603    37782.231    3.9353453    34.531658 
310864000    274.18535    228.12188    393.52677   -37781.842    37822.269   -165.40489    34.518181 
310868000    274.11937    505.32364    316.72102   -37828.504    37880.522    188.60262    34.524019 
310872000    273.33508    463.80635    211.93695   -37835.791     37895.15    251.86941    34.518114 
310876000    306.66107     658.4841    268.79757    -37868.22    37889.024    389.68653    34.519059 
310880000    277.14937    237.73771    443.25069   -37870.541    37909.756   -205.51298    34.512801 
310884000    273.63691    335.76173    291.50259   -37876.035    37935.325    44.259141    34.524324 
310888000    308.37295    396.78577    315.21912   -37941.572    37958.296    81.566645    34.546776 
310892000    302.43166    316.32777    219.53526   -37966.617    37986.792    96.792508    34.512107 
310896000    291.53831    516.25493    529.84805    -37997.07    38030.437   -13.593118    34.490401 
310900000     293.9596    531.92393    344.73077   -38016.281    38059.093    187.19315    34.542888 
310904000    271.92439    299.83735    326.40381   -38032.682    38088.727   -26.566462    34.540168 
310908000    283.72028    464.21462    214.18395   -38087.856    38111.965    250.03067    34.545295 
310912000    281.89995    405.58298    359.61105   -38083.416    38127.773    45.971928    34.563358 
310916000    258.57086    355.60643    313.54202   -38117.727    38160.084    42.064408     34.58393 
310920000    297.92344    385.02504     398.9942   -38121.821    38166.677   -13.969156    34.580857 
310924000    287.28993    227.39266     277.9831   -38170.034    38209.398   -50.590443    34.567332 
310928000    268.01173     275.6529    305.23991   -38205.126     38262.78   -29.587019    34.581775 
310932000    274.82912    358.39484    395.31336   -38231.687    38279.998   -36.918519    34.580495 
310936000     271.2006    448.21876     275.6135   -38238.767    38293.366    172.60526    34.596025 
310940000    297.92387     412.4644    283.03867   -38243.418    38290.103    129.42573     34.59226 
310944000    267.86573    198.09898    350.44273   -38268.491    38314.406   -152.34375    34.585509 
310948000    273.22612    456.92376    492.35659   -38298.951    38350.671   -35.432829     34.58837 
310952000    296.21002    357.00162    419.05539    -38315.43    38356.201   -62.053766    34.588471 
310956000    296.87849    342.39131    326.20624   -38363.847    38402.224    16.185068    34.587718 
310960000    298.81471    410.46125    200.09546   -38382.697    38427.269    210.36579    34.599501 
310964000    293.62925    409.82175    248.67026   -38405.182    38434.206    161.15149    34.590476 
310968000    263.99727    229.72239    432.07518   -38400.274    38443.026   -202.35279    34.590476 
310972000    304.20711    332.40412    303.68172   -38441.382    38459.857    28.722399    34.594175 
310976000    307.12963    401.43743    416.82606   -38447.197    38478.885   -15.388628     34.59072 
310980000    291.15777     330.3523    489.49875   -38483.254    38513.762   -159.14645    34.584788 
310984000    289.41756    309.15813    296.75588   -38500.881    38526.488     12.40225    34.575931 
310988000    280.82757    228.40467      537.887   -38510.408    38557.494   -309.48234    34.550796 
310992000     276.4708    454.02308    204.60781   -38566.285    38600.444    249.41527    34.567541 
310996000    290.28308    462.42517     450.4233   -38592.142    38634.951    12.001869    34.542881 
311000000    281.36782    434.69721    460.07774   -38634.844    38669.461    -25.38053     34.54535 
311004000    272.19746     475.4661     225.8382   -38655.406    38686.435     249.6279     34.57358 
311008000    267.30987    278.22576    551.39266   -38682.175    38712.348   -273.16691    34.587268 
311012000    268.91865    353.52387    246.87128   -38695.994    38739.792    106.65259    34.595452 
311016000    267.62262    352.55494    418.97151    -38683.12    38750.873    -66.41657     34.57495 
311020000    278.98417    395.11353    208.66651   -38735.992    38763.416    186.44701    34.571057 
311024000    264.38782    300.96274    252.24682   -38730.647    38775.629    48.715911    34.592957 
311028000    290.12978    367.97747    383.30655   -38733.255     38769.27   -15.329074    34.585891 
311032000    288.23121    348.82735     383.4485    -38760.14    38794.743   -34.621145    34.579353 
311036000    270.92471    287.56804    342.99831    -38768.54    38797.428   -55.430272    34.578916 
311040000    296.64055    348.12198    539.73931   -38796.655    38829.951   -191.61733    34.579666 
311044000    295.45873     184.9638     296.7391   -38819.919    38851.452    -111.7753    34.606101 
311048000    280.26687    403.03299    284.99954   -38831.937    38871.438    118.03345     34.62623 
311052000    281.83844    408.73882     498.7434   -38831.448    38877.622   -90.004586    34.609929 
311056000    288.12692    435.42705    247.57594   -38872.733    38898.043     187.8511    34.623634 
311060000     303.9069    186.29394    395.22128   -38874.308    38910.268   -208.92734    34.598448 
311064000    314.78893    550.80102    410.52451   -38923.513    38944.872     140.2765    34.592158 
311068000    295.64676    548.21546    396.77064   -38942.873    38974.429    151.44482    34.607338 
311072000     263.9377    304.15258    286.15679   -38960.073    38989.377    17.995786    34.614013 
311076000    291.08533    430.31075    308.63673   -38993.487    39019.067    121.67402    34.628623 
311080000    288.63765    376.78149    250.48581   -39025.951    39045.778    126.29568    34.620724 
311084000    282.64052    231.87837    452.30295   -39033.355    39063.492   -220.42458    34.611775 
311088000    268.40739    180.55249    257.23081   -39051.688    39091.213   -76.678319    34.610748 
311092000    272.63925    262.21646    322.05705   -39054.386    39110.104   -59.840587     34.60477 
311096000    297.35621    425.23961    572.42969     -39080.2    39119.405   -147.19008    34.593732 
311100000    297.00286    248.83938    573.17882   -39104.078     39130.25   -324.33944    34.628113 
311104000     283.7038    482.35965    403.46689    -39120.04    39144.849    78.892758    34.618582 
311108000    274.94277    378.73171    187.19084   -39132.202    39172.442    191.54087    34.623084 
311112000    273.50708    281.55483    358.97494   -39156.879    39188.548    -77.42011     34.60924 
311116000    294.27158    429.31582    296.45593   -39187.154    39218.078    132.85989    34.629102 
311120000    273.01414    430.02309    276.46249   -39192.666    39253.429     153.5606    34.635632 
311124000    289.22862    381.42217    485.73984   -39226.056    39270.776   -104.31767    34.605111 
311128000    274.65881    415.74756    240.28847   -39252.626     39284.46    175.45909    34.630026 
311132000    298.33841    242.95224    279.64931   -39280.289    39298.634   -36.697071    34.628505 
311136000    286.14912    344.99133    330.41054   -39327.251     39353.07    14.580787    34.625715 
311140000    304.11422    299.43334    261.26923    -39372.47    39387.724    38.164106    34.613514 
311144000    284.43491    491.19316    458.66583   -39373.404    39404.625    32.527331    34.607158 
311148000    281.08126    397.09298     261.5987    -39394.52    39424.402    135.49428    34.610946 
311152000     280.2818    378.34292     247.7844   -39396.224    39426.811    130.55852    34.603883 
311156000    276.25592     349.7001    336.73905   -39448.802    39474.573    12.961049    34.613877 
311160000    293.20162    331.20525     315.0781   -39459.391    39509.427    16.127146    34.613172 
311164000    272.15908    297.81343    353.01172   -39485.812    39538.331   -55.198289    34.614331 
311168000    298.10561    304.52454    265.95825   -39520.664    39548.099    38.566286     34.61406 
311172000    266.93975    289.86994    359.60417    -39547.24    39570.611   -69.734226    34.640931 
311176000    277.22854    364.10971    312.85561   -39589.187    39639.114    51.254101    34.657648 
311180000    314.29768    424.42019    294.26789   -39624.475    39654.907     130.1523    34.659191 
311184000    279.73824    366.20228    228.35517   -39661.807    39695.906     137.8471    34.661632 
311188000    290.61016    436.25281    237.83418   -39686.228    39720.378    198.41863     34.65285 
311192000    292.42716    450.00941    191.99618   -39729.182    39753.379    258.01323    34.636449 
311196000    256.76407    283.40742    142.40674    -39746.37    39795.032    141.00068    34.629744 
311200000    252.48265      285.187    376.43085   -39776.938    39828.196   -91.243856    34.618598 
311204000    294.43724    391.96358    479.55616   -39792.436    39827.774   -87.592583      34.6123 
311208000    315.34385    426.86104    478.56992   -39836.603    39841.422    -51.70888    34.618432 
311212000    285.02864    281.05927    251.78079   -39849.535    39891.535    29.278481    34.619779 
311216000    256.16489    251.82094    344.83953   -39870.477     39935.86   -93.018595    34.614731 
311220000    309.51254     462.2149    306.80952   -39916.152    39921.707    155.40538    34.622534 
311224000    303.83288    605.50836    263.10506   -39919.371    39939.166     342.4033    34.634793 
311228000    283.73465    416.38117    307.09793   -39934.832    39971.498    109.28324    34.627579 
311232000    262.18033    301.16168    186.29544   -39957.966    40001.267    114.86625    34.612669 
311236000      285.344    342.02911    325.94539   -39971.768    40002.502    16.083719    34.604903 
311240000    290.82045    218.71333    276.74401   -40013.368    40043.079   -58.030672    34.609775 
311244000    273.49864    306.94573    137.98764   -40030.472     40058.81    168.95809    34.631709 
311248000    279.83342    404.81526    336.80694   -40043.497    40095.145    68.008326    34.639173 
311252000    278.92834    253.54975    263.85301    -40068.79    40119.375   -10.303262    34.648934 
311256000    305.86235    426.58224    210.40337   -40122.533    40158.655    216.17887    34.643908 
311260000    289.09601    271.66921    277.60296   -40127.217    40163.343    -5.933747    34.644792 
311264000    289.61007    386.28521    447.22905   -40181.524    40207.368   -60.943839    34.625914 
311268000    316.84353    412.56514    408.97104   -40210.757    40232.281    3.5940932    34.625503 
311272000    306.80072    369.08876    360.44482   -40245.119    40273.725    8.6439403    34.612988 
311276000    341.54018    425.48049    193.86543   -40278.321    40285.458    231.61506    34.644074 
311280000    269.35374    227.40709    446.22323   -40282.249    40305.127   -218.81614    34.636176 
311284000     315.0671     440.2587    227.42679   -40282.892     40310.55    212.83191    34.643202 
311288000    256.92698    325.96854    165.85404   -40269.216    40319.692     160.1145    34.651297 
311292000    280.44149    503.67904    329.89107   -40262.934    40318.342    173.78797    34.646804 
311296000     251.6608    194.14092    376.19125   -40281.871    40329.201   -182.05033    34.653332 
311300000    280.34028    393.40403    357.82402   -40309.944    40352.804    35.580008    34.651908 
311304000    257.13681     279.7336    232.24491   -40332.019    40383.363    47.488684    34.649288 
311308000    294.41673    418.88191     245.9232   -40356.224    40386.359    172.95871    34.653442 
311312000    282.53828    444.31254    368.61218   -40365.255    40386.923    75.700362    34.634065 
311316000    251.18477    545.20055    257.57692   -40378.744    40438.569    287.62363    34.648809 
311320000    279.72356    485.13366    351.65034   -40417.949    40452.267    133.48332      34.6459 
311324000    293.18842    336.07954    278.23375   -40447.738    40471.804    57.845794    34.638797 
311328000    287.03911    443.07212    343.25678   -40469.653    40505.975    99.815341     34.62703 
311332000    290.77122    322.52049    251.17485   -40495.052    40523.182    71.345638    34.624548 
311336000    269.21471    386.26949    280.76859   -40503.173    40547.381    105.50089     34.63585 
311340000    283.04548    274.90303    411.32832   -40535.179     40574.52   -136.42529    34.629006 
311344000    255.58898    217.87552    377.18563   -40559.719    40608.671   -159.31011    34.636914 
311348000    263.69415    435.26193    289.32021   -40579.106    40646.065    145.94173    34.648982 
311352000     283.5347    407.25034    271.57678   -40629.491    40665.467    135.67356    34.654407 
311356000    273.82973    491.30038    604.01838   -40653.253    40693.494     -112.718    34.646799 
311360000    296.63817    427.27037    379.34325   -40669.061    40693.283    47.927111    34.661522 
311364000    284.02513    275.46626    365.51745   -40676.966     40695.98   -90.051188    34.674188 
311368000    273.28879    326.20893    350.63722   -40678.881     40708.06    -24.42829      34.6741 
311372000    253.64449    367.82056      295.263   -40678.369    40731.641    72.557562    34.667915 
311376000    252.33101    318.66229    402.42129   -40690.866    40743.989   -83.758995    34.674677 
311380000    319.03287    252.38313    303.84418   -40711.843    40741.104   -51.461053    34.690419 
311384000    274.60433     211.2475     390.7259   -40742.459    40765.846    -179.4784    34.702072 
311388000    276.19231    290.11851    316.64953   -40762.894    40808.862   -26.531016    34.686193 
311392000       282.24    293.74698    359.28145   -40760.839    40795.209   -65.534463    34.669057 
311396000    304.31625    518.73884    301.09969   -40793.085     40821.68    217.63916    34.657941 
311400000    294.60406    379.80341    244.02957   -40809.769    40846.334    135.77384     34.65769 
311404000    276.45791    408.85176    171.94607   -40841.888    40876.961    236.90569     34.65157 
311408000    284.25305    438.26549    663.58674   -40841.262    40893.766   -225.32125    34.646294 
311412000    271.42149    198.88367    382.32716   -40827.977    40880.227   -183.44349    34.656746 
311416000    289.36743    260.24873    313.32567   -40851.071    40891.471    -53.07694    34.654002 
311420000    301.58703    306.82286    269.01549   -40862.487     40919.23    37.807371    34.657695 
311424000    315.83513     355.1717    270.70184   -40900.848    40915.365    84.469862    34.641827 
311428000    282.09661    433.57756    377.31811   -40901.557    40941.605    56.259453    34.610282 
311432000    281.96599    424.25521    423.39344   -40942.238    40976.106   0.86176674    34.588349 
311436000    283.28807    372.52777     298.6172   -40970.743    41017.741    73.910567    34.598106 
311440000    263.51674    303.59907    391.51066   -41004.613    41037.256   -87.911593    34.591399 
311444000    261.36314     231.4568    383.36369   -41023.888    41075.904   -151.90688    34.585375 
311448000    283.12496    373.28476    376.81632   -41031.616    41080.506   -3.5315629    34.587468 
311452000    289.34935    513.16371    215.04053   -41093.455    41123.676    298.12318    34.573408 
311456000    289.17935    301.48592    202.01962   -41109.226    41147.224    99.466299    34.559507 
311460000    295.99635    261.83993    355.67792   -41129.562    41169.478   -93.837991    34.565289 
311464000    273.72921     402.1524    387.18179   -41185.505    41227.109    14.970613    34.575219 
311468000     277.4607    332.62965    222.47118   -41239.465    41269.991    110.15846    34.576533 
311472000    319.38863    463.38123    305.42299   -41274.855    41278.771    157.95825    34.579697 
311476000    287.86279    483.45509    202.87907   -41290.936    41343.492    280.57602    34.593849 
311480000    282.48128    522.15931    243.43239   -41324.888    41342.935    278.72692    34.609791 
311484000    276.62243    300.30356    287.72141   -41335.519    41386.494    12.582155     34.61396 
311488000    270.67104    214.01472    338.69093    -41339.68    41392.896   -124.67621    34.600017 
311492000    291.22123    448.75461    380.02581   -41371.189    41404.955    68.728799    34.615176 
311496000    313.05907    415.69884    327.52656   -41384.537    41394.866     88.17228    34.623889 
311500000    262.81088    354.06517    174.91635   -41396.465    41452.118    179.14882    34.613161 
311504000    299.17679    198.31493    461.77862   -41408.935    41445.032    -263.4637    34.616223 
311508000    329.48464    263.17333    426.76711   -41449.563    41456.678   -163.59378    34.604155 
311512000    272.83162     237.2938    369.17763    -41461.89    41491.681   -131.88383    34.593294 
311516000    295.18915    239.67587    363.29234   -41490.278      41523.9   -123.61647    34.599051 
311520000     280.8367    331.97498    357.87609   -41527.429    41560.074   -25.901108    34.598454 
311524000     295.7799    558.48216    258.43729   -41546.779    41582.827    300.04487    34.616448 
311528000    280.52578    331.09939    118.71871   -41588.653    41628.347    212.38069    34.626289 
311532000    283.47295    358.89956     297.3485   -41600.185    41630.595    61.551063    34.619778 
311536000    269.62466    542.42853    314.48392   -41622.886    41654.485    227.94461    34.633657 
311540000     279.7709    430.14118    327.96689   -41633.917    41691.327    102.17429    34.653645 
311544000    284.48954    595.94524    310.59857   -41682.429    41707.736    285.34668    34.654609 
311548000    322.60441    357.90061    351.24802    -41699.17    41718.827    6.6525892    34.641622 
311552000    262.03412    358.91929    272.55907   -41731.384    41775.569    86.360226    34.656906 
311556000    249.58994    360.47819    261.22975   -41733.439    41793.412     99.24844    34.650699 
311560000    293.05989    421.25727    259.09932   -41756.107    41780.112    162.15795    34.678824 
311564000    266.64008    274.79757    466.93411   -41759.167    41818.985   -192.13654    34.670683 
311568000    274.28008    495.63718    339.80333   -41767.177    41817.014    155.83385    34.666013 
311572000    260.22338     214.6122    299.95433   -41789.147    41819.051    -85.34213     34.67391 
311576000    251.63806    292.90233     329.7457   -41789.159    41844.914   -36.843367    34.679339 
311580000    299.59289    401.66026    475.60325   -41824.752    41856.218   -73.942998    34.678583 
311584000    271.47879    170.42047    254.09956   -41831.508    41883.527   -83.679091     34.67498 
311588000    273.45178    571.75501    197.96878   -41842.657    41893.814    373.78623    34.665348 
311592000    280.70917    472.75808    221.94576   -41871.297    41898.075    250.81232    34.646254 
311596000    273.89671    232.32354    158.51581    -41852.24    41909.594    73.807724    34.634677 
311600000    286.60011    573.38527     217.8106   -41878.335    41931.198    355.57467    34.620786 
311604000    297.31482    361.92472    200.19824   -41897.284    41931.676    161.72648    34.624263 
311608000    269.20997    414.97938    427.79245   -41919.185    41951.752   -12.813068    34.627119 
311612000    261.22239    425.94713      220.894   -41910.399    41964.451    205.05313    34.625245 
311616000    271.29926      256.646    328.69556   -41923.895    41984.171   -72.049555    34.624263 
311620000    260.32097    192.56308    276.56782   -41953.263    42002.184   -84.004736    34.627178 
311624000    303.19304    468.73229     192.8815   -42011.146    42037.084    275.85079    34.642731 
311628000    285.72021    198.89356    342.05951   -42041.272    42055.789   -143.16595    34.646152 
311632000    271.25399    373.40186    244.36817   -42052.812    42087.873    129.03369    34.657575 
311636000    278.06639    457.98712    386.39232   -42086.786    42120.766    71.594806    34.632943 
311640000    292.89585    195.68312    480.98016   -42113.013    42164.504   -285.29703    34.613759 
311644000    299.05949     448.3189     111.3664   -42160.051    42183.568    336.95251    34.599181 
311648000    274.18173    411.81925     174.1137   -42207.981    42247.358    237.70555    34.597659 
311652000     269.1524    320.21659    515.93056   -42208.136     42257.97   -195.71397    34.586867 
311656000    301.47056    476.96015     378.6576   -42241.261    42274.018    98.302549    34.581011 
311660000    267.43299     440.7811    244.37076   -42270.943    42309.024    196.41034    34.580809 
311664000    306.41263    315.21723    287.88683   -42288.257    42307.321    27.330402    34.594965 
311668000    279.88566    261.63559    332.19176   -42320.766    42339.911   -70.556173    34.587252 
311672000    389.42689    370.55269    461.64761   -42381.407    42353.923    -91.09492    34.581623 
311676000    293.26154     291.4078    401.18052   -42374.353    42394.764   -109.77272    34.588459 
311680000    300.37571    316.77368    362.61552   -42373.514    42407.328   -45.841839    34.581529 
311684000    283.51098    211.28716    480.23104   -42387.022     42423.85   -268.94388    34.565069 
311688000    286.02314    464.75598     187.4137   -42407.711    42452.772    277.34228    34.545605 
311692000     291.7685    382.81231    228.30895   -42414.922    42458.459    154.50336    34.532089 
311696000    259.72057    336.86728    420.11204    -42417.11    42466.549   -83.244763    34.536104 
311700000     246.9609    247.98715     210.7667   -42447.049    42494.278    37.220444    34.527676 
311704000    282.07033    467.10835    291.37793   -42469.466    42514.243    175.73041    34.526145 
311708000     293.5215    265.47043    434.97047    -42506.38    42545.724   -169.50003    34.533067 
311712000    279.74907    343.11808    225.22787   -42535.768    42570.781     117.8902    34.548873 
311716000    289.25154     385.5776      331.123   -42575.197    42605.364    54.454599    34.560272 
311720000    313.63814    397.94487    329.43367   -42596.001    42605.721    68.511208    34.567082 
311724000    282.93081     346.0115    230.91396   -42623.463      42639.8    115.09754    34.577731 
311728000    297.01909    409.32616    531.17446   -42658.953    42680.459   -121.84829    34.564745 
311732000    291.32013    347.47798    338.98238   -42652.867     42684.38    8.4955988    34.577422 
311736000    288.97638    505.40556    337.64766   -42678.718    42713.457    167.75789     34.57841 
311740000    281.35725    319.80742    241.19257   -42680.206    42731.412    78.614848    34.598693 
311744000    255.12355    351.24649    267.11826   -42688.667    42740.173     84.12823    34.587417 
311748000    304.97247    437.52946    320.54238   -42712.478    42747.732    116.98707    34.570236 
311752000    305.06243    208.72304    368.89047   -42737.147    42776.202   -160.16743    34.539348 
311756000    293.51675    230.92057    319.59332   -42755.947    42795.636   -88.672756    34.553499 
311760000    267.09915     379.3571    210.03592   -42760.794    42816.874    169.32118    34.559221 
311764000    292.43775    290.28168    257.49194   -42804.718    42816.492    32.789738    34.578396 
311768000    260.09259    316.44262    273.40084   -42794.689    42852.197    43.041777    34.569435 
311772000    286.62116    396.59119    409.70617   -42833.194    42879.335   -13.114979    34.574231 
311776000    253.85086    322.26934    172.01997    -42847.99    42896.826    150.24937    34.575111 
311780000    269.86363    459.90207    233.13494   -42888.907    42928.087    226.76712    34.584746 
311784000    286.36236    373.10314     488.4579   -42910.785    42954.445   -115.35476    34.556523 
311788000    252.58165    265.75439    253.92083   -42921.604     42975.99    11.833554    34.552637 
311792000    262.05254    203.17135     314.9664   -42944.829     42999.84   -111.79505     34.53413 
311796000    279.73166    233.10834    271.52134    -42968.34    42984.425   -38.413002    34.526528 
311800000    304.08245    272.00303    377.96869   -43002.905    43013.707   -105.96566    34.525009 
311804000    313.22618    364.66504    352.60814   -43029.179    43029.978    12.056899    34.538439 
311808000     316.5313    227.32159     385.7248   -43044.829    43050.808    -158.4032    34.531681 
311812000    274.90108    331.25769    282.46096   -43041.945    43081.676    48.796732    34.526741 
311816000    282.81434    386.24408    395.47706   -43051.831    43097.255   -9.2329854    34.520548 
311820000    304.54599    531.76466    357.79734   -43056.865    43106.748    173.96731    34.509687 
311824000    280.78992    359.87628    378.04117   -43071.782     43111.22   -18.164889    34.496963 
311828000    301.88929    249.04776    194.48211   -43102.923    43145.209    54.565652    34.499552 
311832000    295.83699     411.8357    270.31319    -43154.64    43200.088    141.52251    34.495322 
311836000     291.3867    278.65641    314.55393    -43214.93    43223.568   -35.897523     34.50202 
311840000    257.26342    312.62437    217.06376   -43233.463    43272.437    95.560611    34.497038 
311844000    277.93951     407.3366    460.48095   -43258.285    43293.032   -53.144355    34.498847 
311848000    289.42028     297.6098    361.03261   -43289.741    43321.335   -63.422818    34.506839 
311852000     257.3626    396.82899    171.37807   -43311.969     43349.52    225.45093    34.504196 
311856000    261.77591    434.74987    404.64123   -43332.587    43376.236    30.108642    34.488315 
311860000    282.77353    461.36752    347.04298   -43378.048    43406.467    114.32454    34.496652 
311864000    257.28738    416.02494    249.70468   -43386.507    43437.853    166.32026     34.51224 
311868000    277.95881    310.98463    348.62524   -43423.746    43459.772    -37.64061    34.509014 
311872000    278.31286    336.97364    423.03367    -43448.97    43473.579   -86.060027    34.498034 
311876000    286.69026    270.64349    437.91958   -43467.178    43484.156   -167.27609    34.515251 
311880000    272.58069    323.95304    442.88659    -43452.32    43500.564   -118.93355    34.512348 
311884000    265.47769    259.80901    225.17902   -43494.204    43524.182    34.629995    34.516031 
311888000    278.42242     423.7997    203.75157   -43488.181    43547.136    220.04814    34.503619 
311892000    277.29303    330.51563    409.04276   -43510.861    43564.133   -78.527125     34.48888 
311896000    281.04535    301.83201    264.13819   -43549.625    43579.563    37.693819    34.494683 
311900000     279.3753     337.2419    416.12021    -43557.78    43614.495   -78.878315    34.506552 
311904000    261.08528    366.00753    250.02201   -43591.466    43653.625    115.98552    34.529782 
311908000    270.67023    310.26355    326.72988   -43624.471    43675.015   -16.466327    34.516929 
311912000     279.1275    271.01216    387.47336   -43652.583     43680.87    -116.4612    34.508453 
311916000    291.35206    375.96743    253.67794   -43676.548    43697.645    122.28949    34.507573 
311920000    307.39948    439.83225    266.01836   -43725.746    43744.988    173.81389    34.507605 
311924000    262.08703    540.63763    202.21604   -43710.534    43758.833    338.42159    34.502421 
311928000    305.97705    478.69695    291.96752   -43772.776    43798.331    186.72943    34.500816 
311932000    289.45514    198.38993    175.91189   -43789.564    43822.669    22.478037    34.495724 
311936000    306.18391    328.22912    378.95465   -43818.535    43829.617   -50.725527    34.495617 
311940000    314.15088    544.24306    280.30459   -43839.594    43864.761    263.93847     34.48391 
311944000     290.4635     285.5117    258.11415    -43853.57    43868.383    27.397552     34.48601 
311948000    266.42936    371.88916    394.30589   -43865.259    43906.808   -22.416729     34.50753 
311952000    276.12532     350.4861    366.76204   -43868.437    43897.899   -16.275936    34.483041 
311956000     239.5103    295.87264    212.29281   -43882.791    43946.494    83.579831    34.489587 
311960000     290.2708    436.42225    308.02807   -43903.136    43944.265    128.39418    34.492646 
311964000    305.67395    325.98131    394.85486   -43912.398    43932.082   -68.873543     34.49359 
311968000    274.09541    377.05983    311.67916   -43934.516     43987.55    65.380667    34.506822 
311972000    280.47723    253.07931    398.47667   -43992.766     44022.84   -145.39736     34.50306 
311976000    274.02188    215.01528    426.24097   -44018.851    44057.396   -211.22569    34.497502 
311980000    292.77404    302.67329    420.63238    -44044.59    44069.616   -117.95908    34.514517 
311984000     247.9314    282.55056    181.32266   -44062.259    44112.234     101.2279    34.540951 
311988000     269.0877    547.60257    227.15214   -44061.001    44114.643    320.45043    34.531529 
311992000    276.68007    154.32695    251.27295   -44079.033    44118.229   -96.945996    34.528043 
311996000    286.12379    389.86814    309.41278   -44120.765    44165.236     80.45536    34.535509 
312000000    290.02113    447.77775    277.20397   -44115.835    44151.654    170.57378    34.514316 
312004000    279.73654    451.24757    428.31859    -44130.54    44186.258    22.928981    34.506002 
312008000    273.88363    262.10138    409.25624    -44185.28    44230.892   -147.15486     34.49338 
312012000    300.83459    295.86391    385.77571   -44219.888    44249.447   -89.911801    34.496947 
312016000    267.87496    244.82453    308.70562   -44225.403    44283.365   -63.881085    34.495433 
312020000    274.84671    318.96311    476.09213   -44247.484    44290.621   -157.12902     34.50322 
312024000    273.94813    352.29436    248.16926   -44277.001    44307.457     104.1251     34.50861 
312028000    271.76962    378.62815    278.27854   -44301.198     44351.82    100.34961    34.525503 
312032000    285.30973    320.06562    315.26369   -44338.733    44379.064    4.8019231    34.519372 
312036000    281.15677    507.95878       247.25   -44344.128    44390.923    260.70879    34.525201 
312040000    261.40953    319.26756     537.7577   -44362.833    44403.751   -218.49013    34.506611 
312044000    281.44628    354.62696    268.14633   -44398.234    44444.456    86.480629    34.493177 
312048000     268.0812    318.10478    171.70351   -44410.948    44465.195    146.40127    34.507167 
312052000    237.86456    295.09702    344.62761   -44427.315    44491.845   -49.530587    34.503543 
312056000    267.73356    445.44152    446.02902    -44456.56    44489.246  -0.58749066    34.505152 
312060000    282.19646    314.29505    348.11647   -44472.816    44516.467   -33.821418    34.512298 
312064000    271.95395     457.1245    426.36823   -44511.306    44553.335    30.756277    34.509152 
312068000    256.52902     304.9892    195.53246   -44483.157    44533.704    109.45674    34.495499 
312072000    266.61412     267.6407    286.25992   -44502.485    44551.407   -18.619221    34.495273 
312076000    275.90758    347.13634    519.95112   -44527.026    44560.847   -172.81478    34.506907 
312080000    288.25321    182.33481    286.04358   -44531.354    44575.377   -103.70877    34.501381 
312084000    281.31622    319.07535    271.62186   -44555.464    44592.292    47.453494    34.512599 
312088000    318.39183    374.65941    539.33271   -44613.083    44628.808   -164.67329    34.542508 
312092000    287.27091    288.94107    195.06618   -44611.121    44648.962    93.874891    34.545141 
312096000    277.30849    292.11651     365.5503   -44609.737    44631.607   -73.433796    34.563527 
312100000     292.6545    481.33527    511.74751   -44631.649    44668.539   -30.412241    34.574336 
312104000    296.74746    427.08926    297.58063   -44640.784    44682.806    129.50862    34.590939 
312108000    264.38743    253.08808    309.83967   -44662.328    44714.933   -56.751587     34.60689 
312112000    316.82858    397.53749    381.40768   -44733.586    44766.255    16.129814    34.625228 
312116000    308.06343    276.85232    355.54438   -44759.073    44770.377   -78.692056     34.63264 
312120000    304.70458    305.08375    570.99897   -44784.063    44819.686   -265.91522    34.603658 
312124000    282.22215    406.36724    324.86073   -44812.318    44838.313    81.506506    34.607258 
312128000    289.52994    482.80234    323.14006   -44835.022    44856.829    159.66228    34.604917 
312132000    241.31191    269.94929     466.4174   -44829.141    44894.403   -196.46811    34.589543 
312136000    283.53769    290.79322     333.8432   -44873.838    44918.614   -43.049983    34.571998 
312140000     288.3149    362.87095    353.46678   -44902.522    44936.869    9.4041637    34.570886 
312144000    281.36136    446.20823    306.52129   -44915.544    44960.169    139.68695    34.583802 
312148000     290.5167    407.82766     473.9112   -44960.263    44988.285   -66.083538    34.576569 
312152000    276.95235    272.50702    229.54589   -44968.421    45000.511    42.961128    34.592604 
312156000    294.94469    275.12955    231.87924   -45022.408    45037.626    43.250313    34.586724 
312160000    272.78877     356.1524    265.03266   -45037.834      45070.1    91.119735    34.591858 
312164000    281.53993    260.46487    262.16811   -45055.628    45100.669   -1.7032375    34.599258 
312168000    301.10088    455.69413    440.25075   -45081.738     45116.81    15.443383    34.601029 
312172000    288.47539    245.37576    428.82119   -45144.836    45171.032   -183.44542      34.6118 
312176000    258.68349    330.83946    436.04706   -45133.643    45186.559    -105.2076    34.616045 
312180000    256.21497    295.64697    259.48587   -45156.217    45207.623    36.161105    34.640298 
312184000    273.75849    354.13716     225.5966   -45189.318    45238.745    128.54056    34.636624 
312188000    257.48334    364.93364    321.35642   -45215.859    45264.765    43.577228     34.63494 
312192000    269.14096    229.22728    201.34761   -45240.829    45285.818     27.87967    34.653718 
312196000     299.7856    302.85623     391.7912   -45287.867    45297.483    -88.93497    34.648553 
312200000    281.66775    299.80436    378.21822   -45291.525    45319.763    -78.41386     34.66327 
312204000     283.2422    245.82093    385.54641   -45305.527    45349.268   -139.72547    34.664233 
312208000    310.68238    435.38621    399.12112   -45318.086    45353.372     36.26509    34.686302 
312212000    300.27581    489.30731    384.87617   -45338.821    45370.233    104.43113    34.682082 
312216000    280.58949    421.94446    219.86294    -45339.28    45368.265    202.08152    34.706458 
312220000    293.86775    299.93782    395.33527   -45370.361    45403.486   -95.397455    34.712116 
312224000    288.58754    528.75588    234.86272   -45420.768    45470.538    293.89316    34.710492 
312228000    276.68625    363.21972     200.3049   -45464.081    45502.027    162.91482    34.711378 
312232000    264.92327    386.54569    399.44999   -45478.917    45524.607     -12.9043    34.714949 
312236000    246.75542    383.09822    316.22664   -45503.323    45542.188    66.871574    34.698822 
312240000    300.46214    355.24286    332.04169   -45523.476    45547.482    23.201175    34.696039 
312244000    300.73058    330.86077     367.1622   -45530.422    45561.416   -36.301433    34.704547 
312248000    286.40029    203.84779    234.64715   -45567.728    45587.588   -30.799359    34.693853 
312252000     298.5604    275.74442    375.83267    -45587.02    45617.385   -100.08824    34.693553 
312256000    278.52086     281.8658    484.86063   -45596.693    45638.218   -202.99483    34.692916 
312260000    296.23029    607.14792    272.44916   -45644.476    45679.663    334.69876    34.675319 
312264000    286.01115    306.08971    417.52228   -45660.625    45688.177   -111.43257    34.692896 
312268000    274.18811      326.856    308.28723   -45682.251    45710.081    18.568777    34.681953 
312272000    283.66741    372.00077    361.82598   -45733.377    45768.818    10.174786    34.673995 
312276000    270.69653    282.20462    261.52499   -45750.369    45773.537    20.679635    34.661905 
312280000    261.97907    190.44063    248.06223   -45767.354    45823.154   -57.621603     34.65947 
312284000    294.49602    469.15345    231.24147   -45801.434    45851.302    237.91198    34.680867 
312288000    266.14448    312.88003    362.43144   -45821.561    45868.037   -49.551412    34.670561 
312292000    274.69646    314.05545    319.51409   -45869.911    45908.816   -5.4586404    34.685032 
312296000    292.90804    620.46741     339.0091    -45924.01    45939.254    281.45831    34.687822 
312300000    296.18022    321.18535    298.31901   -45939.611    45967.433    22.866339    34.685964 
312304000    268.22442    396.24816    272.15351   -45939.113    45995.075    124.09465    34.717374 
312308000     268.4504    339.73158    443.16173   -45950.504    45986.867   -103.43015    34.705192 
312312000    285.92918     586.2091    376.40903   -45976.874    46007.249    209.80007    34.706081 
312316000    276.14216    401.93179    281.09913   -46003.384    46051.894    120.83265    34.714027 
312320000    287.01066    491.29178    283.34947   -46027.185    46054.442    207.94231    34.708283 
312324000     278.6444    365.08271    353.34331    -46029.17    46083.998    11.739397     34.70064 
312328000    300.47182    275.47563    281.90298   -46041.473    46076.193   -6.4273486    34.725231 
312332000    266.31969    236.54949    392.69067   -46047.089    46083.086   -156.14118    34.741101 
312336000    276.90755    438.19353    369.13552   -46092.899    46139.796    69.058009    34.753868 
312340000    277.94299    302.51732     338.7479   -46137.524    46161.251   -36.230582    34.747987 
312344000    294.62023    384.25445     324.4632   -46152.094    46197.996    59.791245    34.757926 
312348000    261.21963    228.66264    300.87281   -46158.705    46214.434   -72.210171    34.755092 
312352000     300.5015    375.01899    207.75818    -46188.55    46211.693    167.26081    34.743518 
312356000    286.34935     553.0349    367.91472   -46205.102    46247.653    185.12018     34.74353 
312360000    279.77001    459.84597    287.90041   -46234.028    46249.841    171.94556    34.732307 
312364000    292.97066    362.53046    410.74694   -46232.872    46275.095   -48.216479     34.73275 
312368000     283.3667    450.20421    376.04689   -46276.815    46293.356    74.157321    34.747988 
312372000    277.50816     415.0921       157.47   -46318.169    46361.925    257.62211     34.74924 
312376000     311.7733    352.34327    440.95168   -46361.503    46362.925   -88.608417    34.746206 
312380000    291.23159    369.03138    433.02635   -46358.237    46385.002   -63.994972    34.750787 
312384000    307.71258    678.32774    509.33779   -46372.211    46398.217    168.98995    34.753066 
312388000    295.66049    491.93731    444.50977   -46387.902    46413.754    47.427532    34.755055 
312392000    291.72283    338.56677    265.89269   -46401.721    46445.589    72.674074    34.757992 
312396000    295.16084    219.59841    546.61559   -46461.945    46494.723   -327.01718    34.743531 
312400000    274.73082    340.15648    382.12809     -46488.5    46521.392   -41.971614     34.74117 
312404000    304.75721    336.98965    408.88477   -46531.883    46554.704   -71.895124    34.730162 
312408000    297.84222    142.23725    235.36637   -46555.245    46577.626   -93.129119    34.735649 
312412000    288.48381    356.40693    263.74713    -46547.57    46563.589    92.659792    34.727361 
312416000    272.31196    372.82571     465.1727   -46562.001     46595.62   -92.346992    34.728923 
312420000     249.7363    403.22863    261.90131   -46578.325    46634.032    141.32732    34.721561 
312424000    296.42847    373.23044    351.81078   -46605.108    46634.352    21.419654      34.7316 
312428000    284.79098    369.02255    339.32312   -46612.076    46651.878    29.699429    34.718185 
312432000    291.83418    373.72761    378.73798   -46640.863    46667.008   -5.0103663    34.714558 
312436000    273.18965    374.37436    351.33241   -46635.926    46692.642    23.041946     34.69221 
312440000    270.06307    339.76703    264.78275   -46688.512     46726.46    74.984282    34.680077 
312444000    251.76983    276.54037    371.02743   -46717.482    46750.382   -94.487059     34.69127 
312448000    271.76736    408.03979    378.68297   -46750.509    46794.073    29.356814    34.692224 
312452000    276.45179    406.30898    310.18369   -46792.785    46841.079    96.125288    34.685885 
312456000    244.50905    195.55235    313.26669    -46793.66    46857.109   -117.71434    34.690766 
312460000     270.9889    358.37164    511.59304   -46812.057    46866.582    -153.2214     34.68483 
312464000    297.96492    434.26896    150.31294   -46846.318    46877.245    283.95602    34.678379 
312468000    273.59093    295.49404    345.75175   -46875.053    46895.312   -50.257717    34.679792 
312472000    302.22563    243.96306    367.60998   -46915.314    46939.087   -123.64692     34.67231 
312476000    277.96324      485.383    190.76962   -46931.996     46956.58    294.61338    34.680593 
312480000    266.20604    475.84209    144.56064   -46969.656    47013.288    331.28145    34.672998 
312484000    307.03359    454.87051    239.88079   -46993.755    47027.278    214.98972     34.68916 
312488000    279.71788    439.37139    487.38019   -46989.012    47023.174   -48.008798    34.691637 
312492000    252.38557    477.44116    257.24368   -47007.139    47062.439    220.19748    34.716149 
312496000    288.60788    387.44848    368.89875   -47012.788    47053.283    18.549733    34.715331 
312500000    269.40091    286.01479    258.95312   -47024.412    47080.852    27.061676    34.710942 
312504000    292.26368    243.79581    256.09827   -47069.498    47090.544   -12.302465     34.70817 
312508000    279.92118    356.50918    257.41071    -47090.23    47119.327    99.098475    34.711651 
312512000    253.44048    412.93879    263.48417    -47092.07    47138.227    149.45461    34.723115 
312516000    276.98056     340.7967    404.96255   -47116.426    47151.581   -64.165853    34.712809 
312520000    272.77453    436.28271    367.34709   -47152.548    47181.136     68.93562    34.722488 
312524000    278.74013    238.29871    398.23197   -47166.745    47198.905   -159.93327    34.729162 
312528000    296.18325    327.92992    407.10086   -47171.987    47208.299   -79.170942    34.720789 
312532000    276.16616    444.00333    261.88571   -47172.769    47224.652    182.11762     34.72776 
312536000    289.21041    459.42352    387.62005   -47214.069    47252.269    71.803473    34.724621 
312540000    288.26295    347.74741    236.10914   -47243.198    47279.001    111.63827    34.750181 
312544000    280.74124    368.57648    239.45885   -47280.939    47323.055    129.11764    34.756677 
312548000    266.31072    236.40307    160.84345   -47303.598    47363.133    75.559618    34.755441 
312552000    277.49571    226.58532    439.59356   -47327.088    47353.588   -213.00825    34.729439 
312556000    284.37633    587.34765    331.94084   -47351.624    47383.909    255.40682    34.722919 
312560000    323.50866    341.19438    483.29446   -47394.268    47390.265   -142.10008    34.728352 
312564000    288.89244    422.02464    260.35018   -47391.811    47442.345    161.67446    34.728668 
312568000    288.72195    456.07619    243.35885    -47442.97    47464.551    212.71734    34.739241 
312572000    280.49863    301.88288    247.71455   -47458.334    47496.092    54.168331       34.742 
312576000     273.8343    187.03659    536.42294   -47468.448    47506.691   -349.38635    34.750418 
312580000    270.55429    292.49392    253.91868   -47496.043    47531.537    38.575242    34.768133 
312584000    268.24351    322.93196    269.59217   -47507.479    47546.743    53.339793     34.76287 
312588000    259.96763    116.44465    263.32583   -47520.413    47557.136   -146.88118    34.749307 
312592000    269.81101     306.1965    306.48037   -47538.095    47587.018  -0.28386416    34.747848 
312596000    274.94985    339.95118    232.77816   -47556.615    47603.537    107.17302    34.748023 
312600000    249.49464    268.56962    453.38667   -47575.233    47635.356   -184.81705    34.775007 
312604000    295.14061    342.35174    414.42295   -47609.359    47646.304   -72.071213    34.764151 
312608000    281.10923    417.51324    172.81774   -47622.832    47676.021    244.69551    34.774651 
312612000    299.41222    398.42001    391.24919    -47645.01    47675.131    7.1708196    34.767225 
312616000    249.46249    144.18177    354.60265   -47643.028    47690.845   -210.42087    34.766305 
312620000    299.98402    346.51465    273.35342   -47682.452    47711.404     73.16123    34.778313 
312624000    296.55857    396.97326    310.79803    -47705.23    47726.722    86.175232    34.791147 
312628000      260.009    330.80022    370.82387   -47700.489    47747.545   -40.023645    34.784292 
312632000     287.8576    406.84693       268.02   -47715.355    47768.236    138.82693    34.789457 
312636000    267.83828    363.38206     218.1641   -47717.106    47761.919    145.21796    34.800727 
312640000    268.17062    541.17116    311.79229   -47752.768    47787.858    229.37887    34.806006 
312644000     278.6139    251.30002    247.20599   -47762.021     47815.98    4.0940266    34.803522 
312648000    262.76789    539.76634    377.05347    -47790.85    47848.958    162.71287    34.807696 
312652000    287.13166    512.30626    377.55312   -47842.146    47880.616    134.75313    34.820043 
312656000    282.41385    405.65126    364.70972   -47898.845    47937.444    40.941542    34.806798 
312660000    290.82778    459.05625    477.30951   -47924.672    47966.808   -18.253259    34.813998 
312664000     300.1961    455.54891    482.84841    -47941.17    47973.105   -27.299504    34.826394 
312668000    295.18563    381.77565    327.91475   -47935.459    47978.197    53.860906    34.819393 
312672000    283.36379    531.88206    621.60083   -47970.657    48006.377   -89.718779    34.814338 
312676000    287.42639    426.89667    314.01513   -47982.713    48014.969    112.88154    34.813377 
312680000    329.69116    575.28391    413.64676   -48032.143    48027.249    161.63715    34.804446 
312684000     293.1973    369.12842    287.69035   -48038.256     48065.84    81.438071    34.801794 
312688000    273.47853    363.73347    441.99696   -48062.537    48097.686   -78.263492    34.775237 
312692000     298.9439    363.17149    425.80621   -48080.384    48114.631   -62.634722    34.769633 
312696000    259.12496    297.73882    415.49914   -48085.041    48155.198   -117.76032    34.757371 
312700000    300.50623    587.32015    410.18021   -48120.746    48147.632    177.13994    34.765678 
312704000    283.54067    223.29156    388.63051   -48121.705     48176.26   -165.33895    34.762135 
312708000    283.51285    444.30175     163.4595   -48153.115    48191.197    280.84225    34.766293 
312712000      291.675    174.05384    488.11006   -48170.266    48201.975   -314.05622     34.75432 
312716000    285.78395    283.14665    323.09073   -48184.739    48225.247   -39.944078    34.740454 
312720000    267.25343    435.79527    184.13819   -48217.506    48254.739    251.65708    34.726886 
312724000    292.37383    308.04606    468.27273   -48233.583    48283.593   -160.22667    34.714735 
312728000    300.64401    349.36346     335.8275   -48263.833    48283.327    13.535958     34.72187 
312732000    280.84989    265.78065    439.05037   -48257.045    48290.731   -173.26971    34.724107 
312736000     276.6714    435.34063    324.02511   -48288.442    48312.784    111.31552    34.715471 
312740000    278.57149    446.95755    403.84519   -48294.034    48346.318    43.112359     34.69649 
312744000    257.37368    292.60507    340.08469     -48304.9    48357.457   -47.479622    34.708087 
312748000    279.89801    340.26934    360.04511   -48334.291     48372.46   -19.775767    34.719272 
312752000    292.38235    280.63226    254.77999   -48367.736     48408.24    25.852278    34.725196 
312756000    271.52731    378.90315    211.28598   -48392.387    48443.441    167.61718    34.711508 
312760000    261.55951    296.23011    201.03159   -48386.969    48430.796    95.198515    34.713741 
312764000    273.82146    355.96973    201.63473   -48413.015    48464.037      154.335     34.72185 
312768000    288.75211     528.0873    329.33534   -48469.031    48513.042    198.75196    34.704687 
312772000    260.02386    259.08082    393.35967   -48501.292    48559.114   -134.27885    34.703186 
312776000    293.30384    376.78874    380.27819   -48544.743    48565.447   -3.4894517    34.697856 
312780000    303.80087    420.64475    256.08136   -48583.266     48585.89    164.56339    34.704773 
312784000     307.8839    309.02959      349.066   -48616.756    48626.196   -40.036407    34.707925 
312788000    295.74642    303.58136    267.31033   -48647.458     48676.66    36.271032    34.707798 
312792000    286.40353    341.28885    410.94384   -48672.544    48710.511   -69.654994    34.702383 
312796000    264.99244     284.3332    286.30511   -48672.372    48727.752   -1.9719034    34.715042 
312800000    277.69795    295.24631    250.89049   -48684.654    48735.645    44.355815    34.709424 
312804000    271.68412    386.58532    336.69103   -48743.094    48765.829    49.894294    34.718285 
312808000    296.85321    342.41382    277.48327    -48758.61    48787.567    64.930549    34.713417 
312812000    287.51141    309.76174    385.90873   -48791.078    48821.809   -76.146991    34.709571 
312816000    284.21111    451.79184     214.1085   -48808.036    48835.302    237.68334    34.708526 
312820000    306.97581    421.40806    342.07411   -48832.803    48846.274    79.333954    34.708077 
312824000    287.90365    275.25029    325.49852   -48858.403    48901.454   -50.248231    34.695907 
312828000    279.26427    251.82942    293.27352   -48877.587    48926.745   -41.444102     34.69394 
312832000    271.31566    565.29465     128.7437    -48916.13     48929.48    436.55095    34.700239 
312836000    278.95659    213.08478    427.00412   -48934.176    48954.866   -213.91934    34.694315 
312840000    273.48717    340.18414    258.08707   -48954.469    49008.324     82.09707    34.696436 
312844000    284.11473      312.614    349.71645   -48972.578    49010.372   -37.102448     34.69038 
312848000    278.66651    423.52729    355.29595   -48957.721    49001.453    68.231334    34.697268 
312852000    298.74679    355.28545    350.22287   -48976.642    49018.931    5.0625788    34.711097 
312856000    306.39406    303.13659    296.42613   -48990.008    49028.328    6.7104572    34.724433 
312860000    306.41329    338.45437      521.893   -49016.638    49037.041   -183.43863    34.726889 
312864000    271.41272    240.28702    502.84516     -49030.9    49075.821   -262.55814    34.733921 
312868000    275.94636     349.5826    224.86804   -49042.792    49085.944    124.71457    34.728255 
312872000    281.19894    512.64472    371.56334   -49072.921    49124.872    141.08137    34.721324 
312876000    249.33466    430.35502    359.44171   -49079.208    49136.361     70.91331     34.72717 
312880000    263.96754    547.18413     335.0739   -49083.959    49142.116    212.11023    34.739921 
312884000    307.04157    335.83523    583.07775   -49104.077    49147.781   -247.24253    34.730564 
312888000    276.46854    278.25919    377.44832   -49136.443    49187.043   -99.189123    34.731334 
312892000     285.1492    498.94642    241.35176   -49151.918    49195.647    257.59467     34.73185 
312896000    266.17323    266.41816     426.9668   -49154.153    49197.417   -160.54865    34.740126 
312900000    285.36823    245.93582    465.75303   -49188.902     49229.92   -219.81721    34.751237 
312904000    304.32596    498.12417    174.46814   -49246.338    49272.346    323.65602    34.760253 
312908000    286.47428     262.2878    326.41378   -49245.358      49283.2   -64.125979    34.759404 
312912000     289.3295    269.08888     357.3798   -49256.278    49291.011   -88.290917    34.753655 
312916000    284.44828    376.89206    424.24122   -49275.142    49313.842   -47.349152    34.737543 
312920000    309.23384    437.63012    278.94006   -49290.675    49325.221    158.69007    34.752219 
312924000     291.1586    263.68432    244.11866    -49317.49    49345.547    19.565666    34.750431 
312928000    288.29561    281.03879    312.92207   -49321.607    49365.336   -31.883278    34.746898 
312932000    306.35761    618.29862    270.13624   -49344.298     49370.35    348.16239    34.745779 
312936000    286.44355    478.67646    320.20076   -49381.685    49419.086     158.4757    34.756949 
312940000    305.30153    510.85638    366.56616   -49424.593    49445.006    144.29023    34.753599 
312944000    274.20424    481.75878    495.59854   -49465.421     49512.15   -13.839764    34.751832 
312948000    289.09457    406.19595    352.24645   -49465.112    49503.225    53.949492    34.760096 
312952000      273.337    433.33616    247.31648   -49471.744    49527.603    186.01969    34.761738 
312956000     286.5597    431.22563    315.76498   -49487.798    49511.334    115.46065    34.754063 
312960000    257.41197    313.64591    313.23398   -49506.483    49555.156   0.41192787     34.75228 
312964000    279.20059    300.74289    303.49992   -49533.961    49579.664   -2.7570378    34.738972 
312968000    288.13206    396.93646    479.72695   -49574.785    49610.372   -82.790493    34.734599 
312972000    269.10246    381.37395    422.23937   -49610.493    49655.363   -40.865418    34.736869 
312976000    307.53006    567.06412    292.78685   -49644.514     49656.48    274.27727    34.737414 
312980000    297.01033    426.59809    370.85702   -49652.871    49702.247    55.741077    34.745482 
312984000    289.08539    381.32817    281.44511   -49695.202    49735.464    99.883062    34.753078 
312988000     257.8273      297.528     273.6795    -49717.28    49759.793    23.848502    34.748776 
312992000    276.47269      474.627    415.78829   -49744.523    49792.487    58.838707    34.733922 
312996000    278.43038    428.32199    311.28234   -49766.594    49813.896    117.03964    34.737753 
313000000    315.92358     376.7949     337.0473   -49772.374    49803.673    39.747595    34.742823 
313004000    290.83806    309.83889    420.97488   -49790.198    49812.025     -111.136     34.74012 
313008000    290.84721    318.19161    255.34729   -49812.707    49830.748    62.844325    34.742318 
313012000     287.7756    546.49769    282.65384   -49819.782    49853.851    263.84386    34.752408 
313016000    282.96097    378.46897    205.23682   -49852.193    49899.028    173.23216    34.744881 
313020000    285.01612    353.03131    245.93455    -49879.51    49933.716    107.09676    34.750426 
313024000     298.7077    390.16457    373.64122   -49941.356    49963.211    16.523348    34.764282 
313028000    304.07987    417.28846    382.45938    -49959.55    49985.328    34.829088     34.75813 
313032000     286.5294    498.55163    260.70927   -49958.744    49987.587    237.84236    34.745999 
313036000    294.96506     454.7744    447.55911   -49979.312    50021.019    7.2152801    34.759678 
313040000    252.87098    494.02268    283.86862   -50017.124    50078.123    210.15406    34.759657 
313044000    295.58293    624.13395    315.51954   -50027.863    50072.064    308.61441    34.750677 
313048000    270.56062    269.99308     364.6958   -50060.213    50115.951   -94.702718    34.754216 
313052000    263.70035    335.77149    237.84601   -50081.037    50126.133    97.925485    34.758919 
313056000     278.7873    268.41648    575.85938   -50103.287    50135.179   -307.44291    34.757604 
313060000    313.94914    320.06798    379.31758   -50101.172    50125.137   -59.249606    34.748812 
313064000    307.58939    321.61311    309.77468    -50109.69    50125.962    11.838428    34.740288 
313068000    259.52614    309.04323    219.75259   -50114.022    50173.826    89.290635    34.743006 
313072000    291.15815    275.98804    276.88969   -50143.414    50171.111  -0.90164415    34.741373 
313076000    310.82926    367.64402    487.77334   -50194.007    50217.007   -120.12933    34.728338 
313080000    280.88329    353.44878    199.53458   -50222.649    50263.477     153.9142     34.72074 
313084000    267.54979    225.92246    262.91307   -50229.915    50257.678   -36.990611    34.702822 
313088000    270.70121    337.13537    377.11077   -50248.487    50274.676   -39.975398    34.709086 
313092000    265.25427    455.49711    262.40831   -50304.855    50350.847     193.0888    34.704522 
313096000    263.14967    260.99531    236.09883   -50305.103    50368.933    24.896482     34.70673 
313100000    295.91924    383.47714    362.05023   -50302.793    50365.223     21.42691    34.715212 
313104000     303.1086    421.23366     404.9061   -50330.079    50358.007    16.327553    34.712598 
313108000    318.01728    448.57446    280.44176   -50342.935    50373.343    168.13269    34.718339 
313112000    277.20523    409.46487    304.90604   -50351.762    50387.066    104.55883    34.720149 
313116000    280.21624    333.88244    390.58724   -50370.141     50418.85   -56.704803    34.718238 
313120000      317.839    482.45391    320.24926   -50416.393    50439.038    162.20464    34.732509 
313124000    289.04634    359.50283    391.55161   -50452.343    50482.137   -32.048776    34.716112 
313128000    277.39288    240.50801    255.96589   -50452.162    50499.846    -15.45788    34.711323 
313132000    262.20265    348.68774     259.2426   -50477.518    50528.927    89.445146    34.723464 
313136000    253.15353    281.20825    325.81452   -50513.993    50568.153   -44.606267    34.716297 
313140000    306.36898    288.50364    252.18271   -50548.451    50575.523    36.320934    34.726105 
313144000    311.88293    281.22282    274.94877   -50565.606    50578.141    6.2740538     34.71395 
313148000    322.51765    423.55234    289.02766   -50608.501      50625.6    134.52467    34.708066 
313152000    270.43416    259.74332    382.53272   -50626.638    50673.508    -122.7894     34.70969 
313156000    272.33076    314.15122    235.59409   -50674.356    50725.824    78.557127    34.705773 
313160000    295.67857    561.31035    397.09096   -50709.181    50748.246    164.21939    34.712886 
313164000     295.1774    388.36677    397.94363   -50737.417    50758.914   -9.5768568    34.729865 
313168000    269.28108    425.28657    161.41049   -50774.822    50810.529    263.87609    34.741179 
313172000    293.41502    256.86126    440.40332   -50798.012    50824.553   -183.54206    34.730552 
313176000    277.58172    414.56772    198.00502   -50815.946    50861.566     216.5627    34.737533 
313180000    310.28566    376.41907    621.45267   -50844.634    50867.835    -245.0336    34.730273 
313184000    274.84219    272.72758    276.71047   -50855.164    50900.813   -3.9828953      34.7111 
313188000    296.38198    423.07381     291.1477   -50861.451    50915.254    131.92611    34.705691 
313192000    309.37571    459.13813    400.18197   -50888.926    50919.846    58.956159    34.703382 
313196000    305.30736    442.81629    331.11512   -50904.242    50929.769    111.70116    34.682452 
313200000    253.84607    245.39665    232.87979    -50930.67    50984.197    12.516863    34.697021 
313204000    320.84797    258.08767    341.02532   -50990.084     51011.11   -82.937658     34.70392 
313208000    275.82517    334.84481    323.34792   -50995.336    51033.273    11.496889    34.711517 
313212000    312.94024    472.48358    217.96462   -51027.093    51057.997    254.51896    34.692164 
313216000     264.6221    324.51348    213.28204    -51028.17    51091.216    111.23144    34.701855 
313220000    278.90527     331.0626    486.81453   -51040.393    51087.885   -155.75193    34.718552 
313224000    287.01304    426.35983    346.14395   -51050.237     51106.14    80.215884    34.707544 
313228000    278.80564     352.5165    268.78067   -51101.315    51134.855    83.735832    34.715896 
313232000    296.40509    345.70387     295.5583   -51128.299    51160.171    50.145561    34.725648 
313236000    275.89348    344.05304    229.85868   -51157.308      51197.1    114.19436    34.719817 
313240000    260.34972    264.08794    236.17422   -51160.655    51206.926    27.913726    34.732115 
313244000    263.11956    438.91188    173.89921   -51213.893    51265.235    265.01267    34.734578 
313248000    296.83136    587.90897    367.18376   -51240.189    51256.167    220.72521    34.737539 
313252000    279.09359     298.6049    296.95043   -51239.008    51282.395    1.6544769    34.740881 
313256000    278.43738    407.80172    208.52539   -51250.815    51302.319    199.27633    34.746774 
313260000    263.37756    418.34408    402.05839   -51252.606     51306.12    16.285693    34.744908 
313264000    301.60578    323.52923      395.368   -51280.131    51318.435    -71.83877    34.758868 
313268000    303.59219    403.11123    358.83968   -51311.775    51335.475     44.27155    34.767771 
313272000    278.42862    332.80012    333.46292   -51336.295    51372.064  -0.66279598    34.776553 
313276000    285.42481    219.69732    406.15175   -51365.119    51409.176   -186.45443    34.779875 
313280000    269.80662    314.60419    236.20728    -51392.74    51426.802    78.396909    34.782574 
313284000    308.36218    541.09653    352.76985   -51425.684    51456.213    188.32669    34.777804 
313288000    280.79261    193.93972    249.59188   -51448.616    51495.872   -55.652157    34.800742 
313292000    264.50385    464.98806    328.51355     -51477.8    51529.593    136.47451    34.801708 
313296000     293.0061    286.70398    214.05878   -51523.658     51554.86    72.645199    34.792136 
313300000    256.39408    178.20605    274.52188   -51531.613    51591.766   -96.315827    34.798088 
313304000    258.70422    332.78379    456.36663   -51564.021    51608.779   -123.58284    34.794315 
313308000    266.90229    534.68367    264.11385   -51602.602    51659.085    270.56982    34.801583 
313312000    289.83424    450.32512    176.06811   -51628.144    51677.261    274.25701    34.801718 
313316000    309.08127    407.12222    249.92301   -51661.552    51676.108    157.19921    34.801514 
313320000    307.35093    468.22635    273.36006   -51688.456    51721.104    194.86629    34.805469 
313324000    288.39911    356.08392    398.85025   -51714.707    51750.967   -42.766331    34.808351 
313328000    282.23004    408.28505    297.28829   -51740.244    51770.951    110.99676    34.812443 
313332000    298.56755    409.19868    356.80848   -51759.998    51787.939    52.390205    34.818405 
313336000    299.38867    336.35495    525.02138   -51771.269      51813.2   -188.66643    34.816504 
313340000     275.4301    415.46801    294.18456   -51771.921    51816.358    121.28345    34.836059 
313344000     276.9987    451.64951    498.25045   -51777.494    51820.268   -46.600938    34.842371 
313348000     299.2747    475.67002    353.85555   -51803.436    51831.105    121.81448    34.849226 
313352000    289.98896    271.10974    184.15507   -51836.801    51873.198     86.95467    34.853432 
313356000     275.0166    449.16812    208.51649   -51896.761    51923.742    240.65162    34.853932 
313360000    325.20967    506.29237    259.22971   -51912.631    51930.675    247.06265    34.860342 
313364000    315.68494    388.96767    336.77392   -51919.691    51937.438    52.193749    34.857141 
313368000    303.55267    403.79616    432.07041   -51935.031    51964.773   -28.274255    34.875918 
313372000    312.01796    333.93727    315.57186   -51975.054    52002.271    18.365415    34.887447 
313376000       257.08    371.84081    334.16315   -51987.103    52052.415    37.677659    34.875081 
313380000    289.01539    227.04254    358.65911    -52040.79    52074.966   -131.61657    34.889253 
313384000    299.48868    229.62123    355.44583    -52059.41    52092.032    -125.8246    34.873343 
313388000    269.49155    284.54828    396.28922   -52090.877    52142.387   -111.74094    34.877431 
313392000    310.16862    418.23118    458.26899   -52106.597    52136.754   -40.037807    34.901925 
313396000    302.96414    309.56615    302.47945   -52123.666    52148.969    7.0866966    34.886689 
313400000    255.86808    443.65437    310.79654    -52127.73    52165.931    132.85783     34.88023 
313404000    274.73629     224.3207    396.77604   -52136.766    52186.446   -172.45534    34.872313 
313408000    276.59922    395.88874    421.62623   -52169.068    52209.011    -25.73749    34.868769 
313412000    280.11663    324.60396    502.20187   -52171.246    52226.978   -177.59791    34.856464 
313416000    269.45968    359.01363    204.66768   -52194.177    52251.404    154.34595    34.851429 
313420000    303.38957    499.37824    431.07573   -52237.636    52261.019     68.30251    34.856568 
313424000    305.23522    294.60302     384.3309   -52251.995    52293.444   -89.727877    34.852769 
313428000     297.0249    294.57932    173.51959   -52293.744    52326.805    121.05973    34.860765 
313432000    308.73836    246.48149    337.58121   -52304.781    52329.869   -91.099717     34.85623 
313436000    288.29247    417.70142     347.6477   -52325.967    52369.594    70.053713    34.864066 
313440000    281.74183    233.79269    292.10209   -52352.141     52397.78   -58.309406    34.857923 
313444000    290.30348    283.25747    246.20854   -52367.365    52416.264    37.048935    34.864392 
313448000    290.08147    223.31189    352.10892   -52408.019    52457.563   -128.79702    34.861201 
313452000    308.08957     589.4596    313.95617   -52426.758    52444.878    275.50343    34.859924 
313456000    279.55644     350.7194    198.49713   -52424.454    52460.499    152.22227    34.876538 
313460000    267.94199    401.66619    348.27751   -52428.194    52482.019    53.388681    34.874483 
313464000    287.40356    266.28805    380.03818   -52472.119    52499.967   -113.75013    34.851869 
313468000    255.63298    271.82235    378.75101   -52462.144    52525.216   -106.92866    34.861441 
313472000    286.28327    263.53509    377.33169   -52504.775    52554.567    -113.7966    34.860582 
313476000    276.82322    431.06004    417.68126   -52533.514    52582.555    13.378779    34.867791 
313480000    279.69279    370.29875    345.46267   -52581.467    52603.518    24.836073    34.853311 
313484000    279.55812       370.39    211.00205   -52584.861     52632.78    159.38795    34.857923 
313488000    264.75335    303.43019    207.04277   -52583.051    52638.398     96.38742    34.845456 
313492000    272.93592    325.60689    317.26072   -52615.631    52659.203    8.3461686     34.83936 
313496000    250.02837    504.14445    256.54665   -52642.824     52697.29     247.5978    34.844874 
313500000    271.72187    316.08336    213.53162   -52672.304    52723.469    102.55174    34.848781 
313504000    272.07309    245.01547     342.8954   -52690.791    52744.092   -97.879929     34.84983 
313508000    306.52206    381.49462    381.22892   -52723.419    52754.849   0.26570153     34.84951 
313512000    283.21331    411.91572    292.09256   -52760.879    52790.748    119.82316    34.842055 
313516000    281.48376    428.18026    202.11126   -52767.493     52807.11      226.069    34.840957 
313520000    295.17526    619.26592    312.11422   -52797.687    52830.152     307.1517    34.842956 
313524000    309.66087    270.83799    261.43172   -52793.267    52827.962    9.4062758    34.841654 
313528000    279.44314    439.20224    259.70486    -52797.77    52840.609    179.49737     34.85137 
313532000    274.39575    399.62511    217.81597   -52804.099    52855.706    181.80914    34.854092 
313536000    264.48607    429.11602    242.86231   -52836.977    52890.927    186.25371    34.846934 
313540000    286.69639    426.35167     287.2341   -52840.076    52859.333    139.11757    34.843808 
313544000    312.43511    296.77242    385.87418   -52868.853    52881.982   -89.101758    34.835904 
313548000    288.92961     365.7446    221.40064     -52877.1    52917.109    144.34396    34.839174 
313552000    259.22902    154.24768    268.58278   -52909.789    52973.914    -114.3351    34.825407 
313556000    278.15579    355.99206    219.89969   -52926.344     52965.48    136.09237    34.821405 
313560000    288.33891    366.30611    563.24906   -52960.291    53009.115   -196.94295    34.811072 
313564000     302.0328    358.01211    222.31653   -53034.159    53055.373    135.69558    34.808963 
313568000    276.15094    395.83947    281.64537   -53013.239    53063.136     114.1941    34.788787 
313572000    283.30839     389.7303    224.57855   -53041.461    53081.944    165.15175    34.776781 
313576000    265.50793    413.08703    476.49726   -53064.119    53129.508   -63.410234    34.768529 
313580000    279.56375    435.53984    501.20724   -53097.395    53146.126   -65.667399    34.772547 
313584000    305.07397    449.27023    378.38181   -53120.558    53151.712    70.888419    34.761412 
313588000    298.35919    329.84191    458.52367   -53122.446    53165.744   -128.68177    34.766426 
313592000     270.7473    335.95106    387.09417   -53144.468    53214.561   -51.143109    34.772136 
313596000    290.00734      288.472    441.01213   -53191.467    53229.036   -152.54014    34.780734 
313600000    248.85917    348.20263    239.98355   -53231.928    53266.705    108.21909    34.777718 
313604000    324.79933    604.42519     341.2167   -53261.434    53263.005    263.20849    34.770744 
313608000    310.43722    321.24368    369.91725   -53280.431    53311.898   -48.673573    34.775514 
313612000    274.83684    345.17239    297.80187   -53313.779    53343.653    47.370522    34.772257 
313616000    278.55536    479.40169    221.61442   -53350.577    53388.228    257.78727    34.762514 
313620000    308.67267    299.57094    298.11425   -53393.073    53416.189    1.4566991    34.771365 
313624000    275.61234    384.95834     620.8729   -53420.438    53469.613   -235.91456    34.771659 
313628000    305.40757    356.13777    234.53832   -53467.588    53498.333    121.59946    34.762585 
313632000    292.33118    403.43954    278.16093   -53472.846    53512.273    125.27861    34.747081 
313636000    261.94752     237.3373    294.43996   -53471.276    53541.153   -57.102665    34.770889 
313640000    273.13093    340.19573    210.62442    -53490.33    53537.546    129.57131    34.764357 
313644000    271.44859     405.3833    415.46401    -53505.67    53543.121    -10.08071    34.770263 
313648000     272.3518    370.47012    426.78014   -53513.819    53564.136   -56.310019    34.775463 
313652000    283.74409    286.57043    316.68791   -53548.582    53585.989   -30.117474    34.791185 
313656000    262.90242    391.70325    303.47263   -53561.649    53610.322    88.230616    34.793222 
313660000    273.17613    268.21543    403.50497   -53567.437    53618.806   -135.28953    34.778535 
313664000    318.28797    465.90387    368.01221   -53603.586    53625.362    97.891662    34.780897 
313668000    296.44971      411.876    320.58972   -53643.144    53667.473    91.286277    34.780564 
313672000    285.32358    585.55243    209.58599   -53653.108     53696.35    375.96644    34.795707 
313676000     313.3731    523.98409     316.2681   -53668.884    53683.747    207.71599    34.799391 
313680000    275.89824    520.18568     391.4311    -53686.75     53701.33    128.75458    34.804613 
313684000    291.53921    311.73098    285.65063   -53689.123     53725.81    26.080355     34.80234 
313688000    305.41656    372.88126    457.81351   -53713.814    53754.379   -84.932249    34.792193 
313692000    276.37567    399.03431    375.43007   -53724.315    53779.319    23.604236    34.819054 
313696000    260.61304    394.34419    407.72768   -53744.311    53811.896   -13.383493    34.824321 
313700000    265.50013    284.34928    261.13177   -53763.328    53813.199    23.217517    34.817516 
313704000    261.07326    153.50706    180.18061   -53792.803    53839.719   -26.673555     34.83557 
313708000    263.32847    409.95846     305.6711   -53821.129    53874.564    104.28736    34.845807 
313712000    253.13028     281.1744    283.80585   -53835.211    53902.822   -2.6314478    34.861201 
313716000    289.74755    446.09989    459.00886   -53852.157    53904.596   -12.908974    34.844362 
313720000    280.55537    245.88079    357.71743   -53869.499    53917.728   -111.83664    34.827839 
313724000    277.00091    314.45665    305.06495   -53892.611    53943.626    9.3917014    34.821434 
313728000    291.13445    433.99615    416.82427   -53934.256    53969.013     17.17188    34.809194 
313732000    285.15443    318.76765    457.50072   -53974.973    54021.342   -138.73308    34.808234 
313736000    259.02634    280.01908    274.79844   -53984.302    54043.137    5.2206331    34.811956 
313740000    299.04898    345.25886    302.07463   -54017.296    54045.143     43.18423    34.819769 
313744000    282.04189    304.23664    402.81698   -54018.645    54066.393   -98.580346     34.81766 
313748000    283.35936    318.73936     316.9065   -54051.442    54097.955    1.8328681    34.807138 
313752000    258.01416    324.36237    272.36455    -54093.28    54137.811    51.997821    34.801387 
313756000    250.07395    521.33551    231.50514   -54103.231    54156.563    289.83037    34.798797 
313760000    302.12927    577.64088    476.55067   -54124.053    54143.698    101.09021    34.798069 
313764000    302.17401    256.11956    200.03239   -54151.074    54177.629    56.087163    34.812971 
313768000     308.6817    426.65394    312.76046   -54182.517     54184.91    113.89348    34.803579 
313772000    264.73773    272.01695     235.9971   -54180.505    54228.041     36.01985    34.790153 
313776000    279.24004    537.75115    364.93688   -54196.816    54234.871    172.81428    34.800587 
313780000    290.71658    595.36673    277.25629   -54257.445    54283.878    318.11045    34.796964 
313784000    288.81341    230.75479    420.24782   -54271.643    54299.727   -189.49303    34.791331 
313788000    281.09223    346.15389     322.3486   -54308.541    54340.883    23.805299    34.809833 
313792000    301.34788    497.51677      235.777   -54325.533    54365.856    261.73977    34.819796 
313796000    268.52269    319.44026    349.36319   -54356.496    54411.718   -29.922935    34.814476 
313800000    258.61294    423.62831    369.16921   -54384.446    54463.328    54.459102    34.808524 
313804000    307.35806    420.46759    381.39628   -54419.841    54437.501    39.071303    34.797903 
313808000    277.24204    159.27111    263.33069   -54387.784    54437.811   -104.05958    34.788012 
313812000    304.96974      511.551    325.20926   -54423.495     54447.31    186.34175     34.80354 
313816000    275.77584    442.39802    261.67579   -54453.203    54492.352    180.72223    34.809538 
313820000    281.11199    446.06394    435.43572   -54467.052    54505.998    10.628216     34.81081 
313824000    277.18029    189.12729    208.24119       -54476      54507.2   -19.113902    34.820094 
313828000    324.96772    502.35443    213.95393   -54509.869    54515.586     288.4005    34.814407 
313832000    296.71672    269.24121    646.37732   -54508.534    54541.541   -377.13611    34.811774 
313836000    291.25866    345.13255    296.91099   -54543.081    54562.357    48.221561     34.80444 
313840000    265.74839      291.821    175.08157   -54558.071     54613.11    116.73943    34.823824 
313844000     292.1788    189.06416     231.6329   -54581.455    54616.338   -42.568745    34.804813 
313848000    288.69284    238.19675    284.85939   -54613.433    54663.856   -46.662642    34.795829 
313852000     314.9725    358.66631    559.66032   -54648.295    54687.781   -200.99401    34.796829 
313856000    271.33712    326.85982    311.79867   -54681.738    54712.049    15.061157     34.79907 
313860000    263.70547    487.38721    411.15426   -54694.349    54718.321    76.232949    34.806117 
313864000      260.975    181.00225    382.70177    -54711.21      54755.9   -201.69952    34.809796 
313868000    270.29554    283.77777    335.15845   -54751.155    54774.066    -51.38068    34.819983 
313872000    276.18038    299.71629    426.75474   -54770.344    54832.253   -127.03845    34.826347 
313876000    239.48936    278.05052    298.22807   -54774.883    54845.367   -20.177554    34.822285 
313880000    276.71022    504.76158    386.83714   -54822.837    54876.314    117.92443    34.814692 
313884000    284.15538    544.24156    193.77375   -54874.185    54908.969    350.46781    34.833876 
313888000    310.14008    333.71562    239.71236   -54879.538    54909.204    94.003263    34.828942 
313892000    277.95967    290.30129    189.34585   -54860.641    54909.136    100.95544    34.845701 
313896000    269.73164    334.91771    273.30972   -54862.186    54921.143    61.607992    34.857522 
313900000    265.10992    365.94904    265.17429    -54863.53    54931.202    100.77475    34.839648 
313904000    275.40825    354.36458    351.50924   -54892.945    54953.327    2.8553345    34.834267 
313908000    264.59076    224.56236     413.4868   -54916.488    54975.655   -188.92443    34.838902 
313912000    236.95798    167.34417    263.19949   -54910.994    54981.456   -95.855317    34.867594 
313916000    279.55533    451.29314     304.2175   -54957.188    54998.362    147.07565    34.878888 
313920000    291.69391     424.5186    264.71637   -54978.736    55021.634    159.80223    34.892513 
313924000    280.83763    351.42622    206.59257   -55002.293    55041.383    144.83365    34.892477 
313928000    298.89897    344.74057    188.48971   -55027.321    55083.367    156.25086    34.884176 
313932000    296.22746    469.76764    506.96658   -55044.346    55092.264   -37.198947    34.874417 
313936000    262.34851    372.72862    254.03249   -55068.234    55121.718    118.69613    34.858457 
313940000    274.78283    212.06918    285.55245   -55093.346     55152.15   -73.483277    34.873402 
313944000    290.96465    345.61129    196.92565   -55168.354    55195.686    148.68564    34.867314 
313948000    323.06307    464.16734    506.39125   -55182.598    55201.491   -42.223904    34.857908 
313952000    314.82249    307.29537    339.07273   -55216.999      55238.7   -31.777361    34.870753 
313956000    281.67533    321.07497     426.3038   -55247.978    55281.884   -105.22882    34.893016 
313960000    284.74211    429.06969    283.06757   -55269.141     55296.34    146.00213    34.877725 
313964000    283.99939    122.65591    332.58812    -55304.93    55330.953   -209.93221    34.869971 
313968000    307.20191     346.9434    242.21907   -55335.792    55357.569    104.72434     34.86383 
313972000    300.96287    432.10362    483.73466   -55342.277    55374.621   -51.631037    34.870014 
313976000     261.1184    318.74216    401.11303   -55331.554    55395.159   -82.370873    34.865641 
313980000    312.24129    457.46193    396.99336   -55377.898    55414.502    60.468579     34.87039 
313984000    300.86746     576.2054    452.33772   -55385.862    55424.614    123.86769    34.873511 
313988000    293.59564    288.96036     274.1109    -55409.66     55449.77    14.849459    34.875054 
313992000    294.57109    427.39574    361.14423   -55421.183    55449.024    66.251508    34.874519 
313996000    283.23225    450.38642    258.19482   -55444.307    55482.069    192.19161    34.890168 
314000000    276.46242    235.28485    239.86057     -55460.7     55503.71   -4.5757235     34.87085 
314004000    258.05415    151.06451    225.26336   -55478.011    55526.497   -74.198855    34.874912 
314008000     307.5113    630.64184    561.93222    -55516.43    55540.179    68.709619    34.881253 
314012000    252.67493    381.51005    215.88198   -55550.948    55620.199    165.62807    34.883449 
314016000    292.40384     300.2222    287.16075   -55599.234    55629.517     13.06145    34.869847 
314020000    277.18027    257.27729    325.91362    -55633.69    55680.301   -68.636325    34.858449 
314024000     289.4622    325.19852    249.73686   -55655.462    55700.838    75.461654     34.85427 
314028000     284.3587    455.23664    200.75261   -55657.434      55714.9    254.48403    34.848383 
314032000    290.40759     213.4031    390.26202   -55682.846    55725.933   -176.85892    34.841903 
314036000     322.8882     383.2782    248.25945   -55713.002    55719.477    135.01875    34.829989 
314040000    298.91881    427.80528     361.6607   -55734.426    55751.255    66.144586    34.827041 
314044000    287.43285     221.3239    224.61623   -55751.847    55795.753    -3.292325    34.819889 
314048000     301.6122    327.11136    269.88591   -55794.352    55803.068     57.22545    34.823507 
314052000    278.82456    423.53082    365.74002   -55829.208    55860.204      57.7908    34.810412 
314056000    292.05142    352.41528     317.1564   -55863.429    55916.937    35.258881    34.826174 
314060000    298.19767    337.93784    491.83589    -55904.68    55935.549   -153.89805    34.820667 
314064000    261.06656    441.86608     251.1644   -55927.828    55969.883    190.70167    34.808804 
314068000    289.71675    339.03589    438.66936   -55953.636     55995.77   -99.633462    34.797887 
314072000    299.85157    423.99979    483.02779   -56005.845    56027.701   -59.028008    34.808648 
314076000    287.66072    315.17574    392.95171   -56010.146     56050.19   -77.775963    34.794201 
314080000    291.05391     204.9155    399.07932    -56065.37     56103.05   -194.16382    34.795852 
314084000    288.43169    397.09188     207.3794    -56067.24    56099.834    189.71248    34.774125 
314088000    288.47168    370.67544      243.457   -56084.898     56118.43    127.21845    34.773525 
314092000    262.41011    264.20928    538.23217   -56094.647    56157.343   -274.02289    34.773928 
314096000    286.65664    558.21703    252.12397   -56125.868    56182.272    306.09306    34.767775 
314100000    303.85832    528.82165    258.29481   -56157.972    56193.898    270.52683    34.772634 
314104000    292.50413    339.65573    241.64027   -56167.281    56199.052    98.015454    34.777041 
314108000    275.19954    289.67643      487.968   -56193.835    56235.271   -198.29158    34.769272 
314112000    269.69266     320.9525    270.78533   -56218.184     56264.98    50.167175    34.772983 
314116000    263.52639    293.00331    346.34238   -56229.904    56281.784   -53.339061     34.77248 
314120000    265.85347    251.82619    309.22526   -56256.013    56292.656   -57.399068    34.785658 
314124000    281.16606    430.22585    343.74557   -56280.599    56305.476    86.480285     34.77335 
314128000    299.39997    266.73807    290.74847   -56305.518    56321.949   -24.010402     34.77588 
314132000    283.20455       374.67     143.4786   -56326.618    56346.144     231.1914    34.787372 
314136000    252.12047    402.45213    452.33158   -56351.338    56397.108    -49.87945    34.780682 
314140000    300.73433     454.8276     359.4038   -56374.814      56407.4    95.423802    34.786548 
314144000    276.01574    247.38118    202.93348   -56385.108    56433.131    44.447702    34.786367 
314148000    271.84578    401.37873    276.68601   -56388.251    56432.536    124.69272    34.777812 
314152000     290.4923    462.44745    509.34993   -56416.945    56457.156   -46.902486     34.78098 
314156000    271.24883    290.55333    474.76556   -56439.122    56480.457   -184.21223    34.768884 
314160000    277.29566    360.04539    228.20693   -56454.152    56495.537    131.83847    34.781608 
314164000    301.19779    348.42483    366.10057   -56487.698    56514.179   -17.675744    34.781531 
314168000    268.39904    409.42846     256.8984   -56517.455    56543.992    152.53007      34.7807 
314172000    261.99841    262.72694    456.76933   -56525.612    56576.397   -194.04238    34.782874 
314176000    250.60456    523.96749     349.3357   -56561.207    56630.045    174.63179    34.768122 
314180000    276.74552    503.39989    209.97436   -56619.066    56669.132    293.42553    34.754421 
314184000      297.174    395.11012    251.11788   -56657.009    56672.013    143.99224    34.748058 
314188000    283.11495    433.11376    213.19967   -56662.812    56702.275    219.91409    34.750873 
314192000    293.47142    266.38024    423.93543   -56685.812    56722.116    -157.5552    34.751115 
314196000    286.74504     447.0958    317.88547   -56700.815    56752.483    129.21033    34.749815 
314200000    294.52878    340.96486    405.32426   -56738.236     56763.98   -64.359405    34.756117 
314204000    312.17367    268.09051     217.1209   -56775.755    56810.602    50.969615    34.762278 
314208000    309.34701    294.81413    265.28462   -56814.743    56839.081    29.529516    34.764358 
314212000    293.26061    251.50784    261.35124   -56828.184    56883.717   -9.8433989      34.7732 
314216000    276.24238    404.46924    288.31382   -56855.295    56922.108    116.15542    34.781981 
314220000    298.85912    525.21041    475.42662   -56890.323    56915.707     49.78379    34.761826 
314224000    317.17342    460.62605    277.71039   -56918.414    56922.706    182.91565    34.763597 
314228000    310.69565    422.28775    395.13325   -56928.056    56955.485    27.154505     34.76807 
314232000    275.24433    426.53432    389.35492   -56945.916    56991.751    37.179401    34.759013 
314236000    283.14781    500.44998     296.1876   -56989.849    57038.294    204.26238    34.754324 
314240000    268.54387    241.66922    275.50437   -56999.435     57058.84   -33.835156    34.762352 
314244000    292.16541    309.54687    397.17395    -57010.39    57038.759   -87.627074    34.759975 
314248000    263.05636     266.7246     392.7104   -57004.336    57056.855    -125.9858    34.780917 
314252000    277.97234     437.1857    441.39451   -57038.794    57082.766   -4.2088048    34.781347 
314256000    262.81429    284.79383    280.07449   -57044.512    57099.753    4.7193392    34.784352 
314260000    266.38482     393.9316    326.45743   -57050.502     57103.12    67.474171    34.780748 
314264000    287.55513    477.34282    323.05128   -57060.852    57118.648    154.29154    34.775542 
314268000    290.31435    468.07316    277.99147    -57109.55    57145.213    190.08169    34.787219 
314272000    297.71794    244.67727    295.66969   -57115.744    57147.674   -50.992419    34.779878 
314276000    305.68094    512.78117    413.70908   -57139.989     57171.15    99.072082    34.799024 
314280000    261.35392    298.56593     219.0536   -57145.215     57197.02     79.51233    34.795894 
314284000    302.23651    338.75988    266.90739   -57198.436    57236.526    71.852492    34.781093 
314288000    288.58787    492.92156    292.87439   -57218.526    57257.207    200.04718    34.773929 
314292000    284.70682    318.24994    227.26238    -57243.66    57268.502    90.987556    34.787364 
314296000    260.70393     250.9671    243.18011   -57226.855    57281.168    7.7869844    34.792342 
314300000    313.65143     552.6475    376.27385   -57286.003    57301.014    176.37365    34.799757 
314304000    279.15801    484.87898    387.06004   -57285.585    57319.634    97.818941    34.815207 
314308000    295.75745    416.14556    346.21718   -57304.188    57352.495    69.928384    34.819192 
314312000    285.32276    356.15963     208.8612    -57318.46    57360.017    147.29843    34.826246 
314316000    286.39393    219.02206    448.78199    -57342.85    57379.767   -229.75993    34.812287 
314320000    278.81131    367.20624    310.58038   -57371.586    57419.772    56.625851    34.818018 
314324000    267.40767    222.39556    280.61235   -57373.144    57430.049   -58.216787    34.817964 
314328000    303.92124    417.84696    619.90126   -57421.466    57461.533    -202.0543    34.827993 
314332000    295.70548    322.51693    391.94205    -57451.17    57489.554   -69.425127    34.835112 
314336000    265.75986    229.20031    199.76872   -57453.415    57511.202    29.431591    34.841881 
314340000    281.03857    694.15451    237.62394   -57492.772    57533.803    456.53058    34.832457 
314344000    281.29375    238.95249     410.4791   -57506.273    57541.447   -171.52661    34.829192 
314348000    272.88457    305.89864    340.47413   -57538.892    57589.078   -34.575491    34.829703 
314352000    293.97161    553.89308    265.53951   -57592.637    57630.968    288.35357    34.836178 
314356000    272.06663    221.41857    468.65201   -57609.154    57667.725   -247.23344    34.826662 
314360000    280.93465    364.30758    264.77892   -57638.187    57683.278    99.528653    34.829435 
314364000    301.85738    294.67306    453.58458   -57676.224    57706.385   -158.91152    34.841449 
314368000    273.20809    563.04276    305.89605   -57709.571    57751.009    257.14672    34.841457 
314372000    307.48259    706.31856    395.92503   -57746.867    57775.484    310.39352    34.847632 
314376000    268.76322    401.82078    303.58781   -57763.384     57814.42    98.232972    34.849944 
314380000    266.97911    304.60481    470.44464   -57768.218    57811.173   -165.83983    34.849437 
314384000     298.9357    246.10082    283.99794   -57823.489    57868.512   -37.897126    34.845592 
314388000    292.55469    423.52441    389.07721   -57847.368    57913.138    34.447196    34.848743 
314392000    276.38847    275.63398    245.96253   -57915.181     57978.51     29.67145    34.831371 
314396000    274.83929    570.39272    262.49883   -57941.192    57995.536    307.89389      34.8423 
314400000     278.2474    466.06194    212.94115   -57956.262    58013.262    253.12079    34.851044 
314404000    285.82014    420.68921    444.90575   -57991.615    58035.985   -24.216541    34.852272 
314408000    300.75129    246.86418    325.31775   -58022.861    58039.042   -78.453567    34.855522 
314412000    289.87622    318.76986    245.47857   -58056.041    58087.628    73.291287    34.852232 
314416000    276.79779    336.80921    273.78407   -58070.724    58118.974    63.025138    34.850833 
314420000    264.76698    308.78888    238.61704   -58109.052     58152.48    70.171837    34.847015 
314424000    267.26191    346.84884    225.21243   -58155.297    58197.529    121.63642    34.851288 
314428000    296.17968    392.85994    391.98399   -58194.183    58241.982   0.87594769    34.840363 
314432000    278.10079    335.42248    382.42303   -58186.543     58251.71   -47.000543    34.849944 
314436000    293.17487    321.87031     344.2099   -58204.699    58266.436    -22.33959    34.844198 
314440000    262.37333    352.15116    202.20835   -58231.475    58285.223    149.94281    34.836308 
314444000    259.95465    301.96804    191.29111   -58234.855    58307.151    110.67693    34.833154 
314448000    257.09661    362.39597    268.95565   -58259.468    58314.349     93.44032    34.833793 
314452000    275.98798    308.27257    330.72179   -58314.398    58350.982   -22.449227    34.844966 
314456000    284.25525    386.58689    268.71263   -58369.814    58412.521    117.87426    34.858527 
314460000    292.01986    143.13932    286.67709   -58391.264    58421.354   -143.53777    34.866004 
314464000     280.5175    302.88376    293.59265   -58384.674    58427.275    9.2911113    34.865614 
314468000    320.40808    266.15616    415.56426   -58396.663    58424.118    -149.4081    34.867955 
314472000    259.30708    338.24089       219.23   -58414.806    58476.042    119.01089    34.888232 
314476000    289.24625     610.3343    247.82226   -58438.177    58468.606    362.51205    34.903922 
314480000    266.29146    380.92072    225.26009   -58433.846    58488.022    155.66063    34.911086 
314484000    306.17294    235.01032    468.92642   -58455.621    58495.465    -233.9161    34.917867 
314488000    270.95393    235.42952    405.61886   -58496.146    58541.705   -170.18934    34.907661 
314492000    299.89371    413.38649    201.39067   -58526.782    58565.668    211.99581    34.908475 
314496000     286.7151     287.5834    374.99163   -58554.641    58592.807   -87.408225    34.908924 
314500000    269.46071    308.92252    237.40367    -58581.63      58640.2    71.518855    34.934269 
314504000    253.23881    210.28792    318.43359   -58591.824    58634.486   -108.14567    34.924502 
314508000    302.77114    325.69779    277.57549   -58611.394     58652.32    48.122298    34.943629 
314512000    308.52383    609.48904    429.85551    -58659.44    58686.657    179.63353    34.952778 
314516000    278.03498    466.34064    326.25145   -58681.547    58724.071    140.08919    34.960114 
314520000    283.62114    401.83969    307.19459   -58709.822    58744.805    94.645103    34.954824 
314524000    348.68163    597.14811    308.41773   -58779.407    58782.701    288.73037     34.96138 
314528000    279.75751    402.06367    231.11261    -58771.37    58823.934    170.95106    34.977993 
314532000    292.91679    359.95383    403.57467   -58809.396    58844.893   -43.620834    34.992075 
314536000    275.83413    479.83186    436.69934   -58824.694    58870.281    43.132518    34.988785 
314540000    284.74133    223.18111    450.21929    -58858.35    58884.979   -227.03818    34.980497 
314544000    300.57587    249.09341    561.80952    -58882.92     58922.51   -312.71612    34.992448 
314548000    293.66376    242.34384    345.64163    -58894.13    58938.614   -103.29779     34.97991 
314552000    273.06013    229.35572    249.51744   -58928.997    58986.462    -20.16172    34.983459 
314556000    253.83873     324.5425    306.70534   -58937.859     58992.26    17.837164    34.978863 
314560000     257.6413    291.81895    253.11238   -58968.779    59031.592    38.706572    34.964135 
314564000    269.23867    368.54206    316.75032   -58978.747    59045.343    51.791738     34.96707 
314568000    305.20981    670.00169    325.61335    -59022.85     59063.43    344.38834    34.961425 
314572000    279.40052    257.50272    423.35208   -59057.752     59106.36   -165.84936    34.959982 
314576000    275.24016    545.46871    257.00319   -59049.833    59103.924    288.46552    34.974369 
314580000    264.50329    385.46774    356.19969   -59094.515    59146.869    29.268054    34.988568 
314584000    274.93302    272.60952    286.73857   -59116.459    59177.543   -14.129048    34.988582 
314588000     275.0075    319.85379     425.1075   -59145.466    59206.958    -105.2537    34.983604 
314592000    275.45623    380.11021    326.68165   -59157.099    59213.268    53.428569    34.998385 
314596000    319.06418     400.8537    345.14178   -59181.273    59224.061    55.711919     34.99999 
314600000    301.28916    333.85934    425.37896    -59188.87    59235.342   -91.519625    34.997826 
314604000    291.69771    500.02436    334.38926   -59230.793    59281.606     165.6351    34.995838 
314608000    287.27441    304.58124    328.10893   -59254.745    59290.473   -23.527688    35.001221 
314612000    285.92102     417.9657    490.17046   -59246.706     59296.95   -72.204758     35.00203 
314616000    268.13585    372.18236    296.23075   -59292.386    59335.002    75.951616    35.005194 
314620000    259.02631    320.04636    443.34389   -59294.977    59361.674   -123.29753    35.009332 
314624000     319.7901    278.63282    538.81304   -59356.002    59383.801   -260.18022    35.006628 
314628000    285.58678    299.66459    388.37688   -59363.698    59429.251    -88.71229    35.004875 
314632000    259.02642    409.70304    291.61243   -59399.797    59454.841    118.09061    35.016783 
314636000    277.21723    320.48974     421.7585    -59420.93    59471.597   -101.26876    35.010758 
314640000    294.12159    412.30741    352.53254   -59449.771    59485.822    59.774872    35.016292 
314644000    256.19261    345.72315    212.85235   -59459.901    59517.127    132.87079    35.006312 
314648000    282.12699    296.02896    334.62671    -59481.29    59536.789   -38.597745    35.004879 
314652000    291.71953    390.44008    165.54571   -59509.495    59544.503    224.89436    35.015562 
314656000    293.22115    301.98837    274.36537   -59504.822    59530.566       27.623    35.008996 
314660000    269.26202    538.56281    320.72944    -59509.74    59555.905    217.83336    35.002027 
314664000    280.00157    297.25107    275.85153   -59506.433    59562.765     21.39954    34.998478 
314668000    275.83719    364.71632    214.64437    -59538.66    59577.974    150.07194    35.001095 
314672000     272.9643    432.21274    252.39794   -59553.322    59598.994     179.8148    35.003503 
314676000    279.71333    192.50113    483.23924    -59571.03     59619.67   -290.73811    34.995719 
314680000    260.16993    555.06594    184.57584   -59601.496    59652.485     370.4901    34.983763 
314684000    265.14129    221.10975    300.44246   -59606.822    59665.566   -79.332716    34.975185 
314688000    284.54778    365.35181    374.72081   -59620.748      59655.9   -9.3689958    34.955775 
314692000    291.08697    609.40073    211.30885   -59648.723    59693.246    398.09189    34.970442 
314696000    312.67027    179.19819    376.25195   -59681.632    59735.101   -197.05376    34.971269 
314700000    282.18979    269.13132    265.63303   -59734.129    59783.669    3.4982816    34.977372 
314704000    272.58817    574.24812    330.41935   -59760.538    59807.565    243.82877    34.985766 
314708000    271.48807    467.36803    356.78742   -59804.928     59850.13    110.58061     34.99064 
314712000    260.07679    163.14383    242.60074   -59816.244    59896.637   -79.456907    34.986648 
314716000    277.05054     619.8935    352.40941   -59842.323    59891.887    267.48409    34.992872 
314720000    279.61636    218.23262    371.50035   -59873.075     59918.87   -153.26773    34.976489 
314724000    253.47821     192.1798     169.1893   -59897.167    59948.697    22.990503    34.984083 
314728000    292.94148    318.77035    599.59384   -59956.414    59974.347   -280.82349    34.985991 
314732000    301.82356    373.31278     292.9334   -59963.939    60016.946    80.379378    34.982738 
314736000    262.19231    407.15033    238.91444   -59968.455    60039.259    168.23588    35.001155 
314740000    307.74333     481.4651    525.46057   -60025.909    60059.405   -43.995468    35.008819 
314744000    273.98226    312.13903    440.39542   -60043.639    60098.046   -128.25639    35.009115 
314748000    270.73758     191.3513      312.944   -60064.835    60119.953   -121.59269    35.004988 
314752000    281.87831     206.4441    240.89198   -60073.272    60144.927   -34.447877    35.021094 
314756000    287.58071    490.08697    281.82292   -60135.847    60164.708    208.26405    35.015542 
314760000    280.21364    297.28186     373.3231   -60141.236    60196.971   -76.041233    35.016262 
314764000    280.40213    408.69611    244.33834   -60145.273    60205.631    164.35777    35.030082 
314768000    288.09946    321.83403    208.18376    -60165.54     60220.43    113.65026    35.035619 
314772000    284.68378    279.55615    438.10573   -60197.362     60243.87   -158.54958    35.031505 
314776000    251.03626    416.44983    288.13021   -60222.714     60283.38    128.31962    35.019346 
314780000    264.63464     418.0533    307.73304    -60230.86    60284.475    110.32026    35.013745 
314784000    312.69586    247.99252    224.82196   -60253.489    60297.781    23.170561    35.028101 
314788000    277.19384    380.20169    316.92677   -60278.455     60335.84    63.274927    35.023241 
314792000    277.70022    266.57145    533.70234   -60309.196    60359.787   -267.13089    35.000634 
314796000    257.96783     420.9505    243.19511   -60304.686     60368.59    177.75539    35.015643 
314800000    256.54324    375.60311    402.27042   -60309.576    60373.103   -26.667308    35.024473 
314804000    274.52932    391.66441    523.20827   -60335.923    60373.486   -131.54387    35.024364 
314808000    277.55118    478.47949    310.54904   -60366.649    60393.487    167.93045    35.031041 
314812000     285.3466    505.42478    246.82586   -60393.918    60419.319    258.59891    35.038467 
314816000    269.80191    284.11107    568.69091   -60391.895    60465.662   -284.57984    35.025758 
314820000     286.6125    364.41136    310.03669   -60430.071    60470.458    54.374679    35.034665 
314824000    306.35938    377.25075     386.5436   -60476.068    60500.939    -9.292855    35.025039 
314828000    312.92254    595.76901    241.30093   -60513.739    60537.141    354.46807     35.02466 
314832000     297.5018    246.39752    350.31598   -60538.711     60562.24   -103.91846    35.009518 
314836000    291.23586    310.16931    278.62118   -60556.781    60602.891    31.548138    35.002573 
314840000    291.16407     513.7187     393.2622    -60606.21    60651.912     120.4565    35.007237 
314844000    291.31542    496.70064    349.62828   -60641.622    60684.538    147.07236    34.997078 
314848000    282.26725    287.75287    373.24243   -60643.048    60696.988   -85.489557    34.994823 
314852000    294.14331    448.04874    436.61431   -60682.128    60724.191    11.434429    35.002558 
314856000    304.29792    621.83497    368.94347   -60717.191    60754.515     252.8915    35.002262 
314860000    275.74155     323.3094    311.18021   -60701.142    60755.753    12.129193    34.996301 
314864000    293.01059    511.67089    251.91514    -60749.48     60785.25    259.75575    34.991634 
314868000    302.74251    385.77894    320.78807   -60769.898    60811.729    64.990873    34.986501 
314872000    279.45131    200.35273    256.92934   -60795.917    60827.915   -56.576612    34.981989 
314876000    278.51389    313.99089    357.72975    -60820.08    60867.197   -43.738865    34.978033 
314880000     278.8304    421.23587    291.48104   -60851.394    60914.937    129.75483    34.984002 
314884000    262.85895    324.52106    246.11686   -60914.353    60980.522      78.4042    34.972907 
314888000     272.1631    347.54556    276.65992   -60942.429    60995.231     70.88564    34.960219 
314892000    267.21806    473.57786    279.65457   -60971.889    61019.235    193.92329    34.960919 
314896000    285.64216    421.02593    413.45927   -61019.802    61058.369    7.5666566    34.959371 
314900000    295.04059    352.25944    589.87235   -61057.534    61090.226   -237.61291    34.952481 
314904000    301.74013    398.98042    492.36278   -61082.314     61121.45   -93.382362    34.948489 
314908000    275.12369    473.81517    506.59916   -61105.285    61163.244   -32.783986      34.9484 
314912000    256.25079    208.42998    359.10634   -61124.516    61207.892   -150.67636    34.944473 
314916000    279.52382    354.24772    306.06071   -61184.115    61236.434    48.187014    34.933366 
314920000    272.94827    415.62616    192.54909   -61209.388    61278.456    223.07708    34.926487 
314924000     280.8282    299.04526    296.78516   -61227.265    61287.187    2.2601019    34.940471 
314928000    297.48015    289.50855    469.62469   -61266.948    61314.415   -180.11613    34.927886 
314932000    272.80702    210.22256    241.75468   -61323.302    61374.988   -31.532117    34.926364 
314936000    318.32149    367.58266    290.04631   -61388.862    61388.758    77.536348    34.930548 
314940000    302.70606    360.92238    248.39846   -61368.487    61418.891    112.52392    34.932346 
314944000    305.51264    361.17036    314.85015   -61399.294    61428.529    46.320208    34.935082 
314948000    301.88885    365.87601    436.21424   -61408.191    61446.644   -70.338227    34.946151 
314952000    281.16614    520.79645    174.20546   -61440.136    61494.306    346.59099      34.9577 
314956000    300.52474    467.06435    357.56099   -61465.463    61495.461    109.50335      34.9556 
314960000    295.12858    343.74989     295.8818   -61488.305    61516.841    47.868095    34.954583 
314964000    289.79496    192.00918    451.24302   -61475.738    61527.835   -259.23384    34.939226 
314968000    264.45436    402.99904    173.68423    -61501.77    61556.668    229.31482    34.946147 
314972000    250.58385    497.48248    226.46913   -61539.374    61598.633    271.01334    34.945273 
314976000    275.80767     326.4602    369.27251   -61559.676    61608.783    -42.81231    34.946339 
314980000    276.60151    294.51216    374.56145   -61563.856     61618.15   -80.049288    34.932692 
314984000    296.92567    331.64236    314.36256   -61584.962    61631.475    17.279797    34.911064 
314988000     310.9413    207.26339    345.01904   -61620.946    61642.881   -137.75565    34.907447 
314992000    284.65773    282.43291    275.77892   -61642.099    61679.953    6.6539897     34.89679 
314996000    284.90135    316.14622    263.88215    -61678.69    61737.659    52.264069    34.897859 
315000000    286.26071    354.35976    273.18315   -61725.317    61764.919     81.17661    34.901582 
315004000    271.95168     357.5182    338.46131   -61726.838    61774.801    19.056883    34.911911 
315008000    271.20053    148.15532    489.20552   -61727.145     61775.91    -341.0502    34.893183 
315012000    265.97597    446.39245    513.08677   -61718.047    61775.862    -66.69432    34.905304 
315016000    288.35002    435.48092    401.15939   -61760.188     61809.32    34.321531    34.915068 
315020000    315.73077    442.99689     318.8915   -61819.897    61859.346    124.10539    34.915693 
315024000    304.26078    457.19245    322.17663   -61850.022     61890.65    135.01583    34.913669 
315028000      295.626     302.0066    332.91824   -61879.198    61897.101   -30.911641    34.919648 
315032000    294.96514    279.32583    345.05464   -61894.825    61942.796   -65.728803    34.912788 
315036000    275.91873    391.34431    185.05877   -61916.943    61988.373    206.28554    34.903294 
315040000      264.521    296.22347    285.36012   -61933.721    61994.387    10.863349    34.912231 
315044000    289.32843    305.02462    233.30228   -61953.005    62011.257    71.722345     34.91182 
315048000    282.63562    425.44718    255.06475   -61968.868    62026.398    170.38242    34.916093 
315052000    287.21424    361.55873    244.12631   -62013.275    62067.305    117.43242    34.894664 
315056000    264.41767    266.51148    363.33565   -62010.299    62061.108   -96.824164    34.891736 
315060000    285.30061    470.38577    522.49057   -62021.289    62069.615   -52.104791    34.878204 
315064000    298.62325    277.47418     275.9413   -62051.015    62093.741    1.5328739    34.865584 
315068000    262.35729    334.76706    199.32238   -62054.705    62113.161    135.44468    34.879034 
315072000    258.18222    251.95861    171.55548   -62073.382    62122.135    80.403137    34.877102 
315076000    281.11897    264.72095    325.15632   -62084.774    62120.647   -60.435373    34.882034 
315080000    281.34801    270.64902    305.95934   -62080.217    62134.696   -35.310327    34.887727 
315084000    269.21109    462.07083    308.20276   -62092.412     62153.55    153.86807    34.880695 
315088000    297.11673    386.34921    301.96158   -62104.559    62137.031    84.387635    34.891075 
315092000    267.02698    369.38277    379.77991   -62133.017     62184.11   -10.397141    34.887558 
315096000    292.16099    495.66842    271.47406   -62172.333    62227.004    224.19436    34.888832 
315100000    300.56544    250.63141    296.45489   -62209.077    62232.438   -45.823486     34.88648 
315104000    274.59339    276.36391    381.91705    -62198.73    62264.386   -105.55315    34.873696 
315108000    272.15375    613.50693    355.24778   -62214.524    62295.092    258.25915    34.885918 
315112000    292.33494     245.3398    275.04189   -62268.683    62301.004   -29.702085    34.880128 
315116000    270.09248    336.77792    263.73798   -62282.023     62342.88    73.039947    34.880963 
315120000    277.36498    540.35054    241.85295   -62324.468    62367.809    298.49759    34.887526 
315124000    254.95234    241.08458    316.96268   -62323.995    62388.297   -75.878096    34.888005 
315128000    291.61836    371.83567     394.4983   -62356.547    62396.944   -22.662621     34.89317 
315132000    313.70037    390.55496    371.94458    -62388.21      62393.5    18.610376    34.879778 
315136000    265.87641     303.7676     237.5965   -62395.979    62433.398    66.171104    34.866877 
315140000    314.28357    420.53714    280.77145   -62445.212    62458.922    139.76569    34.865298 
315144000    280.81683    291.52379    240.35074   -62459.435    62502.772    51.173045     34.85938 
315148000    299.59423    210.22214    333.69598   -62487.777    62530.807   -123.47383    34.858536 
315152000    291.45222    301.24126    328.50708   -62538.567    62584.128   -27.265818    34.844822 
315156000    289.89349    251.03507    454.24785   -62583.232    62633.936   -203.21278    34.845842 
315160000    280.67463    384.59225    344.11694   -62598.062    62656.509    40.475307    34.855677 
315164000    268.86762    508.73065    348.81962   -62634.879    62689.578    159.91103    34.845996 
315168000    272.99217    368.10848    273.14369   -62648.453    62704.821    94.964789    34.842254 
315172000    279.59826    388.35428    327.28394   -62647.629    62712.585    61.070341     34.84544 
315176000    248.67878    266.22606    441.52852   -62672.647    62748.158   -175.30246    34.839492 
315180000    280.87673    573.39612    412.79586   -62699.529    62747.961    160.60026    34.851111 
315184000    308.92353    346.54195    203.47565   -62724.929    62756.763    143.06629    34.846674 
315188000    274.82298    423.78749    335.00801   -62745.908    62796.357    88.779483    34.840713 
315192000    271.12615    240.03047     586.3042   -62774.156    62833.739   -346.27373    34.839327 
315196000    290.00633    315.99215    416.90532   -62813.399    62856.826   -100.91317    34.835111 
315200000    254.21759    417.08556    199.30867   -62822.698    62896.032    217.77688    34.843296 
315204000    279.50824    424.22011     250.2184   -62865.349    62930.303    174.00171    34.844294 
315208000    283.44857    310.08889     283.2862   -62905.962    62942.019    26.802695    34.840278 
315212000    300.87017    313.63527    313.93216   -62950.542    62991.026   -0.2968894    34.827175 
315216000     296.1219    282.15695    246.94646   -62969.029    63007.655     35.21049    34.825972 
315220000     278.8711    162.16409    230.30238   -62972.429    63021.426   -68.138289     34.83093 
315224000    284.05558    210.47646      551.779   -62992.893    63048.944   -341.30255     34.83489 
315228000    251.49661    384.44744    225.64967   -63009.568    63084.985    158.79777    34.839455 
315232000    285.84944    305.18855    374.81963   -63026.967    63082.626   -69.631079     34.84097 
315236000    296.70314    334.44591    555.25425   -63042.937    63071.196   -220.80834    34.835593 
315240000    272.34124    202.75098    352.93564   -63046.305    63107.113   -150.18466    34.847458 
315244000    268.72023     370.6428    296.01428   -63081.917    63124.281    74.628518    34.847107 
315248000    303.62262    489.45405    402.77063   -63102.589    63136.136    86.683414    34.837572 
315252000    270.05584    587.59542    323.89495   -63123.888    63167.305    263.70047    34.845946 
315256000    288.17185    529.74477    552.87086   -63162.708    63201.489   -23.126083    34.843444 
315260000    295.70389    310.19666    517.20081   -63179.941    63229.937   -207.00415    34.846986 
315264000    295.27896    372.66347    292.92703   -63211.213    63247.138    79.736439    34.838655 
315268000     279.4365    532.48563    409.89367   -63228.071    63263.071    122.59196    34.837704 
315272000    274.48128    392.25642    361.46355   -63225.049    63282.915    30.792867    34.833906 
315276000    278.41847    400.23678    384.22276   -63277.606    63325.341    16.014017    34.834191 
315280000    280.75021    367.08274    418.56631   -63302.091    63358.277   -51.483572    34.835102 
315284000    252.69298    255.25829    337.19126   -63322.984    63391.778   -81.932971    34.821538 
315288000    276.85894    451.92865    195.09237   -63358.188    63418.621    256.83628    34.828354 
315292000     267.6942    489.53283     167.9704   -63415.709    63475.463    321.56243    34.827995 
315296000    273.65196    198.36043    273.92065    -63406.54    63463.665   -75.560221    34.836656 
315300000    300.80428    336.11613    592.87421   -63435.327    63469.013   -256.75808    34.841636 
315304000     271.8789    378.97156    439.28468   -63437.616    63490.731   -60.313127    34.842805 
315308000    269.89888    368.02071    526.00891   -63451.359    63510.547    -157.9882    34.843558 
315312000    286.98376     280.4746    170.68848   -63489.137    63532.714    109.78612    34.850773 
315316000     281.3501    307.84367     294.7594   -63502.994     63554.78    13.084272    34.866976 
315320000    253.33667    273.03064    296.33373   -63514.806    63592.299   -23.303093    34.868789 
315324000    284.11019    451.24109    350.16916    -63562.88    63621.183    101.07193    34.872309 
315328000    261.60068    474.80705    271.77285   -63602.043    63655.231     203.0342    34.864853 
315332000    294.67477    245.49794    465.98321    -63633.61    63684.548   -220.48527    34.867075 
315336000    284.98459    211.67669    521.85201   -63676.024    63721.563   -310.17532    34.859915 
315340000    306.05395     384.5604    490.01417   -63728.562    63755.143   -105.45378    34.861339 
315344000    310.27842    511.49602    421.38809   -63755.693      63788.5    90.107924    34.867037 
315348000    268.93419    259.73762    307.18558   -63747.347    63815.054   -47.447962    34.855946 
315352000    292.87107    452.61758    433.23425   -63777.183     63814.08    19.383329    34.861043 
315356000    280.06793    303.65044    226.99662   -63782.873    63832.427    76.653821    34.851416 
315360000    279.68266    247.36923    457.98115     -63827.6     63877.08   -210.61192     34.84529 
315364000    285.25647    282.57719    573.17755   -63831.769    63889.384   -290.60036    34.837885 
315368000    280.60348     340.5653    350.92651   -63857.949    63906.455    -10.36121    34.837067 
315372000    288.12162    403.20404    278.80147   -63889.731    63919.778    124.40256    34.841328 
315376000    282.31009    336.65598    213.07491   -63911.291    63962.572    123.58107    34.830511 
315380000     305.2803    267.72643    291.63598   -63928.734     63968.89   -23.909555     34.83651 
315384000    267.20596    437.88511    343.43931   -63909.198    63964.414    94.445794    34.839112 
315388000    287.54056    382.48692    236.19264   -63927.909    63982.096    146.29428    34.824169 
315392000    288.07307    392.35115    245.46823   -63918.367    63983.519    146.88292    34.834223 
315396000    265.43376    397.63263    184.89975   -63943.269    63998.396    212.73288    34.833219 
315400000    274.36913    269.01284    271.45885    -63953.05    64004.983   -2.4460048    34.818122 
315404000    303.93424    212.01393    272.31846   -63986.824    64025.675   -60.304526    34.812624 
315408000    276.75725    322.25518    249.60165   -64011.989    64063.978    72.653524    34.804828 
315412000    263.21621    253.50508    479.49271    -64037.43    64076.777   -225.98763    34.813861 
315416000    277.06472    287.01391    151.21226   -64048.002     64107.29    135.80165     34.81719 
315420000    267.12662    335.78615    219.64094   -64067.953    64121.841     116.1452     34.80952 
315424000     270.0209    233.44943    308.60769   -64091.892    64155.417   -75.158263    34.797977 
315428000    287.50143    262.56102    403.60109   -64130.914    64185.341   -141.04006    34.791652 
315432000    249.15451    355.30309    322.32196    -64150.71    64222.491    32.981132    34.794919 
315436000    296.22655    300.58332    346.39895   -64166.467    64204.744   -45.815632    34.792556 
315440000    270.01936    190.48552    334.14413   -64180.519    64246.677   -143.65861    34.799809 
315444000    278.71235    400.50424    339.15501   -64225.911    64279.659    61.349231    34.809227 
315448000     286.5019    368.05091    277.11698   -64252.246    64304.865    90.933936    34.811923 
315452000    277.49565    572.32474    327.07103   -64288.728    64332.992    245.25371    34.807093 
315456000    307.50826    367.09899    300.77702   -64342.008    64380.443    66.321963    34.818036 
315460000    286.05107    256.73616    298.20058   -64342.413     64390.19   -41.464422    34.814049 
315464000     284.8459    239.97123    351.86198   -64376.414    64430.777   -111.89075    34.841314 
315468000    280.28542    396.41925    293.68287   -64402.131     64466.25    102.73638    34.838219 
315472000    291.25828    293.02853    322.49044   -64434.219    64482.342   -29.461912    34.824569 
315476000    274.64508    558.22773    183.31557   -64473.188    64529.812    374.91216    34.811868 
315480000    250.03352    331.09654    261.46249   -64491.279    64535.784    69.634059    34.811016 
315484000    279.67932    252.99878    416.70071   -64474.413    64518.845   -163.70193    34.810327 
315488000    281.46765    267.51414    290.89532   -64487.163    64525.794   -23.381185    34.810861 
315492000    267.32613    374.95998    393.25917   -64513.203      64563.8   -18.299191    34.826681 
315496000    305.49907    326.86181    394.29951   -64541.371    64567.065     -67.4377    34.821117 
315500000    292.09206    432.78668    301.08654   -64569.422    64610.337    131.70013     34.82108 
315504000    321.76087    481.17106    293.55843   -64630.092    64647.025    187.61263    34.820293 
315508000    292.89842     243.5679    304.06519   -64613.233    64654.156   -60.497292    34.825333 
315512000    277.13065    349.72853    380.01952   -64622.589    64663.374   -30.290993    34.817506 
315516000    260.95862    271.85006    370.07056   -64627.028    64694.309   -98.220491     34.80977 
315520000    280.28187    197.18442     319.9194   -64652.435    64699.401   -122.73498     34.80981 
315524000    276.29803    332.39605    280.36209   -64645.314    64699.301    52.033965    34.800202 
315528000    275.57688    282.35479    218.82172   -64657.904    64712.282    63.533067    34.789605 
315532000     286.1662    366.11127    224.47677    -64658.52    64722.736     141.6345     34.76695 
315536000    256.90273    157.93599    380.05906   -64680.242    64744.249   -222.12307    34.770008 
315540000    282.76507    299.57387    248.98247   -64728.292    64791.943    50.591403    34.777134 
315544000    276.81999    454.83154    255.23414   -64768.857    64811.441     199.5974    34.771092 
315548000    276.72539    430.61293    223.47867   -64771.223    64820.606    207.13427    34.779651 
315552000    258.74364    312.04802    193.32246   -64765.838    64820.993    118.72555    34.769512 
315556000    280.68356    414.05991    310.01568   -64785.155    64845.335    104.04422    34.785743 
315560000    274.86341     318.8423    190.80189    -64814.86    64870.592    128.04042    34.794209 
315564000    292.24191    419.37314    176.78469   -64844.373    64897.553    242.58845    34.788283 
315568000    257.22814    302.43704    293.57981   -64872.345    64923.624     8.857233    34.790719 
315572000    282.08923    465.36814    543.16806   -64887.113    64949.559   -77.799924    34.781561 
315576000    287.29736    409.47603    335.15472   -64906.628    64951.618    74.321311    34.779754 
315580000    290.60615    231.98444     460.3984   -64929.883    64981.011   -228.41396    34.804467 
315584000    281.49112    233.39992    390.45525   -64924.637    64970.393   -157.05533    34.803772 
315588000    318.51287    377.00693    419.60669   -64956.414    64978.884    -42.59976     34.79845 
315592000    288.37271    263.82222    245.15244   -64961.601    65004.761    18.669781    34.811238 
315596000    281.81619    440.83608    265.33895   -65016.811      65059.9    175.49714     34.79888 
315600000    278.27076    313.10989     330.2992   -65065.645    65109.069   -17.189309    34.795077 
315604000    278.19492    382.05929    238.42611   -65084.581    65144.801    143.63318    34.811219 
315608000    280.04221    432.82448    292.83357    -65113.76    65148.329    139.99092    34.804536 
315612000    300.67129    491.05469    419.38663   -65134.161    65158.198    71.668057    34.803002 
315616000    292.23133    308.13452    306.38466   -65171.536    65200.248    1.7498619    34.802793 
315620000    261.92167    208.74874    246.80448   -65173.103    65224.526   -38.055747    34.800711 
315624000    272.68327     511.8346     448.4077    -65214.31    65257.773    63.426908    34.807547 
315628000    327.77673    590.77793     381.4736   -65278.076    65299.235    209.30433    34.804421 
315632000    307.61049    476.25771    279.68264   -65290.978      65334.5    196.57507    34.817873 
315636000    285.77629    232.19872    275.59312   -65302.913    65345.806   -43.394396    34.826266 
315640000    289.55871    395.81646    362.64174    -65315.98    65342.105    33.174719    34.840794 
315644000      298.181    407.22708    209.72695   -65337.675    65363.364    197.50013    34.835422 
315648000      289.075    429.69375    421.73952   -65347.549    65389.845    7.9542314    34.831977 
315652000    257.19375    249.56538    326.05776   -65370.982    65422.957   -76.492384    34.822373 
315656000      265.381    208.36437    363.18471   -65402.127     65472.11   -154.82033    34.817456 
315660000    272.39757    350.94074    235.14703   -65390.828    65445.523     115.7937    34.818342 
315664000    305.01974    338.70874    318.19747   -65412.523     65455.39    20.511271    34.820786 
315668000    243.69477    318.33666    205.02331   -65397.872    65471.857    113.31335    34.811928 
315672000    300.45835    494.47389    229.03191   -65429.222    65445.985    265.44198    34.811349 
315676000    274.53596     445.4079    225.08684   -65425.295    65474.839    220.32106    34.804549 
315680000    300.39304    408.94056    260.42684    -65477.43     65499.69    148.51372    34.802613 
315684000    282.37153    311.79807     413.4232   -65476.947    65525.243   -101.62513    34.805025 
315688000    249.01815    340.73403    362.48533   -65501.349    65557.264   -21.751303     34.80928 
315692000    284.94509    205.97431    386.97419   -65514.101     65551.54   -180.99988    34.817172 
315696000    308.20774    515.92555    297.12873   -65550.083    65565.052    218.79682    34.820282 
315700000    295.32041    220.64651    470.46415   -65545.379    65587.548   -249.81765    34.813383 
315704000    284.52385    381.58965    515.55557   -65549.191    65599.707   -133.96592    34.811328 
315708000    291.31774    396.75256    242.57987   -65569.704    65617.343    154.17269    34.807345 
315712000    269.56819    451.99083    252.34802   -65576.102    65634.519    199.64281    34.810918 
315716000    283.85967    322.07665    405.61857   -65617.952    65651.767   -83.541917    34.813293 
315720000    292.86741    261.65318    273.75195   -65625.373    65663.801    -12.09877    34.820192 
315724000    294.41292     630.5717    389.82756   -65671.555    65714.088    240.74414    34.822789 
315728000    281.05683    173.53514    221.70176   -65704.804    65741.256   -48.166618    34.823958 
315732000    335.06789    592.34203     356.7174   -65737.052     65759.99    235.62463    34.828277 
315736000    309.41031    771.50539    373.10522   -65752.795    65778.514    398.40017    34.826108 
315740000    284.09095    453.18739    262.21233   -65776.109    65824.123    190.97506    34.837676 
315744000    275.72042      263.417    289.44206   -65788.113    65843.449   -26.025061    34.833541 
315748000    243.51303    212.98527    287.91152   -65798.038    65867.135   -74.926256    34.837093 
315752000    266.47929    238.97149    678.55794   -65805.228    65874.661   -439.58645    34.835013 
315756000     276.5867    503.48772    163.49636   -65842.033    65898.086    339.99136    34.831592 
315760000    302.14562    254.70624    198.32557   -65873.098    65901.738    56.380669    34.830718 
315764000    284.48018    341.72926    309.59001   -65872.878     65921.31    32.139253    34.824057 
315768000    281.64999    355.73898    364.17703   -65894.516    65935.651   -8.4380498    34.818849 
315772000    294.42302    181.79301    392.97505   -65911.023    65954.809   -211.18203    34.828381 
315776000      279.116    329.96035    369.86739   -65945.489     66001.49   -39.907035    34.820793 
315780000    305.76666    454.66612    460.01091   -65996.522    66033.028   -5.3447862    34.822853 
315784000    311.20284    300.37672    320.95595   -66015.056    66057.063   -20.579224     34.80539 
315788000     249.2014     149.7787    299.76875   -66029.083    66098.586   -149.99005    34.828022 
315792000    290.37469    470.49651    216.17746   -66067.445    66109.411    254.31905    34.830379 
315796000    257.00721    342.28467    328.21468   -66072.449    66127.458    14.069995    34.826131 
315800000    296.51024    364.67045    420.98939    -66076.01    66127.619   -56.318945    34.823973 
315804000     290.4134    424.29495    352.93075    -66098.48    66163.012    71.364194    34.818784 
315808000    293.71703    463.46657    441.86948   -66136.027    66195.923    21.597097    34.825588 
315812000     281.1424    282.52532    270.25247   -66184.631    66225.768    12.272854    34.820967 
315816000    275.36815    346.63518    257.85506    -66195.65    66256.034    88.780123    34.827443 
315820000    295.07772    433.57977     344.0915   -66219.735    66257.754    89.488268     34.81896 
315824000    291.71071    196.79828     401.4476   -66221.329    66263.727   -204.64932    34.807653 
315828000    276.61609    409.71949    346.69928   -66245.108    66293.791    63.020208    34.810872 
315832000    270.98207     346.5288    482.39122   -66269.982     66320.07   -135.86242    34.805859 
315836000    266.39926    507.81336    293.00377   -66301.895    66368.578    214.80959    34.821438 
315840000    299.34277     362.3947    380.10858    -66338.73    66375.619   -17.713878    34.813182 
315844000    299.36549     512.9351    415.09027   -66358.429    66412.886    97.844828    34.819662 
315848000    293.98377    326.89302    317.48223   -66368.003    66415.661    9.4107959    34.812182 
315852000    297.81319     656.4674    507.72839   -66397.419    66446.013    148.73902    34.807485 
315856000    294.74111    289.52971    415.58772   -66420.234    66459.804   -126.05801    34.798245 
315860000    276.96278    267.40233    238.92946   -66445.678    66489.335    28.472873    34.798414 
315864000    270.25326    222.01771    189.97629   -66451.981    66510.262    32.041413    34.796379 
315868000    259.64201    278.70783    272.20998   -66458.738     66529.33    6.4978485    34.790324 
315872000    319.52094    321.18278    353.63548   -66506.135    66538.554   -32.452702    34.788174 
315876000    296.70017    327.72676    377.17487   -66538.033    66577.745   -49.448108    34.784107 
315880000    285.79767    390.87176    388.41728   -66556.631    66605.919    2.4544801    34.783494 
315884000    279.69286     376.6614    370.47866   -66568.993    66604.353    6.1827411    34.782991 
315888000     259.5288    381.25936    272.32753   -66593.938    66649.397    108.93182    34.785364 
315892000    259.38279    253.09266    280.35734   -66618.013    66671.089   -27.264683    34.793513 
315896000    294.43524    477.99295    228.55365   -66633.275    66689.083     249.4393    34.799979 
315900000    266.18878    324.83594    210.23486   -66657.642    66714.197    114.60108    34.790901 
315904000    277.20509     280.6621    263.12039   -66676.099    66728.289    17.541718    34.803788 
315908000    319.50088    373.47053    332.86918   -66702.828    66747.931    40.601357    34.803126 
315912000    307.56825    275.27274    275.98174   -66725.479    66758.415  -0.70900104    34.807751 
315916000    271.30145    421.99882    415.78195   -66731.306    66791.186    6.2168693    34.804926 
315920000    279.67119     230.4784    298.04202   -66762.849    66812.868   -67.563622    34.807641 
315924000    252.61411    227.57249    393.23603   -66779.648    66851.699   -165.66354    34.800238 
315928000    303.48713    254.79513    324.59077   -66836.751    66866.548   -69.795638    34.800952 
315932000    306.27131    250.97365     229.3571     -66846.2    66882.808    21.616541    34.793481 
315936000    254.67276    171.14102    226.13073    -66847.87    66900.443   -54.989711    34.793096 
315940000    306.65831    248.70207    470.27076   -66862.521    66886.545   -221.56869    34.786716 
315944000    287.97234    337.12676    449.13604   -66898.795    66934.849   -112.00928     34.79856 
315948000    298.55959    661.71146    455.91066   -66927.573    66968.043     205.8008    34.797585 
315952000    287.58115    323.48723    506.04926   -66965.059    66995.042   -182.56203    34.809513 
315956000    269.62602    232.99676    289.51701   -66995.245    67047.418   -56.520252    34.816303 
315960000    279.36803    478.15496    236.24302   -67024.491    67083.022    241.91193    34.815466 
315964000    260.46569    457.32562    242.74161   -67043.695    67110.315      214.584    34.825964 
315968000    312.95304    416.13623    282.16422   -67080.182    67120.968    133.97201    34.824232 
315972000    316.94865    393.54885    371.35646   -67106.589    67138.383    22.192385    34.822757 
315976000    276.51426    202.13786    265.50806    -67113.93    67181.216   -63.370196    34.808842 
315980000    280.47787    372.90086    411.91999   -67137.286    67206.413   -39.019131    34.816612 
315984000    283.04754    342.67161    391.87787   -67150.394     67192.85   -49.206253    34.817815 
315988000     309.5769    469.06193    229.32755   -67162.151    67201.606    239.73438    34.819865 
315992000    279.43469    192.97155    342.27288   -67174.695    67209.251   -149.30134    34.810679 
315996000    289.62887    407.70478    187.54764   -67175.343    67214.801    220.15714     34.80539 
316000000    277.01467    210.50547    262.07965   -67164.694    67224.305   -51.574183    34.802757 
316004000    265.92037    250.40094    221.85271   -67162.094    67217.917    28.548234     34.80529 
316008000    273.34167    464.09677    260.45579   -67195.316    67246.651    203.64098    34.802597 
316012000    280.24735    449.31524    284.85494   -67256.625    67305.485     164.4603    34.805247 
316016000    271.91059    347.61929    212.39502   -67278.488    67341.276    135.22427     34.81015 
316020000     263.9625    305.73331    274.20013   -67280.903    67342.761    31.533178    34.821048 
316024000    270.18007    497.31639    200.70739   -67276.344    67335.498      296.609    34.827186 
316028000    269.41137    446.66325    291.92628   -67305.232    67348.776    154.73697    34.827932 
316032000    277.83092    393.89576    140.98591   -67311.239    67361.729    252.90984    34.832907 
316036000    297.39987    419.14663    317.11212   -67335.459    67384.362    102.03452    34.836783 
316040000    276.49641    279.85227    353.80612   -67353.069    67405.256   -73.953845    34.846791 
316044000    270.69395    410.90319    444.47866   -67380.884    67426.614   -33.575474    34.844024 
316048000    272.89142    172.85793    275.02923   -67394.622    67455.739   -102.17129    34.835175 
316052000    302.02852    542.77214    267.80756   -67414.672    67458.677    274.96458    34.838408 
316056000    296.92454    389.22219    461.33034   -67450.965    67488.208   -72.108149     34.83804 
316060000    271.76342    396.61291    262.11739   -67430.602    67486.862    134.49551    34.824687 
316064000      271.399    257.16748    358.64398   -67456.801    67508.796    -101.4765    34.829082 
316068000    293.72265    483.37277    231.35587     -67495.2    67546.422     252.0169     34.83514 
316072000    306.66962    484.78192    242.65196   -67529.352    67569.381    242.12996    34.832219 
316076000    270.99615    352.69022    426.77926   -67525.881    67580.127   -74.089046    34.824934 
316080000    272.43784    331.79569    298.58848   -67533.725    67586.744    33.207208     34.81948 
316084000    266.59965    250.85366    470.66819   -67562.947    67611.056   -219.81453    34.825053 
316088000    263.23719    385.25263    266.16591   -67576.188     67642.48    119.08672    34.832947 
316092000    283.34516    383.62631     273.3612   -67629.122     67680.13     110.2651    34.838082 
316096000    286.60389    248.23915    240.25368   -67639.337    67690.104    7.9854771    34.825331 
316100000    290.02292    279.60382    588.12076   -67664.421    67707.601   -308.51695    34.816201 
316104000    292.95334    444.44092    271.86492   -67697.798    67737.237      172.576    34.823934 
316108000    277.11386    354.10922    381.39334   -67693.754    67741.633   -27.284119    34.830866 
316112000    265.29715      270.665    262.29764   -67722.826    67783.595    8.3673621    34.817742 
316116000    286.31878    292.61067     509.0561   -67742.721    67779.783   -216.44542     34.82262 
316120000    279.65676    441.16812    334.58297    -67744.15    67796.407    106.58516    34.822422 
316124000    264.69944    349.16292     240.1232   -67764.494    67834.639    109.03972    34.819329 
316128000    283.49127     390.4636    411.22038   -67772.923    67831.703    -20.75678    34.816135 
316132000    281.51678    436.31842    246.97275   -67783.515    67844.684    189.34567    34.818626 
316136000     313.8683    406.30492    304.80422   -67853.017    67878.966     101.5007    34.817089 
316140000    264.42157    336.90777    198.31905   -67882.567    67943.334    138.58872    34.824707 
316144000    282.79056    287.34841    330.48237   -67880.722    67943.108   -43.133961    34.823331 
316148000    271.10357     350.1988    190.99754   -67895.167    67966.242    159.20127    34.823643 
316152000    273.73683    185.41257    186.69583   -67928.863    67990.239   -1.2832551     34.81926 
316156000    277.67787    308.41528    405.11479   -67944.813    67999.142   -96.699504     34.81155 
316160000    286.48282    313.60146    408.86897   -67970.698    68018.064   -95.267509    34.803609 
316164000    257.18492     407.5069     177.4212   -67974.226    68055.956     230.0857    34.804517 
316168000    254.09132    237.20007    363.23018   -68016.351    68085.652   -126.03011    34.804896 
316172000    288.70834    240.68452    292.20469   -68061.123    68113.739    -51.52017    34.793135 
316176000    298.32906    302.38916    244.50695   -68087.843    68140.889    57.882207    34.791518 
316180000      271.027    415.24449    186.00499   -68134.952    68175.664     229.2395    34.792652 
316184000    320.84708    325.35461    319.49108   -68123.142    68169.454    5.8635333    34.792298 
316188000    266.64185    358.53279    146.75723   -68141.066     68180.22    211.77556    34.794834 
316192000    271.21103    317.16689     414.2914   -68144.146    68186.101   -97.124509    34.800217 
316196000    305.80191     373.6534    405.94147    -68170.15    68212.768   -32.288065    34.793471 
316200000    235.81719    235.86102    287.94845   -68168.921    68258.721   -52.087426    34.798509 
316204000    282.06477    327.19482    224.20872   -68211.947    68268.437     102.9861    34.806818 
316208000    285.17831    529.66134    433.07991   -68240.798    68297.058    96.581422    34.813708 
316212000    283.12137    289.07081    439.44947   -68269.852    68338.418   -150.37866    34.804107 
316216000    264.64789     207.2448    341.37787   -68295.841    68364.455   -134.13307    34.798765 
316220000      258.768     481.4976    227.28448   -68308.889    68379.207    254.21312    34.790196 
316224000    280.55297    574.00348     320.7402   -68339.511    68402.323    253.26327    34.793637 
316228000    296.09247    549.36405    400.33719    -68368.91    68402.101    149.02686    34.787543 
316232000    278.91069    216.45784    327.70133   -68359.213    68422.029   -111.24349     34.79783 
316236000    285.69978    323.83231    393.41827   -68409.115    68453.654   -69.585957    34.803289 
316240000    275.33194    410.00695    257.94386   -68401.818    68456.048    152.06309    34.787471 
316244000    241.22253    289.74302    166.28801   -68383.174    68459.059    123.45501    34.784115 
316248000    268.22249    276.24466    362.22995    -68397.55     68458.22   -85.985296      34.7807 
316252000    294.96494    393.90934    355.10242   -68443.699    68483.074    38.806925     34.77845 
316256000    301.32868    428.96568    247.81566   -68491.454    68528.047    181.15002     34.78055 
316260000    274.79585    402.91845    322.38753   -68505.297    68563.464    80.530921    34.769765 
316264000    308.40596     327.7491    392.27718   -68544.089    68579.098   -64.528078    34.755206 
316268000    280.22283     633.4185    299.66191   -68558.083    68605.152    333.75659    34.756966 
316272000     303.8197    326.17284    233.42256   -68582.632    68618.471    92.750283     34.76654 
316276000    313.90244    391.35614    424.23219   -68589.261    68629.386   -32.876046    34.770288 
316280000     281.4008    320.20071    425.39775   -68629.259    68655.546   -105.19704    34.768686 
316284000    294.15368    558.78757    199.41673    -68669.51    68705.885    359.37084    34.772313 
316288000    269.90948    263.98316     505.2649   -68689.718     68743.57   -241.28174    34.759522 
316292000    263.95325    275.78253    410.97726   -68691.842    68751.069   -135.19473    34.755246 
316296000    271.13398    291.88272    306.17327   -68705.622    68775.431   -14.290555    34.748846 
316300000    308.25772    299.48591    370.34882   -68734.476    68771.913   -70.862916    34.752533 
316304000    250.90067    283.22708    253.51815   -68725.761    68789.534    29.708931    34.757223 
316308000    309.83383    375.60553    308.08498   -68729.708    68774.195    67.520544    34.757555 
316312000    290.14714    366.65365    277.82838   -68734.663    68779.452    88.825267    34.752715 
316316000    278.22029    507.17824    353.00632   -68760.473    68823.341    154.17192    34.762342 
316320000     287.6084       420.32     398.9704   -68787.578    68836.458    21.349591    34.757834 
316324000    306.88369    579.86446    377.87431   -68824.048    68857.248    201.99016    34.752863 
316328000    298.48337    409.64936    253.77306   -68847.146    68891.759    155.87631    34.753608 
316332000    282.80993    422.48864    368.80235   -68864.407    68936.705    53.686293    34.761796 
316336000    295.29215    374.78186    336.68767   -68893.672    68949.514    38.094187    34.751115 
316340000     313.3353    338.53568    204.22194   -68928.601     68961.63    134.31373    34.758939 
316344000    308.77594    489.50595    309.06628   -68936.539    68974.434    180.43967    34.763357 
316348000    272.80037     364.2312     285.2147   -68938.851     69002.69    79.016507    34.754775 
316352000    276.25703    399.41497    366.68767   -68965.442    69025.797    32.727303    34.760215 
316356000    281.27547    261.97265    439.68527   -68989.121    69056.591   -177.71262      34.7622 
316360000    288.65017    341.14162     321.5633   -69016.212    69078.618    19.578321    34.757968 
316364000    287.57887    543.32819    300.53033   -69029.464    69074.032    242.79786    34.752383 
316368000    284.74656    445.91162    309.25582   -69046.558    69102.236    136.65581     34.74467 
316372000    265.47233    421.33428     244.5202   -69054.461    69115.474    176.81408    34.740134 
316376000    283.18833    326.74201    183.47767   -69057.115    69118.331    143.26433    34.746519 
316380000    311.18291    421.41926    364.04453   -69102.382    69149.472    57.374735     34.73277 
316384000    269.51485    326.87822    259.97483    -69116.86    69183.042    66.903387    34.733114 
316388000    267.49719    287.68452    268.52524   -69128.272    69181.566    19.159285    34.728267 
316392000    290.27079    360.54998    281.86233   -69160.247    69200.877    78.687651     34.72396 
316396000     285.1535    409.50372    368.73714   -69178.975    69220.808    40.766583     34.72571 
316400000    267.16783    251.19454    205.86809   -69198.807    69257.218    45.326442    34.716311 
316404000    308.12867    598.77465    334.56859   -69245.597    69293.919    264.20605    34.724062 
316408000    268.66827     503.9518    321.79234   -69270.934    69321.075    182.15947    34.720791 
316412000    261.06223    580.64589    222.81711   -69287.866    69359.631    357.82878    34.733551 
316416000    258.88158    277.76118    543.45129   -69305.121    69371.992   -265.69012      34.7423 
316420000    249.02643    397.05772    175.67689   -69318.267    69407.348    221.38083    34.746055 
316424000    275.96347    199.05927    301.98508   -69363.984     69430.28   -102.92581    34.756459 
316428000      283.183    232.46139    292.30709   -69408.972    69469.452   -59.845708    34.752318 
316432000     282.1686    238.66925    323.82894   -69434.088    69482.853   -85.159686    34.757814 
316436000    293.84306    286.43075    389.84876   -69452.717    69490.905     -103.418    34.764478 
316440000    263.02844    339.00223    357.72542   -69486.005    69544.763   -18.723182    34.758646 
316444000    287.44436    347.32624     320.8308   -69513.814    69561.935    26.495444    34.758461 
316448000    283.78808    493.54283    310.29544   -69547.039    69607.415    183.24739    34.758897 
316452000     311.6687    538.11089    351.77604   -69592.019    69627.559    186.33485      34.7507 
316456000    306.20643    442.43054    400.52165   -69607.248    69639.453     41.90889    34.752455 
316460000    311.52575    452.82638    157.85974   -69635.871    69677.158    294.96664    34.754401 
316464000     298.2858    409.50695    339.07685   -69649.255    69686.217    70.430101    34.752451 
316468000    278.74876    545.29497    305.02015   -69683.333    69725.389    240.27482     34.74053 
316472000    284.19698    389.42595    307.86271   -69708.616     69761.29    81.563238    34.735811 
316476000    271.81495    318.88705    328.82631   -69715.482    69776.347   -9.9392598    34.731006 
316480000    258.84756    332.89588    326.88225   -69715.851    69776.196    6.0136279    34.720623 
316484000    261.52502    191.31996    256.82529   -69760.126     69820.32   -65.505329    34.713607 
316488000    280.27656    462.34764    260.78538    -69761.76     69825.03    201.56226    34.712064 
316492000     314.3237     364.4284    711.71548   -69796.318    69828.971   -347.28708    34.715822 
316496000    320.57225    358.69709    266.50568   -69828.219    69848.783     92.19141    34.713355 
316500000    282.72514     436.4532    295.46333   -69822.318    69885.729    140.98987    34.714709 
316504000    297.87144    342.98476    321.21116    -69838.44    69879.985    21.773607    34.710682 
316508000    290.07125    362.12849    329.18158   -69843.913     69887.12    32.946912    34.710457 
316512000    273.65876    497.26153    276.64776   -69854.681    69906.028    220.61377    34.725238 
316516000    245.90269    265.76885    265.22897   -69857.611    69945.424   0.53988499    34.728789 
316520000     271.6659    419.28359    259.25855   -69878.512    69928.928    160.02504    34.733004 
316524000    260.19641    329.97269     276.3046   -69903.775    69983.382    53.668093    34.734516 
316528000    275.58232    283.22674    185.72688    -69924.94    69993.189    97.499859    34.740472 
316532000    301.28334    369.23404    385.45736   -69948.819        70001   -16.223318    34.745203 
316536000    317.93261     401.0579    272.94945   -69958.652    69979.765    128.10846    34.748172 
316540000    274.21247    236.11329    366.43195   -69995.248    70045.391   -130.31866    34.746002 
316544000    273.83294    243.89207    249.57004   -70030.198    70092.282   -5.6779709    34.739397 
316548000    246.37443    256.12797    142.44343   -70057.429    70121.715    113.68454    34.750973 
316552000    266.91834    419.88743    391.60106   -70087.326    70151.767    28.286371    34.755899 
316556000    266.98022    177.90042    213.10815   -70133.756    70193.362   -35.207731     34.75212 
316560000      298.104    416.67275    342.27929   -70176.709    70230.242    74.393466    34.746921 
316564000    288.57005    447.45413    341.92307   -70218.146     70261.47    105.53106    34.744731 
316568000    270.85258    347.64157    275.33343    -70231.41    70288.831    72.308144    34.746495 
316572000    272.99454    638.31815    378.07209   -70276.399    70321.107    260.24605    34.746895 
316576000    306.86505    516.56197      246.815    -70293.49    70326.344    269.74697    34.746629 
316580000    291.42572    412.82793    310.65787   -70311.892    70360.113    102.17006    34.759463 
316584000    276.99525    351.11753    335.73339   -70332.167    70383.057    15.384145    34.757272 
316588000    295.18557    288.11224    247.00904   -70353.084    70400.623    41.103205    34.754082 
316592000    277.84234    301.11344    206.54747   -70359.341    70414.483    94.565976    34.759657 
316596000    263.70775    267.21477    264.91234    -70377.68    70445.131    2.3024269    34.758825 
316600000    275.43964    368.35103    278.51233   -70395.812    70461.985      89.8387     34.76206 
316604000    291.60458     300.2009    430.45135   -70405.354    70460.697   -130.25045    34.760501 
316608000    290.09688    468.04767     185.5653   -70420.093    70468.064    282.48237    34.756452 
316612000    265.62623    331.42879      354.952   -70423.101    70476.237   -23.523209    34.753747 
316616000    308.52418     404.1406    218.91531   -70464.021    70499.104    185.22528    34.765034 
316620000    274.81812    335.26702    330.27881   -70450.432    70502.942    4.9882047    34.781676 
316624000    272.62109    366.65965    284.54837   -70475.997    70550.062    82.111276    34.787703 
316628000    289.81799    367.57853    381.02325   -70506.309    70555.357   -13.444717    34.800058 
316632000    314.72857    317.16769    577.31394   -70530.719    70580.215   -260.14625    34.791699 
316636000    294.10823    418.73318      438.259   -70559.013     70606.24   -19.525817    34.798788 
316640000    300.30953    452.75751     270.2965   -70582.637    70623.093    182.46101    34.808199 
316644000    291.23109    276.20155    286.84535   -70595.191    70650.504   -10.643805    34.814287 
316648000    276.98862    256.96939    246.55497   -70618.758    70664.365    10.414422    34.799469 
316652000    297.13437    494.01312    174.16684   -70667.177    70702.894    319.84628    34.800834 
316656000    306.98101    387.28984    271.46342   -70688.215    70717.905    115.82642     34.78734 
316660000    292.06946    385.21532    188.72381    -70682.11    70721.932    196.49151    34.785328 
316664000    276.70116     446.9045    156.81615   -70690.519    70748.794    290.08835    34.785071 
316668000    286.91233    350.65666    456.56955   -70723.556    70784.097   -105.91289    34.790258 
316672000    288.38852    408.82274    390.10716   -70761.029    70807.538    18.715573    34.779514 
316676000    275.36763    393.98431     310.9719   -70755.378    70822.755    83.012413    34.773498 
316680000    267.36076    239.62227    273.52556   -70795.852     70852.21   -33.903287    34.776059 
316684000    258.36605    356.46193    312.93214   -70809.952    70889.185    43.529794    34.779388 
316688000    264.89112    205.40965     262.4096   -70835.766    70900.084   -56.999954    34.790993 
316692000    247.35698    369.38358    370.53819   -70856.408    70923.862   -1.1546095    34.781543 
316696000     266.6576    318.42651    410.98678   -70868.166    70933.541   -92.560268    34.782019 
316700000     262.4341     375.6484    232.02024   -70898.446    70975.039    143.62817    34.776136 
316704000    264.31246    523.82636    201.22762   -70912.903    70967.199    322.59874    34.778558 
316708000    275.20736    232.08746     442.7997   -70911.921    70955.374   -210.71224    34.770265 
316712000    278.63136    402.82525    328.98393   -70903.981    70936.851    73.841317    34.781412 
316716000    284.78052    318.87792    311.55516   -70926.294    70952.343    7.3227586    34.790177 
316720000    281.23168    272.27242    260.32057   -70944.125    70987.355    11.951848    34.777833 
316724000    289.13462    445.02569    352.24968   -70958.967    71010.861    92.776013     34.76685 
316728000    301.32296    352.43747    247.26893   -70981.605    71021.093    105.16854    34.779631 
316732000    301.28677    247.21528    397.34554   -70985.002    71009.663   -150.13026    34.777047 
316736000    272.97364    220.07067    355.34402   -70981.539    71033.713   -135.27335    34.772571 
316740000    286.40585    475.23998    253.45007    -71020.88    71052.632    221.78992    34.779508 
316744000    265.54862    267.63984      304.823   -71034.552    71101.466    -37.18316     34.77204 
316748000    315.50326    345.04698    395.73719    -71086.77     71114.02   -50.690206    34.770679 
316752000    301.70431    407.47936     485.4268   -71109.599    71152.134   -77.947437    34.780304 
316756000     261.6109    262.20177    296.76571   -71106.846    71179.627   -34.563939    34.774822 
316760000    293.48816    342.15104    475.45265   -71151.636    71187.428   -133.30161    34.757461 
316764000     277.3269    364.06673    321.85546   -71194.561    71236.627    42.211273     34.75812 
316768000    262.16531    125.77431    251.20417   -71200.478    71246.168   -125.42986    34.763921 
316772000    286.51443    352.34799    348.17644    -71195.58    71254.616    4.1715453    34.771821 
316776000    275.48865    401.14678    317.10516   -71211.492    71277.234     84.04162    34.770885 
316780000    283.72753    401.81605    336.67774   -71251.753    71292.871    65.138306    34.777963 
316784000    280.46896    451.85091    273.85585   -71284.336    71316.964    177.99506    34.785676 
316788000    295.85289    585.11411    273.60125   -71315.245    71348.135    311.51286    34.795613 
316792000    273.43067    161.36462    245.45197   -71337.243    71397.552   -84.087348     34.78729 
316796000    250.81767     294.5779     529.6265   -71353.733    71432.578    -235.0486    34.785908 
316800000    291.17951     247.7467    252.27589   -71370.672    71404.088   -4.5291977    34.781059 
316804000    295.08809    397.29131    253.35967   -71399.703     71436.08    143.93164    34.789021 
316808000    281.21226    525.62772    210.52569   -71441.009    71485.374    315.10203    34.792919 
316812000    279.18525    298.51831    378.50825   -71472.032    71531.485   -79.989942    34.788743 
316816000    293.73219    487.77945    290.72153   -71504.305    71555.985    197.05791    34.791048 
316820000    291.87414    222.56296    285.19168   -71517.496    71552.469   -62.628722    34.793187 
316824000     257.8973    362.87124    250.72918   -71523.701    71581.337    112.14206     34.79838 
316828000    281.99206     201.2753    247.50265   -71541.767    71583.953    -46.22735     34.78545 
316832000    285.56442    490.10338    413.51635   -71553.804    71608.868    76.587034    34.784238 
316836000    253.40371    349.43532    157.48242   -71550.281    71626.716     191.9529    34.786388 
316840000     270.7885    225.89389    478.22063    -71576.75    71634.663   -252.32674    34.788525 
316844000    307.40275    638.19912     223.0804   -71601.816    71654.604    415.11871    34.792793 
316848000    285.01146    373.88155    317.93159   -71620.876    71667.472    55.949958    34.788494 
316852000    311.13742    373.36012    305.97261    -71658.26     71701.39    67.387515     34.79239 
316856000    277.51778    237.53975    395.70602   -71662.074    71719.243   -158.16627     34.79134 
316860000    275.24272    423.77136    342.67752   -71680.479    71724.561    81.093836    34.796633 
316864000    262.95234    243.27534    142.41133    -71717.53     71762.62    100.86401    34.790935 
316868000      303.397    624.93949     367.6358   -71735.763    71787.411    257.30369    34.788745 
316872000    280.00923    252.53925    306.86654   -71737.248    71792.426   -54.327295    34.796391 
316876000       306.56    518.34953    538.20516   -71787.867    71825.884   -19.855631    34.808255 
316880000    291.30693    427.74226    213.50796   -71824.194    71872.086     214.2343     34.80999 
316884000    292.08831    557.74221    180.56156   -71843.157    71892.231    377.18065    34.809432 
316888000    286.60672     341.4509    312.17668    -71839.83    71905.846    29.274219    34.820393 
316892000    310.84848      294.276    278.26954   -71871.623     71905.93    16.006467    34.816182 
316896000     282.8462    334.75347    344.57845     -71870.8    71913.265   -9.8249814    34.820005 
316900000    272.72457    327.63325    298.54109   -71876.325    71944.453    29.092157    34.815184 
316904000     289.3367    304.48137    193.79389   -71878.163    71940.645    110.68748    34.809846 
316908000     244.2227    324.00335    255.50793    -71890.76    71972.171    68.495424    34.809498 
316912000    278.39076    409.93737    269.75532   -71923.284    71986.894    140.18205    34.809536 
316916000    254.22227    320.11207    276.28093   -71920.818    72005.257     43.83114     34.81952 
316920000    298.51775    240.75738    407.35318   -71972.542    72027.357   -166.59581    34.811947 
316924000    278.68781    336.82236    321.00242   -71988.987     72042.28    15.819947    34.807643 
316928000     285.0749    453.86558    452.03579   -72028.967    72077.281    1.8297907     34.80123 
316932000    280.32729    401.06385    134.21105   -72034.574    72091.139     266.8528    34.792012 
316936000    270.80389     316.7536    245.43774   -72061.608    72118.545    71.315859    34.782161 
316940000    276.66549     295.7192     371.1262   -72080.367    72138.615   -75.407005    34.778081 
316944000    313.18974    206.24262    529.12301   -72118.655    72139.595   -322.88039    34.787562 
316948000    276.61192    326.54295    364.63417   -72126.539    72195.174   -38.091225    34.784508 
316952000    298.40567    252.29269    369.23684    -72165.02    72212.333   -116.94415    34.789701 
316956000     300.2116    428.58594    595.30586   -72193.244    72226.017   -166.71992    34.782232 
316960000        295.7    497.42528    357.15121   -72228.215    72278.028    140.27407    34.776844 
316964000    267.18511    183.01745    440.79081    -72227.34    72298.997   -257.77336    34.779143 
316968000    262.36888    338.25495    213.10567   -72261.663    72322.713    125.14928    34.773064 
316972000    277.03928    383.88401    389.53309   -72295.489    72364.728    -5.649074    34.771056 
316976000    294.76298    507.46287    269.74865     -72343.4    72392.138    237.71422    34.783411 
316980000    271.61723    299.93784    192.25598   -72379.312     72414.92    107.68186    34.783076 
316984000    250.28596    284.64259    157.73637    -72369.53    72436.228    126.90622    34.790374 
316988000    241.02905    227.68977    236.96769   -72392.954    72464.434   -9.2779153    34.786376 
316992000    279.35299    146.49199    454.73512   -72426.678    72489.107   -308.24313    34.775812 
316996000    293.17382    569.64997    264.43274   -72458.334    72497.604    305.21723    34.767334 
317000000    288.55699    327.76435    448.34014   -72458.569     72499.99   -120.57578    34.774361 
317004000    256.60002     321.1273     292.3598   -72479.514      72552.5    28.767494     34.76609 
317008000    272.81459    339.85343    239.88043   -72513.663    72579.793    99.973007    34.771335 
317012000     313.4151    252.30995    416.82076   -72545.601    72572.783   -164.51081    34.765675 
317016000    287.32052    447.60693    413.19403   -72544.347    72584.768    34.412903    34.772483 
317020000    280.77907    473.40113    257.31865   -72548.433    72612.031    216.08249    34.768423 
317024000    276.75507    586.35775    277.22626   -72563.544    72624.904    309.13149    34.773766 
317028000    304.38204    420.78139    299.05143   -72591.316    72636.512    121.72997    34.770952 
317032000    283.05283    342.01817    343.74398   -72617.676    72677.777   -1.7258064    34.772805 
317036000    268.83673     232.7721    223.71556   -72638.726    72704.761    9.0565422    34.774381 
317040000    266.45203    298.13003    245.80041   -72646.331    72716.646    52.329617    34.773828 
317044000    283.21295    264.42123    381.12724   -72681.187     72729.85   -116.70601    34.761807 
317048000    253.61367    248.63065    190.53513   -72699.247    72766.867    58.095524    34.755427 
317052000    281.15862    334.36583     263.3759   -72743.252    72796.823     70.98993    34.752203 
317056000    279.43006    454.00185    415.94113   -72755.468    72810.286    38.060723    34.756641 
317060000    278.84606    436.87544    214.48716   -72775.128    72824.499    222.38828    34.761445 
317064000    285.89108    305.55904    301.65733   -72819.777    72863.475    3.9017171    34.757712 
317068000    274.18513    248.87239    370.13038   -72834.845    72894.531   -121.25799    34.759426 
317072000    291.97582    353.14848    302.10136   -72886.105     72934.01    51.047114    34.764853 
317076000    274.14618    473.03645    513.71595   -72896.801    72955.109   -40.679502    34.766091 
317080000    294.99265    289.98312    440.11651   -72940.849    72975.839   -150.13338    34.770194 
317084000     292.9372    260.54949     235.1275   -72981.746    73007.396    25.421991    34.781168 
317088000    294.92569    305.28556    489.64664    -72998.68    73051.847   -184.36108    34.789837 
317092000    302.73517    305.32172    465.01099   -73012.087    73056.248   -159.68928    34.790753 
317096000    275.18857    347.33797    340.56972   -73032.474     73098.81    6.7682451    34.776895 
317100000     286.2174    516.65706    243.33469   -73049.884    73101.075    273.32238    34.770757 
317104000     276.0891    510.04488    261.78497   -73069.347    73137.012     248.2599    34.777172 
317108000    290.71212    529.64703    227.69903   -73120.908     73172.06      301.948    34.782137 
317112000    280.87814    388.59688    184.82516   -73147.682    73214.878    203.77172    34.788958 
317116000    297.02454    183.27292    329.77323   -73184.333    73228.122   -146.50031    34.784319 
317120000    294.78502    382.93634    494.79611   -73220.584    73261.192   -111.85977    34.774628 
317124000    290.82699    218.49437     511.2235   -73245.117    73300.136   -292.72913     34.77899 
317128000    313.12405    458.66859    181.52534   -73270.872    73304.327    277.14324    34.777181 
317132000    298.30549     376.0982    241.73733   -73310.356    73355.655    134.36088     34.78682 
317136000    294.98238    336.07826    344.26771   -73336.769    73388.245   -8.1894479    34.791932 
317140000    270.82944    207.90085    355.55908   -73355.785    73403.197   -147.65822    34.794001 
317144000    268.73872    479.15664    355.40579   -73358.565    73428.955    123.75085      34.7951 
317148000     322.1353    312.90996    429.59887    -73392.07    73421.534   -116.68891    34.792475 
317152000    234.04314    342.92764    350.47392   -73379.952    73463.022   -7.5462868     34.78122 
317156000    281.41565    321.69872    363.86245   -73412.611    73474.853   -42.163734     34.78555 
317160000    285.83147    446.86604    164.88272   -73450.493    73512.138    281.98331      34.7901 
317164000    283.56401    376.78254    271.83352   -73484.517    73546.441    104.94902    34.787302 
317168000    292.90633    317.98316    435.39583   -73524.678    73569.278   -117.41267    34.790218 
317172000    314.39326    307.69175    385.94887   -73549.717    73588.025   -78.257121    34.790661 
317176000    291.66877    487.11092    286.08268   -73582.197     73628.58    201.02825    34.777716 
317180000    279.90242    236.39006    294.63233   -73611.391    73668.876   -58.242268    34.772934 
317184000    269.92614    291.88531    375.54303   -73635.447    73697.497   -83.657715    34.783993 
317188000    261.67046    476.17282      475.064   -73660.296    73739.624    1.1088139    34.795323 
317192000    263.13726    187.61846    223.38041   -73684.704    73749.507   -35.761949    34.792053 
317196000    335.89544     450.0012    370.84617    -73748.33     73760.58     79.15503    34.807731 
317200000    267.84007    234.13936    324.46939   -73750.525    73802.785   -90.330025    34.806594 
317204000    301.14649    446.24477    382.59452   -73797.842    73842.982    63.650246    34.810534 
317208000    254.25537    209.81424     353.8216   -73794.227    73889.319   -144.00736    34.800761 
317212000     291.6665    434.89225    387.85544   -73844.112    73886.123    47.036814    34.789962 
317216000    314.65722    352.99292    306.41404   -73882.786    73910.626    46.578884    34.791877 
317220000    288.63566     465.7168    339.02075   -73901.055    73947.423    126.69605    34.797359 
317224000    261.56016    338.63251    221.58411   -73902.567    73958.959    117.04839    34.807245 
317228000    292.78351    490.91199    284.11966   -73948.906    73992.859    206.79233    34.804012 
317232000    279.18665    361.29161     373.8285   -73973.131     74007.99   -12.536895     34.80595 
317236000    274.80869    315.68606    343.03899   -74007.503    74068.755   -27.352926    34.809301 
317240000     269.3549    345.59015    389.55298   -74018.692    74082.314    -43.96283    34.807146 
317244000    271.54673    205.41835    328.14669   -74057.248    74121.737   -122.72835    34.805661 
317248000    270.91715    406.77057    267.53746    -74105.39    74147.664    139.23311    34.808033 
317252000    279.29914    487.25547    439.57656    -74116.66    74176.225    47.678912     34.80951 
317256000    265.05114    263.84145    383.90028   -74134.626    74189.429   -120.05883    34.817404 
317260000    274.41698    280.73552    359.43008   -74178.743    74228.576   -78.694562    34.835019 
317264000    278.67462    434.38331    488.93072   -74225.714    74269.909   -54.547405    34.832144 
317268000    312.23872    368.32355    305.72354   -74266.427    74300.635    62.600006    34.832243 
317272000    269.23743    369.30964    366.47934   -74283.862    74332.755    2.8302974    34.830825 
317276000    294.48535    387.88331    232.63864    -74330.99    74367.718    155.24467    34.820517 
317280000    296.26036    375.73272    469.23088   -74355.311    74402.364   -93.498157    34.825156 
317284000    285.48771     236.2556    358.48541   -74377.464    74436.062    -122.2298    34.803914 
317288000    267.17858    392.75746    276.23251    -74376.32    74452.849    116.52495     34.79601 
317292000    268.95061    252.16159    528.42039   -74417.681    74491.094   -276.25879    34.798615 
317296000     283.2644    361.14828    360.87361   -74450.573    74514.497   0.27466478    34.797061 
317300000    279.04699    296.78546    196.14589   -74463.364    74532.683    100.63957    34.795455 
317304000    254.70336    399.43134    360.64173   -74493.586    74578.366    38.789606    34.797268 
317308000    278.23563    344.57644    203.43861   -74547.514    74601.528    141.13783    34.800348 
317312000    300.16719    458.17543     328.2386   -74567.203    74608.161    129.93683    34.800347 
317316000    297.80212    345.10683    193.20344   -74595.505     74643.72    151.90339    34.792346 
317320000    266.85553    286.76238    355.50646   -74629.842    74687.133   -68.744083    34.782026 
317324000    289.31253    390.77513    424.44515   -74661.127    74714.709   -33.670026    34.782223 
317328000    307.06138    461.26677    229.03943   -74693.709    74736.844    232.22734     34.78717 
317332000    257.65323    257.70135    511.21367   -74710.899    74768.169   -253.51232    34.784399 
317336000    298.32466    290.41198    292.62737   -74721.201      74780.6   -2.2153912    34.777442 
317340000    295.14703    529.16514    345.00002   -74716.409    74775.686    184.16512    34.780249 
317344000     297.7573    284.91991    325.76558   -74738.732    74779.234    -40.84567    34.777153 
317348000    292.47691    381.40148    181.56029   -74751.285    74796.188     199.8412    34.780744 
317352000    269.37507    406.03875     309.4085   -74748.269    74792.803    96.630249    34.788094 
317356000    273.40061    258.53434    231.07467   -74759.638    74820.237    27.459676    34.791016 
317360000    293.29989      426.772    402.88985   -74742.107    74785.007    23.882156    34.776627 
317364000     301.6974    276.59947    428.31029   -74743.865    74786.375   -151.71081    34.773526 
317368000    300.80666    211.67243    169.58831    -74772.37    74822.375    42.084119     34.77427 
317372000     271.8731    329.90605     212.8135   -74781.674    74841.636    117.09255    34.778229 
317376000    286.04232    270.77306    466.20807   -74777.255    74833.981   -195.43502    34.784238 
317380000    309.77358     570.1782    417.72964   -74819.843    74863.982    152.44857     34.78803 
317384000    304.71542    319.03158    281.34164   -74822.274    74864.695    37.689947    34.776397 
317388000    282.82665    282.99931    351.73062   -74843.581    74912.916   -68.731314    34.779707 
317392000    272.29747    431.07228    181.69554   -74856.178    74932.777    249.37674    34.774619 
317396000    311.08812    288.18459     426.3777   -74889.418    74933.566    -138.1931    34.769991 
317400000    273.52853    309.12356    219.19117   -74888.002    74945.412     89.93239    34.775341 
317404000    287.37844    629.43409    276.94275   -74928.093    74968.488    352.49134    34.779652 
317408000    291.52715    216.97713    219.95519   -74941.645     74979.06   -2.9780566    34.787507 
317412000    296.40767    450.29562    258.60696   -74973.056    75013.048    191.68866    34.786296 
317416000    294.50047    390.95851     404.2165   -74993.105    75031.917   -13.257993    34.793624 
317420000    263.24143    238.37396    526.91548   -74983.684    75057.424   -288.54152    34.803617 
317424000    293.46346    499.59598    324.53501   -75027.789    75059.871    175.06097    34.808955 
317428000    289.19917    284.58079    105.38385     -75031.9     75102.24    179.19694    34.807925 
317432000    298.23467    325.98137    185.63494   -75077.984    75106.086    140.34643    34.806224 
317436000    317.03202    437.44717     409.9387   -75106.245    75136.239    27.508475    34.811026 
317440000    305.80674     295.3874    319.49507   -75118.138    75171.453   -24.107668    34.805825 
317444000    280.04515    232.99716    292.72859   -75149.248    75219.393   -59.731423    34.794331 
317448000    251.28538     330.7434     298.3218   -75177.835    75246.408    32.421597    34.789948 
317452000    283.85862    552.23441    273.81689   -75219.396     75260.32    278.41752    34.787321 
317456000    287.88151     530.5407     146.5994   -75232.167    75288.682     383.9413    34.787027 
317460000    271.94343    297.76923    680.00704   -75241.209    75297.083   -382.23781    34.789341 
317464000    280.51886    320.90652    283.20124   -75277.933    75334.891    37.705279    34.782652 
317468000    259.72166    430.22574    268.53963   -75335.074     75396.46    161.68611    34.782075 
317472000    292.18315    308.10266    250.71629   -75366.605    75434.931     57.38637    34.781611 
317476000     277.5526    295.37566    499.47103   -75373.915    75430.547   -204.09538    34.783082 
317480000    285.44966    211.13741    203.75905   -75392.514    75436.191    7.3783567    34.788284 
317484000    320.82912    391.38036     350.9346   -75440.835    75477.165    40.445756    34.790033 
317488000    264.90338    294.29631    293.77878   -75462.974    75529.994   0.51752673    34.790169 
317492000    277.59169    461.49995    236.87533   -75504.771    75556.781    224.62461    34.799789 
317496000    275.35005    273.65476    147.41523   -75502.001    75584.514    126.23952    34.791244 
317500000    257.30746    357.48285    323.24654   -75515.301    75577.369    34.236313    34.788077 
317504000    271.04967    357.87489    225.20876   -75525.654    75579.572    132.66613    34.790289 
317508000    275.02061    222.99319    377.75297   -75537.263    75587.156   -154.75978    34.786376 
317512000    317.10009    339.58765     176.7043   -75552.765    75602.644    162.88334    34.798374 
317516000    286.34222    496.99621    408.59668   -75560.349    75618.353    88.399521    34.790411 
317520000    279.83489    383.88044    239.78064   -75560.792     75634.17     144.0998    34.786131 
317524000     292.9951     325.1623    258.85965   -75568.843    75612.475    66.302653    34.775168 
317528000    260.27632    374.07471    212.64015   -75579.238    75625.446    161.43456    34.772476 
317532000    298.09591    476.23335    488.83573   -75574.577    75615.742   -12.602377    34.779073 
317536000    299.47061    278.34959    458.51927   -75577.553    75614.235   -180.16968    34.775476 
317540000    282.26745    415.83342    265.74421   -75595.116    75646.453    150.08921    34.768383 
317544000    283.01696    197.77767    324.45026   -75617.185    75669.842   -126.67259    34.763115 
317548000    308.22711    586.47154    274.16378   -75652.483    75689.706    312.30775    34.767904 
317552000    272.41619    214.75644    648.07414   -75640.558    75700.683    -433.3177    34.774129 
317556000    284.76719    388.82516    233.13761   -75676.015     75724.75    155.68755    34.783873 
317560000    308.47865    406.60528    366.94245   -75687.858    75714.888     39.66283    34.785934 
317564000    311.83999    335.45213    476.97195   -75716.867    75741.199   -141.51982    34.784133 
317568000     271.1101    184.13969     208.9909   -75719.514    75787.009   -24.851214    34.790943 
317572000    274.36834    455.86198    217.64958   -75761.065    75837.833    238.21239    34.798738 
317576000     306.0016    334.71119    301.48281   -75822.552    75853.966    33.228383    34.798052 
317580000    301.53133    414.67032    418.25549   -75865.227    75893.827   -3.5851731    34.805566 
317584000    303.16983    446.88589    448.96425   -75867.999    75888.373   -2.0783633     34.80431 
317588000    307.92746    305.77521     299.2756   -75879.315    75914.104    6.4996165    34.813717 
317592000    314.94523    471.08608    375.95442   -75903.807    75919.394    95.131665    34.811757 
317596000    265.20203    305.16987    314.79897   -75906.908    75972.552   -9.6290927    34.825583 
317600000     281.3216    277.57909    314.61404   -75911.785    75976.145   -37.034946    34.827494 
317604000    315.54434    310.11075    280.36979   -75917.696    75970.001    29.740966    34.815819 
317608000    273.95148    290.87655    287.59031   -75938.938    75999.749    3.2862497    34.816778 
317612000    308.43515    312.51565    309.63303   -75933.727    75974.357    2.8826243     34.81828 
317616000    317.69518     487.6662    400.85793   -75974.507    76009.154    86.808264    34.813258 
317620000    260.29774    178.07663    334.70218   -75974.107    76042.401   -156.62555    34.814684 
317624000    274.73971    321.90595    461.07871   -75991.163    76053.343   -139.17276    34.807266 
317628000    271.56913    284.65979    263.74211   -76032.513    76100.219    20.917682    34.802717 
317632000    286.61858    300.18998    205.51908   -76043.145    76107.535    94.670899    34.806912 
317636000     298.6057    517.35198    396.27777   -76069.766    76112.537    121.07421    34.803743 
317640000    285.88913    365.67784    330.09915   -76071.201    76109.372     35.57869    34.797574 
317644000    310.55007    502.38195    358.75578    -76090.69    76129.202    143.62617    34.819096 
317648000     267.6973    268.43886    449.33975   -76095.007    76155.474   -180.90089    34.811237 
317652000    284.44383    493.36704    340.24066   -76112.619    76176.766    153.12637    34.804877 
317656000    299.23954    784.46212    233.83962   -76165.087    76201.662     550.6225    34.811813 
317660000    272.42734     402.2014    230.46259   -76177.623    76228.994    171.73881    34.813766 
317664000    281.62313    381.73239    244.93053   -76183.293    76232.514    136.80186    34.813345 
317668000    270.58326    363.90614    400.21851   -76211.954    76277.686   -36.312371    34.811263 
317672000    292.06826    439.90795    267.40379   -76238.306    76290.386    172.50416    34.801513 
317676000     251.6803    227.32784    352.74608   -76247.886    76324.465   -125.41824    34.799955 
317680000    287.12041    287.40761    338.54891   -76276.367    76328.048   -51.141304    34.801407 
317684000    291.19929    498.30021    305.40239   -76286.043    76337.118    192.89782    34.801813 
317688000    277.58027    313.77494    424.63481    -76297.33    76359.502   -110.85987    34.804176 
317692000    283.83369     328.5555    271.87086   -76342.853    76383.355    56.684645    34.805323 
317696000     285.0336    299.17469    332.54518   -76358.146    76413.782   -33.370485    34.798824 
317700000      281.187    377.83363    327.36463   -76376.786    76447.191    50.468998     34.79969 
317704000    289.47302    308.42353    198.02761   -76406.268    76457.814    110.39592    34.795995 
317708000    286.70469    257.20449    299.45283   -76420.844    76478.727   -42.248339    34.794667 
317712000    317.03309    498.37585    247.22271   -76461.404     76493.61    251.15314    34.799708 
317716000    257.70694    289.52009    216.18733   -76481.305    76541.886    73.332752    34.798225 
317720000     282.4769    515.98441    183.11384   -76493.614    76553.568    332.87057    34.804981 
317724000    260.44217    579.77419    210.05027   -76511.353    76580.005    369.72392     34.79829 
317728000    291.43239     455.2032    333.13018   -76531.319    76597.727    122.07303    34.800484 
317732000    290.16509    259.15706    357.12931   -76550.588    76611.927   -97.972257    34.791501 
317736000    287.84145     465.9293    378.13476   -76566.526    76619.234     87.79454     34.78547 
317740000    300.46633    95.735979    454.24186     -76601.2    76631.444   -358.50589    34.782602 
317744000    275.11618    433.09934    361.03885   -76602.985     76664.78    72.060492    34.776376 
317748000    275.04889    403.23525     279.3665   -76619.238    76683.234    123.86875    34.773087 
317752000      280.562    434.32303    354.88976   -76667.139    76714.169    79.433267    34.764195 
317756000    284.85312    348.54037    217.42118   -76677.565    76732.729    131.11919    34.766884 
317760000    288.58635    272.87623    287.78386   -76695.377    76763.607   -14.907629    34.765854 
317764000    249.01878    271.28865    266.44488   -76719.632    76816.863    4.8437741    34.761822 
317768000    282.28114    335.70746    422.52828   -76755.468    76808.711   -86.820823    34.756708 
317772000    327.32784    379.86434    612.49687   -76777.036    76814.235   -232.63252     34.75025 
317776000    304.95473    256.05056    359.21838   -76796.083    76831.509   -103.16782     34.74378 
317780000    305.73924    553.09485    380.51998   -76833.231    76855.195    172.57487     34.74066 
317784000    276.69876    285.60903    197.10045   -76837.926     76893.91    88.508584    34.745062 
317788000    295.45221    364.65301    527.74473   -76832.774    76892.029   -163.09172    34.741889 
317792000    276.30091    339.50801    360.00728   -76852.252    76910.767   -20.499271    34.739487 
317796000    302.95077    454.95871    228.75565   -76862.331    76916.162    226.20306    34.734932 
317800000    304.35548     308.8935    270.87087   -76908.466    76931.869    38.022631    34.731946 
317804000    288.69013    275.50579    350.73994    -76904.08    76952.843   -75.234146     34.72383 
317808000    306.63383    477.62174    233.42204   -76923.963    76984.893     244.1997     34.72483 
317812000    284.27439    373.99622    286.65341   -76963.951    77022.741    87.342813    34.717119 
317816000    280.60389    339.55447    290.21352   -76980.384    77057.623    49.340957     34.71234 
317820000    277.82066    394.15056    271.70609   -77007.224    77059.223    122.44447    34.716475 
317824000    303.94719    298.16739    242.82104   -77027.017    77077.555    55.346343    34.713321 
317828000    282.52701     371.0642     283.8599   -77051.573    77110.359    87.204298    34.708112 
317832000      279.683    281.46756     419.3135   -77071.726    77132.451   -137.84594    34.692029 
317836000    264.69945    366.63087    326.87234   -77078.456    77155.126    39.758526    34.698806 
317840000     268.1174    147.51294    246.32761   -77101.687    77172.071   -98.814675    34.702837 
317844000    286.33883    320.43255    232.73516   -77127.016    77184.499    87.697382    34.703454 
317848000    284.63993    419.91578    255.86852   -77158.927    77214.883    164.04727    34.704781 
317852000    301.50738    494.41069    175.77839   -77170.492    77211.504     318.6323    34.693969 
317856000    290.12181    260.17156    299.94553   -77182.486    77222.908   -39.773968    34.686335 
317860000     299.6346    237.03573    407.61796   -77208.906    77257.976   -170.58223    34.688829 
317864000    315.40056    703.79408    338.55774   -77261.621    77292.185    365.23634    34.698554 
317868000    286.84588    281.47102    337.05113   -77323.143    77349.503   -55.580115    34.697886 
317872000    291.42408    245.30614    363.73358   -77359.762     77401.54   -118.42745    34.699136 
317876000    279.87308    232.12864    210.21744   -77343.291    77410.191    21.911197    34.694663 
317880000     274.5019    453.32328    270.73316   -77364.299    77431.936    182.59012    34.697518 
317884000    261.61829    210.67109    351.22475   -77384.098    77452.994   -140.55366    34.705129 
317888000    297.80557     312.9331    266.65827   -77459.674    77515.932    46.274839    34.698087 
317892000    273.99623     364.9929    175.41001   -77468.466    77527.424    189.58289    34.710428 
317896000    271.15876    328.52733    364.16802   -77471.207    77539.983   -35.640693    34.705531 
317900000    298.21195    293.77761    317.50506   -77508.089    77567.148   -23.727448    34.704485 
317904000    275.12163    335.49986    253.17121   -77544.302    77598.564    82.328648    34.701949 
317908000    256.99296    177.00948     520.6498   -77581.991    77645.725   -343.64032    34.703875 
317912000    295.03031    418.72054    293.00858   -77607.129    77659.291    125.71195    34.713584 
317916000    297.45849    555.03484    413.01261   -77646.769    77706.549    142.02223    34.721612 
317920000    263.41781    320.97526    279.69381   -77660.392    77733.226    41.281448    34.724219 
317924000     270.9022    191.63023    388.04224   -77670.466    77730.612   -196.41202    34.718134 
317928000    276.18949     302.4455    329.43864    -77693.48    77761.183    -26.99314    34.719603 
317932000    281.65148    462.15423    322.96689   -77711.515    77774.334    139.18734    34.714355 
317936000    273.31833    311.95646    312.76405   -77740.923    77783.022  -0.80758887    34.705562 
317940000    267.34907    454.50391    305.28482   -77732.194     77792.79    149.21909    34.713442 
317944000    293.43394    287.30911    390.62129   -77754.228      77817.6   -103.31219    34.715105 
317948000    280.71354    274.56988    450.60874   -77768.951    77821.407   -176.03886    34.716268 
317952000    284.37108    341.66129    288.72749   -77795.984    77854.759    52.933804    34.719694 
317956000    300.98406    473.64032    309.61273   -77828.202    77873.764    164.02759    34.720171 
317960000    298.11547     408.7189     472.4793   -77852.088    77905.908   -63.760401    34.718291 
317964000    309.72044    576.30315    271.21286   -77894.279    77935.405     305.0903    34.712366 
317968000    288.01159     490.5927    239.33959   -77928.515    77983.778    251.25311    34.715479 
317972000    269.52312    377.43593    341.41082   -77945.242    78018.292    36.025116    34.725218 
317976000    281.16168    255.05619    524.63563   -77987.292    78045.609   -269.57943    34.726482 
317980000    293.32399    415.49573    543.06336   -78053.944     78107.35   -127.56763    34.735924 
317984000    281.23321    473.15032    342.61721   -78075.463    78125.966    130.53312    34.744238 
317988000    270.29458    269.86361    486.80542   -78072.474    78149.107   -216.94181    34.745162 
317992000    283.84312    519.54659    438.90124   -78103.768    78157.041    80.645349    34.744967 
317996000    276.65866    315.68594    241.12389   -78135.084    78188.352    74.562054    34.741369 
318000000    279.46475    289.96934    146.12923   -78163.676    78213.417    143.84011    34.733743 
318004000    276.58498    370.82453    221.51877   -78177.041    78255.816    149.30576    34.743579 
318008000    286.65793    369.20446    160.91406   -78217.306    78288.393     208.2904    34.747021 
318012000    273.45702    361.17223    252.07272   -78239.901    78303.886    109.09952    34.746871 
318016000     269.7122    351.39084    244.41914   -78241.724    78311.403     106.9717    34.743954 
318020000    283.27342    361.39074    381.07122   -78276.098    78332.092   -19.680479    34.745352 
318024000    292.95903    250.99045    366.82706   -78301.108    78350.059   -115.83661    34.756241 
318028000    266.14958    186.10226     238.0832   -78284.578    78364.958   -51.980931    34.754363 
318032000    312.55094    268.44342    519.27194   -78318.508    78357.822   -250.82852    34.749949 
318036000    271.03259    183.80279    216.54003   -78331.572    78399.171   -32.737244    34.750783 
318040000    252.89347    280.02957    301.43175   -78355.112    78428.167   -21.402184    34.752963 
318044000    289.11114    389.31272    235.89833   -78386.337    78445.365    153.41439     34.75353 
318048000    293.19756    375.77178    376.72714   -78420.941    78463.465  -0.95536002     34.75265 
318052000    318.49683    286.24387    273.10674   -78473.941    78511.906    13.137137    34.751522 
318056000      281.796    370.00425    187.18055   -78483.975    78553.319     182.8237    34.737908 
318060000    283.49988    490.28849     376.2911   -78532.857    78569.837    113.99739    34.744653 
318064000    286.57144    319.95843    366.56375   -78550.747    78617.156   -46.605322    34.750441 
318068000     296.1655    274.88032    243.72379   -78601.319     78649.09    31.156533    34.737843 
318072000    276.52108    296.56041    412.71549   -78613.425    78684.425   -116.15508     34.73155 
318076000    288.19884    496.61885    366.78159   -78638.312    78696.978    129.83726    34.732918 
318080000    271.67409    349.37045    243.65553   -78642.001    78696.442    105.71492    34.730954 
318084000    275.68665     361.9909    344.48711   -78628.036    78704.741    17.503791     34.72672 
318088000    278.51501    392.73543    181.58538    -78692.08    78742.445    211.15005    34.719126 
318092000    282.20201     367.9938    341.41497   -78695.464    78758.411    26.578831     34.72016 
318096000    276.07176    371.21055    327.61097   -78709.987     78773.61    43.599588    34.731424 
318100000    270.95798    411.24938    246.50513   -78754.345    78806.388    164.74425    34.724763 
318104000    313.54664    341.68163     367.2085   -78808.568    78846.701   -25.526868    34.719222 
318108000     292.0844    429.73062    356.29781   -78825.877     78882.06    73.432816    34.720013 
318112000    287.22836    396.30167    346.52291   -78859.838    78923.975    49.778754    34.713165 
318116000    287.46283    441.50202    331.10034   -78900.462    78946.146    110.40168    34.701757 
318120000    273.23642    412.46091    246.11902   -78912.543    78993.003    166.34189    34.697228 
318124000    296.26364    225.84891    324.38426   -78932.489    79008.817   -98.535355    34.690086 
318128000    303.00992     359.8448    378.59595    -78968.52    78998.762   -18.751151    34.690986 
318132000    311.31152    364.98366    374.29737   -78977.934    79027.709   -9.3137155    34.701217 
318136000    289.57142    213.82264    229.05646   -78982.898    79028.722   -15.233823    34.684721 
318140000    257.22031    299.04341    282.40626   -78974.583    79045.347    16.637151    34.689757 
318144000    283.72719    322.22186    277.51885   -79010.191     79079.52    44.703004    34.696464 
318148000    286.21224    308.91892    180.55867   -79046.531    79111.671    128.36024    34.708945 
318152000    290.10943    311.87161     338.6754   -79096.924    79151.943   -26.803796    34.704054 
318156000    320.59085    521.11572    486.86556   -79140.331    79178.001    34.250163    34.706332 
318160000    263.97773    237.15203    336.46494   -79131.508    79208.902   -99.312911    34.704196 
318164000    329.42186     475.2128    366.31375   -79185.748    79223.972    108.89906    34.708857 
318168000    300.73636    424.98585    226.12348   -79217.214    79273.238    198.86237    34.697432 
318172000    278.96259    425.11094    263.21796   -79239.686    79314.076    161.89298    34.697379 
318176000    281.99187    367.39936    362.73801   -79275.647    79340.625    4.6613497    34.708632 
318180000    302.82623    455.80757    476.34238   -79281.685    79326.785   -20.534809    34.696176 
318184000    299.20882    347.93117    251.16283   -79305.439    79357.051    96.768344    34.691064 
318188000    298.65262    407.78484    243.55396   -79344.839    79403.463    164.23088    34.691234 
318192000     282.6558    420.27634    283.83877   -79372.758    79450.896    136.43757    34.698262 
318196000    257.34109    442.83429    413.44758   -79422.511    79491.084    29.386709    34.685899 
318200000    276.99181    302.22677    351.79171   -79431.052    79514.429   -49.564938     34.68241 
318204000    294.33727    263.09515    247.39337   -79481.825    79534.023    15.701787    34.685238 
318208000    288.01127    242.54211    185.39227   -79501.085    79543.903    57.149841    34.687582 
318212000    302.56732    357.29858    448.14265   -79496.394      79540.9   -90.844064    34.687763 
318216000    254.57601    372.41089    193.77436   -79480.321    79548.989    178.63653    34.693195 
318220000    268.56126    315.46718    335.57856   -79496.713    79575.147   -20.111388    34.676409 
318224000    280.41936    480.36675    335.17299   -79499.561    79552.313    145.19376    34.672711 
318228000    288.06563    383.54638     401.5724   -79511.397    79558.807   -18.026018    34.678929 
318232000    291.52185    395.68841    210.08228   -79535.565    79606.582    185.60613     34.68755 
318236000    305.84833    355.43246    265.70621   -79567.968    79603.147    89.726252    34.681326 
318240000    286.56443     631.7636    316.63204   -79584.417    79632.376    315.13157    34.688075 
318244000    302.75235    235.28599    272.74866   -79586.714    79625.842   -37.462667    34.693251 
318248000     283.4593    240.44462    544.50108   -79586.551    79632.209   -304.05646    34.691657 
318252000    282.84641    350.58141    465.36383    -79599.28    79652.344   -114.78242    34.704972 
318256000    273.66119    450.21195    389.39768   -79648.322    79707.781    60.814277    34.715931 
318260000    300.91666    323.21256    506.31048   -79712.989    79742.403   -183.09793    34.714592 
318264000    276.16239    327.06503    594.44363   -79716.259    79780.653    -267.3786    34.706542 
318268000    284.67007    254.78136    309.71905    -79732.61    79800.986   -54.937693    34.694575 
318272000    303.98744    510.71596    347.52406   -79778.116     79828.28     163.1919    34.696623 
318276000    284.94495    395.72343    284.38636   -79804.601    79862.959    111.33708    34.684297 
318280000    301.65294    424.03492    365.47534   -79806.513    79849.143    58.559588    34.689899 
318284000    303.59358    409.98646    378.83099   -79803.794    79865.881    31.155463    34.682101 
318288000    261.67698    335.34672     263.5252   -79815.417    79892.274    71.821515    34.695195 
318292000    287.39729     278.8448    302.74301   -79847.479    79899.947    -23.89821    34.695287 
318296000    275.05641    356.84515    482.48595   -79849.835    79923.719    -125.6408    34.693307 
318300000    280.89539     265.9062    480.14621   -79874.792    79943.003   -214.24002    34.694763 
318304000    309.84261    411.16727    291.63298    -79905.85    79949.999    119.53429    34.688016 
318308000    266.08279    267.65948    554.91714    -79944.44    79996.732   -287.25766    34.686017 
318312000    277.33045    160.65107    306.19139   -79956.807    80013.896   -145.54032    34.683014 
318316000    257.80052    436.00182    157.74418   -79981.591    80044.928    278.25764     34.69148 
318320000    287.83782    424.10698    211.30857   -80017.259    80078.535    212.79842    34.689203 
318324000      288.677    290.91741    293.90848   -80038.156    80100.393   -2.9910655    34.682603 
318328000    275.78522     343.0485    420.83239   -80068.954    80122.786   -77.783895    34.683588 
318332000    282.26709    466.59455    365.15842   -80090.424    80156.578    101.43614    34.682853 
318336000    293.07041    441.72089    477.92294   -80111.325      80161.6   -36.202053    34.688683 
318340000    271.33309    283.16414    291.50748   -80103.489    80162.813   -8.3433413    34.691106 
318344000     288.2186    453.18361    301.05424   -80106.132    80176.524    152.12937    34.684594 
318348000    292.88727    456.62183    337.78936   -80147.747    80205.873    118.83247    34.687228 
318352000    297.61992     153.4193    342.72454   -80156.952    80210.816   -189.30524    34.692476 
318356000    261.75833    315.53721     296.7038     -80171.1    80221.576    18.833405    34.677899 
318360000    281.23874    399.01482    206.49038   -80191.462    80237.914    192.52444    34.665086 
318364000    280.13448    133.75682    296.68873   -80200.055    80265.576   -162.93192      34.6616 
318368000     333.3538    444.07964    295.66882   -80225.296    80255.742    148.41082    34.650649 
318372000    260.94364     373.0361    277.09429   -80199.944    80268.846    95.941806    34.650667 
318376000    297.14233    613.78819    432.68759   -80245.689    80308.016     181.1006    34.645318 
318380000    316.69873    326.08021    315.73488   -80253.674     80295.13    10.345334    34.650359 
318384000    300.62296    380.98646    167.55379   -80252.628    80298.529    213.43268    34.667326 
318388000    290.80716    210.56845     369.2769   -80271.634    80313.444   -158.70846    34.664642 
318392000    293.63672    261.07158    274.20824   -80295.499    80346.445   -13.136663    34.670357 
318396000    286.86721    237.89546    238.14117   -80307.628    80366.611  -0.24571659    34.663504 
318400000    304.21875    255.58393    458.39034   -80297.637    80361.251   -202.80641    34.664147 
318404000    268.95022    323.92786    262.08218    -80305.42    80376.931    61.845682    34.658555 
318408000    327.69897    472.17087    422.61358   -80367.433    80388.834    49.557292    34.669322 
318412000    281.97291    471.36534    344.25618   -80376.493    80426.958    127.10916    34.673619 
318416000    266.49789    301.86875    199.14055   -80387.648    80463.868     102.7282    34.674672 
318420000    267.37237    547.13469    347.77705   -80409.163    80478.017    199.35764    34.678987 
318424000    298.71031    222.27799    532.95771   -80448.002    80509.397   -310.67972    34.679599 
318428000    271.12975    287.47286    251.32425   -80455.316    80525.317     36.14861    34.683099 
318432000    313.45245    286.02507    324.41032   -80494.107    80543.908   -38.385246    34.688772 
318436000    311.22589     287.9455    235.81096   -80529.357    80565.454    52.134537    34.692232 
318440000     281.7208    205.75334    361.81858   -80554.862    80607.265   -156.06525    34.689886 
318444000    313.39561    237.40341    441.98598   -80601.697    80637.984   -204.58257    34.677339 
318448000    272.68927    277.69152    334.87366   -80588.436    80666.595   -57.182138    34.673599 
318452000    272.82121    231.00338    435.86154   -80604.947     80672.22   -204.85816     34.67061 
318456000    297.33129    378.26713    287.55355    -80640.92    80701.965    90.713576    34.674922 
318460000    282.49769    436.98211    217.66911   -80697.053     80751.99      219.313    34.678261 
318464000    286.41931    314.83821    314.78511   -80725.697    80766.719  0.053103742    34.677302 
318468000    308.06341    416.71157    364.57477   -80742.431    80776.429    52.136807    34.681043 
318472000    286.77667    383.36056     468.6845   -80745.505    80788.628   -85.323942    34.678907 
318476000    288.16775    350.33586    405.49393   -80762.559    80818.417   -55.158065    34.681015 
318480000     253.8687    291.95953    196.02929   -80774.338    80861.828    95.930241    34.681493 
318484000     317.1188    329.77949    375.75728   -80823.289    80866.669   -45.977788    34.684756 
318488000    273.46924    350.79459    213.84399   -80824.939    80907.483     136.9506    34.688725 
318492000     290.7496    449.54616     356.7947   -80859.347    80915.447    92.751459    34.687133 
318496000    262.90019    315.78801    429.61676   -80847.555    80918.747   -113.82876    34.699283 
318500000    300.58745    304.16579    290.19038   -80877.762    80912.524    13.975405    34.702731 
318504000    278.64439    443.28376    347.42807   -80891.455    80957.584    95.855694    34.706757 
318508000    299.64301    229.81275    408.93003   -80956.226    80992.003   -179.11728    34.699867 
318512000    275.04132    380.97745    269.84429   -80970.951    81038.557    111.13316     34.70004 
318516000    286.96865    401.96082     398.3284   -81008.594    81063.606    3.6324284    34.713165 
318520000    291.38976    410.94448    243.54781   -81039.778    81074.491    167.39667    34.709969 
318524000    280.92231    387.98338    405.43416   -81047.848    81097.216   -17.450777     34.71511 
318528000    281.43261    172.07261    304.84251   -81079.163    81136.269    -132.7699     34.70819 
318532000    297.64095    336.11558     217.3532    -81097.04     81141.99    118.76238    34.706319 
318536000    280.33909    285.58666    198.35021   -81092.371    81153.548    87.236451    34.700203 
318540000    275.26636    354.25336    238.99039   -81114.939    81180.257    115.26296    34.701222 
318544000    278.92938    346.36368    259.34402   -81133.062    81194.107    87.019658    34.711291 
318548000    259.03764    279.73847    195.69441   -81152.135    81248.322    84.044066     34.71123 
318552000    259.88339    385.53859      203.105   -81162.241    81256.669     182.4336    34.715456 
318556000    254.28406     397.9808    383.52242   -81186.522    81265.013    14.458381    34.717835 
318560000    260.43844    235.65807    190.51147   -81187.498    81275.802    45.146598    34.729766 
318564000    247.16392    424.83995    323.29591   -81215.909    81284.823    101.54404    34.728778 
318568000    280.47662    339.49657    320.27442   -81246.222    81307.405    19.222144    34.736427 
318572000     325.0358    362.79589    187.64298   -81263.378    81300.342    175.15291    34.739258 
318576000     282.7294    489.57327    246.91194   -81300.413    81342.673    242.66133    34.736788 
318580000    285.10701    407.66472    305.74121    -81308.49    81362.112     101.9235      34.7419 
318584000    295.28189    485.52733    495.88275   -81315.563    81375.998   -10.355422    34.732647 
318588000    280.84467    451.86027    424.96405   -81345.785    81397.028    26.896217    34.728126 
318592000    317.49889    250.50758    395.98352   -81379.916    81410.955   -145.47594    34.724904 
318596000    270.02266    506.35536    288.05851    -81374.61    81446.124    218.29685    34.721414 
318600000    280.29354    342.61203    444.31541   -81400.977    81455.339   -101.70338    34.720731 
318604000    293.10714    340.26832    384.99287   -81411.249    81458.122   -44.724554    34.719273 
318608000     288.5784    173.00939    431.05425   -81411.364    81488.412   -258.04485    34.712854 
318612000    288.36709    369.54184    331.78717   -81430.999    81477.934     37.75467    34.704605 
318616000     259.8085    170.25404     311.3711   -81442.598    81529.079   -141.11707    34.700332 
318620000    300.00211    338.68143    309.49675   -81478.966    81535.947    29.184683    34.698309 
318624000    281.17074    420.82926     376.9582   -81492.273    81547.269    43.871065    34.709101 
318628000    294.54486    251.58435    307.03682   -81508.343    81577.546    -55.45247    34.721699 
318632000    298.24401    204.77363    287.25446   -81527.863    81579.011   -82.480832    34.720575 
318636000    274.89881    180.73456     327.4235   -81524.713    81603.814   -146.68895    34.720021 
318640000    267.69748      426.254    362.62718   -81562.885    81634.182     63.62682    34.710258 
318644000    265.17703    194.27511     236.9083   -81570.558    81648.199   -42.633192    34.714566 
318648000    291.61698    238.21321    411.63746   -81613.548    81653.202   -173.42426    34.716336 
318652000    322.65866    497.78619    199.23585   -81632.677    81676.843    298.55034    34.720548 
318656000    287.86055    369.85318    434.23197   -81638.026     81700.41   -64.378787    34.724633 
318660000    269.55856    277.05164     332.1945   -81631.918    81689.517   -55.142851     34.73084 
318664000    295.59678    468.91286    339.44546   -81665.421    81725.725     129.4674    34.734126 
318668000    266.52088    487.04968    440.00031   -81662.537    81736.418    47.049368    34.722525 
318672000    277.34963    390.26716    521.26683   -81677.698    81758.521   -130.99967    34.718699 
318676000    288.24877    290.64354    294.01377   -81702.831    81754.153   -3.3702307      34.7249 
318680000    301.46305     417.0422    283.28786   -81724.317    81774.173    133.75434    34.734369 
318684000    266.24006    303.68115    252.00877   -81717.602    81803.063    51.672372    34.730063 
318688000     279.6053    322.93924    326.17775    -81754.14    81798.665   -3.2385115    34.721441 
318692000    288.05024    410.09698    306.35275   -81787.799    81836.272    103.74423    34.734564 
318696000    296.56475    281.81917    356.97609   -81805.149    81857.258   -75.156926    34.725941 
318700000    315.94843    402.56686    236.20189   -81848.043    81871.858    166.36497    34.732467 
318704000    278.36886    452.29616    260.32098   -81839.907    81912.128    191.97518    34.740797 
318708000    287.82417    500.51573    308.66329   -81844.405    81913.667    191.85244    34.747137 
318712000    275.18027    192.22981    383.11641   -81863.386    81921.254    -190.8866    34.756604 
318716000    297.65021    504.58112    294.08604   -81882.102    81949.962    210.49509    34.763053 
318720000    276.49787    362.59168    154.99041   -81926.499    81990.831    207.60127    34.774768 
318724000    301.40711     146.1351    447.85065    -81956.99    82000.589   -301.71555    34.771715 
318728000    286.79913    375.83024    436.69022   -81969.724    82038.853    -60.85998    34.778092 
318732000    264.76286    265.30164    337.32442   -81988.122    82063.252   -72.022786     34.77618 
318736000    284.46727    230.14766    203.70762   -82015.891    82080.679    26.440048    34.774296 
318740000    294.21963    310.79969    295.27763   -82038.317    82092.333    15.522065    34.779606 
318744000    281.17559    291.30079    328.66854   -82063.952    82133.818   -37.367754    34.779925 
318748000     291.0155    453.57374    429.28131   -82087.294    82157.963    24.292424    34.779615 
318752000    277.95453    617.23354    125.23586    -82123.54    82173.309    491.99769    34.789154 
318756000    282.39091    426.42273    245.92139   -82137.193    82210.938    180.50134    34.784772 
318760000    287.72916    319.13128    338.34718   -82201.159    82257.974   -19.215903    34.790904 
318764000    254.93902    446.52407    290.28487   -82212.388    82286.685     156.2392    34.799721 
318768000    293.77681    417.94332    230.68017    -82273.79    82319.068    187.26315    34.809618 
318772000    273.92172    499.72093    216.71826   -82299.163    82371.328    283.00267    34.817637 
318776000    275.70141     184.7376    173.77536   -82349.447    82400.056    10.962234    34.828688 
318780000    300.75468    368.83807    528.50266   -82358.602    82416.524   -159.66459    34.840948 
318784000    294.60481    560.50254    154.89136     -82386.9    82441.279    405.61117    34.839596 
318788000    283.97278    569.33743    492.06315   -82394.307    82451.407     77.27428    34.852841 
318792000    280.40489     328.5163    335.89973   -82419.037    82480.552   -7.3834343     34.85063 
318796000      243.174    357.56768    441.32863   -82418.783    82502.569   -83.760949    34.847547 
318800000    268.22038    188.01658    297.97444   -82451.615    82518.024   -109.95786     34.86231 
318804000    299.09575    278.14165    480.24016   -82484.752    82516.222   -202.09851    34.869992 
318808000    296.67467    344.99274    213.69958   -82495.634    82565.596    131.29316    34.875601 
318812000    278.94171    383.42627    328.84022    -82528.49    82596.957    54.586053    34.862369 
318816000    308.03273    430.20136    378.36497   -82561.681    82602.456    51.836387    34.859609 
318820000    248.25863    357.13846     164.8742   -82579.067    82660.064    192.26426    34.856915 
318824000    284.32262    401.04717     152.9327   -82580.246    82643.187    248.11446    34.850124 
318828000    308.39824    442.91847    319.30117   -82613.403    82662.066     123.6173    34.851333 
318832000    278.54256    426.77075    379.61591   -82624.629     82694.56    47.154838    34.854602 
318836000    264.50068    157.69704    317.65737   -82649.869    82730.991   -159.96033    34.858475 
318840000    283.46093    517.73786    320.38324    -82677.69    82752.779    197.35462    34.853141 
318844000    298.03523    383.05528    343.37563   -82699.531    82758.818    39.679645    34.857937 
318848000    294.56057    371.05819    318.66312   -82734.161    82777.975    52.395067    34.860581 
318852000    271.59792    340.49353    442.55572   -82745.576    82803.099   -102.06219    34.869551 
318856000    280.13538    268.83511    219.90164   -82748.038    82810.376    48.933472    34.867226 
318860000    263.67252    283.43654    197.35246    -82754.53    82832.274    86.084083    34.862113 
318864000    290.10953    377.78999    355.14713   -82785.234    82840.682    22.642859     34.85701 
318868000    281.77518    423.46582    368.39502   -82793.212    82862.112    55.070794    34.865664 
318872000     268.6768    299.70683     255.7309   -82803.331    82867.514    43.975934    34.859822 
318876000    295.84387    721.29928    239.40888   -82828.501    82885.749     481.8904    34.866354 
318880000    270.48357    389.15789    287.25431    -82838.04    82919.285    101.90357    34.874196 
318884000    275.44572    396.64902    422.53332   -82871.068    82933.397   -25.884305    34.862073 
318888000    292.88198    555.68505     543.6644   -82886.019     82925.04    12.020649    34.864575 
318892000    315.55177    516.97835    234.56618   -82895.244    82939.253    282.41217    34.858114 
318896000    278.82517    272.81192    184.45461   -82899.473      82958.6    88.357311    34.866342 
318900000    272.69264    269.01624    263.39487   -82925.457    82989.738    5.6213659    34.860674 
318904000    275.78835    402.83959    287.72218   -82937.499    83006.985    115.11741    34.858646 
318908000    269.82952    338.52172    436.76181   -82960.824    83020.812   -98.240092    34.854499 
318912000    319.87742    439.22981    442.48281   -82974.353    83019.515   -3.2529927    34.861124 
318916000    275.29159    248.38546    433.02836   -83013.698     83080.71    -184.6429    34.867415 
318920000    290.59471    436.69191    481.57378   -83015.898    83084.485   -44.881869    34.856439 
318924000    265.99151    453.72079    469.33373   -83031.258    83098.922   -15.612936    34.847939 
318928000     270.3249     198.7652    438.73362   -83044.342    83122.734   -239.96842    34.851721 
318932000    292.17297    573.31095    433.65018   -83087.458    83156.586    139.66077        34.86 
318936000    288.03235    175.60092    331.37341   -83124.705    83181.331    -155.7725    34.849732 
318940000    238.31714    211.98507    251.37947    -83108.04    83209.854     -39.3944    34.846275 
318944000    300.11289    395.93862    432.53434   -83162.358    83205.986   -36.595721    34.843879 
318948000    264.29962    309.88203      187.302   -83205.826    83270.034    122.58003    34.846333 
318952000    270.36697    244.29101    270.96143   -83226.677    83276.003   -26.670417    34.844477 
318956000    273.55464    378.37246    302.45273   -83237.571    83287.805    75.919728    34.851201 
318960000    254.45162    300.46408    208.37954   -83239.893    83323.293    92.084542    34.849769 
318964000    299.97433    510.99334    258.13255   -83266.034    83311.143     252.8608    34.844166 
318968000     293.6714    394.46196    577.19526   -83258.534    83319.328   -182.73329    34.850478 
318972000    277.97163    467.48625     165.3647   -83272.601    83342.126    302.12155    34.851954 
318976000    266.26377     225.8147     248.5419   -83301.837    83375.214   -22.727202    34.849253 
318980000     283.4573    447.22336    302.87018   -83334.999    83412.156    144.35318    34.845717 
318984000    298.18234    312.33411    269.81551   -83368.502     83416.83    42.518604    34.845126 
318988000    294.82167     208.4001    412.23977   -83393.427    83449.221   -203.83967    34.834602 
318992000    278.44569    353.35167    348.56443   -83400.062     83466.33    4.7872439    34.829249 
318996000    258.32382    200.34602    368.57664   -83387.257    83462.444   -168.23062    34.828078 
319000000     265.7345    351.18865      262.573   -83403.461    83484.431    88.615649    34.829445 
319004000    255.60223    278.45701    306.71695   -83426.406    83502.915   -28.259943    34.830987 
319008000    294.85299    475.84929    451.68426   -83465.438    83523.794    24.165028    34.837685 
319012000     277.3041    264.83911    298.65915   -83458.099    83535.939   -33.820037    34.839413 
319016000    284.29845    502.46316     350.7193   -83514.542    83574.687    151.74386    34.842296 
319020000    265.51093     282.1029    312.80955   -83545.087    83619.195   -30.706647    34.840057 
319024000    292.83225    671.57414    264.68412   -83535.457    83605.421    406.89003    34.840184 
319028000    324.89923    391.34566    420.90993   -83564.785    83598.674    -29.56427    34.842693 
319032000    308.49707    423.68604    410.03932   -83584.577    83634.987    13.646719    34.838997 
319036000    293.39863    366.99348    507.08882   -83587.831    83640.529   -140.09534    34.840681 
319040000    289.82932    376.55853    400.39813   -83622.074    83663.847   -23.839599    34.835457 
319044000    282.84183    347.59705    528.52874   -83626.636    83695.646   -180.93169    34.835197 
319048000    293.28571    350.30642    374.04153   -83662.957    83728.254   -23.735111    34.838083 
319052000    295.46792    409.57541    308.06879   -83710.493    83772.596    101.50662    34.830728 
319056000     305.2672    297.84529    200.55937   -83756.965    83800.916    97.285924    34.831587 
319060000    292.95856     356.9412    353.71665   -83801.588    83832.051    3.2245448     34.83179 
319064000    274.46061    247.97762    338.45032   -83799.558    83859.753   -90.472702    34.831267 
319068000    270.86459    287.50635    298.50054   -83838.077    83907.318    -10.99419    34.822329 
319072000    286.92884    369.84377    322.21057   -83861.769    83923.591    47.633202    34.819941 
319076000    307.15847     324.8648    310.45627   -83892.742    83925.054    14.408526    34.819891 
319080000    279.93953    510.55722    239.69124   -83881.749    83943.796    270.86598    34.828803 
319084000    289.32594    488.78389     456.8835   -83897.568    83970.312    31.900393    34.823969 
319088000    300.55867    491.56839    393.47531   -83935.054    83989.178    98.093081    34.823665 
319092000    273.30101    405.27711    433.65916   -83963.517     84043.34   -28.382053    34.813198 
319096000    277.49019    323.23572    325.62041   -83989.234    84070.396    -2.384686    34.811184 
319100000    281.83832    205.06301    318.84633   -84021.897    84076.076   -113.78331     34.81656 
319104000     276.9051    401.73146    185.66828   -84030.093    84081.174    216.06317    34.817098 
319108000    305.04539    299.24233    430.94011   -84042.603    84107.494   -131.69778    34.820961 
319112000    271.47259    175.37165    249.08876   -84074.389    84124.856   -73.717117    34.811573 
319116000     272.9213    400.12667    338.24123   -84086.856    84153.258    61.885445    34.802549 
319120000     274.5235    196.35583    517.47546   -84093.769    84166.452   -321.11963    34.804582 
319124000    281.51057     459.6739    358.52538   -84135.231    84198.999    101.14851    34.804335 
319128000    256.89067    221.29005    342.90194   -84145.342    84225.685   -121.61189    34.805334 
319132000    280.83276    353.21089    260.98078   -84179.299    84239.433    92.230111    34.813457 
319136000    291.55561     488.1811    461.88097   -84211.087    84265.824    26.300124     34.82384 
319140000    298.64382    628.37857    300.23892   -84264.581    84319.246    328.13965    34.821931 
319144000    282.36554    335.47378    239.19804   -84276.273    84353.486    96.275737    34.811761 
319148000    288.72041    393.95346    198.90099   -84307.297    84364.785    195.05246    34.813178 
319152000    270.72623    379.63974    270.77653   -84324.725    84385.104     108.8632    34.810936 
319156000    271.92797    346.13475    353.96912   -84354.067    84422.787    -7.834374    34.813268 
319160000    296.37232    306.57471    226.51878   -84403.702    84459.135     80.05593    34.818438 
319164000    269.76265    354.67494    461.27535   -84431.428    84505.033    -106.6004    34.823065 
319168000     255.9514    436.39441    389.41687   -84441.623    84527.545    46.977539    34.827014 
319172000    285.33739     273.4265    278.61181   -84494.391     84551.58   -5.1853086    34.833138 
319176000    311.21613    538.34292    195.09179   -84520.459     84552.47    343.25112    34.834392 
319180000    285.85953    170.12276    295.95937   -84518.913    84560.403    -125.8366    34.836749 
319184000    287.93214    165.53396    240.58856   -84517.395    84571.432   -75.054602    34.835327 
319188000    294.81655    406.34515    288.20968   -84547.476    84605.288    118.13547    34.833661 
319192000     308.9235    371.83886    284.20557   -84577.846    84620.073    87.633293    34.837328 
319196000    281.18256    330.31749    279.18474   -84577.842    84642.575    51.132746    34.829271 
319200000    310.39926    462.69759    316.42933   -84605.668    84654.691    146.26826     34.83104 
319204000    263.41324    373.07436    264.70451   -84604.186    84678.554    108.36985    34.851636 
319208000     289.4084    330.82579    502.35943   -84639.906    84692.982   -171.53364    34.852366 
319212000    271.02812     318.1978    355.27739   -84629.886    84690.618   -37.079589     34.85437 
319216000    284.31777    309.29427    264.72956   -84647.683     84710.17    44.564716    34.849036 
319220000    270.49742     274.4837    160.65381   -84686.665    84754.556    113.82989    34.843632 
319224000    280.19349    283.54977    325.92366   -84730.161    84798.731   -42.373892    34.834966 
319228000    277.06812    421.96037    430.37014   -84764.571    84818.973   -8.4097731    34.837411 
319232000    295.59616    336.99745    236.75673   -84762.971    84825.781    100.24072     34.83229 
319236000    278.47687    253.74394    332.41277    -84808.89    84879.914   -78.668832    34.828493 
319240000    281.34588    164.03508    255.89337   -84835.934    84911.734   -91.858289    34.822466 
319244000    261.55911    448.77288    304.44338   -84854.732    84940.879     144.3295    34.824476 
319248000    267.72699    306.69818    289.04027   -84889.692    84974.174    17.657905    34.829479 
319252000    274.36151    477.70033    274.83351   -84936.787    85001.877    202.86682    34.831141 
319256000    265.97053    338.55044    99.669142   -84946.853    85028.276     238.8813    34.831295 
319260000    311.24922    402.58916    434.04189   -84984.661    85039.727   -31.452722     34.83527 
319264000    256.33428     244.9128    361.54629   -84960.448    85047.854   -116.63349    34.844158 
319268000    318.65585    381.84605    230.36793   -85010.439    85050.072    151.47812    34.851575 
319272000    266.69048    250.56868    342.60024   -85006.864    85061.288   -92.031569    34.862697 
319276000    296.32832    249.38744    231.85662   -85031.209    85081.325    17.530815    34.867485 
319280000    260.53526    273.68698    283.23461   -85064.215    85128.101   -9.5476269    34.867117 
319284000    278.23889    169.20622    479.65647   -85115.198    85183.908   -310.45025    34.862715 
319288000    255.52114    289.66687    290.48545    -85136.68    85222.485  -0.81857991    34.860914 
319292000    275.81949    521.76815    321.85977   -85175.078    85245.322    199.90839    34.851933 
319296000    274.80106    404.90149    411.82152    -85182.06    85263.961    -6.920035    34.843048 
319300000    283.79438    315.01828    267.51736   -85213.178    85267.773    47.500923    34.838183 
319304000    264.61693    334.97595    207.76155   -85222.531    85310.377     127.2144    34.840984 
319308000    270.78689    421.56734     368.5795   -85243.846    85319.739    52.987843    34.841334 
319312000    294.71456    224.15749    365.62996    -85293.35    85353.828   -141.47246    34.845491 
319316000    286.83542    234.25148    336.15009   -85320.746    85378.667   -101.89861    34.847725 
319320000    284.69687    540.82962    380.42543   -85340.083      85414.7    160.40419    34.849345 
319324000    299.23147    201.49461    326.66596   -85377.688      85441.3   -125.17135    34.852502 
319328000    288.38244    376.91228    423.44216   -85406.592    85460.694   -46.529888    34.853529 
319332000    288.47931    343.94246    303.93174   -85431.482    85478.476    40.010723    34.855383 
319336000    235.34281    295.54854    347.55508   -85450.288      85528.5   -52.006539    34.835583 
319340000    280.14985    391.83715    334.09759   -85503.377    85574.946    57.739559     34.82904 
319344000    273.95206    344.77488    191.75625   -85544.612     85606.23    153.01863     34.82756 
319348000    279.21016     440.5725    431.30494   -85549.893    85624.462    9.2675595    34.828929 
319352000    307.68169    295.75438    483.71539   -85571.005    85626.779   -187.96102      34.8228 
319356000     258.8702    396.43058    258.22387   -85610.041    85687.532    138.20671     34.82611 
319360000    268.03523    317.79269    377.19622   -85630.692    85707.278   -59.403529    34.829983 
319364000    273.80217    251.66543     361.9645   -85642.798    85717.741   -110.29907     34.82303 
319368000    291.70843    364.84703    320.89114   -85657.643    85713.997     43.95589    34.834747 
319372000    251.80295    430.01582    261.37572   -85679.212    85768.689    168.64009    34.831435 
319376000    313.33423    301.20955    218.59835   -85734.824    85793.363    82.611202    34.822239 
319380000    303.26694    283.03406    245.67068   -85764.092    85825.551    37.363379     34.82208 
319384000    273.56286    338.34821    502.67064   -85795.281    85860.836   -164.32243    34.826428 
319388000    275.57942    362.35935    264.74975   -85818.282    85872.017    97.609596    34.822306 
319392000    294.30409    424.34855    201.02751   -85837.162    85889.232    223.32104    34.828477 
319396000     298.9013    464.96334    348.05133   -85854.349    85927.891    116.91201    34.827044 
319400000    283.18208    251.88886    324.78706    -85890.12    85950.288     -72.8982    34.832343 
319404000    283.38888    417.98711    286.99508   -85917.482    85974.467    130.99203    34.832849 
319408000    251.01534    303.92904    422.52503   -85915.989    85991.666   -118.59599    34.826019 
319412000     280.2499    504.75948    373.49292   -85930.261    86008.504    131.26656    34.823022 
319416000    275.43325    426.73014    257.56571   -85965.874    86049.182    169.16443      34.8205 
319420000    277.65677    492.61668    282.68274    -85993.68    86062.983    209.93394     34.81622 
319424000     261.1011     395.8114    209.47687   -85998.936    86080.165    186.33453    34.816165 
319428000    279.92296    336.01518    309.30293   -86022.727    86104.831    26.712249    34.810985 
319432000    291.92541    267.77557    336.19206   -86045.221    86106.918    -68.41649    34.803691 
319436000    300.33374    302.48104     346.7432   -86070.615    86125.035   -44.262168     34.80722 
319440000    290.88351    194.48053    269.75453   -86081.122    86151.215   -75.273996    34.814078 
319444000    300.51547    596.87279    268.24466   -86132.759    86185.474    328.62813    34.801493 
319448000     270.6944    270.55137     225.4364   -86149.585    86218.595    45.114967    34.806205 
319452000    263.15224    370.81366    316.45568   -86203.052    86275.047    54.357975    34.807849 
319456000    261.25505    204.16371    251.08127   -86234.726    86297.108    -46.91756     34.79848 
319460000    292.84906    489.98264    264.15668   -86255.336    86317.688    225.82596    34.799923 
319464000    262.31435    202.44971    415.27693   -86267.347    86341.664   -212.82722    34.804513 
319468000    283.84698    301.99499    285.17999   -86300.621    86353.406    16.815004    34.804591 
319472000    298.87929    362.28136    302.68177   -86316.417    86365.307    59.599594     34.80276 
319476000    283.33462    373.10297    485.91294    -86316.49     86376.74   -112.80997     34.80108 
319480000    283.23685     439.6219    286.30612   -86339.035    86409.456    153.31577    34.799014 
319484000    264.36764    209.95614    454.82758   -86373.004    86450.649   -244.87144    34.797868 
319488000    297.79601    299.12165    333.93398   -86385.333    86456.163    -34.81233    34.794388 
319492000    283.49276    309.97694    332.57516   -86395.957    86463.834   -22.598226    34.795715 
319496000    292.73022    260.74149    321.67361    -86380.02    86454.573    -60.93212    34.795993 
319500000    280.85722    495.58692    400.07552   -86407.379     86475.87    95.511394    34.784497 
319504000    281.15721    399.99708    313.07845   -86456.807    86530.914    86.918622    34.790145 
319508000    264.55742    289.73263     418.7579    -86457.22    86531.497   -129.02527     34.78704 
319512000    279.41786    250.91003    234.36994   -86471.268    86544.858    16.540082     34.78645 
319516000    308.19818     352.8666     314.2399   -86523.484    86588.534    38.626701    34.791252 
319520000    294.72377    371.00657    242.33016   -86523.235    86577.169    128.67641     34.78947 
319524000    299.66195    336.56616    449.12742   -86508.007    86567.804   -112.56127    34.790964 
319528000    286.62244    430.20512    428.41042   -86535.411    86599.001     1.794701     34.78377 
319532000    296.37046    276.70688    260.91237   -86556.533    86602.814    15.794512    34.784148 
319536000    290.70224    434.30445    469.97569   -86580.306    86638.631   -35.671241    34.777805 
319540000    293.85237    490.15592    398.80453   -86612.329    86669.259     91.35139    34.773498 
319544000     250.8588    341.31527    427.04669   -86629.985    86697.396   -85.731425    34.785423 
319548000    275.52103    209.48721    310.04056    -86656.97    86718.701   -100.55334    34.778224 
319552000     285.4146    360.83446    351.39746   -86689.481    86749.916    9.4369951    34.788729 
319556000    310.08635     155.4156    503.61851   -86709.034    86775.504   -348.20292    34.783827 
319560000    293.31882    313.82834    282.56453   -86744.714    86798.569    31.263809    34.794245 
319564000    281.10006    326.30928    517.52868   -86757.562    86823.995   -191.21939    34.795448 
319568000    293.87354    274.32256    288.61897   -86768.079    86836.048   -14.296403    34.797131 
319572000    295.02114     552.3503    308.28642   -86800.794     86860.26    244.06388    34.802278 
319576000    278.87437    328.64116    312.22473   -86811.745    86887.411    16.416426    34.801798 
319580000    284.27188    199.29356    275.79163    -86854.83     86917.24   -76.498069    34.807675 
319584000    273.89318    356.88893    349.63004   -86860.799    86925.813    7.2588872     34.80287 
319588000    284.53369      554.041    433.89759   -86898.094     86966.23     120.1434    34.815326 
319592000    277.11754    292.66568    422.26688   -86925.766    87007.067    -129.6012    34.831272 
319596000    289.63156     349.3401    262.13892    -86962.96     87024.17    87.201184    34.833244 
319600000    290.51053    368.46106    289.89433   -86960.843    87041.614    78.566726    34.828159 
319604000    270.18896    352.63008    187.81806   -86978.402    87046.815    164.81202    34.825884 
319608000    310.53016     292.7193    404.38013   -87003.803    87052.247   -111.66083    34.819305 
319612000      257.565    309.79251    308.42543   -87017.955    87099.654    1.3670819    34.820194 
319616000    253.68257    159.54417    490.22735   -87025.669    87112.544   -330.68318    34.817324 
319620000    309.83963    148.56181    384.17496   -87062.763    87105.076   -235.61315    34.818661 
319624000    271.56653    264.77304     284.8484   -87063.525    87134.234    -20.07536    34.820832 
319628000    305.06468    415.85456    377.05449    -87098.34    87161.086    38.800074    34.831345 
319632000    298.02416    458.07269    344.71777   -87131.562    87187.497    113.35491    34.839022 
319636000    263.00894    423.26953    301.59668   -87152.792    87222.571    121.67285    34.839439 
319640000    278.17209    334.45896    362.71091   -87164.892    87235.103   -28.251951    34.842609 
319644000    310.06467    397.04719    327.29778   -87193.441    87252.018    69.749409    34.844917 
319648000     313.9763    531.68956    268.65967   -87217.583    87257.039    263.02989    34.839716 
319652000    307.89958    433.96131     244.1303   -87233.951     87296.38    189.83101    34.835468 
319656000    290.89351    495.85173    304.04239   -87256.903    87336.594    191.80934    34.835336 
319660000    250.96843    331.22467    262.97053   -87291.814     87370.99    68.254139    34.830431 
319664000    257.14096    194.40084    208.43529   -87298.833    87375.931    -14.03445    34.830992 
319668000    265.62194    150.54755    278.73585   -87317.823    87390.402   -128.18829    34.832962 
319672000    272.51481    310.53662     333.9291   -87371.766    87447.141   -23.392483    34.832455 
319676000    267.35607    304.61597    477.39211    -87398.53      87486.4   -172.77614    34.839583 
319680000    276.98215    420.84852    291.19734   -87421.137    87505.136    129.65118    34.839899 
319684000    284.10113     436.4661    682.79886   -87457.652    87511.141   -246.33276    34.846035 
319688000    305.38183     367.7136    303.71534   -87484.926    87542.925    63.998256    34.849878 
319692000    242.70868    279.11674    322.07785   -87467.826    87553.394   -42.961108    34.841397 
319696000    281.06844     193.6791    280.02433   -87482.717    87555.511   -86.345237    34.848975 
319700000    283.52891    362.58377    317.19884   -87512.456    87584.695    45.384934     34.84223 
319704000    292.26307     269.7172    255.01925   -87554.042    87608.277    14.697951    34.846396 
319708000    292.32776    472.12346    218.68359    -87542.82    87617.076    253.43987     34.85436 
319712000    296.27824    438.50893    192.82285   -87559.144    87615.554    245.68608    34.853104 
319716000     274.5813    386.46194    268.37547   -87560.014    87636.221    118.08647    34.849664 
319720000    271.82804    492.58063    304.32766   -87585.841    87679.024    188.25297    34.850685 
319724000    248.45903    434.96062    260.36736   -87636.985     87716.65    174.59325    34.858623 
319728000     295.7117    599.56594    305.91712   -87629.503    87718.611    293.64882     34.85537 
319732000    281.15409    308.28939    230.70127   -87661.331    87717.971    77.588116    34.851836 
319736000    273.37498     421.1412    337.66442   -87673.953    87758.723    83.476779     34.85896 
319740000    260.48048    282.29474    150.74619   -87679.602    87759.108    131.54855    34.856111 
319744000    261.77385    321.89155    277.35666   -87674.441    87763.241    44.534886    34.840505 
319748000    288.19286    361.85113    414.94572   -87696.197    87767.955    -53.09459    34.839307 
319752000    272.51329    437.87179    239.53877   -87707.209    87779.732    198.33302    34.836435 
319756000     266.5889    469.11069    252.76171   -87752.773     87823.39    216.34898    34.853856 
319760000    266.46941    379.30264    326.53098   -87776.351    87858.239    52.771668    34.851642 
319764000    247.18089    375.99434    257.84797   -87788.045     87893.61    118.14637    34.860859 
319768000    277.25614    411.81784    311.15737   -87822.624    87890.903    100.66047    34.857499 
319772000    272.02382    411.04163    184.87304   -87819.358    87898.554    226.16859    34.858719 
319776000    276.76682    221.07942    328.90309   -87822.966    87903.067   -107.82367    34.871861 
319780000    273.81242    221.80959    245.34256    -87852.95    87936.145   -23.532965    34.865832 
319784000    273.92731    496.93747    262.13479   -87890.818    87948.253    234.80268    34.861999 
319788000    275.52169    270.15107    345.67687   -87908.532    87991.702   -75.525798    34.876414 
319792000    297.00889    318.01451    341.36959   -87925.752    87992.927   -23.355079    34.877257 
319796000    292.40255    554.44129    268.60856   -87966.243    88013.391    285.83273    34.878231 
319800000    315.43545    416.81385    334.42214   -87983.855    88035.155    82.391713    34.877477 
319804000    281.42672    199.02183    297.47954   -87986.027    88053.176   -98.457713    34.875275 
319808000    248.87509    365.11396    339.48871   -87996.499    88081.166     25.62525    34.880947 
319812000    281.95323    311.50796    529.13265   -88008.578    88076.432   -217.62469    34.879368 
319816000    281.06422    196.77423    472.28181   -88034.346    88099.976   -275.50758    34.876787 
319820000    262.36937    602.41329    166.44582   -88038.638    88117.511    435.96747    34.884656 
319824000    296.91212    457.97431    354.37513   -88072.377    88128.987    103.59919    34.886286 
319828000    289.38085    318.35965    538.65674   -88061.459    88132.319   -220.29709    34.878154 
319832000     286.5387    178.37844    316.31673   -88081.252    88151.293   -137.93828    34.880123 
319836000    279.48079    381.15613    303.02733   -88124.307    88193.588    78.128803    34.877381 
319840000    293.26023    528.72084    284.12499   -88110.942    88182.453    244.59585    34.883991 
319844000    306.32049    496.37924     472.6059   -88159.678    88216.001    23.773346    34.887408 
319848000    278.90537    451.77155    388.34411   -88194.517    88267.028    63.427441    34.889452 
319852000    266.25989      600.881    385.54247   -88229.815    88281.344    215.33853    34.894758 
319856000    294.41555    404.25401     385.4494   -88256.915    88309.369    18.804614     34.89469 
319860000    283.91881    140.98805    258.69689   -88263.005    88332.734   -117.70884    34.886484 
319864000    271.95451    383.35055    249.20343   -88304.979    88377.802    134.14712    34.883848 
319868000    281.17487    287.71781    309.02225   -88332.939    88392.254   -21.304442    34.878595 
319872000    275.05297    202.82245    418.02714   -88376.645    88449.142    -215.2047    34.875648 
319876000    308.43163    405.65342    316.19477   -88403.584    88471.437    89.458647    34.881181 
319880000    289.35317    369.02933     344.5766   -88435.727     88501.81    24.452732    34.870919 
319884000    259.85499      431.062    225.22341   -88461.206    88551.124    205.83859     34.87088 
319888000    285.21482    401.28228    201.70662    -88474.59    88560.146    199.57567    34.873835 
319892000    291.73583    257.38002    458.75982   -88487.343    88566.543    -201.3798    34.878078 
319896000    255.75494    374.35223    203.79587   -88518.006    88608.628    170.55636    34.881159 
319900000     257.1617    219.04396    300.03577    -88522.63    88619.363   -80.991815    34.876904 
319904000    264.29032    249.33413    428.42404   -88547.838    88631.279   -179.08992    34.873907 
319908000    291.05545    195.52612    372.48262   -88578.587    88648.438    -176.9565    34.871132 
319912000    298.73916    327.81795    334.70656   -88618.084     88664.89    -6.888617    34.863105 
319916000    318.82703    177.32597    324.45403   -88634.365    88673.593   -147.12806    34.869973 
319920000    259.16789    254.06625    306.49014   -88615.606    88692.344   -52.423883    34.867683 
319924000    258.90386    298.41588    299.79856    -88621.87    88713.617    -1.382673    34.864196 
319928000    266.47518    376.39135    258.00684   -88640.776     88719.21    118.38451    34.849803 
319932000    278.08171    412.76365    374.60983   -88653.419     88721.33    38.153821    34.855504 
319936000    280.27358    436.39848    174.08758   -88671.146     88747.29     262.3109    34.863777 
319940000    297.45568    450.44426    276.14172   -88713.841    88766.944    174.30254    34.854374 
319944000    297.21464      302.445    345.10812   -88731.362    88791.285   -42.663122    34.849789 
319948000    276.04499    359.44165    356.45885   -88713.785    88796.933    2.9828075    34.849568 
319952000    287.05854    414.12731    228.44199   -88759.578    88833.145    185.68531    34.849599 
319956000    252.04083    213.07625    366.10051   -88785.342    88874.775   -153.02426    34.851633 
319960000    255.07611      285.572    318.99963   -88816.411    88893.425   -33.427625     34.85747 
319964000    291.09101    587.80419    424.69502   -88867.997    88917.661    163.10918    34.858346 
319968000    269.70818    243.00061    225.32992   -88864.081    88940.004    17.670693    34.858332 
319972000     290.0611    242.76599    500.76029   -88889.862      88953.5    -257.9943    34.850709 
319976000    287.59346    401.19074     215.5522   -88931.909    88990.208    185.63854    34.856089 
319980000    274.45774    517.51062    328.98564   -88950.816    89030.232    188.52498    34.855532 
319984000    287.28472    397.35193    414.74777   -88964.462    89024.627   -17.395834    34.847538 
319988000    307.49804    381.95371    245.79581   -88968.331    89017.986    136.15791    34.852306 
319992000    292.82364    293.02035    325.71749   -88992.994    89049.525   -32.697143    34.849472 
319996000    310.14987    320.34451    400.74987   -89017.822    89071.852   -80.405364    34.846713 
320000000    297.78542    314.88815    295.57709   -89030.071    89081.644    19.311063    34.847804 
320004000    274.49864    177.84335    207.22451   -89042.637    89124.059   -29.381159    34.836186 
320008000    273.81297    341.28047    277.82697   -89073.879    89150.303    63.453495    34.828363 
320012000     259.8489    425.80915    251.95512   -89081.365     89174.29    173.85403    34.835802 
320016000    270.16753    332.82177    288.74067   -89119.086    89192.651    44.081091    34.843266 
320020000     261.7003    282.68462    360.30796    -89148.02    89234.621   -77.623335    34.839235 
320024000     281.3815    317.63818    278.86151   -89162.756     89228.21    38.776673    34.838383 
320028000    286.94931    268.96256    487.60391   -89166.773    89239.867   -218.64134    34.842491 
320032000    297.81938    352.06982    386.80031   -89210.469    89273.409    -34.73049    34.844916 
320036000    281.84396    445.35144    340.84174   -89234.516     89317.25     104.5097    34.854747 
320040000    277.54728    321.09499    439.51516   -89236.578    89319.472   -118.42016    34.846437 
320044000    289.45938    462.47557    238.43765   -89294.023    89369.643    224.03792    34.847751 
320048000    272.91404    398.93617    482.96936   -89325.597    89387.239   -84.033194    34.859377 
320052000    280.07762    306.03011    263.20069   -89331.438    89400.681    42.829427     34.86304 
320056000    298.53658    298.03461    164.83081   -89361.373    89411.159     133.2038    34.867482 
320060000    278.90456    309.87926    686.43633   -89367.942    89434.195   -376.55707    34.867292 
320064000    273.69358    379.15481    271.24675   -89382.108    89462.018    107.90807    34.872573 
320068000    285.07352    413.85812    207.45111    -89413.16    89478.966    206.40701     34.87725 
320072000    273.05971    236.35955    218.82464   -89410.532    89490.803    17.534912    34.880648 
320076000    275.99758    319.80297    461.47127   -89413.753    89501.139    -141.6683    34.881492 
320080000    257.03737    287.99694    231.22888   -89419.065    89506.478    56.768056    34.883323 
320084000    268.91022    530.21601    274.48901   -89423.659     89508.05      255.727    34.885347 
320088000    275.78831    242.57548    389.83935   -89436.327    89523.104   -147.26387    34.878481 
320092000    291.86943    314.38701    206.91754   -89485.039    89536.526    107.46947    34.872245 
320096000    320.17718    451.98393    278.73812   -89504.819     89551.59    173.24581    34.876241 
320100000    257.70213    280.53999    258.11941    -89514.59    89594.152    22.420578    34.879505 
320104000    285.79014    513.82736    259.53051   -89569.693    89639.715    254.29685    34.870878 
320108000    306.06341    401.15164    456.45721    -89603.55    89651.711   -55.305577    34.875099 
320112000    288.91021     200.3922    339.34331   -89619.549    89681.565   -138.95111     34.86841 
320116000    272.96354    294.67206    667.38535   -89612.058     89685.93   -372.71329    34.862501 
320120000    275.89914    474.51711    326.49493   -89632.965    89693.235    148.02218    34.866703 
320124000    287.06018    437.39593    265.08136   -89663.749    89713.206    172.31457    34.869216 
320128000    283.17853    424.40326    370.53789   -89660.507    89751.734    53.865371    34.878675 
320132000    277.58904    292.11795    202.28138   -89706.035    89764.841    89.836564    34.885434 
320136000    274.71126    374.28377    323.53467    -89741.36    89804.006    50.749104    34.883047 
320140000      259.927    523.22755    286.81149   -89779.759    89851.619    236.41606    34.885268 
320144000    271.47068    205.63028    257.66532   -89820.677    89880.442   -52.035047    34.886783 
320148000    294.96567    440.42906     425.4738   -89835.005    89909.909     14.95526    34.894344 
320152000    276.68461    345.39828    261.61485   -89847.827    89919.594    83.783431    34.894757 
320156000    302.34499    290.10836    463.35624   -89883.313    89943.906   -173.24788    34.893982 
320160000     310.0314    644.13202    310.60567   -89894.066    89948.754    333.52635    34.890515 
320164000    274.70004    279.33694    260.90746   -89889.636    89953.607    18.429484     34.90128 
320168000    321.01918    550.06894    424.89342   -89915.849    89970.127    125.17552    34.894508 
320172000    298.05609    327.80319    385.25972   -89931.188    89984.883   -57.456536    34.896642 
320176000     286.0518    396.12456    407.08052   -89937.709     90000.84   -10.955958    34.901044 
320180000    285.89429     331.8303    270.83513   -89948.818    90007.667    60.995173    34.898656 
320184000    269.48743    376.98131    373.10396   -89947.405    90015.666    3.8773526    34.892752 
320188000    301.30872    278.04819    359.76981   -89960.126    90015.476   -81.721626    34.897503 
320192000    276.14814    399.89085    512.26262   -89958.911    90028.411   -112.37177    34.905063 
320196000    299.57165      205.952    437.04042   -90013.549    90060.767   -231.08842    34.895362 
320200000    282.68446    248.42573    313.16554   -90030.204    90088.316   -64.739816    34.887106 
320204000    288.55897    313.30385    293.11604   -90030.406    90086.814    20.187812    34.889089 
320208000     314.1208    392.90648    268.53221   -90051.658    90095.935    124.37427    34.882119 
320212000      284.986    200.56555    331.35342   -90084.054    90132.749   -130.78787    34.882094 
320216000    271.15022     334.9463    430.31203   -90113.329    90179.318   -95.365734    34.880886 
320220000    285.30177    205.27197    276.38548   -90108.726    90185.769   -71.113505    34.884972 
320224000    286.45776    321.23721    217.81739   -90125.542    90198.106    103.41982    34.879487 
320228000    271.72195    310.98082    352.18273   -90157.398    90230.908   -41.201913     34.87758 
320232000    264.06129    397.48053    294.81855   -90197.114    90283.828    102.66199    34.875028 
320236000    290.89307    604.18081    387.72568   -90192.131     90266.23    216.45513    34.875887 
320240000     282.3898    215.73552    326.27872   -90212.396    90286.606    -110.5432    34.874002 
320244000    302.43876    391.48045    252.79553   -90245.551    90288.809    138.68493    34.877099 
320248000    301.05747    318.96103     273.7915   -90260.017    90316.082    45.169522     34.88215 
320252000    301.58924    476.93656     332.2595   -90284.651    90338.999    144.67706    34.872399 
320256000    277.43099    343.94747    354.50773   -90282.487    90348.412   -10.560268    34.878828 
320260000      276.771    394.53613    529.69587   -90294.024    90363.465   -135.15974    34.879175 
320264000    286.18371    329.99157    220.47991   -90312.302    90368.619    109.51166    34.884341 
320268000    247.22475    230.26205    310.15941   -90327.863    90423.115    -79.89736    34.877205 
320272000     262.2759    335.12388    306.55448   -90377.264    90453.765    28.569398    34.876975 
320276000    286.21609    196.58605    336.26852   -90382.587    90454.424   -139.68247    34.886412 
320280000    265.47143    305.64982    290.43207   -90395.727    90487.555    15.217746    34.879167 
320284000    277.79705    477.82201    382.24829   -90436.153     90509.32    95.573719    34.886923 
320288000    285.11804    238.62614    225.26935   -90437.225    90515.667    13.356792    34.894187 
320292000     280.9695    531.65169    367.97951   -90477.608     90555.93    163.67218    34.905684 
320296000    278.40902    525.93438    253.19722   -90496.653    90556.669    272.73716    34.910332 
320300000    238.77175    372.17141    272.42119   -90472.448    90556.634    99.750225    34.921757 
320304000    273.77326    255.68979     295.5809   -90492.917     90573.47   -39.891107    34.925313 
320308000    299.81153    349.10069    274.76377   -90522.734    90584.748    74.336918    34.921208 
320312000    270.71684    352.08559    600.70391   -90556.476    90618.885   -248.61832    34.912524 
320316000    290.33472    331.67716    472.97092   -90576.081    90642.571   -141.29376    34.905027 
320320000     268.0019     291.2884    272.66771   -90605.314    90663.976    18.620692    34.908578 
320324000    273.68052    370.05184    275.18364   -90602.675    90684.126    94.868204    34.904667 
320328000    304.86297    305.00698    432.68859   -90628.994    90674.039   -127.68161    34.903828 
320332000    291.27909    383.61428    350.15192   -90654.859    90722.324     33.46236    34.893914 
320336000    266.68298    425.55172     333.8851   -90646.005    90736.094     91.66662     34.89676 
320340000    285.69221    401.36583    195.49002   -90671.402    90743.167    205.87581    34.894812 
320344000    277.83729    347.62803    302.30928   -90654.152    90724.992    45.318758    34.890235 
320348000    283.94857    324.08374    398.58957   -90675.714    90746.521   -74.505827    34.885746 
320352000    311.08625    386.38649    309.96888   -90706.919    90767.788    76.417604    34.889174 
320356000    269.49251    278.16171     235.7447   -90723.892    90798.651    42.417009    34.884221 
320360000    256.61985    234.06588    283.40264   -90753.046    90831.008   -49.336762    34.886387 
320364000    289.41133    338.43122     377.2908   -90792.236    90847.629   -38.859589    34.888265 
320368000    284.75221    207.35336    269.65428     -90803.1    90879.238   -62.300918    34.878769 
320372000    286.76552    384.56887    304.48746   -90823.986    90892.882    80.081413    34.871338 
320376000    282.67861    338.84884    237.94514   -90847.806    90934.748    100.90369    34.868441 
320380000    265.70463    328.96564    247.10423   -90859.961    90941.629    81.861412    34.867638 
320384000    285.59772    457.11611    171.21171   -90893.022    90946.064     285.9044    34.867883 
320388000    268.87323    262.14561    227.15068   -90908.439    90993.637    34.994938     34.87139 
320392000    263.80748    220.84589    455.91246   -90929.601    91024.928   -235.06657    34.869746 
320396000    275.94447    336.06541    283.35408   -90964.058    91034.795    52.711329    34.873036 
320400000    317.51314    458.88076    593.57823   -91005.827    91065.724   -134.69748    34.873564 
320404000    306.97277    358.28089    287.95731   -91016.157    91079.568    70.323578    34.878942 
320408000    299.25517    512.73864    189.89477    -91061.72    91112.097    322.84387     34.88394 
320412000    284.51473      426.077     218.1894    -91086.46    91144.383    207.88761    34.889136 
320416000    276.87539     244.1245    328.46244   -91094.379    91173.386   -84.337933    34.895029 
320420000    284.92941    285.89347    427.86686   -91113.902    91170.088   -141.97338     34.89039 
320424000    273.92749    437.11997    281.39161   -91164.866    91230.372    155.72836    34.880888 
320428000    287.31315    429.39904    200.24122   -91201.134    91268.147    229.15783    34.875812 
320432000    269.10584    253.34287    341.45724   -91212.504    91264.472   -88.114376     34.86992 
320436000    256.58447    315.87697    160.09942   -91225.512    91303.963    155.77755    34.870262 
320440000    274.47206    321.39397    219.90492   -91279.374    91347.024    101.48904    34.873018 
320444000    294.06067    380.84468    449.37991    -91265.25    91349.614   -68.535234    34.860445 
320448000    290.74064     463.8216    452.70734   -91318.392     91367.11    11.114252    34.861263 
320452000    308.09223    447.74422    438.53855   -91338.841    91399.962    9.2056671    34.858219 
320456000    292.70632    464.93136    432.98973   -91355.208    91403.169     31.94163    34.862092 
320460000    289.58911    211.38971    230.46934     -91382.1    91441.091   -19.079624    34.855091 
320464000    247.61109    277.54302    323.95477   -91377.821    91469.301   -46.411756    34.857828 
320468000    305.88925    477.72246    252.80741   -91415.266    91471.338    224.91505    34.858822 
320472000    298.57291    404.47238    418.82975   -91431.454    91498.668   -14.357375    34.856382 
320476000    274.69621    238.51983    268.40711   -91455.014    91527.555   -29.887274    34.853331 
320480000    266.98773    231.67984    382.45613    -91479.54    91561.617   -150.77628    34.852567 
320484000    291.33217    367.30573    326.42978    -91527.37    91593.283    40.875944    34.853059 
320488000     281.3406    385.33293    439.24938   -91560.819    91632.222   -53.916455    34.851605 
320492000    291.35006    211.98746    580.41065   -91574.475    91627.882   -368.42319    34.845991 
320496000    288.98097    311.91584    283.57984   -91573.467    91642.923    28.335998    34.852008 
320500000    287.92277    455.27738    303.75625   -91589.648    91654.051    151.52112    34.858134 
320504000    284.27073     187.6261    183.67493   -91636.601    91673.011    3.9511777    34.862547 
320508000    243.82473      264.687    165.79485   -91641.846    91721.543    98.892148    34.853281 
320512000    305.14016    546.90658    183.59098   -91676.822    91722.446     363.3156    34.861593 
320516000    286.47961    406.27396     344.4937   -91668.842    91733.701    61.780265    34.866431 
320520000    295.94786    232.65323    508.52449   -91670.589    91739.464   -275.87127    34.857009 
320524000    283.97838    472.68198    302.17589   -91692.438    91760.388    170.50609    34.859679 
320528000    305.99831    446.62088    272.39303   -91714.361    91761.681    174.22785    34.857023 
320532000    290.42747    273.07677      271.585   -91742.158    91806.834    1.4917711    34.861991 
320536000    301.83562    302.14032    284.69516   -91755.081    91813.625     17.44516     34.85692 
320540000    268.51645    399.00356    374.94886   -91770.499    91850.106    24.054705    34.840024 
320544000    271.03931    256.38247    268.00574   -91798.991    91876.403   -11.623268    34.842246 
320548000    297.99076     368.1151    218.95226   -91844.364    91898.326    149.16284    34.836946 
320552000    306.62514    388.56402    287.11181   -91897.893    91945.316    101.45221    34.828547 
320556000    274.73527    621.74831    215.76148   -91898.155    91969.557    405.98683    34.818206 
320560000     297.1721    241.76042    311.73241   -91956.057    92007.977   -69.971994    34.816288 
320564000    311.14825    246.78661     456.8819   -91970.613    92022.792   -210.09529    34.811876 
320568000    266.75313    651.82021    209.78031   -91981.265    92052.358     442.0399     34.81074 
320572000    295.97461    337.29183    217.40843   -92008.324    92058.149     119.8834     34.81044 
320576000    293.61673    361.75904    231.72097   -92027.777    92086.328    130.03807    34.801284 
320580000    280.15808    242.97679    421.86899   -92037.119    92108.733    -178.8922    34.796656 
320584000    275.65015    381.40404     380.8035   -92035.504    92108.956      0.60054    34.795027 
320588000    301.05795    415.26175    271.87569   -92105.375    92129.911    143.38606    34.795305 
320592000    300.05267    403.24717    482.45032   -92107.123    92152.324   -79.203148    34.800933 
320596000    300.07491    376.01507    305.51097   -92095.862    92163.555    70.504098    34.801707 
320600000    290.17785    416.18047     274.4318   -92119.481    92186.905    141.74867    34.814573 
320604000    294.24159    223.80647    750.14067    -92149.05    92210.791    -526.3342    34.817737 
320608000     290.2253    397.80053    284.10972   -92165.934     92244.66    113.69081    34.826515 
320612000    293.36112    633.54711    312.75148   -92227.641    92286.901    320.79563    34.827367 
320616000    293.04689    373.14464    627.42303   -92252.278    92314.695   -254.27839    34.828666 
320620000    293.38057    398.06911    356.50642   -92257.913    92309.188    41.562687    34.823962 
320624000    268.71697    453.36431    334.75132   -92228.458    92302.162      118.613    34.838418 
320628000    270.30459    202.52834    121.99586   -92246.828    92314.621    80.532485    34.845542 
320632000    276.33273    287.17356     333.4206   -92273.446    92342.027   -46.247041    34.846889 
320636000    272.10153     470.0764    361.58611   -92298.879    92380.205    108.49029    34.852267 
320640000    295.40806    441.95924    247.01602   -92361.592    92428.595    194.94322    34.852433 
320644000    308.87646    369.60397     507.4592   -92385.774    92448.909   -137.85523    34.861344 
320648000    270.56998    262.70471    222.41999   -92400.862    92474.266    40.284722    34.860692 
320652000    283.55836    439.02696    190.97796   -92405.362    92474.414      248.049    34.855422 
320656000    259.95597    273.24858    374.07507   -92414.516    92472.457    -100.8265    34.840114 
320660000    275.98496    549.64332    316.09585   -92446.268      92493.5    233.54746     34.83895 
320664000    301.55501    304.50014    241.62576    -92472.05    92529.784    62.874384    34.839966 
320668000      264.984    327.61133    398.19927   -92469.766    92552.357   -70.587936    34.845563 
320672000    262.20577    219.57044    194.57893   -92486.858    92553.022    24.991513    34.839912 
320676000    271.81175    344.74944    250.74866   -92507.632    92586.121    94.000777    34.825357 
320680000    282.95139    318.82974    231.03538   -92526.689    92612.946    87.794363    34.822769 
320684000    267.51437    278.10677    252.46398   -92579.759    92661.483    25.642791     34.82463 
320688000    275.89233    278.81207     233.6251   -92611.908    92683.991    45.186969    34.825394 
320692000    267.50598    505.46118    303.03772   -92626.488    92699.624    202.42346    34.824819 
320696000    273.86546    317.28031    252.36507   -92635.106    92716.958    64.915237    34.818329 
320700000     328.6006    329.36619    418.71749   -92678.937    92724.176   -89.351304    34.808363 
320704000    297.23167     220.8761    297.79998   -92700.482    92772.042   -76.923876    34.810545 
320708000    293.37479    325.89902    385.72527   -92736.881    92813.358   -59.826257    34.803885 
320712000     306.0874     239.9614    207.03752   -92751.523    92819.168    32.923886    34.803246 
320716000    295.72535    336.11015    419.50729   -92778.658    92835.463   -83.397145    34.804325 
320720000    279.80146    117.20924    371.80233   -92803.972    92878.492   -254.59309    34.798405 
320724000    284.67895    449.00172    319.98045   -92822.319    92883.591    129.02127    34.797696 
320728000    281.64226    324.73288    475.43066   -92850.221    92897.355   -150.69778    34.798585 
320732000     278.0767    285.95323    213.47726   -92875.881    92934.179    72.475969     34.79585 
320736000    280.45715    433.66167    574.24174   -92878.281    92936.747   -140.58007    34.793617 
320740000    274.75704    262.74013    229.90081   -92892.767     92950.03    32.839319    34.793377 
320744000    304.09512    149.08572    420.07674   -92944.265     92995.22   -270.99101    34.793327 
320748000    276.92431     444.6721    287.66437   -92961.754    93039.933    157.00773    34.786248 
320752000    286.65351    372.38273    408.39254   -92964.228    93044.623   -36.009804    34.796456 
320756000    280.84663     480.9898    338.38951   -92993.568    93057.012    142.60028     34.79507 
320760000    266.28109    225.01808    266.26375   -93017.701    93084.623   -41.245672    34.788378 
320764000    292.22208    282.01435     411.6226   -93051.333    93120.695   -129.60825    34.785745 
320768000    274.14753    395.88517    351.33524   -93064.091    93129.606    44.549925    34.781507 
320772000    313.24882    337.61515    394.79619   -93109.154     93152.44   -57.181038    34.782634 
320776000    278.75299    320.10235    264.33884   -93122.763    93183.859    55.763509    34.782934 
320780000    298.85028    324.07843    409.42394   -93128.381    93194.255   -85.345515    34.773654 
320784000    278.80054    348.87245    347.81641    -93139.86    93213.276    1.0560337    34.776333 
320788000    302.38851    449.78894    292.71222   -93176.512    93254.412    157.07671    34.782815 
320792000    268.42143    462.24192    289.35628   -93210.484    93292.507    172.88564     34.78505 
320796000    288.33796    244.80842    280.90329   -93225.667    93287.759   -36.094868    34.777822 
320800000    290.46459    285.48802    359.47357    -93239.82    93286.346   -73.985548    34.784062 
320804000    281.84115     353.1844    409.59371   -93247.655    93303.471   -56.409309    34.784491 
320808000    302.22185    318.96701    236.36038     -93263.7    93306.714    82.606629    34.783943 
320812000    285.03927    339.43873    300.62301   -93264.863    93324.197    38.815722    34.793781 
320816000    293.28245    332.26842    265.52719    -93244.24    93315.064    66.741231    34.790128 
320820000    283.34136    247.22631    321.75398   -93260.814    93349.128   -74.527666    34.783205 
320824000    277.03834    331.99268     299.1294    -93289.62    93369.079    32.863276    34.773749 
320828000    254.50889    462.58143    359.61994   -93310.304    93390.612    102.96148    34.782996 
320832000    256.78695    468.57659    305.85424   -93347.888    93436.298    162.72235    34.782248 
320836000    304.65093    439.20955    509.22977   -93364.831    93434.884   -70.020216    34.776862 
320840000    279.10194     419.1024    424.76091   -93386.878    93449.588   -5.6585153    34.774444 
320844000    272.07564    328.55723     320.0196   -93439.838    93517.044    8.5376305    34.766125 
320848000    287.87877    449.60619    330.73951   -93450.839     93529.52    118.86667    34.762979 
320852000    317.96862    545.14512    276.57055   -93459.507    93515.344    268.57457    34.761085 
320856000    292.96137    267.93522    316.62236   -93480.702    93534.359   -48.687147    34.766897 
320860000    299.03811    334.57769    297.15747   -93502.272     93556.81    37.420221    34.775671 
320864000     257.3013    253.24383     405.9603   -93510.487    93589.664   -152.71647    34.773132 
320868000    286.36777    482.53368    345.06037    -93531.83    93600.087    137.47331    34.765538 
320872000    294.46013    302.29279    377.04698   -93568.305    93625.837   -74.754186    34.762489 
320876000    283.93711     479.2708    407.48022   -93596.013    93664.756    71.790575    34.765566 
320880000    275.39748    315.24264    349.71731   -93615.352    93681.332    -34.47467    34.769964 
320884000    274.99129    410.03216    313.64337   -93632.403    93698.995    96.388787    34.766977 
320888000    278.37191    285.23177    345.04337   -93629.155    93700.265   -59.811596    34.761185 
320892000    284.09014    247.31257    492.09332   -93636.078    93703.486   -244.78076    34.755133 
320896000      282.864    392.43628     359.4494   -93678.346    93739.145    32.986876    34.749159 
320900000    298.84793     281.0024    249.88964   -93696.914    93769.969     31.11276    34.752655 
320904000    292.25188    175.20699    372.61996   -93708.872    93778.751   -197.41297    34.753807 
320908000    265.63022    218.55498    223.28979   -93732.204    93821.349   -4.7348059    34.750048 
320912000     311.5192    547.97697    367.86099   -93769.955    93819.186    180.11598    34.756664 
320916000    282.50217    316.18725     198.4639   -93786.356    93851.961    117.72335    34.752046 
320920000    275.90248    309.04549    272.97186   -93795.433    93868.647    36.073629    34.756842 
320924000    282.36036    266.15995    344.38006   -93828.774    93896.133   -78.220109    34.754671 
320928000    285.22858    328.12065    558.92423   -93831.181    93904.444   -230.80358    34.755452 
320932000    274.42025    273.77328    327.32626   -93866.895    93936.119   -53.552985    34.763915 
320936000    307.11583    476.18375    224.07484   -93879.188     93942.64    252.10891    34.763477 
320940000    270.87658    372.61299    257.96219   -93891.822    93969.626     114.6508    34.752725 
320944000    270.44036    252.87507    485.13557   -93919.698    93991.091    -232.2605    34.749639 
320948000    306.71978      464.102    296.86708   -93960.304    94029.922    167.23493    34.753642 
320952000    257.43427    462.90322    348.13304   -93979.396    94059.562    114.77018    34.756676 
320956000    285.44878    282.43658    351.11569   -94003.924    94068.422   -68.679115    34.750715 
320960000    287.94826    438.83776    206.45675   -94028.832    94085.798    232.38101    34.753649 
320964000    275.51637     256.4712    132.27244    -94047.86    94115.264    124.19876    34.752502 
320968000    299.41521    177.32669    454.67006   -94092.905    94159.272   -277.34337    34.753758 
320972000    271.39421    499.19721    272.10861   -94102.798     94185.82     227.0886    34.744645 
320976000     310.8078     508.9151     259.6158   -94130.458    94203.532     249.2993    34.752267 
320980000    284.84954    300.48095    341.39024   -94170.477    94227.701   -40.909286    34.761439 
320984000    307.32179    359.10882    335.33841   -94194.593    94242.295    23.770412    34.755954 
320988000    282.61073    453.56062    432.28153    -94195.18    94266.134    21.279091    34.759795 
320992000    270.32599    261.50833    445.35639   -94218.271    94300.561   -183.84806    34.762068 
320996000    291.26666    323.12955    686.74743   -94262.948    94315.908   -363.61788     34.76154 
321000000    285.94696     415.2325    420.31147    -94271.94    94316.735   -5.0789762    34.761502 
321004000    264.25894    271.51509    438.25481   -94288.248    94349.485   -166.73972    34.760111 
321008000    280.94826    390.95186    348.18346   -94300.108    94376.804    42.768409    34.756077 
321012000    252.45329    423.99244    467.97217   -94294.983    94389.318   -43.979729    34.760029 
321016000    263.53038    309.04569    205.06936    -94316.54    94406.149    103.97633    34.756973 
321020000    272.17242    245.12187    190.26402   -94346.104    94427.704    54.857848    34.766628 
321024000     285.3001    357.39544    351.24938   -94406.617    94454.677    6.1460613    34.765571 
321028000    309.72297    548.61416    366.94233   -94452.724    94512.351    181.67183    34.766548 
321032000    269.87875    330.31413    266.73378   -94458.169    94538.166    63.580346    34.773904 
321036000    259.63973    356.10608    315.26294   -94480.119      94554.2    40.843144    34.773177 
321040000    304.54873     315.6328     284.7913   -94505.954     94566.82    30.841501     34.77456 
321044000    261.93147    439.13797    447.07273   -94517.475    94611.698   -7.9347618    34.767652 
321048000    272.77054    131.44134     440.2028    -94554.62    94622.569   -308.76145     34.76388 
321052000    263.20422    304.54937    406.58175   -94569.732    94656.369   -102.03239    34.766925 
321056000    278.09905    301.91314    311.98615   -94590.804    94676.474   -10.073007    34.764102 
321060000     266.0422    239.28928    200.88916     -94583.5    94682.012    38.400115    34.765388 
321064000    293.61673    378.46618    428.33729    -94632.62    94700.279     -49.8711    34.764552 
321068000       278.91    216.05505    416.41159   -94643.542    94718.624   -200.35654    34.756478 
321072000    284.30645    650.69426    381.47561    -94671.84    94746.299    269.21865    34.763073 
321076000    272.80727    438.64687    317.46386   -94669.879    94742.899    121.18301    34.769275 
321080000    289.12341    197.01769    387.52325   -94705.151     94778.48   -190.50556     34.76988 
321084000      280.557    281.93457    263.09528   -94730.529     94810.73    18.839285    34.766003 
321088000        265.8    537.14793    565.44881   -94736.977    94816.637   -28.300879    34.766322 
321092000    301.55454    296.17121    374.45989   -94765.584    94833.601   -78.288678    34.765766 
321096000    302.46995    291.88667    390.90816    -94804.46    94863.096   -99.021494    34.768704 
321100000    268.84266    358.54205    297.43466   -94810.868    94896.834    61.107389    34.758753 
321104000    319.13011    437.21366    360.30085   -94880.553    94932.807    76.912812    34.759961 
321108000    280.17217    252.90097    443.51598   -94877.131    94965.741   -190.61502    34.750923 
321112000    274.61339    310.20927    291.54108   -94924.163    94989.313    18.668188    34.751964 
321116000     299.2468    295.15914    428.39847   -94953.053    95003.663   -133.23933     34.74964 
321120000    289.94815    271.66553    229.29643   -94972.812    95036.038      42.3691     34.75818 
321124000    288.30201    483.82287    240.55862   -95001.103    95076.058    243.26425    34.754682 
321128000    290.03608    368.98903    418.90033    -95040.92    95109.818   -49.911307    34.761267 
321132000    247.64689    282.17233    327.72742   -95063.016    95140.483   -45.555089    34.756701 
321136000    300.26028    200.48032    325.24252   -95089.322    95143.889   -124.76221    34.754212 
321140000    256.83231    187.18374    354.35423   -95074.986    95160.728   -167.17049    34.748504 
321144000    269.83947    232.37553    235.87644   -95091.646    95172.106   -3.5009119    34.740439 
321148000    264.24736    652.82002    232.62122   -95127.857    95205.746     420.1988    34.746162 
321152000    283.25011    465.59885    370.91626   -95140.638    95206.774    94.682593     34.74954 
321156000    293.05429    305.56445    279.83381   -95155.004    95223.809    25.730636    34.752402 
321160000    266.80987    437.53028    252.84739   -95191.925    95267.105    184.68289    34.743049 
321164000    282.62108    290.60706    312.49032   -95201.142    95271.796   -21.883267     34.74852 
321168000    283.29142    396.42447    380.69121   -95205.852    95280.011    15.733263    34.748548 
321172000    296.85377    379.75858    340.38402   -95267.505    95320.517    39.374561     34.74332 
321176000    279.11489    433.55239    228.31023   -95274.158    95344.885    205.24215    34.740095 
321180000    265.24899    338.03238    364.53222   -95285.371    95356.137   -26.499837    34.738441 
321184000    286.80941    276.23326    300.91186   -95308.405    95370.674   -24.678595    34.738802 
321188000    293.61431    284.12569     453.0447   -95346.057    95415.352   -168.91901     34.73642 
321192000    262.60409    301.34788    198.97808   -95346.135    95444.399     102.3698    34.735272 
321196000    247.76611    395.93504    285.60335   -95374.973     95458.58    110.33169    34.736616 
321200000     275.5032    309.95058    227.38007   -95376.211    95464.758    82.570513    34.742679 
321204000    272.18605    380.72165    281.02869   -95415.782    95498.345    99.692958    34.741142 
321208000    280.95376    404.89879     302.5385   -95454.101    95522.554    102.36029    34.746928 
321212000    265.15693    317.09952    364.89006   -95473.946    95549.522   -47.790541    34.739371 
321216000    274.97478    259.55387     412.4445   -95505.287    95569.865   -152.89062    34.734997 
321220000    300.80629    245.07955    318.46626   -95524.172    95587.504   -73.386709    34.734109 
321224000    279.66424    316.24323    586.47687   -95548.571    95603.024   -270.23364    34.729194 
321228000    280.48802    494.06605    238.30065   -95566.652     95634.61     255.7654    34.728458 
321232000    256.53243    297.35237    325.67085   -95564.526    95643.695   -28.318478    34.729269 
321236000    293.98069     227.7042    266.18073   -95584.956    95660.363   -38.476533    34.733895 
321240000    264.15326    300.81136    331.87288   -95616.756    95683.809   -31.061521    34.730498 
321244000    262.16709     273.7459    340.45463   -95639.222    95715.777   -66.708726    34.732086 
321248000    269.44717    342.82094    249.49301   -95651.358    95741.801    93.327928    34.736946 
321252000    268.18465    381.58412    317.63807   -95684.775    95763.091    63.946049    34.740245 
321256000    301.92925    279.91289    341.34985   -95724.656    95783.477   -61.436963    34.735019 
321260000    258.87899    286.34859    372.95697   -95730.152     95801.81   -86.608376    34.732435 
321264000    269.84328    354.60994    214.69161   -95754.435    95829.519    139.91833    34.734169 
321268000    272.77343    514.70059    384.79521   -95763.523    95840.627    129.90538    34.731204 
321272000    261.07604    456.90803    184.31281   -95778.512    95853.831    272.59522    34.728195 
321276000    282.00443    348.41085    415.49724   -95804.274    95867.551   -67.086391    34.731873 
321280000    263.54194    222.80495    549.20581   -95826.408    95896.922   -326.40085    34.728963 
321284000    263.24864    476.15644    414.16386   -95838.013    95941.148    61.992587    34.736367 
321288000    280.39366    343.06709    330.62084    -95904.42    95967.647    12.446247    34.739595 
321292000    268.44867    302.50413    221.64296   -95933.377     96005.39    80.861165    34.729993 
321296000    280.79732    458.50765    266.45221   -95992.769    96028.786    192.05544    34.724359 
321300000    276.28408    391.57527    243.44376   -95987.145    96053.574    148.13151    34.722993 
321304000    336.91977    412.89735    415.85219   -96008.696    96034.477   -2.9548409    34.725314 
321308000    261.46039    356.64772    342.09092    -95994.18     96079.27    14.556806    34.721859 
321312000    280.53856     285.4644    429.06486   -96028.676      96106.4   -143.60046    34.720229 
321316000    288.83146    393.56022    664.49066   -96058.084    96114.394   -270.93044    34.722916 
321320000    295.28345      380.083    335.89211   -96082.855    96137.678    44.190884    34.709424 
321324000    300.82651    368.31719    245.39723   -96112.227    96176.466    122.91995    34.712401 
321328000    256.50213    201.76543    296.86351   -96112.072    96216.528   -95.098088    34.705681 
321332000    277.71228    317.36365     410.1344   -96130.762     96220.51    -92.77075    34.711347 
321336000    254.20369    195.97772    260.16684   -96178.383    96262.776   -64.189122    34.710147 
321340000     276.0809    425.00436    387.08287   -96245.321    96296.924    37.921488    34.695532 
321344000    280.88485    179.25575    321.77326   -96273.269    96332.825   -142.51751    34.688552 
321348000    286.99463    386.93209    396.31489   -96282.733     96342.62   -9.3827975    34.689618 
321352000    292.15087    318.26751    371.02437   -96260.491    96323.633    -52.75686    34.673087 
321356000    291.38515     325.5894    289.97474   -96261.143    96320.838    35.614662    34.676995 
321360000    282.61536    227.35692    344.90339   -96310.281    96377.731   -117.54647    34.677524 
321364000    266.60389    395.40551    238.74585   -96340.802    96413.599    156.65966     34.67158 
321368000    310.21254    296.21708    324.57219   -96361.685    96424.178   -28.355113    34.665523 
321372000    272.82371    335.24046    215.06051   -96375.058    96439.912    120.17995    34.662557 
321376000    256.84202    242.03756    339.79147   -96381.113     96449.88   -97.753906    34.658387 
321380000    272.91345     332.3592    378.52535   -96381.206    96453.513   -46.166153    34.661394 
321384000    281.16443      360.934    389.93064   -96405.333    96481.862   -28.996634    34.664111 
321388000    277.62424     225.9833    260.14359   -96412.936    96493.298    -34.16029    34.672767 
321392000    290.77809     274.9604    395.99545   -96442.354    96503.859   -121.03505    34.672679 
321396000    265.97064    268.89006    338.11385     -96453.1    96547.664    -69.22379     34.68069 
321400000    299.60548    287.56738    359.92525   -96494.165    96567.275   -72.357866    34.686788 
321404000    281.50513    178.38007    233.88998   -96541.865    96613.044   -55.509914    34.684414 
321408000    298.42938    274.60302     337.5555   -96559.863    96624.409   -62.952487    34.696372 
321412000    283.12633    370.95275    292.25906    -96583.42     96657.16    78.693696    34.700261 
321416000    306.80055    257.09217    320.80891   -96596.012    96655.611   -63.716748    34.704426 
321420000    276.54918    268.82254    202.07747   -96608.255    96667.982    66.745072    34.696714 
321424000    289.00723    351.70676    275.33123   -96625.363    96687.369    76.375525    34.702712 
321428000    263.44678    388.91245    307.65062   -96652.249    96735.216    81.261837    34.700067 
321432000    274.10524    256.26567    235.11534   -96670.093    96743.607    21.150329    34.694726 
321436000    279.62477    508.76199    402.69924   -96674.748      96744.2    106.06275      34.6933 
321440000     297.8667    467.17294     306.3722   -96724.233    96790.337    160.80074    34.683719 
321444000     281.4705    293.23784    226.99537   -96752.229    96816.195     66.24247    34.689612 
321448000    270.40722    223.69521    310.93169   -96756.941    96824.086    -87.23648    34.696636 
321452000    278.70224    414.46482    278.51213   -96766.561    96833.113    135.95269    34.701988 
321456000    305.63362    272.76588    380.47499   -96795.246     96837.25   -107.70911    34.699432 
321460000     279.1954     356.8972    432.80879    -96804.08    96878.246   -75.911587    34.700116 
321464000    274.64699    358.13252    282.22709   -96843.292    96904.727    75.905432    34.705946 
321468000    266.59428    242.77597    281.62409   -96853.682    96922.487   -38.848123     34.70467 
321472000     297.7396    342.15428    411.90546   -96905.427    96949.907   -69.751179    34.701685 
321476000    308.05011    292.07824    247.87204   -96909.665    96963.264    44.206203    34.701953 
321480000    282.20667    191.14125    281.77559   -96914.521    97001.559   -90.634339    34.700294 
321484000    278.26433    253.73559    384.54573   -96961.481    97022.983   -130.81014    34.703049 
321488000    278.00364    471.15311    386.08422   -96972.841    97048.495    85.068886    34.701969 
321492000    301.83166    454.41889     247.5558   -96989.235    97052.123    206.86309    34.702139 
321496000    290.38881    363.63201    364.65372   -96996.806    97076.549   -1.0217067    34.697476 
321500000    280.04507    366.61832    306.32979    -97020.13    97101.026    60.288528    34.698879 
321504000    299.39481    418.34304     252.4157   -97075.719    97135.071    165.92734    34.697518 
321508000     283.4177    599.09358    266.45487   -97098.591    97178.562    332.63871    34.704789 
321512000     323.2381    346.27007    244.50385   -97151.715    97198.251    101.76622    34.707858 
321516000    261.34421    397.89139    331.83127   -97119.528    97201.171    66.060119    34.719809 
321520000    286.33156     315.6139    225.71389   -97168.726    97226.069    89.900011    34.723701 
321524000    289.30945    462.73273    304.76962   -97182.728    97250.149    157.96311    34.721149 
321528000    291.91845    268.59219     312.3868   -97195.786    97263.491   -43.794611    34.726721 
321532000    271.33708    134.75354    378.60422   -97197.379    97270.117   -243.85068    34.726472 
321536000    278.53993    411.15534    403.88059   -97236.791    97313.285    7.2747455    34.718025 
321540000    302.84395    536.49114    205.06379   -97278.292    97332.459    331.42735    34.715393 
321544000    265.30004    260.44723    397.51978   -97288.598    97377.124   -137.07255    34.709788 
321548000    265.55431    300.71755    307.22383    -97282.57    97373.552   -6.5062894    34.711398 
321552000    246.60091    518.83216    334.23013   -97323.969    97417.186    184.60202    34.707563 
321556000    317.00982    668.13407    385.13744   -97393.577    97432.395    282.99663     34.71839 
321560000    308.33039    565.50296    388.46559   -97389.295    97443.944    177.03737    34.721119 
321564000    297.93914    258.90701    430.84139    -97391.79    97449.711   -171.93439    34.715232 
321568000     288.6449    361.15149    431.41907   -97435.976    97486.833   -70.267578     34.71459 
321572000    270.46892    357.76357    432.09165   -97445.979    97513.695   -74.328077    34.717744 
321576000    284.70584    358.80216    130.41142   -97470.594    97532.562    228.39075    34.714507 
321580000    304.60914    313.52729     258.4511    -97498.57    97561.168    55.076192    34.720379 
321584000    318.03837    370.11032    254.62087   -97534.852    97578.829    115.48945    34.717437 
321588000    264.01596    289.88753    389.46059   -97552.127    97625.273   -99.573055    34.719707 
321592000    252.37212    188.66095    235.49343   -97567.512    97659.104   -46.832483    34.717823 
321596000    269.45193    312.00646    273.37492   -97597.847    97671.468    38.631543    34.713215 
321600000    271.64129    449.98674    320.03016   -97606.167    97689.529    129.95658    34.710893 
321604000    237.73357    450.57594    279.45761    -97595.19    97697.545    171.11832    34.719378 
321608000    261.01611     343.4925    234.27205   -97620.644    97714.221    109.22045    34.720939 
321612000    260.37952     440.3285    178.52533   -97642.365    97720.366    261.80317    34.719605 
321616000    263.57834    314.21978    280.15679   -97640.368    97740.715    34.062985    34.725599 
321620000    265.58313    452.23019    446.31352   -97681.029    97765.055    5.9166697    34.723931 
321624000    293.97789    363.07182     193.6271   -97702.359    97779.004    169.44472    34.724435 
321628000    269.64643    316.06966    364.76312   -97724.491    97800.874   -48.693457    34.726796 
321632000    293.10834     402.8611    390.40656   -97754.259    97826.003    12.454541    34.725543 
321636000    288.50883    366.12685    340.97493   -97759.226    97820.077    25.151919    34.726387 
321640000    230.40722    131.15817    293.76993   -97754.669    97841.514   -162.61176    34.722566 
321644000    279.65363      304.783    271.31148   -97759.996    97851.773    33.471521    34.725494 
321648000    277.05041    356.37092    468.08913   -97763.143    97846.283   -111.71821    34.723381 
321652000    293.46254    566.55433    507.41787   -97781.663    97842.651    59.136461    34.732766 
321656000    318.59863    512.94284    288.36632   -97814.202    97880.062    224.57653    34.727294 
321660000    275.79567    437.98494    273.98132   -97824.491    97891.038    164.00361    34.729443 
321664000    290.79343    245.62828     214.2244   -97861.787    97931.306     31.40388     34.73472 
321668000    272.11486    428.06992    263.30645   -97871.914    97960.689    164.76348    34.741017 
321672000    269.58189    282.83204    241.26474   -97875.955    97955.783      41.5673    34.739351 
321676000    292.68822    198.70949    306.40613   -97919.569    97981.428   -107.69664    34.740435 
321680000    239.94714    367.94497    151.06683   -97928.349    98030.758    216.87815    34.746044 
321684000    265.34635    324.56299    291.09137   -97956.024    98049.994    33.471621    34.734808 
321688000    269.09834    208.87411    374.50402   -97976.167    98069.828   -165.62991    34.739229 
321692000     278.5867    410.87598    354.23491   -97997.438    98075.563    56.641071    34.733377 
321696000    283.07051    519.34381    395.56581   -98052.575    98128.604      123.778    34.725904 
321700000    286.00527    289.19891    349.30327   -98064.467    98117.302   -60.104363    34.731652 
321704000    282.60912    306.05106    427.10021    -98066.61     98134.77   -121.04915    34.728919 
321708000    275.79547    292.65501    484.01911   -98092.008    98153.309    -191.3641    34.737631 
321712000    294.02167     276.4053    471.25475   -98137.707    98187.277   -194.84944    34.734765 
321716000    294.16358    171.87794    414.65744   -98153.822    98212.373    -242.7795    34.736828 
321720000    297.80973    408.42603    256.61097   -98177.748    98246.721    151.81506    34.733821 
321724000    282.81864    261.45915     438.6343   -98236.299    98307.621   -177.17515    34.727329 
321728000    286.80533    527.68685    255.94808   -98246.977     98316.89    271.73877    34.732267 
321732000    260.52986    311.01447    318.60011   -98264.202    98326.249   -7.5856343    34.733454 
321736000    306.81859    354.50611    310.18715   -98297.706    98355.386    44.318954    34.740702 
321740000    307.55217     213.6844    316.66109   -98318.218    98383.678   -102.97669    34.745519 
321744000    262.24786    292.74971    398.07533   -98320.273    98396.645   -105.32562    34.744834 
321748000    291.46595    202.32525    199.93763   -98354.929    98420.769    2.3876159    34.748345 
321752000    295.65573    274.72425    336.09768   -98360.066    98448.092   -61.373434    34.744574 
321756000    279.12186    368.87506      332.528   -98397.433    98486.852    36.347063    34.741083 
321760000    282.82317    479.78673    246.91886   -98414.946    98480.068    232.86787    34.730524 
321764000    288.61396    385.09945     353.9988   -98457.035    98524.892    31.100654    34.734292 
321768000    303.15855    559.37759    330.80005   -98482.949    98536.576    228.57755    34.732773 
321772000    307.51615    214.72818     393.3424   -98491.745    98528.051   -178.61421    34.729375 
321776000    289.49794    215.24052    303.32262   -98477.445    98564.795   -88.082099    34.727045 
321780000    286.54351    428.31842    233.06128   -98504.845    98573.055    195.25714    34.736611 
321784000    296.83577    382.98356    249.96744   -98530.524    98603.866    133.01613    34.738893 
321788000    275.70316    423.04349    202.03554   -98571.545    98636.728    221.00796    34.742176 
321792000    268.71043    499.05022    286.43012   -98608.043      98688.8     212.6201    34.748685 
321796000    302.93358     428.3361    327.07089   -98630.637    98694.577    101.26521    34.751918 
321800000     304.7546    354.35917    397.71099   -98647.324    98714.006   -43.351818    34.745666 
321804000    304.31749    444.41884     495.0662   -98698.009     98743.92   -50.647359    34.741994 
321808000     297.0571    341.89481    306.98432    -98719.33    98777.072    34.910499    34.736868 
321812000    306.28735    305.22959    227.45755   -98766.866    98812.506    77.772035    34.742415 
321816000    301.40556    403.22294    335.34611   -98768.312    98827.864     67.87683     34.74105 
321820000    276.55704    411.48398    237.36232   -98788.878    98850.685    174.12166    34.736921 
321824000    312.91882    449.08504    533.18064   -98834.294    98883.766   -84.095602    34.738012 
321828000    311.44581    382.82734    334.29082   -98852.374    98894.818    48.536517    34.746071 
321832000    288.85615    389.26594    390.23434   -98885.299     98933.68  -0.96839707    34.741197 
321836000    289.20087    470.57054    470.14378   -98890.874    98960.408   0.42676609    34.747004 
321840000    245.21502    430.04753    275.12874   -98907.813    98992.203    154.91879    34.757339 
321844000     256.7036    372.31352    271.64603     -98925.7    99019.683    100.66748    34.752697 
321848000    276.27639    347.07354    266.36177   -98938.878    99018.925    80.711766    34.757905 
321852000     275.0056    342.46263    200.98274   -98976.359      99045.1    141.47989    34.749112 
321856000    277.86253    295.12737    283.32972   -99001.029    99068.866    11.797644    34.743639 
321860000    261.09048    313.23867    319.02728   -99008.622    99103.604   -5.7886155    34.746396 
321864000    287.06749    438.13084    412.51099   -99045.867    99104.098    25.619846    34.749075 
321868000    296.04563    271.09455     249.9431     -99061.7    99119.834    21.151449    34.750618 
321872000    275.08237    258.46398    213.13502   -99077.432    99168.711    45.328952    34.749038 
321876000    252.98378    275.53744    321.15868   -99072.406    99156.368   -45.621247    34.751589 
321880000    277.00698    240.22175    553.66715   -99102.931    99160.193    -313.4454    34.757266 
321884000    276.27303    258.63461    251.69302   -99111.892    99196.755    6.9415871    34.749363 
321888000     258.8117    290.96034    344.07263   -99157.341     99229.82   -53.112296    34.747135 
321892000    268.90208    270.28523    233.60423   -99179.293    99264.816    36.680995    34.745356 
321896000    282.68878     305.4482    327.31958   -99197.724    99264.809   -21.871381     34.74421 
321900000    301.87576    372.28172    250.32127   -99247.304    99294.405    121.96045    34.750099 
321904000     267.2146    242.41905    356.71686   -99257.286      99337.1   -114.29782    34.741733 
321908000    288.40727    329.18375    336.54894   -99277.669    99359.588   -7.3651991     34.74662 
321912000    282.96183    164.45281    195.92857   -99312.978    99385.363    -31.47576    34.740767 
321916000    261.39708     220.8148    421.60558   -99311.446     99386.61   -200.79077     34.73712 
321920000    283.64842    382.66218    240.64813   -99322.813    99394.521    142.01405    34.741954 
321924000    289.21736    348.70532    385.87261   -99340.322     99427.98   -37.167288    34.737895 
321928000    289.93856    366.43699    468.94846    -99362.45    99432.775   -102.51148    34.735591 
321932000    290.09803    314.06674    212.29432   -99359.704    99419.205    101.77242    34.735703 
321936000    285.68258    311.31296    453.41769   -99385.707    99453.114   -142.10473    34.733004 
321940000     302.6585    358.56452    342.50485   -99433.185    99484.138    16.059675    34.739132 
321944000    277.93215    323.39869    239.02978    -99442.57    99505.335    84.368908    34.734663 
321948000    250.74651    415.25277    427.30124   -99458.009    99536.613   -12.048467    34.731409 
321952000    284.09251    376.38842    437.25551   -99470.956    99555.545   -60.867087    34.727869 
321956000    282.02327    289.71841    243.51418   -99498.517    99562.482    46.204227    34.723256 
321960000    300.65261     348.1199     377.6581   -99524.438     99576.69   -29.538202    34.717599 
321964000    288.47218     326.8758    203.93716   -99553.818    99618.581    122.93863    34.711152 
321968000    260.69014     398.0206    203.06589   -99545.306    99640.257    194.95472    34.709954 
321972000    251.64758    402.84181    343.26242    -99561.18    99658.201    59.579384    34.712486 
321976000    261.70994    439.68343    144.30031   -99606.042    99694.097    295.38313     34.71397 
321980000    237.34429    193.45685    311.81643    -99622.59    99708.326   -118.35958    34.710195 
321984000    283.02945    229.59159    303.78772   -99674.793    99746.602   -74.196131    34.705705 
321988000    281.39789     228.3564    236.74003    -99700.65    99781.005   -8.3836291    34.706671 
321992000    249.63543    246.40733    384.06899   -99715.133    99806.667   -137.66166    34.712935 
321996000    281.42191    393.47939    356.44884   -99742.646    99824.664    37.030549    34.716421 
322000000    257.12632    338.13366    403.01339   -99769.128    99850.623   -64.879728    34.709795 
322004000    279.59089    491.51187    416.81228   -99785.782    99846.028    74.699586    34.710113 
322008000    267.84923    384.82008    194.38887   -99810.274    99897.739    190.43121    34.713493 
322012000    309.69955     179.8501    294.00737   -99871.485    99911.683   -114.15727    34.712435 
322016000    290.01408    282.58399    473.34881   -99879.136    99950.499   -190.76482     34.71792 
322020000    270.35946    369.56738    153.37779   -99895.555     99966.81    216.18959    34.718753 
322024000    282.78083    277.96827    315.07814   -99928.052    100012.54   -37.109868    34.723574 
322028000    261.88499     253.9352    439.21952   -99950.208    100031.32   -185.28433    34.725368 
322032000    277.23466    490.13745    297.35603   -99993.075    100062.47    192.78142     34.72073 
322036000    286.64319    381.83227    298.31296   -100009.42    100087.27     83.51931    34.723521 
322040000    277.52727    292.32089    368.82376   -100054.28    100110.35   -76.502874    34.725136 
322044000    316.55912    394.63388    412.35184   -100075.64    100138.07   -17.717957    34.719663 
322048000    273.92249    363.14484    221.22138   -100087.26     100159.2    141.92346    34.719904 
322052000    295.17911    248.72623    391.39042   -100102.45    100174.37   -142.66419    34.711702 
322056000    276.18165    315.97879    266.06419   -100113.62    100188.76      49.9146     34.71714 
322060000    292.14865    516.00013    380.58944   -100165.63    100229.34    135.41068    34.719463 
322064000    281.15667    601.65343    216.34335   -100161.11    100221.78    385.31008    34.718887 
322068000     266.6118    392.65269    255.41445   -100165.66     100251.5    137.23824    34.727748 
322072000    291.14724    504.51751    240.37839   -100191.35    100249.74    264.13911    34.731981 
322076000    279.70305    224.30901    380.63471   -100230.36    100317.97    -156.3257    34.737723 
322080000     290.7727    367.94681    395.12431   -100257.43    100323.29   -27.177501    34.735379 
322084000    297.23492     505.2866    284.83735   -100274.29    100343.49    220.44925     34.74012 
322088000    304.77314    374.67186    366.68714   -100296.96    100360.63    7.9847137    34.746902 
322092000    270.94064    155.79329    391.77784   -100335.24    100408.65   -235.98456    34.751144 
322096000    300.09104    528.53322    424.86149   -100395.47    100456.65    103.67174    34.755602 
322100000    281.76647    157.58049    187.42579   -100400.86    100480.87   -29.845295    34.757804 
322104000    314.34223    307.23316    276.82807   -100437.75    100486.99    30.405094     34.75314 
322108000    297.35799    584.58056    406.86296   -100428.15     100490.9    177.71761     34.74938 
322112000    314.90915    154.58044    547.78676   -100415.69    100486.82   -393.20631     34.74724 
322116000     263.7413    579.99989    348.57192   -100431.49    100513.53    231.42797    34.747258 
322120000    275.29274    268.78433    258.78517   -100455.39    100528.61    9.9991564     34.74607 
322124000    289.43394    436.71028    386.09292   -100478.83    100551.39    50.617363    34.756184 
322128000    279.17495    413.10841     251.1327   -100516.97    100576.29    161.97571    34.754836 
322132000    276.52231    293.69718    305.60638   -100509.69    100595.59     -11.9092    34.753129 
322136000    292.17691    385.46305    292.12235   -100551.15    100617.86    93.340706    34.751048 
322140000    305.33045    496.05081    275.04524   -100600.49    100647.46    221.00556    34.755464 
322144000    290.16181     367.2139    315.58359   -100640.17    100692.09    51.630304    34.755776 
322148000    286.25303    397.08568    496.75235   -100641.67    100719.19    -99.66667    34.757215 
322152000    271.50343    337.77797    240.50846   -100675.84    100771.28    97.269512    34.742618 
322156000    290.38714    398.01945    462.73103   -100700.31    100773.17   -64.711583    34.747018 
322160000    283.65022    391.62684    229.41233   -100714.55    100793.47    162.21451    34.741808 
322164000     275.0578    392.13824    386.31442   -100740.02    100822.45    5.8238203     34.74167 
322168000    268.99474    207.70338    231.14415   -100772.98    100842.37    -23.44077    34.744081 
322172000    272.07912    322.90232    183.61833   -100781.49    100857.42    139.28399    34.746906 
322176000    266.84654    230.33188    228.86059   -100813.06    100901.63    1.4712907    34.743093 
322180000    277.61329    373.85447    452.72171    -100842.6     100925.1   -78.867235    34.740929 
322184000    275.38361    495.85822    344.38755   -100876.61    100960.68    151.47067    34.744047 
322188000    281.82774     309.1412    496.63035   -100889.51    100970.38   -187.48914    34.740269 
322192000    257.75589     359.9261    151.17454   -100904.28    100996.56    208.75156    34.743509 
322196000    259.79135    402.43409    446.40937   -100892.76     100981.8    -43.97528    34.748961 
322200000    275.98705     325.2138    693.58163   -100948.74     101019.8   -368.36783    34.743912 
322204000    291.30025    479.98735    359.53728   -100982.01    101050.44    120.45007    34.743573 
322208000    308.11373    452.28312    381.17605   -100990.22    101060.77    71.107068    34.743905 
322212000    290.93794    431.65697    298.53017   -101016.13    101071.76     133.1268    34.749928 
322216000     256.3264     517.6696    284.26233   -100994.52    101081.04    233.40727    34.754505 
322220000    272.65622    431.40671    491.35366    -101031.4     101110.2   -59.946942    34.753249 
322224000    280.07889     321.0142    333.55403   -101034.81    101118.79   -12.539837    34.752325 
322228000    282.42533    270.60913    392.75408    -101064.3    101147.02   -122.14495     34.76114 
322232000    264.90803    343.17256    268.07376   -101078.32    101153.41    75.098794    34.762825 
322236000    306.01589    260.30647    436.83981   -101097.75    101156.29   -176.53334    34.757063 
322240000    313.87211    489.19522    454.27956   -101137.68    101197.44     34.91566     34.75847 
322244000    307.15421    343.01807    375.04968   -101150.65    101222.52   -32.031611     34.76567 
322248000    277.93315    325.60622    227.49036   -101175.02    101251.99    98.115859    34.761598 
322252000    283.80656    183.22428    442.83273   -101193.97     101285.5   -259.60845    34.761577 
322256000    264.75843    220.21998    219.81297   -101235.54    101335.84   0.40700902    34.760024 
322260000    265.04445    487.75697    271.02445   -101280.72    101359.27    216.73252    34.762727 
322264000    283.86352    403.36718     552.4348   -101293.41    101379.88   -149.06762    34.763338 
322268000    267.79173    226.87294    338.70638   -101288.41    101390.76   -111.83345    34.757898 
322272000    299.42828    517.37369    376.86735   -101335.35       101407    140.50634    34.752858 
322276000    268.86289    423.30691    337.97893   -101384.43     101449.8    85.327984    34.753295 
322280000    253.45976    395.96623    459.75377    -101378.5    101461.81    -63.78754    34.747634 
322284000    317.35456    469.68597    258.22967    -101394.4    101449.66     211.4563    34.755289 
322288000    307.64425    282.82968    404.35762   -101424.65    101480.19   -121.52795    34.755161 
322292000    275.67959    238.15594    349.77779   -101431.41    101512.55   -111.62185    34.747068 
322296000    273.46535    252.30651    265.22638   -101451.31    101529.93   -12.919872     34.75092 
322300000    295.86417    410.22674    285.92661    -101490.6    101548.46    124.30013    34.749337 
322304000    269.50988    314.10545    290.29427   -101485.86    101567.23    23.811174    34.740708 
322308000    273.17843    446.26633    301.61932    -101490.6    101572.62    144.64701    34.749323 
322312000    296.23339     355.4718    319.12522   -101522.93    101582.52    36.346575    34.748354 
322316000    277.40203    383.07508    299.78754   -101529.91    101613.23    83.287539    34.743976 
322320000    272.84746    419.80847    301.65278   -101549.43    101636.78     118.1557    34.742451 
322324000    271.34717    351.38513    274.45777   -101580.85     101670.3     76.92736    34.743243 
322328000    272.83648    252.29316    271.05314   -101578.48    101662.32   -18.759984    34.738595 
322332000    298.43658    557.54074     233.7681   -101591.84    101675.41    323.77265    34.730949 
322336000    300.65083    353.66402     551.8782   -101618.05    101692.88   -198.21418    34.729649 
322340000     261.5642    287.46242    349.15244   -101623.45     101715.5   -61.690025    34.730691 
322344000    275.46752    274.66634    416.81186    -101649.8    101737.29   -142.14551    34.731527 
322348000    297.06371    511.48675    497.67621   -101705.31    101764.59     13.81054    34.732119 
322352000    305.96271    557.47197    300.42236   -101745.06    101801.22     257.0496    34.736659 
322356000    271.61455    255.52862    271.00298   -101743.25    101822.81   -15.474364    34.734754 
322360000    321.08909    323.25755    303.01814   -101781.63    101810.44     20.23941    34.736877 
322364000    313.77332    327.69934    378.52028    -101777.8    101825.65   -50.820938     34.73933 
322368000    296.34976    477.03894     430.4858   -101806.67    101857.27    46.553132    34.736122 
322372000    262.89674     300.4682    273.56194   -101793.67    101886.72    26.906258    34.732771 
322376000    254.14924    365.20391    253.98469   -101820.35     101926.5    111.21922    34.736521 
322380000    278.06766    317.84495    547.41617   -101874.18    101963.51   -229.57122    34.737178 
322384000    269.90979    350.60416    235.63351   -101912.75    101992.11    114.97066    34.732573 
322388000     292.1128    557.20956    280.89936   -101939.18    102009.26     276.3102    34.727849 
322392000    289.43281    264.85325    247.89051   -101969.85    102028.32    16.962739    34.732185 
322396000    300.13682    465.40641      379.703   -101988.03    102046.23    85.703408    34.739714 
322400000    256.19265    316.86342     329.8899   -101997.83    102077.49   -13.026479     34.73449 
322404000    255.89076    465.09789    262.42441   -102009.71    102123.45    202.67348    34.735649 
322408000    321.95468     455.0638    371.98342   -102052.85    102107.75    83.080373    34.737148 
322412000    274.33524    453.06448    255.20307   -102055.25    102145.99    197.86141    34.751811 
322416000    277.89361    305.30958    372.98107   -102075.33     102142.7   -67.671486    34.747769 
322420000     280.1408    513.06048    148.84934   -102094.16    102167.16    364.21114    34.750981 
322424000    292.01678    403.79616     222.7885   -102114.94     102191.2    181.00765    34.747907 
322428000    310.25039      580.102    345.30669   -102115.12    102182.16    234.79531    34.750513 
322432000     270.2919    281.66835    243.55687   -102104.04    102196.47    38.111474    34.752585 
322436000    266.33048     389.2347    253.86587   -102167.94    102252.99    135.36883    34.749677 
322440000    262.62907    421.12433    200.04569   -102215.89    102298.23    221.07865    34.754657 
322444000    322.94591    637.05699    246.60839   -102258.86    102309.87     390.4486    34.761779 
322448000    288.53249    397.35885    277.75288    -102271.6    102345.05    119.60597    34.762083 
322452000    264.41409     233.9547    226.28396   -102271.53    102350.39    7.6707307     34.76479 
322456000     267.8833    300.36493    271.80507   -102291.28    102387.85    28.559856    34.767674 
322460000    276.07701    471.61096     384.4725   -102354.41    102425.82    87.138467    34.753398 
322464000    278.18049    266.75356    232.80602   -102366.94     102451.5    33.947536    34.756872 
322468000    294.51223    425.70906    612.65129   -102374.28    102429.81   -186.94223    34.753669 
322472000    274.21784    299.12799    256.49389   -102403.29    102496.77    42.634098    34.752352 
322476000     272.4761    255.53459    348.93607   -102437.93    102505.76   -93.401478    34.752448 
322480000    283.36954    309.44441    258.45243    -102453.9    102518.48    50.991982    34.751604 
322484000    291.25521    383.15185    212.00371   -102455.98    102528.38    171.14813    34.753799 
322488000    273.81321    284.51427    363.58187   -102467.81    102537.32   -79.067604    34.758343 
322492000    280.58891    474.58126    377.85364   -102490.06    102554.52    96.727618    34.763435 
322496000    295.17143     349.7276    417.84344   -102519.23    102576.63   -68.115838    34.762709 
322500000    262.81537    261.74741    237.20394   -102543.01    102629.84    24.543467    34.754924 
322504000    281.95699    458.28185    383.83203   -102574.35    102665.21    74.449822    34.760928 
322508000    256.55878    247.21582    358.06785   -102582.73    102688.84   -110.85202    34.766067 
322512000    300.90973    719.73166    230.67983   -102648.49    102706.88    489.05183    34.773802 
322516000    279.67982    226.50238    311.37577    -102645.5    102706.87   -84.873393    34.778318 
322520000    269.37296     338.0286    334.91067   -102677.52    102746.81    3.1179333    34.776798 
322524000    284.21748    621.34409    342.73194   -102708.72     102780.6    278.61215    34.775658 
322528000    287.32655    475.38469    383.26867   -102709.75    102794.79    92.116025    34.774307 
322532000    302.66318    307.02159    271.36772   -102755.86    102814.26    35.653875     34.77757 
322536000    293.56297    323.80771     310.7933   -102799.26       102872    13.014407    34.775279 
322540000    282.71669    247.96489    451.73335      -102833    102893.74   -203.76846    34.776869 
322544000    280.37429    371.32226    281.00537   -102848.29    102915.59    90.316895    34.785371 
322548000    296.80172    385.09183    234.58089   -102872.27    102940.82    150.51094    34.776748 
322552000    257.90507    219.46777    454.09709   -102877.71    102971.59   -234.62932    34.766787 
322556000    296.27581    395.98826    424.71544   -102904.87    102977.49    -28.72718    34.769805 
322560000    270.99311    341.74524     282.2965   -102931.61     103021.7    59.448738    34.771594 
322564000    267.14882    476.96358    270.55012    -102952.5    103039.54    206.41346    34.768656 
322568000     294.6855    382.60443    469.08597   -102987.77     103067.6   -86.481534    34.768771 
322572000    281.67124    469.56417    335.11134    -102980.2    103066.54    134.45283    34.767985 
322576000    246.14571    342.39231    370.02388   -103000.89    103093.02   -27.631574    34.764236 
322580000    295.89275    336.94517    497.35118   -103032.32    103090.75   -160.40601    34.767264 
322584000    265.56151    271.50592    148.40084   -103011.89    103096.46    123.10508     34.76832 
322588000    264.36846    314.82009    264.70455    -103025.3    103117.15     50.11554    34.772724 
322592000    272.63698    387.05896    238.49784   -103014.15    103104.96    148.56112    34.766996 
322596000    289.31884    334.02647    207.37823   -103027.55    103104.02    126.64824    34.764431 
322600000    309.12852    355.27073    428.39077   -103046.25    103102.63   -73.120042    34.761333 
322604000    282.06918    606.75123    142.80593   -103073.24    103138.88    463.94531    34.766963 
322608000    280.39691    262.68225    191.96545   -103099.71    103162.67    70.716809    34.763012 
322612000    309.81165    406.69243    255.05376   -103123.75    103191.34    151.63867    34.770529 
322616000    261.01932    329.82495    200.42714   -103114.21    103196.37    129.39781    34.775468 
322620000    309.27814    225.71382    254.41124   -103161.28    103217.18   -28.697417    34.774657 
322624000    281.86366    310.31223    213.19852    -103193.7    103265.68    97.113717    34.777725 
322628000    258.80157    198.81525    310.06206   -103200.12    103282.31   -111.24681    34.777673 
322632000    294.23566    511.89062    217.02896   -103271.52    103335.44    294.86166    34.778471 
322636000    305.98859    376.36547    417.29297   -103313.85    103361.85   -40.927498    34.782492 
322640000    277.74794    609.72321    334.40916   -103323.67    103386.34    275.31405    34.776863 
322644000    283.72684    424.82353    142.43373   -103330.68    103401.75     282.3898    34.771965 
322648000    276.71515    393.84614    336.70975   -103354.84    103443.42    57.136391    34.759652 
322652000    297.24871    413.20097    213.34057   -103397.69    103444.12     199.8604    34.763832 
322656000    315.85013     322.3544    318.12291   -103403.49    103462.86    4.2314864    34.758564 
322660000    279.71593    377.64083     199.7093   -103430.02    103495.51    177.93153    34.759621 
322664000    301.27606    432.46672    255.21259   -103448.14    103521.33    177.25413    34.756506 
322668000    275.64856    327.07414     443.3053   -103472.56    103563.11   -116.23116    34.761665 
322672000    282.23621    570.36427    414.16301   -103533.49    103600.64    156.20126    34.765265 
322676000    279.05591     415.1965    473.06219   -103566.06    103649.09    -57.86569    34.765005 
322680000    294.14856    276.76679     625.6675   -103599.34    103691.39   -348.90071    34.762811 
322684000     299.6937    485.03982    294.03619   -103642.43    103698.92    191.00363    34.764723 
322688000     310.9222     488.0392     227.5814   -103700.13    103747.77     260.4578    34.768491 
322692000    274.00797    330.95727    356.40013   -103705.01       103793   -25.442862    34.767393 
322696000     290.6356    171.75431    270.52736   -103737.91     103802.1    -98.77305    34.767532 
322700000    289.31199    259.73395    449.47435   -103751.53    103826.01    -189.7404    34.761007 
322704000    279.61783    533.34011    384.21314    -103758.8    103822.34    149.12696    34.755829 
322708000    260.68404    426.22091    470.84776    -103761.4    103833.27   -44.626854    34.757702 
322712000    277.28598    304.66497    353.87589      -103785    103855.28   -49.210916     34.76543 
322716000    256.30601    275.93597    268.53577    -103787.7    103892.03    7.4002017     34.76839 
322720000    281.62507    322.95733    396.52716    -103828.5    103910.12   -73.569831    34.772805 
322724000    273.70583    318.05424    375.01298   -103843.43    103922.67   -56.958739    34.774469 
322728000    292.41497    360.31532    417.91707   -103900.53    103956.65   -57.601751    34.773784 
322732000    298.30059    428.08435    373.37072   -103900.31    103969.73    54.713637    34.778372 
322736000    251.18956    282.29008     155.9443    -103902.6    104001.49    126.34579    34.777014 
322740000    300.06311    469.42522    272.44174   -103920.76    103985.46    196.98348    34.776816 
322744000    275.60964    248.93627    419.08853    -103935.9    104017.99   -170.15226     34.77801 
322748000    278.01969    521.78023    341.11928   -103947.34    104025.12    180.66095    34.779495 
322752000    272.15511     189.1752    272.58788   -103964.04    104050.54   -83.412679    34.774494 
322756000    321.77346    450.09907    534.57399   -104017.94     104059.3   -84.474925    34.777234 
322760000    270.42615    418.83678    301.76265   -104023.32     104102.7    117.07413    34.775302 
322764000    258.63562    288.25037    260.81476   -104031.16    104129.29    27.435607     34.78039 
322768000     300.9133      640.776    359.97269   -104068.03    104149.17    280.80332    34.777124 
322772000    282.02037    263.14831    240.85889   -104080.91    104164.53    22.289423    34.774315 
322776000    293.57184    442.20725    367.12882   -104132.09    104206.37    75.078434    34.768639 
322780000    262.90969    267.44778    424.27673   -104157.83    104221.44   -156.82895    34.768256 
322784000    267.02636    456.66185      265.652   -104175.57    104256.24    191.00985    34.772706 
322788000    267.54598    337.15498     379.1705   -104199.13    104285.82   -42.015524     34.76948 
322792000    287.97347    349.72007    262.72007   -104224.07    104300.97    87.000003    34.770146 
322796000     268.8254    283.68358    413.11216   -104243.45    104358.83   -129.42857    34.770452 
322800000    280.48102    427.56652    268.24703   -104285.24    104367.87     159.3195       34.775 
322804000    291.41294     316.5219    185.38123   -104320.82    104381.19    131.14068    34.768945 
322808000    270.78504    393.30353    369.55421   -104333.43    104407.09    23.749324     34.77014 
322812000    270.41577    365.89593    400.05554   -104339.56     104431.1    -34.15961    34.769852 
322816000    259.85354    310.84941       350.06   -104349.05    104419.14   -39.210587    34.773682 
322820000      295.281    472.25744    545.54062   -104381.33    104441.87   -73.283182    34.774513 
322824000     291.3413    184.28265     319.2545   -104402.21    104447.96   -134.97185    34.774441 
322828000      318.002    608.66523    290.80098   -104422.43    104443.75    317.86425    34.781698 
322832000    294.99097    724.28612    250.43108   -104414.74    104472.44    473.85504     34.78048 
322836000    278.57937    301.27727    293.15408   -104430.93     104511.1     8.123194     34.78136 
322840000    275.64678     398.3003    504.23373   -104458.76     104540.9   -105.93343    34.778675 
322844000    295.00897    450.68672    335.70957    -104466.1    104519.13    114.97715    34.776996 
322848000    258.15316    270.91534    450.67116   -104455.28    104541.47   -179.75582    34.770442 
322852000    269.69761    323.40261    326.60255   -104474.55    104550.69   -3.1999385    34.770266 
322856000    285.69981    330.52261    241.88704   -104501.79     104568.2    88.635574    34.767285 
322860000    271.26286    183.73002    251.04719   -104542.87    104603.24   -67.317169    34.769839 
322864000    299.96083    434.98741    335.96909   -104551.63    104611.88    99.018316    34.778386 
322868000    267.83414    303.89903    245.70393   -104540.19    104610.28    58.195104    34.778232 
322872000    257.37168    503.88847    341.21428   -104553.21    104637.71    162.67418    34.775112 
322876000    256.94579     350.6389     200.9138   -104574.97     104661.9     149.7251    34.774853 
322880000    266.72565    301.95617    228.42921   -104608.43    104703.58    73.526962    34.780095 
322884000    329.31465    512.05605    348.62246   -104649.24    104691.46    163.43359    34.784475 
322888000    297.24003    392.34963    359.62847   -104662.47    104747.23    32.721161    34.780839 
322892000    256.02039    300.22212    299.66279   -104660.32     104764.8     0.559338     34.78206 
322896000    272.57822    406.25383    375.42134   -104690.46    104777.41    30.832494    34.781618 
322900000    274.36849    176.61321    373.77212   -104702.44    104794.82   -197.15891    34.776402 
322904000    295.99638    210.63954    318.57104   -104724.62    104790.43    -107.9315    34.774837 
322908000    298.36259    276.81953     351.3587   -104763.44    104827.32   -74.539172    34.773635 
322912000     305.9478     536.5637    323.94865    -104799.7    104862.14    212.61504    34.780047 
322916000    315.57518    293.25127    426.17178   -104822.31    104893.45    -132.9205    34.777319 
322920000    295.31617    241.97202    409.41155   -104847.39    104915.95   -167.43953    34.778024 
322924000    280.16966    432.03545    247.04031    -104859.9    104947.46    184.99514    34.775464 
322928000    276.57832    355.45646    435.89928   -104898.95    104984.97   -80.442816    34.776737 
322932000    263.10872    321.09938    250.45827    -104925.1    105006.43    70.641111     34.78246 
322936000    281.52576    420.58368    114.24845   -104979.55     105044.6    306.33523    34.787284 
322940000    278.68427    305.21887    669.82306   -104999.33    105078.34   -364.60419    34.783626 
322944000    269.96435     456.5993    569.07227   -105016.68    105085.61   -112.47297    34.786014 
322948000    312.66807    249.95169    280.85628   -105045.54    105106.95    -30.90459    34.788575 
322952000    282.76114    204.32801    299.28722   -105070.05    105153.61   -94.959212    34.789244 
322956000    253.34783    267.91751    376.57509   -105059.84    105179.06   -108.65758     34.79053 
322960000    276.59618    321.69889    243.20866   -105117.67    105220.71    78.490233    34.791808 
322964000    284.79322    198.22802    463.83676   -105167.89    105240.25   -265.60873    34.789319 
322968000    282.58291    353.57004    369.24977   -105189.36    105267.97   -15.679733     34.78497 
322972000     283.4156    366.46104    328.61932    -105222.2     105288.8    37.841721    34.793245 
322976000    285.68217    411.64986     381.0283   -105236.71    105294.03     30.62156    34.794512 
322980000    287.57217    388.33419    372.91092      -105240    105298.75    15.423276    34.789442 
322984000    272.63659    286.68245    288.11695   -105246.93       105330   -1.4344959    34.786416 
322988000    261.37582     284.1428    504.82228   -105252.32    105348.74   -220.67948    34.789042 
322992000    268.91457    346.80229    160.30828    -105269.4    105334.94    186.49401    34.790421 
322996000    309.66999    419.54681    414.82707   -105272.07    105347.43    4.7197439    34.787088 
323000000    281.29496    300.98908    331.11783   -105290.13    105356.96    -30.12875     34.78847 
323004000    271.95064    368.79026    301.83158   -105314.68     105392.2    66.958678    34.784816 
323008000    302.55669    272.06047    308.33298    -105341.8    105420.44   -36.272508    34.791694 
323012000    307.66115     347.8079    452.32924   -105364.52    105434.17   -104.52133    34.793044 
323016000    282.58743    334.90958    314.06669   -105384.01    105464.44    20.842896    34.794841 
323020000    251.32502    242.76586    346.30155   -105398.63    105499.18    -103.5357     34.79661 
323024000    296.19427    417.63857    437.76907   -105420.12    105497.21     -20.1305    34.803489 
323028000    253.32538     332.1603    297.56888   -105452.47    105563.55    34.591424    34.798693 
323032000    279.19822    427.43058     287.6563   -105522.75     105605.4    139.77429    34.798705 
323036000     275.3812    273.25844    355.57355   -105521.94    105612.19   -82.315109    34.799222 
323040000    260.56126    389.96252    550.92667   -105540.11    105625.52   -160.96415    34.791956 
323044000     283.9924    377.21564    298.93321   -105559.49    105638.89    78.282427    34.789842 
323048000     306.6596    335.66252    295.49998    -105580.3    105653.28    40.162542    34.798306 
323052000    292.11796    466.33537    437.10182    -105620.4    105683.35    29.233548    34.795374 
323056000    303.62241    406.93948    391.74687   -105643.28    105718.85    15.192611    34.784198 
323060000    281.75058    178.07422    203.45668   -105682.05       105742   -25.382466    34.789219 
323064000    278.93758    319.00409    317.55086   -105696.05    105775.16    1.4532307    34.795026 
323068000    320.29942    433.51984    349.98776   -105716.41    105774.85    83.532083    34.794739 
323072000    295.36703    276.19716    207.12671   -105720.02    105775.61    69.070453    34.793139 
323076000    291.32653    253.25529    267.05463   -105740.35    105806.87   -13.799334    34.792428 
323080000    280.90751    497.28038     188.1165   -105761.48    105848.14    309.16388    34.797757 
323084000    253.67078      284.938    347.53392      -105785    105882.48   -62.595912    34.788882 
323088000    296.62847    410.19022     376.0966   -105847.73    105909.98     34.09362    34.790783 
323092000    268.37101    249.14312     262.7336    -105858.1    105936.78   -13.590485    34.795769 
323096000     266.1266    315.67263    363.45181   -105862.51    105949.72   -47.779182    34.794327 
323100000    275.45557    216.00403    278.03616   -105908.11    105973.46   -62.032126    34.794583 
323104000    320.50712    318.76289    194.32884   -105922.59    105972.54    124.43406    34.807376 
323108000    280.12999    518.68295    290.34449   -105945.19    106025.87    228.33846    34.801148 
323112000    270.20857    350.03643    362.72058   -105950.77    106047.22   -12.684152    34.793805 
323116000     300.2644    512.08766    184.81237   -105979.07    106042.26    327.27528    34.794678 
323120000    276.75321    355.71166     421.8637   -105993.14    106062.26   -66.152039    34.794492 
323124000    266.62501    309.97599    434.07619   -106023.46    106104.65    -124.1002     34.79375 
323128000    298.47869    571.41389     150.4735   -106048.36    106109.51    420.94039    34.795509 
323132000    306.31099    324.34121    431.23434   -106068.16    106116.42   -106.89314    34.798908 
323136000    284.55547    578.56864    499.22673   -106092.59    106165.54    79.341907    34.801978 
323140000    269.42172    370.23676    264.27332   -106108.95    106191.58    105.96343    34.791391 
323144000    251.18244    274.01665    335.69508   -106118.82    106218.24   -61.678438    34.789569 
323148000    279.64177    421.76835    295.07577   -106139.07    106222.17    126.69259     34.78957 
323152000    306.91117      494.644     418.7465   -106180.53    106243.81    75.897503    34.785366 
323156000    241.99809    195.93784    409.58281   -106181.57       106269   -213.64497    34.783044 
323160000    269.20943    410.67874    307.86967   -106202.19    106274.48    102.80907    34.783514 
323164000    277.33854    270.39651    210.87833   -106230.81    106297.68    59.518183    34.776902 
323168000    259.01856    393.58229    216.61141   -106259.55    106329.49    176.97089    34.778872 
323172000    282.30346     359.7353    297.85113   -106269.74    106354.42    61.884171    34.786048 
323176000    276.40436    455.28437    311.73585   -106302.22    106361.43    143.54851    34.784095 
323180000    269.68773    224.59955    440.03806   -106292.67    106381.01    -215.4385    34.779988 
323184000    279.14526    341.31689    330.20878   -106328.38    106417.68    11.108106    34.780354 
323188000    330.02712    453.15814    571.59509   -106363.07    106404.31   -118.43695    34.788243 
323192000    302.81459    273.49613    234.67404   -106348.42    106419.14    38.822087    34.794583 
323196000     296.9098    457.55371    254.52602   -106350.47    106413.09     203.0277    34.798578 
323200000    297.52879     287.9385    335.92855   -106348.82    106403.69   -47.990046    34.804444 
323204000    304.40301    314.92413    140.11877      -106347    106402.53    174.80536    34.818502 
323208000    289.00657    352.53905    233.49195   -106393.57    106456.66     119.0471     34.82389 
323212000    312.76467    658.35942    259.59795    -106413.5    106471.09    398.76147    34.821398 
323216000    299.65893    205.69355    348.76206   -106425.93    106495.11   -143.06851    34.816049 
323220000    258.90165    218.73526    291.68903   -106444.43    106529.07   -72.953775    34.819545 
323224000    274.67939    412.57513    404.69394   -106450.91       106549    7.8811883    34.826783 
323228000    278.22179    359.39852    388.66361   -106450.67    106537.27   -29.265086    34.821759 
323232000     262.0923    414.02683    249.80683   -106457.74     106538.6    164.21999    34.832722 
323236000     267.3756    136.53199    436.51696   -106481.29    106561.37   -299.98497    34.828309 
323240000    295.66861    262.02039    327.70545    -106490.8     106560.9    -65.68506    34.823861 
323244000     288.3727    521.64483    196.93294   -106508.11    106573.74    324.71189    34.821311 
323248000    286.09449    464.22614    460.73669   -106510.76    106589.28    3.4894482    34.823329 
323252000    279.65184    359.20446    256.96343   -106543.03       106616    102.24103    34.827034 
323256000    292.41083    260.65603    286.44076   -106562.93    106641.88   -25.784725    34.831693 
323260000    276.05043    343.12821    158.20515   -106599.33    106667.08    184.92306     34.83381 
323264000    274.05075    247.42233    243.13826   -106595.52    106675.28     4.284072    34.834977 
323268000    281.43858    349.62101    307.48292   -106592.27    106674.06    42.138084    34.836917 
323272000    286.24952    299.64166    340.32146   -106590.21    106668.44   -40.679809    34.830267 
323276000    310.22936    525.96506    383.21366   -106610.72    106695.11     142.7514    34.830573 
323280000    268.13772    405.24034    432.89982   -106634.84    106721.54   -27.659479    34.833758 
323284000    257.66799     221.5877    306.10597   -106658.85    106756.87   -84.518268    34.833319 
323288000    266.53472    267.13448    277.54009   -106671.96    106754.94   -10.405611    34.837991 
323292000    276.35181    274.70502    303.15141    -106700.7    106796.73   -28.446388    34.833454 
323296000    287.51013    311.79364    693.41178   -106744.27    106813.72   -381.61814    34.830548 
323300000    299.60475    435.23515    424.68121   -106769.51    106828.94    10.553933    34.822553 
323304000    274.95385    336.39629    580.74401   -106775.41    106843.84   -244.34772    34.825619 
323308000    257.16077    395.63889    186.95042   -106784.94    106866.48    208.68846    34.828699 
323312000    292.25131    293.59089    280.83106   -106794.95    106867.95    12.759825     34.83162 
323316000    309.11409    353.84456    369.74442   -106812.37    106880.32   -15.899856    34.834893 
323320000    287.74393    366.96537    648.22595   -106831.81    106902.53   -281.26058    34.832202 
323324000    317.13313    374.76788    333.17296   -106866.76     106920.1    41.594917    34.832533 
323328000    314.74986     263.8324    473.19291   -106909.13    106946.71   -209.36051     34.82944 
323332000    292.10423    308.68941    264.77604   -106914.23    106986.63    43.913376    34.829819 
323336000    295.57522    355.85649    147.56983    -106947.2    107000.83    208.28666    34.844145 
323340000    276.64516    447.30282    495.96352   -106960.87     107030.3   -48.660703    34.840344 
323344000     285.4254    260.54819    388.59991   -106997.63    107066.59   -128.05173    34.853795 
323348000    271.29552    358.12188    432.31999    -107000.1    107086.96   -74.198107    34.860662 
323352000    260.71063    307.04981    366.50648   -106996.21    107106.63    -59.45667    34.851811 
323356000    283.45191    239.13408    253.31045   -107035.26     107109.3   -14.176372    34.853556 
323360000    284.16445    445.72018    273.57207   -107070.41     107137.6    172.14811     34.85895 
323364000    293.11494     197.8772    351.95631   -107079.52    107146.97   -154.07912    34.855577 
323368000    269.47636    227.14268    206.06459   -107099.04     107171.1    21.078092    34.861129 
323372000    273.33675    310.10004    166.69896   -107109.47    107190.64    143.40107    34.854311 
323376000    287.66788    260.05587    488.82451    -107147.6     107208.3   -228.76864    34.858518 
323380000    286.45801    247.61914    221.54695   -107151.08    107221.84    26.072189    34.866292 
323384000    300.79481    370.55133    374.13785    -107168.3    107228.82   -3.5865112     34.86354 
323388000    289.47577    301.11714    233.95884   -107198.03    107267.21    67.158298    34.872743 
323392000    290.13995    372.39597    293.33144   -107224.97    107295.51    79.064528    34.877101 
323396000    272.70414    369.69467    300.82083   -107257.62    107335.17    68.873845    34.881481 
323400000    305.31464    367.61468    447.90239   -107270.19    107329.06   -80.287716    34.890826 
323404000    280.42018    437.31367     285.8975   -107291.41    107357.09    151.41617    34.887953 
323408000    273.57689    344.82863    426.51987   -107303.54     107387.7   -81.691239    34.894426 
323412000    253.78523    263.15961    396.82822   -107325.22     107430.5   -133.66861    34.899424 
323416000    273.58781    386.12283    348.87285   -107343.37    107419.43    37.249974    34.900283 
323420000    267.95733     418.4354     246.1406   -107369.67    107458.16    172.29479     34.90744 
323424000     267.9427    258.97766    296.77366   -107364.93    107465.59   -37.795996    34.906846 
323428000    259.97475    447.72732    255.37547   -107415.02    107494.13    192.35185    34.905174 
323432000    287.01032    297.63788    230.54655   -107454.38    107532.27    67.091338    34.906286 
323436000    262.10431    295.64032    301.84576   -107459.33     107557.6   -6.2054396    34.909712 
323440000    306.90104    273.12119    388.89176   -107492.02    107567.76   -115.77057    34.910414 
323444000    280.22385    254.15461    422.44816    -107497.2    107583.48   -168.29355    34.913468 
323448000    271.24007    169.90321    397.18499   -107526.38    107607.82   -227.28178    34.911899 
323452000    267.23099    311.72872    335.54928   -107524.22    107623.28   -23.820564    34.912244 
323456000    270.19906     472.8761    235.39617      -107546     107626.8    237.47992     34.91697 
323460000    283.63443    361.93484    347.27237   -107574.05    107652.25    14.662476    34.912124 
323464000    276.15595    226.07438    266.03027   -107562.17    107647.55   -39.955887    34.914699 
323468000    255.79166    224.64894    238.68158   -107579.93    107671.75   -14.032636    34.919174 
323472000     286.5607    403.12645    161.55125   -107626.88    107681.97     241.5752    34.908084 
323476000    280.22568    278.56159    421.97431   -107646.68    107713.89   -143.41272    34.905632 
323480000    301.80588    349.87063    262.84613   -107658.09    107726.35    87.024499    34.899941 
323484000    289.67111    369.22129    365.64303   -107662.97    107747.11    3.5782555    34.891855 
323488000    245.71353    279.82896    175.84701   -107675.93    107767.97    103.98196    34.893869 
323492000    283.99798     371.6841    228.76158   -107697.35    107776.01    142.92251     34.89079 
323496000    294.55828    463.76408    197.89946   -107718.05    107793.16    265.86463    34.892077 
323500000    292.04904     413.2543    293.83728   -107733.36    107812.61    119.41702    34.895368 
323504000    266.29003    343.64192    379.78556   -107751.23     107845.6   -36.143643    34.889736 
323508000    299.12309    346.58577    475.31779   -107784.82    107848.15   -128.73201    34.887017 
323512000    272.36029     514.6405    300.79037   -107784.44    107866.16    213.85013    34.884985 
323516000    257.79253    304.56348    377.14214   -107802.16    107896.64   -72.578666    34.882402 
323520000    279.50477     282.1396     290.9595   -107834.29    107912.08   -8.8198945    34.882343 
323524000    291.90005    314.75625     264.3621   -107854.15    107941.13    50.394153    34.877664 
323528000     274.6824    298.75613     497.3868   -107857.97    107952.74   -198.63067    34.874694 
323532000    254.34016    201.21754    356.50937   -107905.22    107993.37   -155.29183    34.873179 
323536000    271.67779    506.27335    397.86157   -107931.33    108007.34    108.41177    34.871597 
323540000    293.26889    414.91975    281.00802   -107942.59    108022.79    133.91173    34.873981 
323544000    309.31321    385.47373    447.68708    -107968.3     108030.8   -62.213353    34.865791 
323548000    281.74043    374.17376    367.53662    -107965.8    108053.67    6.6371377    34.864968 
323552000    302.68207    487.76291      348.812   -108019.31    108096.16    138.95091    34.857227 
323556000    317.44136    447.53997     454.1535   -108039.45    108092.72   -6.6135273    34.857214 
323560000    287.15694    435.83187    385.46192   -108070.78    108147.41    50.369951    34.862647 
323564000    280.86437    422.72735    350.47416   -108091.07     108168.1    72.253189    34.865147 
323568000    291.99172    402.68258    278.14202   -108113.63    108170.87    124.54056    34.863697 
323572000    282.52596    486.58737    367.80795   -108146.94    108202.77    118.77942    34.864329 
323576000    277.40026    374.17938    243.85511   -108136.92    108209.69    130.32427    34.862593 
323580000    287.51804    232.95219    472.73514      -108158    108226.18   -239.78295    34.863307 
323584000    264.79791    302.57079    303.52199   -108166.91    108238.13   -0.9512048    34.864815 
323588000     257.8139    424.26428    166.30795   -108139.97     108243.9    257.95633    34.864315 
323592000    310.54742    305.25976     432.5337   -108205.42    108272.82   -127.27393    34.863407 
323596000    266.54905    282.66736    328.93201    -108209.2    108310.94   -46.264655    34.869953 
323600000    270.65291    279.86859    341.95575   -108239.79     108327.2   -62.087161    34.874268 
323604000    294.16802    349.29331    355.76916    -108242.8    108330.49   -6.4758471    34.877632 
323608000    309.36295    321.25133    441.22624   -108282.65    108338.63   -119.97491    34.874791 
323612000    311.68894    517.74112    259.01599   -108327.88       108383    258.72512    34.877472 
323616000    263.03988    462.41225    356.31936   -108327.14    108423.02    106.09289    34.881704 
323620000    238.25635    575.12584     523.6395   -108357.36    108453.72    51.486347    34.875809 
323624000    278.24108    463.00077    321.95568   -108390.75    108485.66    141.04509    34.874133 
323628000    280.75976    367.44756    258.52721   -108429.09     108506.3    108.92035    34.881702 
323632000    254.67419    403.04545    362.05037   -108438.83    108538.99    40.995074    34.878706 
323636000    287.03759    422.93686    251.00321   -108482.45    108565.02    171.93365    34.884645 
323640000    261.87339    283.85903    341.16091   -108490.27    108585.26   -57.301879    34.878453 
323644000     272.3603    250.14691    306.32842   -108529.07    108596.15   -56.181513    34.873892 
323648000    268.12783    413.06354    247.44255   -108555.38    108630.59      165.621    34.868041 
323652000     284.1884    246.29072    350.53732   -108592.15    108661.24   -104.24659    34.862522 
323656000    291.30394     419.4981    282.19464   -108622.83     108690.3    137.30346    34.861269 
323660000    298.31515    279.39504    399.62545   -108614.19    108700.56   -120.23041    34.857549 
323664000    317.15651    242.57334    279.69681   -108618.52    108671.28   -37.123475    34.853816 
323668000    275.42736    401.16343    320.45736   -108615.83     108706.9    80.706068    34.852479 
323672000    260.48807    368.97621    398.65864   -108638.46    108734.45   -29.682431    34.851355 
323676000    282.72767    297.53943     423.2947   -108669.22    108746.13   -125.75526    34.852917 
323680000    285.90082    368.19368    243.35274   -108708.01    108779.61    124.84094    34.855939 
323684000    268.14909    437.81963    477.20443   -108738.05    108825.21   -39.384802    34.854213 
323688000    281.07926    309.59617    247.97801   -108765.52    108849.47    61.618165    34.852691 
323692000    301.47796    229.03181    296.32887    -108787.4    108868.34   -67.297061    34.849492 
323696000    305.75908    441.27756     419.3924   -108819.46    108892.53    21.885162     34.85414 
323700000    288.88725    256.07322    429.93401   -108854.83    108929.07   -173.86079    34.854067 
323704000    287.87592    253.72592    483.51308   -108876.32    108963.96   -229.78716    34.849269 
323708000    259.61526    303.47573    269.98387   -108879.96     108972.7    33.491857    34.843522 
323712000    280.71099    519.66313    312.05315   -108906.97     108984.6    207.60997    34.841392 
323716000    279.93764    310.94676    192.24667   -108927.99    109013.35    118.70009    34.849531 
323720000    288.72923    345.53417    364.89513   -108957.07    109029.59   -19.360957    34.850951 
323724000    305.36503    260.76497    592.77401   -108990.04    109059.85   -332.00904    34.848775 
323728000    285.21446    371.78123    360.58126   -109044.89    109109.12    11.199972    34.854541 
323732000    266.77079    285.32317    508.79262    -109060.9    109140.95   -223.46945    34.852479 
323736000    260.27199    346.64266    238.48532   -109088.63    109173.85    108.15734    34.865342 
323740000    261.17065    347.07426    254.27937   -109082.17       109177    92.794888    34.869148 
323744000    290.48056    426.56177    378.79791   -109117.52    109190.06    47.763862    34.878864 
323748000    289.17834    344.63482    403.98733   -109136.82    109214.35    -59.35251    34.877605 
323752000    284.93591    521.84034    457.13304   -109134.07     109221.5    64.707297    34.878177 
323756000    292.82706    503.65104    498.02219   -109180.74    109258.06    5.6288531    34.879894 
323760000    296.63506     392.1895    474.03699   -109203.69    109283.53   -81.847492    34.879454 
323764000    282.80914    326.93791    366.31911   -109229.24    109289.84   -39.381199    34.875216 
323768000    282.30877    298.60255    404.02111   -109217.69    109306.07   -105.41855    34.883282 
323772000     293.2013    336.81928    475.61431   -109214.19    109288.42   -138.79503    34.881968 
323776000    297.51782    476.28048    304.65828   -109189.19    109256.99     171.6222    34.875404 
323780000    338.24546    376.45469    309.98763   -109222.73    109266.13     66.46706    34.872849 
323784000    267.95003    447.86648    261.69186   -109202.12    109297.36    186.17462    34.870385 
323788000    296.82641    212.23692    309.32655   -109237.29    109293.11   -97.089624    34.864542 
323792000    309.12633    415.12411     345.9681   -109243.26    109310.98    69.156006     34.86493 
323796000    266.65539    371.45661     210.3867   -109251.66    109339.26    161.06991    34.861853 
323800000    284.18391    344.46748    372.16527   -109266.54    109338.75   -27.697791    34.862913 
323804000    300.98278    243.15953    416.38479   -109293.61    109362.38   -173.22526    34.863903 
323808000    320.07746     234.2539    519.36442   -109315.14    109366.54   -285.11052    34.852991 
323812000     305.8906    416.06136     270.3646   -109329.92    109391.86    145.69675    34.846806 
323816000    299.65881    423.22043    379.32909   -109358.14    109423.98    43.891345      34.8413 
323820000    260.35403    179.04257    317.81867   -109380.09    109457.89    -138.7761    34.841569 
323824000    285.48953    280.53406    325.72988   -109421.08    109498.11   -45.195814    34.838511 
323828000    303.95491     302.7192    359.76916   -109423.73     109513.6   -57.049959     34.82983 
323832000    283.23161    444.34355    296.09588   -109429.96    109507.85    148.24768    34.833529 
323836000     270.8753    482.02362    172.64687    -109468.6    109541.25    309.37675     34.83877 
323840000    288.10925    298.49697     294.6247   -109476.79    109562.67    3.8722739    34.837779 
323844000    300.49931    313.56262    275.64533   -109507.02    109558.66    37.917289    34.835523 
323848000    270.72723    430.59207    182.75897   -109497.16    109606.17     247.8331    34.833957 
323852000    269.26148     314.6248    255.93958   -109510.36    109611.63    58.685216     34.83889 
323856000    274.61543    286.43309    230.61745   -109543.35    109625.02    55.815644    34.837697 
323860000    300.49346    343.04612     516.6359   -109546.17    109614.75   -173.58979    34.831291 
323864000    294.10732    530.14679    409.99038   -109611.69    109660.01     120.1564    34.841826 
323868000    314.96824    306.25914    380.56475   -109635.01    109695.66   -74.305604    34.830467 
323872000    308.52958    530.74502    393.66911   -109659.61    109712.48     137.0759    34.835902 
323876000    273.88742    388.37497    298.62062   -109646.22    109746.46    89.754348    34.834503 
323880000    290.68815    300.14719    396.84018   -109664.62    109735.28   -96.692983    34.835614 
323884000    278.01453    560.77548    229.99804   -109680.36    109741.31    330.77744    34.831989 
323888000    296.20311    560.33749    156.88622   -109691.57    109775.45    403.45127    34.838607 
323892000    303.78974    549.52853    426.08693    -109712.8    109775.15     123.4416    34.839534 
323896000    290.87689    391.90547    572.98818   -109754.61    109821.53   -181.08271     34.83229 
323900000     299.5585    513.24764    360.02182   -109787.86    109861.47    153.22582    34.831537 
323904000    261.75303    457.01806    226.93464   -109792.84    109883.24    230.08342      34.8372 
323908000    296.27285    315.93482    318.92375   -109819.99    109890.69   -2.9889368    34.831871 
323912000    332.72183    417.36049    375.60765   -109860.69    109913.93    41.752841    34.835973 
323916000    283.58781    498.23377    349.60392   -109873.13       109942    148.62985    34.835859 
323920000    286.40147    446.15147    355.57673   -109901.84    109970.09    90.574736    34.833029 
323924000    277.66199    298.75391    300.62367   -109935.21    110009.24   -1.8697644    34.835209 
323928000    276.51515    301.46964    256.17297   -109955.95    110051.27    45.296674    34.831665 
323932000    284.42229    536.10284    348.09843   -109976.12    110060.16    188.00442    34.822613 
323936000    279.34839    298.07633    293.99515   -109988.21    110070.85    4.0811805    34.822778 
323940000    305.68657    451.99389    396.63087    -110004.9    110078.88     55.36302       34.827 
323944000     288.4597    266.02969    424.26175   -110030.53    110110.21   -158.23206     34.82405 
323948000    253.06251    351.25531    301.57648   -110043.46    110144.91    49.678832    34.823446 
323952000    300.07274    265.41228    274.90166   -110080.17    110159.25   -9.4893778     34.82831 
323956000    285.88976    319.53987    317.92653   -110113.15    110183.94    1.6133435    34.819385 
323960000     294.2812    297.57998    598.15337   -110135.23    110207.64   -300.57339    34.819336 
323964000    292.66103    302.72763    465.54164   -110169.04    110232.39   -162.81401    34.815866 
323968000    271.95054    294.33254    412.12132   -110175.97     110278.4   -117.78879    34.804613 
323972000    283.86949    526.24008    371.55742   -110210.37    110290.23    154.68266    34.801312 
323976000    282.16939    372.69349    279.58675   -110228.85    110303.04    93.106738    34.802214 
323980000    279.28724    311.68963    308.64575   -110248.11    110343.79    3.0438787    34.806421 
323984000    276.86019    361.47979    303.73128   -110283.75    110371.97    57.748508    34.806718 
323988000    268.08927    265.33221    328.37103   -110325.95    110410.11   -63.038812    34.807496 
323992000    296.03754    359.01411    539.89499   -110350.16    110419.84   -180.88088    34.816567 
323996000    284.91317     348.0349    385.55001   -110363.08    110429.25    -37.51511    34.825925 
324000000    282.01102    321.24375    235.01768   -110386.73    110452.94     86.22607    34.820855 
324004000    267.67697    235.33449     256.3901   -110396.12    110493.24   -21.055616    34.819759 
324008000     290.1077    199.16272    349.30295   -110423.41    110499.38   -150.14022     34.80718 
324012000    293.78735    375.30558    339.67765   -110441.86    110516.29    35.627932    34.814978 
324016000     278.2792    509.97816    301.77661   -110456.58    110532.96    208.20155    34.809236 
324020000    264.86872    381.74562    232.78906   -110498.49    110589.74    148.95656    34.803381 
324024000    288.08269    312.36419    381.58301   -110537.94    110609.61   -69.218821    34.807534 
324028000    268.74422    359.85729    116.79852   -110544.78    110654.46    243.05877    34.807498 
324032000    273.11151    287.04103    450.63153   -110551.15     110637.8   -163.59049    34.810224 
324036000    287.96817    428.17394    344.03233   -110603.57    110675.96    84.141611    34.813048 
324040000    288.61879    332.04483    334.51935   -110620.07    110711.53   -2.4745272     34.81637 
324044000    273.38621    396.53339    162.99091   -110668.43    110758.92    233.54248    34.813837 
324048000    265.51576    411.40614    208.55708   -110684.19    110776.65    202.84906    34.810927 
324052000    285.40313    387.36829    423.37846   -110715.02    110798.54   -36.010175    34.810306 
324056000    291.89704    399.42702    314.98042   -110737.65    110811.24    84.446598    34.808226 
324060000    302.27881    484.82061    245.12767   -110777.06    110833.37    239.69294    34.810053 
324064000    289.29255     221.2048    354.70512   -110767.28    110857.22   -133.50032    34.814209 
324068000    313.56266    477.73443    203.46705   -110801.21    110884.72    274.26738    34.822937 
324072000    266.62099    232.58831     400.4222   -110805.08    110891.47   -167.83388    34.824165 
324076000    267.20487    404.58609    223.24196   -110809.65    110914.82    181.34413    34.829813 
324080000    277.46325    328.95094    356.80004   -110840.97    110926.19   -27.849101    34.835219 
324084000    257.04609    340.77766    390.17145   -110868.37     110975.8   -49.393788    34.834904 
324088000    318.20739    351.69907    417.62472   -110889.58    110956.13   -65.925657    34.835247 
324092000     284.2234    389.12985     299.7722      -110898     110993.4    89.357655    34.836974 
324096000    294.57845     422.4757    330.98698   -110929.37    111023.38    91.488723    34.831176 
324100000    288.87935    550.15097    339.83733   -110963.52    111048.93    210.31364    34.828652 
324104000    256.76008    350.89146    342.21955   -110968.43    111082.24    8.6719082    34.831459 
324108000    277.50959    271.73414    165.51005    -110996.5    111087.49    106.22409    34.829552 
324112000    293.11051     351.7064     222.2109   -111025.53    111101.49     129.4955    34.829982 
324116000    271.99923     374.4939    281.80104   -111040.85    111120.16    92.692856    34.828134 
324120000    270.47813    644.22238    366.52211   -111050.62    111117.07    277.70027    34.825766 
324124000    275.55522    327.43559    398.43817   -111073.53    111141.86   -71.002588    34.836815 
324128000    291.29542    252.56811     175.3286   -111108.41    111203.84     77.23951    34.836674 
324132000    260.69392    293.21305    280.37221   -111154.74    111248.11     12.84084    34.835225 
324136000    266.97062    359.28776    239.00251   -111166.34     111269.1    120.28524     34.83515 
324140000    285.66981     515.6808    285.23952   -111212.54     111265.7    230.44128    34.847065 
324144000    295.34514    335.83718    526.24071   -111214.89    111297.08   -190.40353    34.838451 
324148000    251.80164    352.24932    385.58325   -111229.92    111324.69   -33.333925     34.83503 
324152000    274.94244    230.84424    242.02179   -111255.78    111350.37   -11.177549     34.83928 
324156000    267.93493    408.19963    350.36956   -111263.48    111371.05     57.83007    34.839781 
324160000    274.48707    188.04918    313.91471   -111268.57    111359.84   -125.86552    34.844539 
324164000    274.29484    460.83044    240.21556    -111296.5    111384.65    220.61489    34.845293 
324168000    296.01455    202.68013    399.34583   -111305.32     111381.5    -196.6657    34.840294 
324172000    298.55724    352.16197    183.01989   -111342.89    111413.12    169.14208    34.842796 
324176000    297.01674    717.59141     280.0684   -111358.91    111440.23    437.52302    34.847041 
324180000    310.52104    657.89856    254.95107   -111372.05     111451.8    402.94749    34.851189 
324184000    311.48934    241.27044    337.28541   -111388.19    111454.32   -96.014968    34.850276 
324188000    279.85169    217.91773     296.5074   -111384.89    111472.95   -78.589671    34.853451 
324192000    258.35978    421.87229     381.9988    -111416.5    111504.75     39.87349    34.853885 
324196000    307.18379    285.41036    504.33426   -111428.84    111512.27   -218.92391    34.848756 
324200000      291.687    410.46698    260.82944   -111468.25    111530.19    149.63754    34.847993 
324204000    296.61767    341.41119    424.80349    -111486.6    111559.71   -83.392297    34.847343 
324208000    292.72079    179.52787    239.72836   -111507.67    111589.03   -60.200484    34.849621 
324212000    291.70477    349.69648    328.41885   -111501.07    111564.64    21.277627    34.852596 
324216000    266.29017    184.17572    300.49466   -111490.49    111577.89   -116.31894     34.84804 
324220000    278.62403    513.04272    267.10413   -111519.18    111598.59    245.93859    34.854882 
324224000    273.39914     434.6834    417.47149   -111531.46    111616.04    17.211911    34.856602 
324228000    274.70698    262.19481     413.6566   -111552.52       111632   -151.46178    34.853633 
324232000    275.42957    281.02975    262.50794   -111568.99    111669.45    18.521809     34.84833 
324236000     271.8308    365.76118    357.37388   -111582.12    111665.88       8.3873    34.843666 
324240000    289.65931    373.00985    423.91653    -111606.7     111686.4   -50.906679     34.84733 
324244000    268.86168    333.70518    271.74436   -111631.39    111724.36    61.960824    34.849892 
324248000    276.96573    204.57317    423.94287   -111648.95    111732.68    -219.3697    34.849242 
324252000    277.84909    322.08214    264.23321   -111671.52    111744.08    57.848935    34.849025 
324256000    295.42664    447.60611    261.78966   -111672.18    111748.55    185.81645     34.85464 
324260000    292.80158    454.15467    557.73604   -111707.33    111788.47   -103.58136    34.847885 
324264000    283.57722    355.48971    295.03386   -111724.07    111806.65    60.455854    34.850898 
324268000    251.02751    266.98695    259.81757   -111734.17    111827.59    7.1693754    34.838362 
324272000    273.66952    228.44757     323.6223   -111749.97    111843.33    -95.17473    34.837212 
324276000    252.38752    279.09223    289.83672   -111773.67    111867.36   -10.744493     34.83618 
324280000    290.90162     591.4985    347.87341   -111804.39    111891.33    243.62509    34.828781 
324284000    296.25907    390.42768     322.1941   -111844.02    111909.89    68.233583    34.833937 
324288000    312.14898    258.16662    364.11932   -111880.25    111943.01    -105.9527    34.830584 
324292000    306.71833    286.28328    319.72238   -111929.41    112003.78     -33.4391    34.826081 
324296000    301.50538    330.97302    430.19401   -111966.61    112045.35   -99.220992    34.830223 
324300000    307.76237    443.22806    455.31717   -112001.65    112065.38   -12.089118    34.831034 
324304000    279.82394    312.55642    269.22892   -112053.31    112127.31    43.327495    34.833235 
324308000    289.69997    574.58742    383.16539   -112087.65    112167.46    191.42204    34.837535 
324312000    291.42422    271.16598    438.90769   -112092.92    112179.28   -167.74171    34.841561 
324316000    269.27273    569.19106    202.00863   -112103.56    112201.64    367.18243    34.850271 
324320000    285.54945    219.25524    436.95076   -112150.75    112219.08   -217.69551     34.85552 
324324000    259.12722    230.71173    266.19068   -112166.34    112270.07   -35.478946    34.857239 
324328000    268.59162    301.68696    439.31825   -112185.01    112271.85   -137.63129    34.857523 
324332000    284.93235    342.06098    451.77694   -112202.89    112282.04   -109.71596    34.844606 
324336000    282.67197    268.43553    188.29906   -112238.13    112322.34    80.136467    34.846348 
324340000    288.92328    342.17167    452.96332   -112267.15    112350.63   -110.79165    34.845501 
324344000    290.16018    450.19047    340.35722   -112288.76    112376.74    109.83325    34.837403 
324348000    287.80728      512.335    373.55339    -112318.2    112401.66    138.78161     34.83781 
324352000    327.08929    513.97241    341.83506   -112347.71    112409.15    172.13734    34.840425 
324356000    258.77406    398.96541    214.94214   -112317.99    112412.76    184.02327    34.843786 
324360000    307.66929    475.45389    192.59882   -112339.57    112406.84    282.85506    34.850492 
324364000    282.14723    307.49079     315.5439   -112338.82    112434.81   -8.0531132     34.84693 
324368000    265.45241     647.7794    177.76117   -112367.23    112474.77    470.01823    34.856462 
324372000    304.87655    391.09924    513.54303   -112393.11    112469.49   -122.44379    34.853681 
324376000    304.49942    354.32308    411.04264   -112421.58    112485.12   -56.719565    34.861336 
324380000    274.86779    321.57218    293.73697   -112432.36    112517.81    27.835205    34.862573 
324384000     302.7409    316.19794    388.75129   -112457.28    112528.39   -72.553347    34.854912 
324388000    274.27918    367.39147    479.80276   -112464.88    112532.24   -112.41129    34.852069 
324392000    249.52547    286.45272     173.2372   -112464.52    112572.91    113.21552    34.840913 
324396000    294.99791    517.44918    481.55648   -112491.54    112565.29      35.8927    34.852748 
324400000    272.97134    529.68881    241.47805   -112504.48    112595.54    288.21076    34.856057 
324404000     279.6868    321.21984    298.70161    -112521.1    112613.06    22.518228    34.856097 
324408000    279.40628    525.56874    311.75268   -112543.72    112630.69    213.81607    34.854398 
324412000    278.99516    443.55477    220.06168    -112574.5    112658.96    223.49309    34.857268 
324416000    291.69503    429.90885    263.35171   -112584.85    112665.08    166.55713    34.862667 
324420000    332.57121    336.49998    356.35678   -112604.11    112659.47   -19.856793    34.866728 
324424000    304.87171    380.46723    168.10821   -112625.05    112698.06    212.35902    34.863771 
324428000    306.43962    354.39914    281.78027   -112664.13    112729.66    72.618869     34.86374 
324432000    255.69007    327.07683     338.8972   -112693.85    112789.86   -11.820365    34.868074 
324436000    310.60401     313.0001    351.49166   -112733.13    112816.89   -38.491565    34.871859 
324440000    285.54908    256.71722    258.53084   -112756.77    112836.09   -1.8136206      34.8745 
324444000    291.62364    582.58386    307.02853   -112783.05    112860.99    275.55533    34.877564 
324448000    290.49951    265.66923    243.48489   -112786.43     112873.8    22.184341    34.880352 
324452000    273.51952    288.53135    274.18561   -112789.12    112865.72    14.345747    34.877773 
324456000    274.32566    387.60787    342.35425   -112817.69    112914.19    45.253623    34.875462 
324460000    280.71704    333.36005    398.28981    -112872.2    112953.39   -64.929766    34.872574 
324464000    284.69022    297.66822    433.89479   -112897.69    112981.94   -136.22657    34.877125 
324468000    296.86791    421.09591    356.89199   -112925.85    113001.59    64.203917    34.876307 
324472000    294.95897    329.90849    321.27873   -112950.38    113020.54    8.6297553    34.875658 
324476000    265.02908    349.93197    303.16718   -112991.06    113090.59    46.764793      34.8639 
324480000    298.75593    364.62089    396.81123   -113026.46     113088.4   -32.190343    34.860766 
324484000     303.4895    315.68111    331.80247   -113026.16    113094.48    -16.12136    34.864601 
324488000    295.95445    318.59544    404.20582   -113054.62    113105.15   -85.610379    34.868946 
324492000    271.73579    462.56588    442.25728   -113054.03    113128.86    20.308595    34.868253 
324496000    268.98127    259.26538    294.03804   -113071.84    113160.45   -34.772656    34.873836 
324500000    280.50553    302.60038    352.81003    -113109.7    113177.05   -50.209652    34.867568 
324504000    265.89705    335.62321    379.20207   -113114.99    113198.98   -43.578853    34.866291 
324508000    253.74399    311.29047    379.47229   -113088.44    113194.95   -68.181813    34.859701 
324512000    266.52326    418.88039    377.72824    -113111.1    113213.82    41.152156    34.858347 
324516000    290.20148    364.64929     347.7483   -113131.69     113229.1    16.900988    34.866709 
324520000    307.79848    211.40924    320.56803   -113125.95    113192.36   -109.15879    34.870938 
324524000    286.76761     346.2695    287.85441   -113128.87    113204.46    58.415082    34.875082 
324528000    314.55242    439.22887     343.2382   -113147.75    113229.59    95.990675    34.877419 
324532000    284.47142    213.23273    295.32627   -113130.31    113201.74   -82.093547    34.880832 
324536000    307.52782    329.72693    305.63213   -113163.88    113248.03      24.0948    34.885709 
324540000    308.99246    243.25648    495.51861   -113203.73    113261.25   -252.26213    34.875207 
324544000    282.70769    427.52448    219.06553   -113214.54    113293.42    208.45895     34.87168 
324548000    289.09243    613.03742    174.28479   -113259.38    113330.07    438.75262    34.875217 
324552000    256.97201    305.33794    252.04265   -113258.52    113359.19    53.295288    34.873889 
324556000     281.4982    342.38843    322.95287   -113283.71    113362.47     19.43556    34.881257 
324560000    289.77028     346.8456    282.34182   -113293.66    113382.68     64.50378    34.882894 
324564000    264.96617    291.79039    293.58708   -113298.74    113403.44   -1.7966885    34.884787 
324568000    263.76181    270.90124    467.92402   -113313.13    113412.65   -197.02278    34.883352 
324572000    298.09094    453.64653    286.86616   -113346.48    113433.16    166.78037    34.882731 
324576000    302.42588    454.75528    424.45585   -113387.88     113454.8    30.299434    34.882844 
324580000     269.2085    298.05303    185.15804   -113410.05    113500.63    112.89499    34.884487 
324584000    301.67431    512.38725    275.31887   -113445.09    113521.52    237.06838    34.884516 
324588000    286.58734    502.55835    276.80099    -113450.5     113542.2    225.75736    34.878615 
324592000    297.89557    264.99311    264.54067   -113484.09    113558.03   0.45244368    34.891482 
324596000    283.42552    286.45118    388.87185   -113506.57    113595.86   -102.42068    34.889768 
324600000    309.13378    485.59915     313.4874   -113536.21    113600.07    172.11175    34.884051 
324604000    284.67806    382.50151    208.50937    -113536.9    113595.48    173.99214    34.889534 
324608000     306.0809    674.11516     197.0087   -113572.08    113628.07    477.10646    34.886062 
324612000    295.25513    757.95152    334.25957   -113624.62    113682.16    423.69195     34.88678 
324616000    282.79589    487.67236    403.27375   -113608.36     113704.2    84.398606    34.888345 
324620000     276.7487    387.89204    298.40258   -113629.87    113714.36    89.489456    34.884246 
324624000    304.90405    441.20061    272.04427   -113661.16    113729.93    169.15634    34.885663 
324628000    279.66911    373.77718    408.80864   -113651.04     113749.6   -35.031466    34.889341 
324632000    269.78585    484.80662    242.40792   -113661.35     113767.7    242.39871    34.892323 
324636000    287.41411    461.70117    324.81556   -113668.54     113741.3    136.88561    34.895228 
324640000    265.19352    374.32697     214.1565    -113679.7     113779.2    160.17047    34.891639 
324644000    267.44053    384.53326     300.3825   -113708.15    113804.68    84.150756    34.886544 
324648000    272.97509    304.53769    446.71108   -113733.28    113820.54   -142.17339    34.886302 
324652000    267.46891    433.42958    216.40805   -113766.68    113848.74    217.02153    34.877737 
324656000    283.07037    442.34549    360.05437   -113767.45    113863.43    82.291116    34.874948 
324660000    280.81468    430.00997    290.49682   -113796.59    113903.09    139.51314    34.876793 
324664000    278.92312    233.47875    299.88084   -113816.94    113909.48   -66.402088    34.875317 
324668000    282.27264    372.55216     356.6908   -113848.05    113944.39    15.861361    34.874883 
324672000    279.25692    324.01531    483.80449   -113884.95    113982.17   -159.78918    34.877062 
324676000    303.07433    400.77643    462.65075   -113937.82    113991.45   -61.874324    34.876297 
324680000     269.0332    259.57898    282.52972   -113924.08    114022.89   -22.950737    34.877749 
324684000    283.07953     497.6908    380.07494   -113948.52    114044.59    117.61586    34.877289 
324688000    264.38373    286.69345    523.70297   -113967.78    114055.83   -237.00953    34.877243 
324692000    282.11947    597.51381    288.47415   -113957.99    114057.21    309.03966    34.878037 
324696000     284.2194    335.40807    400.20823   -113972.51    114050.29   -64.800157    34.880748 
324700000    312.21032    295.67522     244.2934   -114015.01    114091.03    51.381816    34.881828 
324704000    304.93914    270.80799    200.83214   -114036.89    114117.76    69.975852    34.885789 
324708000    337.33384    467.84776    498.69515   -114069.86    114131.67   -30.847397    34.887682 
324712000    290.60575     187.4471    374.04463   -114071.04    114145.95   -186.59753    34.886083 
324716000    260.66365    261.67878    176.13608   -114094.73    114190.06    85.542701    34.883513 
324720000    278.52692    416.26895    477.42882   -114120.03    114221.78   -61.159872    34.877574 
324724000    253.54767    202.84371    294.05841   -114128.36    114242.62   -91.214706    34.874687 
324728000    270.88901    274.45692    198.43712   -114175.77    114288.57    76.019804    34.875807 
324732000    269.43352    372.91332    447.20952   -114174.09    114279.49   -74.296203    34.883321 
324736000    283.69438    354.74995    324.09493   -114160.37    114259.56    30.655027    34.883804 
324740000    301.30785    349.94228    341.77049   -114162.37    114224.53    8.1717933     34.88488 
324744000    286.69456    261.11352    380.54882   -114192.71    114255.04   -119.43529    34.889712 
324748000     282.6132    225.74816    356.74244   -114194.46    114286.93   -130.99428    34.883803 
324752000    290.88791    517.69007    322.05479   -114216.39    114291.69    195.63528    34.889347 
324756000    260.94272      422.246    306.52286   -114235.86    114345.86    115.72314    34.886794 
324760000    290.12495     531.5185    298.34674   -114281.84    114359.05    233.17176    34.887642 
324764000    260.35562    253.88114    368.92225   -114290.09    114391.86   -115.04111    34.885162 
324768000    285.85489    275.84314    508.53465   -114322.37    114404.22   -232.69152    34.883764 
324772000    274.58173    450.56765    300.60024   -114329.42    114423.93    149.96742    34.882115 
324776000    292.56279     296.7009    472.80917   -114355.54    114419.53   -176.10827    34.880224 
324780000    311.23764    476.52582      363.769   -114381.02    114431.56    112.75681     34.87624 
324784000    287.06165    375.03378    236.72612   -114384.86    114464.41    138.30766    34.877255 
324788000      272.157    342.09348    335.68451   -114381.38     114476.6    6.4089678     34.87515 
324792000    273.26274    286.02582    361.80707   -114442.51    114522.92   -75.781251    34.874063 
324796000    290.97022    132.12301    203.75674   -114478.21    114549.83   -71.633728    34.873297 
324800000    283.35451    211.99057     289.2581   -114510.13    114595.77    -77.26753     34.86993 
324804000    308.96689    487.35503    264.41446   -114510.23     114602.3    222.94057    34.870458 
324808000    290.22944    311.04818    289.13417    -114527.3     114619.2    21.914015    34.870233 
324812000    306.85941     280.7889    245.66557      -114596    114658.55    35.123329     34.87065 
324816000    283.04381     447.4206    385.88364   -114623.12    114691.03    61.536953     34.87696 
324820000    283.28098    348.55243    284.63845   -114636.81    114724.16    63.913974    34.870176 
324824000    290.69401    312.76552    274.10198      -114669    114742.55    38.663534    34.866584 
324828000    275.16022    472.09612     423.6425   -114677.23    114772.13    48.453623     34.86601 
324832000    294.75096    212.35791    371.39421   -114702.39    114789.98    -159.0363    34.864805 
324836000    297.24089    361.96427    231.27564   -114738.66    114821.12    130.68862    34.864776 
324840000    268.73409     204.3432    353.25544    -114752.9    114847.95   -148.91224    34.867139 
324844000    303.25676    302.64821    317.32484    -114771.2     114851.8   -14.676638    34.871579 
324848000    273.77725    389.32579     242.1983   -114797.62    114888.01    147.12749    34.881937 
324852000    290.05917    510.04951    230.47431    -114848.9     114912.8     279.5752    34.889836 
324856000    305.80402    393.17062    443.95818   -114873.29    114954.23   -50.787564    34.891001 
324860000    286.70249    477.05324    411.68439   -114926.89    114998.09     65.36885     34.90368 
324864000    291.75463     405.9762    251.36293   -114967.62    115041.85    154.61328    34.899138 
324868000    264.40113    300.60689     404.3089   -114943.72    115043.05   -103.70201    34.892267 
324872000     252.1993    304.92783    203.69533   -114957.84    115068.69     101.2325    34.891527 
324876000    275.44973    153.81267    359.26892   -115008.62    115113.35   -205.45625    34.886921 
324880000    267.76934    169.99633    273.65994   -115043.55     115141.5   -103.66361     34.88555 
324884000    282.29271    338.73445    235.98591   -115071.14    115154.65    102.74854    34.873257 
324888000    285.18017     224.9836    446.07019   -115087.81     115164.5   -221.08659    34.871124 
324892000    279.82947    227.12998    316.22645   -115098.71    115176.41   -89.096476    34.869543 
324896000    291.53603    428.90049    222.52393   -115112.74    115202.35    206.37656    34.873989 
324900000    282.20114    343.43932    443.47469   -115170.41    115249.19   -100.03538    34.869749 
324904000    277.86403    376.28987    168.67231   -115182.76    115261.55    207.61756    34.869468 
324908000    295.32386    290.31389    474.48017   -115192.31    115277.16   -184.16629    34.875726 
324912000    306.06084    344.29505    261.20088   -115203.12    115277.89    83.094169    34.873723 
324916000    267.05923    481.47148    287.88556   -115222.14     115315.4    193.58592    34.873908 
324920000    304.23086    387.89712    324.18029   -115215.44    115307.94    63.716832    34.872773 
324924000    278.64685    488.52032    586.06562   -115246.51    115329.01   -97.545307    34.880294 
324928000    288.43634    203.52523    422.11743   -115278.42    115357.03    -218.5922     34.88941 
324932000    261.08277     358.4397    348.84339   -115295.68    115387.94    9.5963162    34.894711 
324936000    271.17849    360.69139    261.61714   -115298.05    115395.61    99.074256    34.890313 
324940000    278.04752    327.90902    268.92794   -115319.24     115387.8    58.981077     34.89324 
324944000    300.61468    672.29497    299.24177   -115359.93    115447.36     373.0532    34.886812 
324948000    297.17336    292.42227    449.55154   -115386.46    115459.93   -157.12927    34.889519 
324952000    297.29441    382.90804    417.00772   -115387.96    115459.04   -34.099675    34.891179 
324956000     278.4874    358.99916    361.37908   -115406.25       115499   -2.3799178    34.892348 
324960000    263.70058     318.0993     264.8934   -115405.57    115510.28    53.205897    34.890584 
324964000    296.76078    453.72302    284.28503    -115447.8    115503.92    169.43799    34.891668 
324968000    294.08141    230.84674     612.4854   -115454.09    115534.15   -381.63866    34.894411 
324972000    294.13825    164.47685    278.65307      -115472    115540.05   -114.17622    34.888845 
324976000    279.77537    359.24671    382.13947    -115484.3    115562.51   -22.892759    34.889183 
324980000    272.05776    384.09918    237.52759   -115485.33     115574.3     146.5716    34.889323 
324984000     286.0311    398.60953    352.45626   -115523.96    115614.02    46.153273    34.885115 
324988000    262.56065    447.90834    350.97018   -115528.28     115623.3    96.938161    34.888887 
324992000    287.03873     410.0773    303.60279   -115538.42    115634.93     106.4745    34.894304 
324996000    255.51815    239.85261    327.78284   -115562.95    115653.33   -87.930231     34.88999 
325000000    263.52684    281.07681    367.13444   -115590.31    115681.73   -86.057626    34.890508 
325004000    269.33967    505.79825    477.22725   -115628.88    115717.88    28.570999    34.895637 
325008000    290.16212    368.01164    430.54042   -115652.97    115718.24   -62.528783    34.892942 
325012000    284.79761    355.99133    483.43531   -115657.55    115745.18   -127.44398    34.895579 
325016000    294.37403    450.96047    315.73776   -115708.43    115772.84    135.22271     34.88348 
325020000    257.92568    256.39439    247.08437   -115721.23    115814.03    9.3100201    34.885001 
325024000    283.52091    306.92432    181.06327   -115750.91    115813.95    125.86104    34.878954 
325028000    311.49207    365.32472    214.92018   -115754.66     115828.7    150.40454    34.874028 
325032000    315.85969    448.79958    172.36711   -115781.17    115849.57    276.43246    34.873678 
325036000    318.76671    495.16141    167.57032   -115804.51    115881.73    327.59109    34.872099 
325040000    304.91118    467.96369    251.54632   -115835.76    115904.58    216.41736     34.87133 
325044000    295.47289    409.63177    310.95157   -115856.42    115933.84    98.680206     34.86657 
325048000    262.10321    451.52789     202.9435   -115865.04    115945.91    248.58439    34.872628 
325052000    280.37041    385.79957    339.31026    -115888.7    115961.32    46.489317    34.872349 
325056000    282.31593    249.21222    498.12878   -115904.26    115988.88   -248.91656    34.867533 
325060000    289.99112    391.77099    433.01779   -115947.41    116030.77   -41.246801     34.86226 
325064000    295.02134    254.96489    292.19327   -115974.55    116057.95   -37.228374    34.859355 
325068000    264.36123    343.20813     371.9909   -115961.33    116063.91   -28.782766    34.857743 
325072000    287.97325    445.28292    368.47469   -115981.83    116056.36    76.808231    34.855465 
325076000    293.39952    377.01091    515.86837    -116009.1    116087.09   -138.85746    34.854441 
325080000    289.43725     312.3335    278.70285   -116039.68     116117.4    33.630651     34.86047 
325084000    265.16322    144.21506    376.08902   -116035.31    116138.91   -231.87396     34.86074 
325088000    291.47806     373.3534     381.5296   -116057.21     116161.9   -8.1761978    34.859041 
325092000    256.02024    406.48885     308.5868   -116071.99    116175.31    97.902051    34.855748 
325096000    268.91001    287.55375    235.02151   -116097.98    116188.72     52.53224    34.857328 
325100000    282.52503    419.51517     326.0971   -116130.89    116230.52    93.418062    34.858138 
325104000     276.3739     362.3017    268.44757   -116172.86       116261    93.854124    34.859166 
325108000    268.64599    400.77671    292.17644   -116214.95    116305.66    108.60028     34.85373 
325112000    268.24398    485.91818    403.04709   -116225.26    116308.82    82.871093     34.85084 
325116000    300.56458     221.2929    557.41135   -116238.83     116306.2   -336.11846    34.846899 
325120000    275.91306    348.28062    326.84343   -116231.48    116330.83    21.437188    34.849826 
325124000    304.30221     415.0026    428.52821    -116276.6    116359.85   -13.525609    34.850621 
325128000    257.25091    213.84105    193.54547   -116270.93    116374.21    20.295574    34.852501 
325132000    265.25527    302.73019    300.08643   -116314.89    116402.65    2.6437603    34.850013 
325136000    271.85069    491.23437    243.42935    -116341.1    116421.75    247.80502    34.851153 
325140000    290.45196    473.76826    353.64038   -116340.35    116423.21    120.12789    34.855796 
325144000    252.85942    90.170024    274.70258   -116356.41     116451.6   -184.53256    34.847825 
325148000    285.66846     424.1406    171.60436   -116364.23    116461.27    252.53624    34.849145 
325152000    288.93337    358.33958    349.22826   -116376.46    116461.21     9.111326     34.85014 
325156000    295.67979    391.76617    474.28874   -116431.76    116480.77   -82.522568    34.850105 
325160000    286.56561     325.9379    368.94849   -116440.95     116515.7   -43.010594    34.847359 
325164000    237.95901    194.25118    360.50635   -116470.84    116568.54   -166.25517    34.835905 
325168000    272.94991    425.94841    327.70148   -116488.98    116571.66    98.246928    34.830422 
325172000    282.26611    234.52823    690.48718   -116508.91    116597.63   -455.95895    34.826665 
325176000    256.85622    358.41339     216.0004   -116544.93    116640.33    142.41298    34.828919 
325180000    266.79189     363.2641    416.44158      -116560    116647.73   -53.177483    34.831316 
325184000    288.36934    235.55916    130.41322    -116596.3    116681.39    105.14593    34.836773 
325188000    272.23657    207.10863    400.02535   -116634.08    116730.97   -192.91672     34.83474 
325192000    275.55324    327.98769    278.62665   -116681.71    116763.34    49.361034    34.834099 
325196000    283.41389    284.24683    408.35392   -116731.39    116812.27   -124.10709    34.833325 
325200000    296.67121    267.08922    260.15588   -116741.63    116836.32    6.9333472    34.836964 
325204000    296.88577    378.30756    344.27757    -116767.4     116835.7    34.029989    34.838854 
325208000    302.48114    581.71233    403.25136   -116767.49    116831.29    178.46097    34.841789 
325212000    304.98268    370.29906    354.88009   -116787.95    116855.98    15.418972    34.844847 
325216000    274.58132     395.6685    189.54626   -116784.84    116862.65    206.12224    34.845107 
325220000    277.76484     442.0836    391.17023   -116785.69    116882.26    50.913371     34.85091 
325224000     297.8132    254.71246     221.9793   -116810.34    116879.59    32.733159    34.848354 
325228000      285.039     431.9857    278.01649   -116845.41    116921.43    153.96921    34.846497 
325232000    261.02729    276.46735    333.07069    -116873.5    116966.33   -56.603346    34.842853 
325236000    299.13267    298.76029    289.77596   -116898.18    116976.17    8.9843342    34.841882 
325240000    331.02352    363.77195    512.40876   -116945.16    116987.06    -148.6368    34.838039 
325244000    281.98667    595.66179     214.6414   -116947.82    117046.54     381.0204    34.831815 
325248000    275.54312    342.24879     195.7529    -116963.1     117049.7    146.49589    34.826586 
325252000    280.10749    364.91807    399.55051   -116978.47    117058.55   -34.632434    34.827652 
325256000    285.68112    288.36363    393.46706   -117010.68    117088.22   -105.10343    34.832172 
325260000     304.7574    446.35324    165.19271   -117034.22    117109.49    281.16053    34.830897 
325264000    274.50535    368.10676    267.27602   -117040.57     117132.2    100.83074    34.827907 
325268000    279.55803    334.72927    246.44822   -117069.84    117156.69    88.281045    34.823019 
325272000    272.64766      398.708    299.40729   -117101.14    117190.94    99.300716    34.823759 
325276000    306.02835    213.12344    201.64837   -117127.59     117212.3    11.475068      34.8212 
325280000    256.58216    225.38771    295.12628   -117160.32    117251.44    -69.73857    34.822263 
325284000    302.04185    636.56004    412.70213   -117197.84    117279.67    223.85791    34.825938 
325288000    264.66443    519.52391    344.17157   -117233.21    117335.69    175.35234    34.820845 
325292000    296.96997    399.94104    301.82749   -117263.44    117340.81    98.113553    34.814761 
325296000    304.80535    407.30326    225.31871   -117287.01    117357.82    181.98456    34.814362 
325300000    268.23069    346.56282    241.41564   -117272.64    117379.01    105.14718    34.811199 
325304000    301.15478    302.15209    265.88203   -117287.82    117367.34    36.270057    34.816048 
325308000    326.73803    386.60667    258.16952   -117309.92    117375.52    128.43715    34.820021 
325312000     277.5047    294.07376    238.92098   -117301.09    117383.17    55.152783     34.82474 
325316000    297.02338    236.39016    360.55721    -117331.1    117408.24   -124.16705    34.821951 
325320000    310.01389     389.8295    282.30957   -117349.98    117419.58    107.51993    34.819863 
325324000    297.32754    461.28945    321.88029   -117344.98    117425.61    139.40916    34.815825 
325328000    285.42312    364.04833    550.34974    -117377.7    117462.13    -186.3014    34.810325 
325332000    274.58802    225.82894    261.78845   -117384.76    117458.61   -35.959514    34.807825 
325336000    270.27487    251.44605    288.92178   -117397.33    117491.68   -37.475725     34.80405 
325340000    285.27268    173.59463    403.75758   -117419.41    117509.75   -230.16295    34.809351 
325344000    301.97526    433.14504    229.75795   -117464.44    117532.99    203.38708     34.81466 
325348000     288.9245    323.59446    449.28747    -117457.2    117537.02   -125.69301    34.807399 
325352000    295.22595    341.77235    240.00978   -117472.41    117543.76    101.76256    34.803048 
325356000    283.76365    278.63343    291.47213   -117491.83    117573.82   -12.838698     34.79665 
325360000    279.12921    285.24605     287.4436      -117526    117621.97   -2.1975574    34.799208 
325364000    277.28375    284.69646    248.27856   -117533.15    117627.88    36.417896    34.800682 
325368000    283.69746    192.22912    258.57029   -117549.39    117621.15    -66.34117    34.793855 
325372000    280.00396     601.4082    522.11724   -117545.23    117650.13    79.290962    34.797035 
325376000    282.95513     408.3633    499.04145   -117549.21    117640.81    -90.67814    34.791777 
325380000      298.178     561.6476    228.34435   -117558.04    117641.55    333.30325    34.801991 
325384000    264.03747     258.1589    345.03823   -117582.75    117683.39   -86.879332    34.799208 
325388000    297.98431    406.12752    410.07415   -117600.48    117684.69   -3.9466239    34.798195 
325392000    279.04765    428.00415    271.90441   -117625.67    117718.35    156.09975    34.796097 
325396000    276.33846    210.58736    277.07725   -117631.29    117724.15   -66.489893    34.788359 
325400000    287.66329    393.43765    372.17995   -117673.91    117757.11    21.257696    34.789075 
325404000    308.87707    188.73137    337.88083   -117692.27    117756.43   -149.14946    34.783091 
325408000    278.34576    315.68579    278.26572   -117712.31    117802.44    37.420075     34.78785 
325412000     290.3611    442.86988    407.22914   -117764.58    117845.59    35.640737    34.784382 
325416000    312.26436    616.55557    336.11003   -117785.96    117861.54    280.44554    34.785016 
325420000    301.64678    309.32017    321.27937   -117800.77    117879.72   -11.959197    34.789112 
325424000    327.72925    340.19132    401.26378   -117830.42    117899.55   -61.072462     34.79158 
325428000    296.09235    261.52947    441.47572    -117838.4    117913.24   -179.94626    34.790364 
325432000    294.76556    291.03993    342.56209   -117865.96    117937.57    -51.52216    34.787378 
325436000    264.80852    395.59689    228.40954   -117867.84    117947.67    167.18735    34.785693 
325440000    269.75347    520.07828    208.91701   -117897.11    117961.06    311.16127    34.791499 
325444000     281.2747    527.72137    248.38022   -117901.41    117996.13    279.34115    34.789994 
325448000    287.47857     400.0326    459.21628   -117931.21     118020.9   -59.183672    34.788875 
325452000    281.46418    438.26871    407.20783   -117965.62    118055.54     31.06088    34.796564 
325456000    285.92277    262.77375    341.61812   -117989.04    118047.38   -78.844377     34.79329 
325460000    274.57444    299.55708    256.86921   -118020.95    118108.97    42.687863     34.79155 
325464000    269.93892    348.82563    333.80236   -118034.19    118126.01    15.023265     34.79028 
325468000    284.65304     192.4696    317.67295   -118059.41    118142.59   -125.20334    34.791106 
325472000    300.23361    400.69177    325.05961   -118072.71    118163.53    75.632165     34.79734 
325476000    269.10194    347.95157    236.47994   -118095.58    118198.08    111.47163    34.796074 
325480000    286.90201    329.52253    220.66401   -118120.35    118209.36    108.85852    34.792754 
325484000    271.15181      228.798     360.5364   -118130.78     118231.1    -131.7384     34.78832 
325488000    292.42044     366.4608    189.10397   -118160.55    118244.62    177.35682    34.792822 
325492000    277.35597    459.11227    158.79802   -118185.35    118256.58    300.31425    34.792714 
325496000    275.24039    273.19399    315.42849   -118197.46    118264.84   -42.234496    34.786317 
325500000    300.55849    141.32259    230.16609    -118205.8    118278.96   -88.843491    34.787321 
325504000    237.19402    220.54072    290.94362   -118205.09    118319.72   -70.402908    34.785734 
325508000    284.01133    288.48327     382.6333   -118227.91    118315.15    -94.15003     34.78373 
325512000    273.05754    358.63627     315.0096   -118276.95    118355.55    43.626675    34.778713 
325516000    289.39353    183.44253    313.28974   -118318.49    118386.23   -129.84721     34.77361 
325520000    291.55328    403.04536    139.62507   -118331.07    118426.93    263.42029    34.771506 
325524000     270.6211    422.05336    407.70926   -118342.03    118434.01    14.344104    34.767721 
325528000    300.62232    539.10801    400.11594   -118389.45     118468.2    138.99207    34.770716 
325532000    270.47384    311.37608     239.6732   -118396.92     118485.3    71.702887    34.777364 
325536000    285.13606    315.79614    217.43126   -118440.77    118527.28    98.364878    34.784867 
325540000     294.4339    246.16634    267.85034   -118470.41    118566.54   -21.684001    34.786774 
325544000    277.85054    286.07822    202.20315   -118487.72    118582.01    83.875076    34.778994 
325548000    256.93853    297.06511     217.2607   -118505.44    118606.71    79.804402    34.777913 
325552000    295.09437    365.36855    282.85275   -118530.92    118608.12    82.515809     34.78125 
325556000    259.89294    331.70435    302.73068   -118549.42    118644.61    28.973669    34.785456 
325560000    276.95107    443.92349    364.41365   -118596.84    118663.34    79.509845    34.787853 
325564000    263.14529    294.67224    206.68769    -118617.8    118717.68    87.984544    34.790709 
325568000    268.27713    402.55335    195.42658   -118662.76    118759.46    207.12676    34.796071 
325572000     255.0496    211.67598    461.34029   -118681.94    118781.47   -249.66432    34.794473 
325576000    266.11592    291.63486    310.98908   -118700.74    118792.52   -19.354218    34.791503 
325580000    285.46433    305.98146    269.60478   -118729.97    118816.88    36.376675    34.794981 
325584000    287.47339    274.32876    289.16854   -118763.44    118847.66   -14.839786    34.789422 
325588000    259.23676    380.15605    309.90228   -118767.73    118860.63    70.253772    34.793924 
325592000    272.57308    314.67945    312.57653   -118802.78    118897.61    2.1029117    34.790712 
325596000    280.86591    431.08647    469.43078   -118825.36    118918.77   -38.344309    34.792334 
325600000    293.61176    276.97873    256.20965   -118861.98    118945.03    20.769079    34.792143 
325604000    293.23616     174.1478    335.27393   -118888.07    118964.34   -161.12613    34.795255 
325608000     260.6955    233.53628     311.8263   -118894.54    118996.15   -78.290018    34.802811 
325612000    264.84239    319.94733    215.26679   -118928.39    119032.15    104.68054    34.801602 
325616000     264.6068     310.6152    282.04048   -118958.39    119044.23    28.574722    34.802352 
325620000    279.89467    362.14799    298.78493   -118963.69    119058.92    63.363054    34.802091 
325624000    245.51512    514.17965    208.68497   -118974.51    119087.33    305.49468    34.798316 
325628000    271.51072    405.51853    268.37284   -119001.99    119101.57    137.14569    34.798928 
325632000    245.73045    230.84112    283.28264   -119006.34    119112.63   -52.441519    34.795376 
325636000    260.95283    491.85325    227.87845   -119064.02    119161.19    263.97481    34.795156 
325640000    268.44444    379.40961      494.067   -119082.01    119173.66   -114.65739     34.79795 
325644000     289.2071    290.13166    326.24038    -119110.9    119183.65   -36.108714    34.797134 
325648000    307.68425    295.96834    256.92619   -119135.03    119214.34    39.042147    34.803463 
325652000    281.91109    506.15657    162.77807   -119137.05    119245.49     343.3785    34.799654 
325656000    303.60338    273.99561    245.47971   -119165.81    119244.91    28.515894    34.802181 
325660000    291.31736    356.41016      335.737   -119195.27    119257.56    20.673166    34.802296 
325664000    285.82474    374.42878     240.2551   -119202.79    119303.55    134.17367    34.800222 
325668000    260.97987    423.42141    443.54922   -119229.18     119333.6   -20.127803     34.80317 
325672000    301.97768     525.4748    480.93381   -119247.22    119335.74    44.540988     34.80693 
325676000    279.18355    280.49729    416.25135   -119263.01    119352.49   -135.75405    34.805699 
325680000    298.40357    293.09379    466.87265   -119321.83    119394.36   -173.77886    34.806259 
325684000    277.77559    461.62564    345.72953   -119346.61    119415.43    115.89611    34.810336 
325688000    293.47169    258.72466    258.26098    -119352.2    119423.75   0.46367844    34.813467 
325692000    266.62139      224.365    129.92894   -119351.53    119462.13    94.436058     34.81101 
325696000    300.13118    326.88659    371.49361   -119361.74    119442.61   -44.607015    34.806131 
325700000    286.95072    389.97045    316.36304   -119393.27    119470.46    73.607415    34.813265 
325704000    278.21378    420.63328    412.24572    -119401.4    119505.77    8.3875519    34.811505 
325708000    286.84217    324.33446    241.99907   -119420.76    119515.18    82.335391    34.810869 
325712000    292.92725    457.06518    497.04481   -119439.26    119517.76   -39.979628    34.808878 
325716000     303.1678    327.70323    347.14768   -119443.04     119530.5   -19.444452    34.806468 
325720000      287.911    514.76204    206.45656   -119455.76    119545.67    308.30548    34.806974 
325724000    258.99199    303.79701    252.79768   -119484.45    119590.73    50.999336    34.804509 
325728000    276.47553    235.53948    271.21175   -119511.53    119594.67   -35.672268    34.803299 
325732000    279.79756    347.74735    372.47721   -119528.89    119603.21   -24.729859    34.802497 
325736000    255.60696    158.15964    353.63121   -119534.65    119622.92   -195.47157     34.79898 
325740000    267.93724    488.07601     369.4441   -119538.78    119635.27    118.63191    34.795692 
325744000    297.95027    343.16603     264.0344   -119578.25    119664.16    79.131634    34.788912 
325748000    280.44979    246.68464     220.5744    -119609.2    119688.36    26.110244    34.786344 
325752000    299.02388    483.01509    391.38209   -119651.17    119736.66    91.633003    34.785365 
325756000    293.11392    401.31458    294.21314   -119681.78    119758.27    107.10143    34.795996 
325760000    276.15654    406.59844    392.99665   -119693.06    119792.63    13.601797    34.793751 
325764000    280.79487    298.61859    325.11536    -119731.9    119828.74   -26.496766    34.792753 
325768000    289.82566    260.48658    187.19274   -119777.35    119845.98    73.293837    34.801206 
325772000    290.22787    373.79989    338.72623   -119794.06    119866.05    35.073659    34.797335 
325776000    303.93414    277.12285    183.78188    -119810.9    119882.12    93.340974    34.795349 
325780000    290.45838    338.63865    411.30305   -119826.24    119898.47     -72.6644     34.80025 
325784000    263.15629    360.85927    485.43801   -119815.07    119929.65   -124.57875    34.805184 
325788000    255.75106    397.38476    197.01241   -119844.72     119943.3    200.37236    34.805018 
325792000    278.43469    485.55542    240.73761   -119860.54    119956.49    244.81781    34.815012 
325796000    277.41647    311.24813    345.67236   -119869.79    119968.62   -34.424233    34.822545 
325800000    287.03612    225.11717    385.16019   -119879.93    119964.37   -160.04302    34.823333 
325804000    286.32194    430.61873    356.66451   -119894.78    119971.04    73.954221    34.827519 
325808000     276.2422    319.94776    412.96191   -119933.38    120009.16   -93.014149    34.820378 
325812000    307.87056    253.49864    341.56728   -119976.83     120040.3   -88.068643    34.822764 
325816000    296.58917    338.10724     255.4054   -120017.48    120089.15    82.701845    34.822812 
325820000    264.96166    264.20761    296.27896   -120033.51    120122.04   -32.071352    34.828492 
325824000    269.90869    514.18463    224.95024   -120053.72    120163.73    289.23439    34.830655 
325828000    287.57221    312.67098    346.74179   -120091.92    120166.12   -34.070806    34.828514 
325832000    294.31934     523.8059    301.69021   -120103.71    120184.57    222.11569    34.832344 
325836000     279.7055     224.1959    316.54441   -120114.06    120202.13   -92.348509    34.833395 
325840000    310.45945    399.29634    229.01937   -120146.78     120208.2    170.27696    34.837449 
325844000    327.21394    423.55069    317.18619    -120213.2    120249.48     106.3645    34.837161 
325848000    273.73105    320.12681    314.14896   -120245.09    120320.09    5.9778468    34.831052 
325852000    279.19826    401.87347    325.47512   -120258.93    120343.36    76.398346    34.834516 
325856000    278.03818    204.30183      257.188   -120257.02    120345.54   -52.886174    34.835097 
325860000    264.06152    352.67578    393.35985   -120244.13    120345.76   -40.684069    34.840418 
325864000     257.3178    466.30724    330.42038   -120259.42    120365.29    135.88686    34.839242 
325868000    283.48623    306.94024    463.18922   -120278.65    120373.17   -156.24898     34.83723 
325872000    261.29656    426.60782    301.96471   -120303.72    120412.37    124.64311    34.837569 
325876000    259.03788     294.6178    246.94742   -120326.45    120414.37    47.670382    34.842009 
325880000     286.3062    438.91573    263.19628   -120352.12    120437.99    175.71945    34.843723 
325884000     290.6864    361.69978    258.02899   -120359.42    120466.18    103.67079    34.840592 
325888000     274.1476    321.10212    323.02365   -120381.58    120474.21   -1.9215318    34.839905 
325892000    281.87289     272.2265    249.90547   -120420.01    120510.77    22.321033    34.835966 
325896000    282.68846    258.89615    605.31097   -120434.26    120535.35   -346.41482    34.834523 
325900000    245.58408    332.30237    339.42438   -120436.58    120533.02   -7.1220082    34.828527 
325904000    339.87389    312.59202    455.21197   -120476.68    120542.62   -142.61994    34.823505 
325908000    309.11995    448.82468     223.9914   -120479.45    120540.88    224.83329     34.81749 
325912000    295.62511    382.36811     190.6351   -120492.21    120570.69    191.73301    34.817802 
325916000    297.24038    467.87115    324.32115   -120493.06    120588.52       143.55    34.816547 
325920000    279.68479    375.05757    167.06637   -120514.69    120608.01     207.9912    34.810538 
325924000    293.76235    320.90373    400.18726   -120542.38    120624.46   -79.283529    34.806611 
325928000    256.58693    406.76461     215.3468   -120566.98    120668.28    191.41782    34.815088 
325932000    293.42848    310.78498    295.85045   -120584.22    120667.05     14.93453    34.813276 
325936000    270.23495    397.38395    427.08099   -120590.21    120684.47   -29.697044    34.814493 
325940000    255.11566    275.90898    322.49159    -120613.7     120721.8    -46.58261    34.813717 
325944000    263.19461    209.86507    249.25032   -120643.72    120750.66   -39.385256    34.815752 
325948000    277.70217    326.30847      465.577   -120666.44    120760.61   -139.26853     34.81659 
325952000    290.67675    295.19822    491.65131   -120707.04    120799.99   -196.45309    34.816934 
325956000    254.68448    471.73687    295.65353   -120735.51    120854.31    176.08334    34.811125 
325960000    258.52948    293.71775    352.28048    -120738.5     120844.5   -58.562728    34.808195 
325964000    269.34905    238.56993    286.84662   -120780.48    120876.18   -48.276694    34.810216 
325968000    284.04747    356.22106    264.51989   -120808.25    120897.52    91.701173     34.81518 
325972000    305.79753    451.09105     360.7034   -120871.36    120948.42    90.387652    34.820381 
325976000    288.09452    270.36453    264.17906   -120873.12    120962.61    6.1854646     34.81986 
325980000    289.97634    554.34493    528.04894   -120866.65    120956.74    26.295982     34.82816 
325984000    290.82457    548.71182    457.49108    -120902.4    120998.09    91.220744    34.822319 
325988000    273.50782    253.39957    417.21462    -120896.4    120989.58   -163.81505    34.819307 
325992000    286.15388    326.73001    199.20312    -120933.3    121025.32    127.52689    34.812477 
325996000    279.91615    443.75018     232.3027   -120977.67    121054.67    211.44749    34.807818 
326000000    302.47053    313.55281    457.69668   -120991.71    121063.36   -144.14388    34.801274 
326004000    283.52766    648.99519    324.09201   -121007.82    121108.92    324.90317     34.80516 
326008000    267.46324    367.52668    329.47876   -121020.35    121123.83    38.047922    34.802782 
326012000    269.35681    350.87351    217.73968   -121056.76    121142.67    133.13382    34.801837 
326016000    275.54877    375.14752    264.13286   -121089.24    121177.66    111.01466    34.792926 
326020000    273.72893    343.21825    446.07696   -121130.07    121210.98   -102.85871    34.788135 
326024000    250.40231    242.63004    242.15193   -121147.89    121232.49   0.47810605    34.790029 
326028000    293.11596     321.3452    235.61851   -121180.47    121262.26    85.726689    34.787602 
326032000    313.43297    411.83018    206.42218   -121201.65    121270.44      205.408    34.790633 
326036000    284.40356     267.9713    346.08209   -121204.67    121290.46   -78.110794    34.788049 
326040000    290.72527    306.40754    319.28734    -121250.2    121326.13   -12.879803    34.790823 
326044000    287.49312    182.53232    281.95145   -121278.94    121364.89   -99.419127    34.792938 
326048000    304.09242    565.38853    218.59507   -121285.67    121354.53    346.79345    34.796148 
326052000    283.52977    394.26335    400.77454   -121310.09    121385.68    -6.511192    34.797115 
326056000    289.12398    276.82495    255.59608   -121288.46     121365.9    21.228877    34.797472 
326060000    284.14876    308.57891    419.54455   -121326.35    121394.52   -110.96563    34.789261 
326064000    313.41234    552.98508    228.32243   -121350.91    121421.38    324.66265    34.792865 
326068000    289.94726    537.00398    210.66191   -121382.92     121460.5    326.34207    34.794366 
326072000    324.83212      342.128    413.08864   -121426.66    121485.05   -70.960633    34.798789 
326076000    298.53238    324.49734    368.60631   -121414.51    121501.04    -44.10897    34.792994 
326080000    319.79129    365.18335     285.9808   -121456.08    121515.23    79.202549    34.788885 
326084000    279.50203    274.81148    369.23026   -121464.79    121560.06   -94.418783    34.788142 
326088000    286.71738    459.64384    453.06415   -121470.52    121555.92    6.5796893    34.789357 
326092000    264.20979    291.76159    339.31687   -121466.01    121573.31   -47.555282    34.781858 
326096000    292.49051    507.54687    342.47515   -121493.09    121576.58    165.07172     34.78958 
326100000    300.26329    741.16532    301.84746   -121520.54    121592.95    439.31786    34.788946 
326104000    275.36519    413.54415    207.79395   -121513.28    121613.81     205.7502    34.789307 
326108000    285.94629    345.44278    362.39811   -121551.36    121611.81   -16.955335     34.78406 
326112000    279.33618    337.77229    273.85388   -121581.73    121649.73    63.918411    34.782842 
326116000     257.1056    399.59094    252.59811   -121587.21    121670.97    146.99282    34.780899 
326120000    256.17528    483.81632    255.59574   -121598.35    121692.73    228.22057     34.77883 
326124000     299.7771    393.00453    343.11742    -121658.2    121711.72    49.887115    34.780537 
326128000    282.61913    381.96181      385.328    -121650.3     121737.3   -3.3661868    34.781661 
326132000    315.20789    456.88495    322.10036   -121682.01    121743.99     134.7846    34.782264 
326136000    311.04932    390.07884    405.45083   -121707.36    121777.65   -15.371988     34.77867 
326140000     299.4876    523.20099    310.17447   -121738.35    121822.95    213.02652      34.7793 
326144000     269.0891    275.65477    461.61713   -121764.41    121847.18   -185.96236    34.786109 
326148000    270.67312     273.5956    295.61504   -121787.32    121880.22   -22.019443    34.778007 
326152000    273.01195    313.21894    287.48932   -121825.09    121907.88    25.729628    34.771656 
326156000    287.55441    401.00848    310.91174   -121863.85    121920.88    90.096739    34.769603 
326160000    270.81037     280.3074    413.91882   -121884.69    121964.38   -133.61142    34.763142 
326164000    253.74694    334.85699     250.0491   -121902.54    122004.15    84.807887    34.769695 
326168000    303.45588    305.67575    311.80198   -121945.78    121994.27   -6.1262317    34.763116 
326172000    282.12614    223.40624    164.98075   -121954.76    122051.75    58.425493    34.760327 
326176000    261.45729    568.58104    180.91002   -121975.63    122065.38    387.67102    34.764058 
326180000    273.30692    290.68899    326.97217   -121982.02    122076.18   -36.283175    34.764861 
326184000    285.71115     447.9344     369.7067   -122001.98    122092.14    78.227692    34.760496 
326188000    289.04229    460.16015    237.71643    -122041.1    122100.67    222.44372    34.766706 
326192000    329.82953    413.57187    362.87075   -122058.25    122117.62     50.70112    34.760842 
326196000    279.08073    258.27194    376.10748   -122059.42    122150.07   -117.83553    34.757128 
326200000    265.08479    241.88118    233.74779      -122075    122171.18    8.1333908    34.758138 
326204000    272.13839     321.9633    494.22466   -122106.92    122183.82   -172.26136    34.757531 
326208000    263.15786    311.53696    439.24961   -122119.78    122218.41   -127.71265     34.75925 
326212000    266.42253    298.80202    294.74533   -122142.08    122246.27    4.0566865    34.756845 
326216000    283.45391    342.67485    284.46918   -122188.88    122265.55    58.205669     34.75717 
326220000    266.42907    286.92714    187.99903   -122174.77    122285.38    98.928113      34.7565 
326224000    259.85546    447.71656    295.76361   -122200.38    122288.53    151.95295    34.761247 
326228000     265.9941    325.35463    439.16231    -122192.8    122284.87   -113.80768    34.757727 
326232000    287.34384    360.27715    299.23708   -122222.84    122301.65    61.040077    34.763292 
326236000    277.09219    424.59532    395.99841   -122229.66    122321.69    28.596903    34.761342 
326240000    276.80983    293.54806    393.88197   -122254.24    122337.34   -100.33391      34.7603 
326244000     271.9484    371.23376    238.12111   -122268.85    122361.98    133.11265    34.764123 
326248000    297.75916    287.80951    330.98457   -122300.14    122383.84   -43.175054    34.760726 
326252000    279.07013    322.86665    245.36723   -122309.44    122396.21    77.499426    34.759831 
326256000    266.48552    377.19306    282.21828   -122323.68    122416.08    94.974783    34.757893 
326260000    297.89494    328.37565    270.59071   -122328.61    122415.71    57.784946    34.762339 
326264000    290.54448    441.90853    417.99691   -122342.37    122435.45    23.911616    34.761594 
326268000    292.64666    402.53981     483.5324    -122336.4     122431.7   -80.992592    34.753901 
326272000     267.3107    213.10767    368.92295   -122364.55    122457.66   -155.81528    34.749775 
326276000     307.0912    456.84445    232.37225   -122400.11    122475.84    224.47221    34.748978 
326280000    310.73922    519.88772    201.81526   -122411.18    122490.66    318.07245    34.755116 
326284000    331.91715    350.47084    234.26317   -122457.67    122522.87    116.20768     34.75638 
326288000    294.74557    416.35885    437.69086   -122481.13    122548.43   -21.332014     34.75631 
326292000      290.465    402.55953    274.87104   -122512.25    122595.86    127.68849    34.760881 
326296000    261.76698    261.81419    326.72384   -122519.49    122615.47   -64.909642    34.764812 
326300000    296.87035    298.35156    347.59906   -122559.72    122653.06   -49.247508    34.765349 
326304000    276.66012    432.64302    236.65796   -122602.43    122679.75    195.98506    34.762039 
326308000    278.81688    192.51601    270.39538   -122610.98    122715.76   -77.879366    34.756917 
326312000    288.05876    356.00138    204.64066   -122650.94    122725.03    151.36072    34.759166 
326316000    299.71812    632.81076     326.7157   -122664.11    122737.33    306.09506    34.759116 
326320000    286.06726     355.8776    223.76246   -122693.54    122771.36    132.11515    34.760692 
326324000    299.87116    456.48669    332.21735   -122725.44    122807.28    124.26934    34.769006 
326328000    262.19009    325.74516    243.97214   -122767.28    122863.15    81.773012    34.770498 
326332000    263.70549    517.37223    152.19319   -122820.75     122906.1    365.17904    34.771748 
326336000    316.66752    313.44185    197.28228   -122854.16     122922.9    116.15957    34.771514 
326340000    312.32962    338.77795    522.38829   -122873.94    122941.82   -183.61034    34.773167 
326344000    273.51626    550.18733    422.30863   -122907.83     122991.9     127.8787    34.775687 
326348000    280.51317    819.81579    397.85901   -122927.97     123028.3    421.95678    34.776219 
326352000    274.24564    326.03308    188.85574   -122948.96    123059.25    137.17734    34.780483 
326356000    276.62491    285.39676    211.43301   -122968.35    123062.47    73.963749    34.784259 
326360000    319.11922    309.17974    321.76325   -122995.02    123065.49    -12.58351     34.78396 
326364000    295.18091    307.20113    410.82782    -123000.1    123084.43   -103.62669    34.782564 
326368000    277.60091    228.70943    251.94865   -123022.77    123108.12   -23.239225    34.781893 
326372000    285.25888     479.9612    336.85337   -123032.97     123127.8    143.10783    34.781137 
326376000    273.80284    246.97692    389.76202   -123058.38    123143.01   -142.78509    34.777232 
326380000     265.4132    159.78372    369.41188   -123047.39    123143.98   -209.62816    34.775427 
326384000    295.20589    320.62915    414.11786   -123082.15     123160.5    -93.48871    34.775696 
326388000    270.07627    298.70185    298.87618   -123094.81    123193.11  -0.17432767    34.772145 
326392000    275.94147    335.67897    160.18553   -123122.34    123207.25    175.49344    34.765814 
326396000    291.49215    463.20929    322.91558   -123154.42    123225.65     140.2937    34.774312 
326400000     281.0417    247.44186    283.27443   -123165.16     123268.7    -35.83257    34.781367 
326404000    255.22612    299.23388    494.13763   -123195.75    123298.47   -194.90375    34.778984 
326408000    250.11101    347.75019    274.99934   -123205.53    123309.17     72.75085    34.779856 
326412000    296.54724    389.51807    434.36316   -123228.74    123309.83   -44.845093    34.785315 
326416000    270.78631    294.28031    316.10801   -123222.91    123321.53   -21.827707     34.78206 
326420000    272.92168    261.81498    447.15134   -123238.84    123325.09   -185.33636    34.786833 
326424000     264.2474    277.34972    240.82598   -123236.75    123334.58    36.523736    34.788149 
326428000    304.65126     442.3218    331.53769   -123261.21    123350.97    110.78411    34.786629 
326432000    293.54037    238.78006    267.78466    -123292.4    123376.15   -29.004607    34.788175 
326436000     244.1604    273.70671    276.68601   -123289.64    123408.19   -2.9792972    34.783059 
326440000    295.01847    263.67674    292.90873   -123338.17    123428.68   -29.231995    34.781403 
326444000    271.41845     357.5964    318.29626   -123363.62    123474.71    39.300144    34.781076 
326448000    308.41728     396.3748    442.27753   -123415.09    123487.41    -45.90273    34.785506 
326452000    301.16941    377.82904    304.18931   -123445.57    123503.36    73.639736     34.78953 
326456000    265.09952    322.39197    298.27855   -123452.41    123546.74    24.113421    34.787927 
326460000    279.24466    387.60144    285.82463   -123436.34    123512.35    101.77681    34.789693 
326464000    279.40257    400.74357    186.44442   -123436.63    123535.57    214.29915    34.790138 
326468000    256.94031    234.65492     212.2013    -123450.3    123572.02    22.453623    34.791529 
326472000    283.07709    633.29269    322.71499    -123497.2    123582.97     310.5777    34.793722 
326476000    285.50526    420.24539    272.32086    -123509.4    123598.11    147.92454    34.794314 
326480000    282.45095    317.19821    410.77273    -123547.7    123632.51   -93.574528    34.786518 
326484000    289.79098    404.53444    188.00128    -123576.3       123667    216.53316    34.789087 
326488000    275.37791    298.82725    286.64922   -123596.56    123687.18    12.178026    34.787639 
326492000    275.30349    292.50985    202.18826   -123609.77     123693.6    90.321584    34.786696 
326496000    291.21288    396.05195    326.58612   -123608.04    123699.28    69.465834    34.785462 
326500000    287.38307    423.54067    532.89283   -123618.55    123722.38   -109.35216    34.785667 
326504000    254.86412     344.0323    376.10067      -123638    123746.16   -32.068369    34.788038 
326508000    256.52545    277.53196    299.69248   -123690.58    123780.44   -22.160519    34.793844 
326512000    265.11737    459.43752    186.19961   -123713.51    123807.05    273.23792    34.787645 
326516000     256.5354    341.05223    481.71766   -123709.65    123824.75   -140.66543    34.791503 
326520000    282.04795     408.9459    385.43563   -123728.65    123824.76    23.510273    34.783527 
326524000    281.88846    238.65639    364.08655   -123736.22    123842.65   -125.43017    34.779423 
326528000    273.65829    327.87039    362.21986   -123745.91    123843.64    -34.34947    34.774663 
326532000    264.02849    420.92885    372.04416   -123787.36    123880.65    48.884687    34.771082 
326536000    305.36729    271.10932    335.19982   -123824.54    123905.38     -64.0905    34.779628 
326540000    291.19749    444.99671    460.83077   -123840.32    123925.04   -15.834058    34.777005 
326544000    286.20622    479.83364    277.14578   -123877.06    123967.79    202.68786    34.780388 
326548000    284.77711    194.67034    312.26068   -123889.03    123981.85   -117.59034    34.785785 
326552000    286.51204    576.71843    303.64253   -123937.92    124011.11     273.0759    34.782839 
326556000    269.57417    316.57191    208.00592   -123934.11    124024.11    108.56598    34.786611 
326560000    285.83304    351.99187    425.37224   -123959.59    124038.44   -73.380376    34.780439 
326564000     264.6841    318.15195    266.29897   -123985.98    124094.69     51.85298    34.782494 
326568000    248.50821    325.12365    206.99894   -123997.52     124097.1    118.12472    34.780229 
326572000    285.73919    479.48247    355.69002   -124038.36    124126.22    123.79245    34.778165 
326576000    300.57567     496.0612    419.98534   -124078.74    124162.45    76.075857    34.777772 
326580000    282.03614    251.95088    265.49177   -124099.36    124167.89   -13.540889    34.780328 
326584000    270.66986    297.00379    271.28924   -124135.81     124223.4    25.714554    34.782614 
326588000    260.96424    345.99031     214.7062   -124149.73    124241.66     131.2841    34.789187 
326592000    262.77282    211.17895    351.54193   -124180.26    124282.03   -140.36298    34.793138 
326596000    293.97587    456.46539    405.87124   -124218.61    124285.84    50.594153    34.795799 
326600000    269.07907     298.1458    457.15311    -124240.6    124330.98   -159.00731    34.794081 
326604000    276.43971    206.87546    347.30277   -124260.39     124362.5   -140.42731     34.78468 
326608000    262.73607    208.24639    335.18216   -124285.53    124389.55   -126.93577    34.779677 
326612000    280.60041    388.82151    364.99608   -124303.01    124383.21    23.825435    34.777985 
326616000     272.3664     515.7567    202.00499   -124323.56    124408.49    313.75171    34.777246 
326620000     249.1039    367.83748    207.26552    -124361.5     124457.5    160.57196    34.785543 
326624000    269.50279    365.15815    249.67623   -124411.81    124507.06    115.48192    34.784434 
326628000    269.84988    547.00933    256.29117   -124428.78    124552.36    290.71816    34.781847 
326632000    269.34085    291.71667    243.15195   -124443.22    124556.71    48.564716     34.78163 
326636000    290.46917    734.69113    310.01623   -124484.51       124551     424.6749    34.780691 
326640000    296.53922    383.48473    339.61665   -124510.76    124584.22    43.868084    34.783533 
326644000    268.85761    323.93283    279.83793   -124528.54    124608.21    44.094908    34.786855 
326648000    269.52173    400.47761     206.2852   -124552.35    124648.48    194.19241    34.783445 
326652000    283.62951    315.89603    382.56323   -124585.09    124675.43   -66.667201    34.782355 
326656000     285.9674    272.51628    429.79302   -124615.52    124704.22   -157.27674    34.775971 
326660000    306.97706    381.25989    332.40198   -124667.71    124729.21    48.857913    34.777665 
326664000    276.81856    474.88881    374.74412   -124676.66    124772.31    100.14469    34.774663 
326668000    252.49887    147.50246    285.19039   -124679.34    124780.23   -137.68793    34.771665 
326672000    271.44373    434.85388    328.24971   -124705.89    124807.19    106.60416    34.773639 
326676000    282.94797    279.22461     314.2061   -124731.63    124817.34   -34.981491    34.773904 
326680000     286.7342    351.94784    321.47427   -124743.42    124829.01     30.47357    34.776606 
326684000    256.18844    249.56312    297.64749      -124759    124863.49    -48.08437    34.779003 
326688000    261.83778    394.48719    238.48296   -124785.62    124880.13    156.00423    34.773429 
326692000    278.96075    534.39008    373.27568   -124808.08     124900.3     161.1144    34.771953 
326696000    252.25707    392.31867    395.34543   -124820.65    124928.18   -3.0267609    34.783015 
326700000    273.86676    376.93709    255.83437   -124835.21    124931.41    121.10273    34.778596 
326704000    288.11555    331.05423    333.64394   -124831.31    124918.36   -2.5897108    34.774363 
326708000    281.10941    270.38534    288.12545   -124853.03    124931.85   -17.740113    34.780919 
326712000    257.34015    306.23444    198.82669   -124869.75    124962.98    107.40776    34.785088 
326716000    291.79205    364.22459    345.29106   -124903.33    124967.96    18.933529    34.780668 
326720000    286.61593    233.93686    457.88813   -124896.31    124984.72   -223.95127    34.780355 
326724000     286.2537    369.91738    528.51715   -124910.38    124999.34   -158.59978    34.778586 
326728000    276.25397      287.994    336.82062   -124926.24    125021.36   -48.826613    34.778659 
326732000    255.92378     327.1551    137.14019    -124980.3    125079.81    190.01492    34.776093 
326736000    277.28004    194.31388    270.57025   -124989.93    125079.55   -76.256374    34.784069 
326740000    283.59294    259.50378    414.09662   -125021.59    125102.57   -154.59284    34.782937 
326744000    312.89971    409.79069    342.96916    -125058.8    125138.96    66.821526    34.780352 
326748000    274.17731    306.21045    196.66946    -125069.5    125171.31    109.54099    34.781392 
326752000     290.2239    445.30949    372.67424   -125083.91    125189.81    72.635248    34.784525 
326756000    314.74242    436.36435    422.46369   -125106.09     125167.4    13.900653    34.782651 
326760000    276.77086    308.94747    264.57248   -125115.11     125202.4    44.374983    34.780944 
326764000    298.82905    576.30189    395.54601   -125131.89    125204.45    180.75589    34.772777 
326768000    299.20241     377.9615     268.9159   -125150.44    125214.61     109.0456     34.77357 
326772000    326.96555    369.43701    371.39048   -125144.33    125220.31   -1.9534682    34.776492 
326776000    299.04973    261.26983    256.71732   -125174.31     125267.8    4.5525044    34.774698 
326780000    327.53135     563.6213    454.18926   -125196.05    125246.28    109.43204    34.776297 
326784000    287.75989    621.40138    345.00792   -125201.64    125265.56    276.39346    34.775434 
326788000    324.04557    557.55582    287.41825   -125230.63    125300.53    270.13757    34.779353 
326792000     290.3638    322.97636    297.21954   -125263.27    125335.55     25.75682    34.784593 
326796000    283.13132    197.57487    154.95583    -125285.6    125371.97    42.619031    34.784375 
326800000    273.10796     403.3171    379.78443   -125305.96    125394.91    23.532663    34.787233 
326804000     300.4256    275.80387    405.43329   -125337.18    125429.35   -129.62942    34.783313 
326808000    298.61415    512.19223    303.02069   -125370.36    125455.78    209.17154    34.782881 
326812000    255.65716    422.14822    301.62521   -125381.55    125494.42    120.52301    34.782728 
326816000    282.46725    365.78879    315.20812   -125391.25    125486.84    50.580671    34.782428 
326820000    307.63431    486.93094    358.64907   -125432.73     125514.5    128.28186    34.779731 
326824000    274.08592     555.1488    529.22991   -125444.96    125529.48    25.918893    34.778241 
326828000    273.33744    335.51034    528.66619   -125466.74    125561.86   -193.15584    34.773258 
326832000    278.54957    421.85598    282.87171   -125499.78    125589.11    138.98427    34.775865 
326836000    312.08603    272.83062     400.4866   -125516.41    125608.07   -127.65599    34.776915 
326840000    287.12194     451.0968    355.17779   -125543.87    125630.52    95.919009    34.774867 
326844000    285.69796    469.54598    267.22544   -125561.95    125657.95    202.32054    34.774192 
326848000    267.82145    290.25622    305.48229   -125574.92    125673.03    -15.22607    34.775503 
326852000    270.71928    507.17596    391.91114   -125596.75    125685.39    115.26481    34.765364 
326856000     276.1214    395.97939    459.01771   -125622.53    125707.22   -63.038314    34.768658 
326860000    274.55344    362.25734    232.30639   -125630.97    125733.38    129.95096    34.765515 
326864000    305.85959    469.69624    490.25365   -125668.58    125747.37   -20.557412      34.7599 
326868000    289.28765    292.88185    393.26221   -125687.86    125769.88   -100.38035    34.763248 
326872000    280.30612     400.9312    361.97418   -125699.27    125776.03    38.957014    34.766991 
326876000    301.02745    363.78412    319.70555   -125736.41    125797.61    44.078577    34.769465 
326880000    310.81468    377.20902    424.74892   -125743.38    125819.97   -47.539897     34.77095 
326884000    295.25166    283.29229    342.21332   -125780.77    125858.84   -58.921026    34.770811 
326888000    280.24195    354.39886    255.59704   -125780.47    125868.92    98.801818    34.769687 
326892000    231.09359    282.24186    383.74685   -125776.64    125911.03   -101.50499    34.773266 
326896000    283.42569    316.26483    283.79177   -125811.54    125911.08     32.47306    34.769141 
326900000    292.08243     356.2767    247.23758   -125870.85    125939.01    109.03912    34.764196 
326904000    309.59905    430.41433    309.01871   -125908.34    125990.57    121.39563    34.766816 
326908000    288.17564    382.65833    316.00431   -125942.87    126018.06    66.654018    34.767677 
326912000    275.21079     326.6891    347.77547   -125927.62    126038.03   -21.086374    34.757922 
326916000    251.50231    254.20842    281.29383   -125942.03     126048.5   -27.085409     34.75703 
326920000    293.68217    519.48198     455.1736   -125983.48    126058.34    64.308387    34.755598 
326924000    316.60802    436.72821    485.84685   -126031.36    126088.53   -49.118648    34.757749 
326928000    271.47813    262.15421    211.64749   -126043.38    126131.81    50.506729    34.754133 
326932000    277.63839    330.59215    320.38944   -126081.27    126159.67    10.202713     34.75331 
326936000    290.60338    182.08604    291.27927   -126127.36    126193.64   -109.19323    34.759446 
326940000     298.7674    325.80389    320.84799   -126132.69    126216.98    4.9558994    34.755647 
326944000     311.0951    343.76329    550.47501   -126163.25    126234.07   -206.71172    34.748125 
326948000    305.52787    369.91264    400.31753   -126199.34    126280.36   -30.404883    34.745132 
326952000    277.89708    233.12743    249.68243   -126208.46    126303.65   -16.554995    34.745124 
326956000    262.56629    325.33115    261.89818   -126227.54    126334.88    63.432963    34.747753 
326960000    271.60504    387.86418    196.17851   -126279.65    126377.63    191.68567    34.743532 
326964000    301.44369    352.71219    560.13224   -126332.34     126391.5   -207.42005    34.743644 
326968000    300.63769    400.45336    318.12571   -126329.05    126408.15    82.327648    34.737389 
326972000    266.72633    310.53843    384.87937   -126340.96    126449.24   -74.340941    34.731659 
326976000    291.39733    342.46753    361.22786   -126378.18    126466.23   -18.760326    34.735329 
326980000    310.60473    422.97794    461.83774   -126417.77    126494.02   -38.859792    34.739522 
326984000    273.85066    220.37902    295.51826   -126415.56    126511.02   -75.139243    34.739006 
326988000    324.28071    570.02355    318.08738   -126462.99    126542.82    251.93617    34.742507 
326992000    284.10641    420.58188    180.37312   -126464.11     126552.3    240.20876    34.748296 
326996000    307.74307    618.72738    464.79001   -126508.81    126588.27    153.93737    34.745519 
327000000    290.88662    365.17773    497.55943   -126536.41    126601.57    -132.3817     34.74756 
327004000    287.44809    322.52935    312.93792   -126521.13    126620.57    9.5914371    34.750192 
327008000    288.17373    374.74645    405.31959   -126544.31    126637.46   -30.573139    34.746004 
327012000    278.94005    546.05808    242.53583   -126563.93    126665.24    303.52225    34.747249 
327016000     270.7816    325.57979    269.04447   -126610.91    126697.34    56.535324    34.740916 
327020000    273.50175    296.87003    243.37897   -126617.55    126703.32    53.491057    34.743174 
327024000    293.09338    429.21695    404.51276   -126641.46    126744.71    24.704193      34.7385 
327028000     307.6519     352.0584    396.41977   -126695.05    126757.79   -44.361371    34.733218 
327032000    269.69373    381.11204    207.48689   -126719.81    126811.46    173.62515    34.736538 
327036000    257.21515    397.96103    323.79363   -126738.22    126839.43    74.167393    34.732334 
327040000    303.26931    415.14822    340.97419   -126770.17    126857.77     74.17403    34.737863 
327044000    263.07839    229.15745    376.56679   -126781.29     126878.9   -147.40935    34.736077 
327048000    266.44438     239.6454    398.91525   -126787.78    126904.13   -159.26985    34.732173 
327052000    261.70552    249.85546    219.99538   -126788.91    126917.93    29.860073    34.724503 
327056000    267.13993    414.69422    398.70409   -126828.49    126933.61    15.990123    34.729922 
327060000    251.69182     298.4555    236.43859   -126847.24    126955.69    62.016907    34.725637 
327064000    294.02276      420.528    270.57482   -126904.22    126986.81    149.95318    34.724162 
327068000    296.93446    401.29868    420.74825    -126928.9    127004.85   -19.449572    34.713468 
327072000    267.43101    390.58484    311.30738   -126945.89    127045.42    79.277466    34.714284 
327076000     288.1948    346.69682    413.76114    -126975.3    127083.75   -67.064325    34.709579 
327080000    272.79466     319.1463    201.56202   -127016.94    127104.99    117.58428     34.70434 
327084000      277.284    483.23656    274.51861   -127008.51    127131.75    208.71794    34.697384 
327088000    301.94414     352.2551    533.37668   -127054.67    127151.71   -181.12158    34.696479 
327092000    273.83266    367.96421    232.73529   -127070.94    127164.59    135.22891    34.697919 
327096000    279.48128    361.24283     336.9934   -127100.06     127197.9    24.249438    34.700328 
327100000    291.36647    372.25519    432.78695   -127144.28    127240.91   -60.531751    34.699381 
327104000    282.39158    488.21581    481.98785    -127130.9    127239.37    6.2279535    34.703147 
327108000    274.80676    306.46008    271.06489   -127166.48     127247.8    35.395196    34.704526 
327112000    295.13575    276.38937    565.79224   -127190.37    127255.73   -289.40287    34.696126 
327116000    287.49358    395.36016    344.02074   -127174.66    127273.79    51.339414    34.696563 
327120000    259.11673    533.73176    426.68186   -127198.77    127291.82     107.0499    34.698909 
327124000    280.05369    360.69383    258.06236   -127222.38     127321.7    102.63147    34.699543 
327128000    275.66174     206.2726    274.89385   -127234.98    127325.46    -68.62125    34.700226 
327132000    288.88946    442.09464     325.9855   -127277.25    127380.49    116.10914    34.695161 
327136000    299.31221    437.17492    327.02842    -127330.4    127421.21    110.14651    34.689833 
327140000    288.37305    295.81516    396.54679   -127326.98    127410.06   -100.73162    34.691837 
327144000    281.09023    349.98207     302.9455   -127342.94    127440.29    47.036565    34.690078 
327148000    296.19976    345.29569    206.00927   -127374.72    127463.27    139.28642    34.689899 
327152000    286.69062    117.87247    422.18714   -127399.02    127500.76   -304.31468    34.693102 
327156000    276.04844    339.05016    301.33535   -127432.49    127533.64    37.714812    34.690928 
327160000    260.33707    219.48296     278.7192   -127433.23    127549.82   -59.236242    34.700473 
327164000    309.15633    435.49041    276.68675   -127480.03    127567.02    158.80366    34.703836 
327168000    274.56068    376.79588    312.10074   -127502.94    127602.56    64.695136    34.705321 
327172000    297.64411    350.27489     361.2382   -127527.31    127602.21   -10.963311    34.712497 
327176000    258.55712    247.82816    342.19607   -127519.38    127626.56   -94.367916     34.71182 
327180000    268.05547     312.7067    328.44143   -127534.82    127641.38   -15.734731    34.721007 
327184000    248.88985    220.34965    263.04418   -127539.52    127657.66   -42.694528    34.718926 
327188000    279.93344    584.41897    243.20813   -127577.28    127670.34    341.21084     34.72078 
327192000    253.83957    408.22252    210.88778   -127575.27    127694.38    197.33474    34.731329 
327196000    288.14547    494.86815    219.92944   -127610.39    127720.36    274.93871    34.737911 
327200000    267.89109    409.91745    281.64614   -127643.67    127743.84    128.27131    34.752178 
327204000     291.5293    311.59265    185.77295   -127663.27    127750.26     125.8197    34.754734 
327208000    264.49548    289.87773    223.97326   -127658.22    127767.16    65.904474    34.752898 
327212000    285.31783    394.61656    421.08064   -127682.75    127757.64   -26.464073    34.743478 
327216000    288.07561    365.65349     453.0044   -127703.94    127780.31    -87.35091    34.745115 
327220000    270.53081    242.74279     332.2181   -127709.33    127788.58   -89.475308    34.745707 
327224000    270.63957    383.41974    227.23205   -127701.98    127805.43    156.18769    34.747787 
327228000    265.58612    382.66035    355.99588      -127737     127853.3    26.664475    34.746858 
327232000    269.06602    329.71442     305.9595   -127764.18    127870.93    23.754925    34.747988 
327236000    299.83805    600.32584    301.35668   -127813.94    127887.39    298.96916    34.753481 
327240000    310.53499    304.51714    210.03847   -127840.85    127921.27    94.478666    34.749931 
327244000    253.98281    298.17201    160.84487   -127847.01    127955.95    137.32714    34.752045 
327248000    294.29288    272.18244    331.00163   -127878.58    127977.45   -58.819188    34.753402 
327252000    285.94443    396.29457    378.63225   -127909.81    128007.67    17.662322     34.74771 
327256000    302.74031    326.51967    612.95744   -127930.73       128013   -286.43778    34.741089 
327260000    267.92854    280.83222    335.24841   -127945.23    128041.96   -54.416187    34.740115 
327264000    287.27782     557.1189    281.11293      -127991    128087.55    276.00598    34.743443 
327268000    299.30161    527.24757    305.69812   -128027.15    128100.22    221.54945    34.749626 
327272000    264.26007     241.6728    308.38837   -128036.31    128135.01   -66.715569    34.750858 
327276000    259.01686    357.84694    291.66399   -128076.44    128177.02    66.182953    34.750026 
327280000    258.64184    222.89323    279.47363   -128091.04    128191.65   -56.580392    34.755698 
327284000    285.24898    258.62559    367.31197   -128137.29    128229.61   -108.68637    34.755128 
327288000     279.2402    445.43559    299.91636   -128150.63    128248.78    145.51923    34.753992 
327292000    319.25881    543.09437    293.95418   -128200.43     128287.9    249.14018    34.754229 
327296000     289.0041    371.31729    358.07596   -128197.15    128295.26    13.241333    34.757893 
327300000    320.69031    479.91847    662.50354   -128243.82    128313.01   -182.58506    34.758536 
327304000    280.10282    263.34346    349.89068   -128257.72     128344.1   -86.547226    34.758328 
327308000    285.18421    405.73053    239.10134   -128273.91    128352.16     166.6292    34.757617 
327312000    298.95042    450.02216    216.80071   -128317.34    128390.48    233.22144    34.754233 
327316000     275.4355    261.36539    318.78957    -128331.4    128438.55   -57.424179    34.750832 
327320000    289.09576    454.22005    414.67119   -128355.38     128443.8    39.548862    34.747875 
327324000     293.1063    401.56431    253.71449   -128408.24    128484.38    147.84982    34.750426 
327328000     292.3375    301.21812    257.42014   -128395.28    128498.17    43.797977    34.752074 
327332000    267.76557    191.25848    395.57267    -128426.7    128535.66   -204.31419    34.758518 
327336000    263.55745    344.06566    322.63859   -128417.03    128535.97    21.427065    34.758319 
327340000    264.12561    324.65206    317.61555   -128452.49    128572.18    7.0365057    34.757256 
327344000    268.02383    380.10634    412.71992   -128491.32    128589.44   -32.613574    34.757848 
327348000    274.73807    348.31499    290.27788   -128507.67    128604.99    58.037108    34.758369 
327352000    316.16378    586.16612    337.00411   -128544.07    128608.71    249.16202    34.766137 
327356000    310.26078    542.27177    391.70406    -128543.4    128628.84    150.56771    34.764665 
327360000    272.12531    357.95849    258.22952    -128558.6    128644.15    99.728972    34.763914 
327364000    252.48378    315.87961    295.42925   -128555.28     128664.1    20.450369    34.767433 
327368000     267.5023    339.12372    321.26279   -128591.59    128690.25    17.860924    34.767838 
327372000    294.49042    459.64142    240.89046   -128626.24    128704.13    218.75096    34.768936 
327376000    247.51814    269.82568    454.29494   -128631.16    128735.54   -184.46926     34.77065 
327380000    286.06718    235.76489    380.89969   -128666.48    128766.22    -145.1348    34.772941 
327384000    277.18147    417.97723    286.65628   -128701.31    128785.02    131.32095    34.781848 
327388000    282.72677    404.75969    204.01304   -128697.34    128798.16    200.74665    34.783668 
327392000    306.07027    438.38764    257.22921   -128738.04    128805.46    181.15843    34.784676 
327396000    290.27287    557.65844    538.49853   -128746.51    128840.29    19.159909    34.786797 
327400000    249.33031    329.46766    185.90189   -128762.06     128872.8    143.56577    34.781767 
327404000    276.42168    253.93954     399.3034   -128808.02    128903.54   -145.36387    34.784916 
327408000    271.34817    353.46008     323.2887   -128812.68    128919.06    30.171378     34.79646 
327412000    261.32365    286.50189    368.45576   -128861.94    128949.22   -81.953871    34.788042 
327416000    242.06483    301.30423    302.92071   -128885.32    128995.03   -1.6164817    34.786345 
327420000    267.63064    111.61097    261.77663   -128900.32     128994.3   -150.16566    34.786874 
327424000    276.04351    335.17179    417.91373   -128924.76    129011.27   -82.741937    34.787578 
327428000    300.08743    381.99885    374.84581   -128941.93    129023.84    7.1530406     34.78698 
327432000    283.53457    412.04065    290.42123   -128945.82    129040.14    121.61942    34.787615 
327436000    273.54223    332.22233    324.17007   -128974.73    129067.68     8.052256    34.786231 
327440000    306.18596    249.86435    237.99961   -129002.54     129094.8    11.864741    34.782845 
327444000    272.62469    380.34793    259.55289   -129018.47    129104.19    120.79504    34.786612 
327448000    272.70642    308.14543    245.07098   -129034.87    129138.74    63.074446    34.785286 
327452000    281.99653     450.0079    378.15219   -129052.26    129146.03    71.855702    34.787395 
327456000    275.42088    346.36487    258.62819   -129081.22    129181.78    87.736676    34.785773 
327460000    282.08187    292.79711    246.06694   -129107.34     129204.8     46.73017    34.790137 
327464000     295.6637    280.28789    260.08061   -129133.02    129207.98    20.207277    34.787558 
327468000    293.55094    331.26154    278.70913   -129164.23    129234.78     52.55241    34.780178 
327472000    306.94747    296.51179    414.97345   -129171.52    129253.94   -118.46166    34.779751 
327476000    306.12681     376.9833    374.32618   -129185.92    129258.56    2.6571197    34.782849 
327480000    293.70715    651.06567    399.36115   -129209.32    129289.69    251.70452     34.77872 
327484000    304.26852    493.10613    391.24752   -129234.99    129320.84    101.85861    34.779279 
327488000    318.55187    226.56505    442.36762   -129246.97    129333.75   -215.80258     34.78409 
327492000    298.94216    376.25066    555.80943   -129253.61    129358.88   -179.55877    34.787956 
327496000    283.51632    337.26855    394.09751   -129281.33    129363.45   -56.828959    34.786469 
327500000    265.79607    396.45704    294.43298   -129296.76     129399.6    102.02406    34.787395 
327504000    300.48347    294.61761    261.14984   -129329.61    129401.85    33.467768    34.786159 
327508000    276.52222    344.54445    184.01894   -129326.33    129416.78    160.52551    34.788118 
327512000    294.10576    335.14258    459.14096   -129340.25    129439.79   -123.99838    34.785299 
327516000     284.7482    396.89986    309.84012   -129395.11    129482.37    87.059741    34.791837 
327520000    278.63584    368.85497    220.30534   -129385.83    129472.18    148.54963    34.794744 
327524000    288.07521    422.35328    292.32606   -129417.85    129490.35    130.02721     34.79087 
327528000    325.68247    391.92895    453.88317   -129440.92    129500.55    -61.95422    34.796178 
327532000    274.53111    369.21515    279.81579   -129434.82    129522.31    89.399356    34.794387 
327536000    272.87496    380.14285    261.55412   -129471.79    129573.11    118.58873    34.796549 
327540000     273.0965    362.45069    241.38522   -129495.89    129589.63    121.06547     34.79334 
327544000    285.03613    303.65095    203.86673   -129522.79    129627.38     99.78422    34.793987 
327548000    290.48075    520.48641    242.27032   -129550.12    129640.75    278.21609    34.791847 
327552000    332.12669    372.93904    310.47381   -129551.26    129623.52    62.465233    34.786352 
327556000    300.26875     366.6328    431.69012   -129559.53    129656.76   -65.057314    34.785092 
327560000    304.74242    303.46538    331.27279   -129601.16    129686.79   -27.807413    34.782499 
327564000    267.77878    347.90717    166.57799   -129595.31    129710.53    181.32917    34.780085 
327568000    277.83925    300.46663     281.8593   -129633.34    129730.54    18.607329    34.776465 
327572000    297.75561    342.71514    326.29728   -129669.52    129766.75    16.417857    34.781128 
327576000    288.28618     284.4476     316.1933   -129715.59    129801.41   -31.745696    34.778676 
327580000    283.24926    403.63838    108.27814   -129723.81    129817.99    295.36024    34.780444 
327584000    285.66146    319.06506    310.98073   -129753.34    129849.18    8.0843261    34.784154 
327588000     302.0474    400.41196    390.61021   -129800.73    129870.69    9.8017491    34.782006 
327592000    273.75897    181.13273    305.35608   -129781.74    129881.59   -124.22335    34.777504 
327596000    278.15248    305.57295     385.8612   -129784.33    129860.19   -80.288253    34.777117 
327600000    286.58244    361.44871    297.88292    -129764.2    129865.07    63.565791    34.780349 
327604000    257.65186    314.98605    292.48596   -129788.35    129891.28    22.500089    34.773809 
327608000    284.09191    217.34525    219.44192   -129822.61    129927.81   -2.0966704    34.769429 
327612000     303.9605    393.35668    320.11608   -129841.54    129927.26      73.2406    34.768169 
327616000    285.03708    306.63316    337.86368   -129865.37    129949.61   -31.230519     34.76724 
327620000    278.94173    267.34247    232.03616   -129857.22    129956.25    35.306305    34.767447 
327624000    292.20583     356.2966      416.032   -129889.63    129969.83   -59.735403    34.758163 
327628000    273.20775    366.23951    240.90956   -129920.68    129997.66    125.32996    34.755741 
327632000    272.94389    468.88096    410.98814   -129945.38    130035.56    57.892829      34.7665 
327636000    305.02477    227.99605    284.90345   -129952.31    130034.66   -56.907406     34.76576 
327640000    282.40315    388.38781    272.61333   -129974.32    130068.94    115.77448    34.768998 
327644000     293.1654    306.63633    440.17748   -129994.83    130104.04   -133.54115    34.772441 
327648000    272.66788     413.2649    262.98863   -130018.43    130115.75    150.27628    34.770505 
327652000    240.44406    330.33122    298.99314   -130036.34    130161.38    31.338087    34.769558 
327656000    308.63065    506.04337    315.74931   -130067.91    130165.27    190.29406    34.759888 
327660000    273.63924    395.85092    357.83804   -130087.29    130193.68    38.012879    34.757767 
327664000    302.70335    479.56864    296.71108    -130116.8    130218.86    182.85756    34.754679 
327668000    283.65669    393.49236    227.48644   -130131.35    130224.74    166.00593    34.755599 
327672000    259.05859     403.4879    341.16418    -130148.5    130255.29    62.323721    34.759739 
327676000     312.9903    567.51393    376.20895   -130181.35    130259.25    191.30498    34.762247 
327680000    287.84145     377.1496    404.57308   -130193.12    130290.85   -27.423472    34.762931 
327684000    281.76109    275.03809    379.29332   -130204.17    130295.98   -104.25523    34.768261 
327688000    268.22449    307.50447    242.90923   -130221.23    130326.33    64.595239    34.771594 
327692000    280.14765     354.3701    202.33381   -130275.58     130364.9     152.0363    34.767663 
327696000    303.16307    585.09863    279.71281   -130297.61    130373.03    305.38582    34.765767 
327700000    295.32759    354.45222    232.77981   -130294.39    130383.53     121.6724    34.766554 
327704000    299.35114    346.68158    526.97135   -130279.39    130358.55   -180.28977    34.766721 
327708000    307.67727    224.74514    357.96882   -130302.01    130389.76   -133.22369    34.766003 
327712000    300.73483    321.73852     320.6327   -130322.04    130399.15    1.1058176    34.765222 
327716000    310.86535    232.88927    363.14186   -130344.92    130425.76   -130.25258     34.75796 
327720000    302.18678    547.66144    360.55988    -130358.5    130433.24    187.10156    34.760389 
327724000    291.17989    399.19231    429.75304   -130367.28    130468.91   -30.560731    34.758496 
327728000    292.09914    292.71539    340.86513   -130385.66    130473.05   -48.149737    34.758369 
327732000    294.14425    377.63813     483.4821   -130400.33     130491.2   -105.84397       34.751 
327736000    259.70377    372.18167     314.0978   -130378.74    130496.18    58.083872    34.744632 
327740000    298.82966    197.95475    294.14938   -130413.89     130499.6   -96.194621    34.751169 
327744000    306.60535    391.94964    251.96124   -130448.25     130519.8    139.98839    34.751161 
327748000    281.95607    401.39883    265.78827   -130485.56    130572.23    135.61055    34.753642 
327752000    299.69877     149.8392     593.6869    -130515.3    130588.87    -443.8477    34.748953 
327756000    291.21668    298.29561    224.79321    -130525.3    130618.99    73.502406    34.742461 
327760000    295.02278    450.92423    312.36341   -130544.27    130636.02    138.56082    34.743325 
327764000    278.45875    200.88589    384.05542   -130568.85    130658.73   -183.16954    34.743192 
327768000    293.70554    375.66832    278.56834   -130592.13    130675.24    97.099977    34.741459 
327772000    297.68199    488.03499    462.54531   -130585.66    130687.37    25.489677    34.744322 
327776000     274.7035    259.74001    289.73974   -130614.28    130724.31    -29.99973    34.752605 
327780000    298.73404    588.40483    530.47692   -130670.81    130746.38     57.92791    34.749077 
327784000    265.59353    235.33177    406.11027   -130650.46    130764.02    -170.7785    34.748664 
327788000    288.10832    277.98459    392.61273    -130688.5    130786.26   -114.62813    34.746819 
327792000    252.32966    357.65724    366.61619   -130713.62    130819.81   -8.9589538    34.749385 
327796000    300.53123    254.84991    338.33609   -130751.48    130824.76    -83.48618    34.747797 
327800000    271.50365    263.34187    246.06584   -130789.79    130889.05    17.276026    34.747607 
327804000    285.47405    448.28216    292.68447   -130825.48    130921.62    155.59769     34.74058 
327808000    286.63748    576.59838    319.95093   -130848.39    130948.29    256.64745    34.749026 
327812000    245.59961    167.44666    432.82824    -130884.3     131010.9   -265.38158    34.747193 
327816000    264.67934    233.81076    299.81279   -130916.79    131031.48   -66.002034     34.74745 
327820000    275.98153    436.84472    394.67481   -130957.83    131055.69    42.169911    34.748649 
327824000    271.80262    488.74677     370.2682   -130983.77    131081.17    118.47858    34.749587 
327828000    268.11441    242.72252    176.96982   -131003.22    131100.43    65.752695    34.753603 
327832000    282.30837    508.28363    296.40223   -131005.24     131124.1     211.8814    34.749051 
327836000    274.51906    520.06641    218.36977   -131064.33    131150.36    301.69665    34.754274 
327840000    271.25809    350.40909    459.66851   -131081.32    131191.46   -109.25942    34.751421 
327844000    275.79713    377.07083    325.84856   -131117.81    131234.18    51.222268    34.747342 
327848000    276.83235    290.06765    279.16287   -131158.54    131247.52     10.90478    34.744008 
327852000    285.24445    482.05252    257.48198   -131160.61    131251.38    224.57054    34.740208 
327856000    282.26391    274.72236    402.45445   -131186.74    131280.71   -127.73209    34.742848 
327860000    276.74099    328.35916    245.67948   -131207.92    131312.24    82.679681    34.749521 
327864000    257.05727    321.26133    248.62485   -131255.74    131365.97    72.636472    34.743497 
327868000    276.39554    439.75914    355.76825   -131285.81    131384.78    83.990888    34.741651 
327872000    279.77154    202.44153    259.21149    -131316.7    131402.24   -56.769954    34.744131 
327876000    296.12466     246.1755    260.26974   -131342.99     131434.7   -14.094239    34.748892 
327880000    271.34902    284.13143    282.54104   -131348.12    131444.58    1.5903908    34.748824 
327884000    288.53106      273.757    506.44722   -131349.13    131472.54   -232.69023    34.752505 
327888000      286.529     509.2735      252.199   -131388.85    131484.22     257.0745    34.752634 
327892000    289.60092    367.32562    315.99962   -131417.74    131506.58    51.325996    34.747618 
327896000    278.50103    430.10621    125.06717    -131441.7    131542.45    305.03904    34.749626 
327900000    273.20832    190.19653    360.13197   -131455.44    131557.88   -169.93543    34.751087 
327904000    281.12626    256.54705      118.473    -131477.9    131586.03    138.07405    34.754845 
327908000    309.10327    293.15004     249.3779   -131522.58    131589.45    43.772143     34.76515 
327912000    279.91754    396.68077    220.41687   -131524.32    131623.24     176.2639    34.762432 
327916000     278.7332    279.15041    365.52679   -131538.79    131634.22   -86.376378    34.766061 
327920000     260.7523    630.19574    239.78784   -131539.35    131644.66     390.4079    34.762993 
327924000    297.14261    601.00124    468.79107   -131565.29     131648.5    132.21017    34.769526 
327928000    298.31291    576.19188     429.0456   -131571.55    131670.54    147.14628    34.770885 
327932000    257.19263    209.49589    344.79668   -131601.01    131708.41   -135.30079    34.774264 
327936000    244.27176    134.56078    224.12152   -131635.44    131749.12   -89.560736    34.778797 
327940000    257.89421    257.40715    361.23186   -131654.53    131772.18   -103.82471    34.775979 
327944000    253.59431     305.5629    385.51909   -131696.23    131803.53    -79.95619    34.780075 
327948000     309.9522    465.08969     382.6483      -131744    131827.15    82.441393    34.781865 
327952000    303.43289    505.05063    402.12789   -131774.06    131856.95    102.92274    34.785834 
327956000    281.24484    561.60698    322.37828   -131801.63    131892.14    239.22871    34.786464 
327960000    273.30035     418.3135    361.03924   -131783.89    131894.32    57.274258    34.789712 
327964000    270.58143    348.43808     545.4241    -131811.7    131923.25   -196.98602    34.790698 
327968000    294.70687    237.89873    434.16514   -131864.19    131951.34    -196.2664    34.794525 
327972000    262.69165    313.71315    358.93425   -131868.39    131979.46     -45.2211    34.797503 
327976000    252.93797     220.7013    273.94589   -131899.78    132009.34   -53.244592    34.804368 
327980000    251.57121    255.48045    373.53303   -131914.33    132047.63   -118.05258    34.804618 
327984000    281.91336    196.79138     317.4875   -131962.63     132056.8   -120.69612    34.807787 
327988000    282.17123    350.92803    230.48861   -131956.31    132054.15    120.43942    34.814724 
327992000    280.75985    412.08315    276.17875   -132000.27    132086.29    135.90439    34.819684 
327996000    287.58884    336.64385    161.15258   -132026.21     132116.2    175.49127    34.819302 
328000000    277.04402     242.0275    193.90518   -132040.83     132127.8    48.122317    34.823887 
328004000    310.46054    484.94506    302.74514   -132054.36    132140.02    182.19993    34.823126 
328008000    280.86682    336.20353    302.32796   -132047.57     132132.1    33.875572    34.826535 
328012000    259.98469    144.21999    238.57082   -132053.09     132181.1    -94.35083    34.828706 
328016000     283.5632    374.31877    336.94232   -132081.51    132175.08    37.376448    34.821049 
328020000    306.89222    290.15355    410.07259   -132099.59    132195.93   -119.91904    34.830065 
328024000    250.66539      385.344     256.6726   -132122.25    132246.04     128.6714    34.831988 
328028000    281.56685    426.86932    369.14356   -132147.28    132252.47    57.725761    34.833581 
328032000    288.27281    434.87239    338.02748   -132165.02    132260.16    96.844903    34.833805 
328036000    288.68997    278.95816     422.9947    -132197.4    132285.44   -144.03654    34.833421 
328040000     288.2957    187.54504    357.86273   -132233.76    132307.99   -170.31769    34.830466 
328044000    267.15467    319.99611     232.3261   -132234.37    132339.27    87.670013    34.832677 
328048000     323.8416    454.31607    369.42521   -132271.79    132354.72    84.890859     34.83389 
328052000    317.30496    687.50426    292.49506   -132268.83    132348.15     395.0092    34.836755 
328056000    296.94296    313.39249    341.67192   -132280.79    132374.46   -28.279427    34.827936 
328060000    282.98452    382.00191    281.72554    -132330.5    132400.34    100.27637    34.829867 
328064000    298.07436    409.28815    431.58704   -132346.59    132433.87   -22.298893    34.829156 
328068000    267.66166    335.38728    436.00018   -132361.14    132444.35    -100.6129    34.820572 
328072000    274.05913    275.95946     216.0799   -132387.17    132480.72    59.879552    34.822223 
328076000    280.94941     216.5736     496.4214   -132405.99    132492.02    -279.8478    34.823428 
328080000    274.35276    276.41456    234.14875   -132418.87    132543.49    42.265805    34.820031 
328084000    296.41339    376.87365    503.61149   -132436.42    132548.49   -126.73784    34.817502 
328088000    289.01507    461.51253    396.05097    -132459.7    132544.95    65.461564    34.817484 
328092000    282.82091    333.61329    335.71851   -132479.36    132575.84   -2.1052273    34.817456 
328096000    303.66331    364.04529    205.31789   -132495.29    132576.49     158.7274    34.806339 
328100000    295.91687    306.61938    483.00462   -132500.06    132588.96   -176.38523    34.803004 
328104000    260.80913    321.66243    320.76217   -132515.78     132635.9   0.90026191    34.803341 
328108000    264.61356    426.60075    308.90517   -132553.03    132655.11    117.69558    34.804222 
328112000    317.68143    405.95968    404.79917   -132595.58    132648.48    1.1605152    34.802844 
328116000    282.95715    323.92225    272.65199    -132616.8    132708.75    51.270265    34.806336 
328120000    288.32659    491.64509    217.74466   -132606.45    132708.34    273.90043    34.808689 
328124000    296.01139    411.74155    505.96647   -132663.79     132737.2   -94.224921     34.80567 
328128000    255.48671    303.04901    337.88127    -132669.7    132759.25   -34.832265    34.802877 
328132000    270.08391    270.48987    276.85104   -132675.35    132796.58   -6.3611649    34.808997 
328136000    291.99857      330.211    449.92896   -132726.39     132828.3   -119.71796    34.809009 
328140000    305.42494    395.11873     294.6493   -132767.54    132835.05    100.46943    34.816565 
328144000    293.71326    408.46626    385.44401   -132774.97    132856.17    23.022252    34.821441 
328148000    287.80861     434.1588    217.03601   -132784.04    132892.65    217.12279    34.816866 
328152000    290.65341    407.22054    266.73126   -132828.19    132924.35    140.48928    34.823289 
328156000    305.36037    715.92381    318.14995   -132872.13    132960.32    397.77385    34.829604 
328160000    303.05258    533.55054    277.92141    -132887.2    132951.51    255.62913     34.83344 
328164000    298.42198    315.70123    384.33297   -132913.34    132977.98   -68.631736    34.835779 
328168000    307.87433    429.58363      493.038   -132898.86    132996.63   -63.454363    34.838206 
328172000    291.71588    280.89464    375.65648   -132934.74    133021.78    -94.76184    34.830649 
328176000    287.49306    335.09759    511.74952   -132934.47    133024.23   -176.65193    34.826275 
328180000    312.62285     404.1018    304.50906   -132952.72    133042.95     99.59274    34.823168 
328184000    272.69829    230.28974    419.93338   -132967.89    133089.48   -189.64364    34.821885 
328188000    263.87224    333.59519    219.99712   -133010.47     133138.6    113.59807     34.82066 
328192000    270.88836    440.31893     350.9059   -133055.15    133152.71    89.413036    34.824477 
328196000     289.4208    235.11687    374.17929   -133091.39    133190.48   -139.06242    34.818291 
328200000    276.26592     342.0513     303.8481   -133110.61    133202.81    38.203205    34.818844 
328204000    296.47247    339.50963    445.53926   -133126.42    133225.02   -106.02963    34.816435 
328208000    287.84184     316.8627    281.81842   -133163.27     133247.6    35.044278    34.816192 
328212000     308.3991    450.53597    360.59174   -133197.12    133284.47    89.944232    34.811354 
328216000    284.03719    292.35533    358.40352   -133231.43    133325.55   -66.048194    34.809674 
328220000    298.88612    480.71761    388.78049   -133271.55    133334.26     91.93712    34.809088 
328224000    310.96216     533.1251    353.09441   -133316.53    133385.27     180.0307    34.810129 
328228000    263.42496    469.54466    387.12868   -133341.53    133450.91    82.415985    34.817075 
328232000    305.47129    555.54794    367.49726   -133350.97    133446.26    188.05068     34.81428 
328236000    257.28741    261.45801    402.23012   -133345.59     133452.7   -140.77212    34.806219 
328240000    287.04863    242.82211    471.43609   -133380.76    133487.01   -228.61398    34.811229 
328244000    269.85589      364.609    268.70617   -133379.65    133479.68    95.902836     34.80366 
328248000    290.79032    464.70601    218.16156   -133393.42    133480.54    246.54444    34.811779 
328252000    281.67978    352.07872    564.20012   -133432.48    133538.36   -212.12141    34.812903 
328256000    255.44055    446.76601    133.55468   -133452.43    133565.41    313.21133    34.819737 
328260000    297.23613    371.48545    428.29295   -133462.92    133568.21   -56.807492    34.819036 
328264000    266.40582    273.68197    300.35569   -133482.33    133582.62    -26.67372    34.820101 
328268000    242.35826    296.42457    275.37756   -133461.31     133576.4     21.04702    34.823068 
328272000    303.90904     388.8491    402.48671   -133485.31    133578.29   -13.637607    34.821284 
328276000    268.12966    278.16208    218.42139   -133507.17    133608.23    59.740685    34.826332 
328280000     299.4491    288.43165    421.93131   -133520.44    133613.52   -133.49966    34.829368 
328284000    290.78105    280.92092     153.1154   -133524.62    133612.84    127.80551    34.833089 
328288000    281.90112     285.2436     182.6457      -133531    133632.32     102.5979    34.832677 
328292000    283.39416    413.09846    308.13664   -133551.52    133649.61    104.96182    34.841318 
328296000    288.34683    447.83541    370.48217   -133583.69    133664.67    77.353246      34.8407 
328300000    265.64974    398.23778    242.07446   -133585.39    133689.64    156.16332    34.841262 
328304000    268.84115    380.50156    197.27371   -133607.46    133711.29    183.22786    34.842164 
328308000    288.06614     334.1064    244.97245   -133630.35    133716.01    89.133957    34.842299 
328312000    294.85958    418.90481    480.02142   -133648.99    133748.17   -61.116615    34.837022 
328316000      275.941    415.58302    368.43863    -133702.8       133801    47.144397    34.841004 
328320000    292.14638    502.18673    476.48868   -133717.85    133839.19    25.698045    34.840905 
328324000    283.28068    421.45512    342.09892   -133753.55    133858.74    79.356194     34.83748 
328328000    268.32998    317.05353    239.57728   -133773.01    133862.97     77.47625    34.844768 
328332000    268.72168    501.01348     216.9783   -133785.17     133898.3    284.03518    34.848458 
328336000    304.19598    494.84368    486.05067   -133814.54    133905.45    8.7930094    34.841104 
328340000    301.63335    635.01107    298.76465   -133822.46    133929.27    336.24642    34.841193 
328344000    269.96175    316.89031    236.93862    -133861.8    133960.27    79.951689    34.839585 
328348000    285.74865    420.23794    353.71209   -133884.26    133970.58    66.525852    34.835654 
328352000     290.6459    275.66966    693.19878   -133905.08    134004.25   -417.52913    34.830528 
328356000    269.14265    265.63084     323.1462   -133915.25    134028.34   -57.515353    34.829615 
328360000    289.12536     356.4895    335.34147   -133946.67     134044.9    21.148035    34.831806 
328364000    261.46478    183.44098    306.77848   -133946.75    134064.89    -123.3375      34.8329 
328368000    291.08421    434.02591    287.11123    -133970.5    134061.88    146.91468      34.8242 
328372000    266.04066    412.75706    231.51517   -133993.42    134100.71    181.24189    34.818559 
328376000    250.61589    405.81307    238.84269   -133998.81    134117.92    166.97038    34.818303 
328380000     302.8554    377.55858    375.96086   -134068.28    134138.18     1.597719    34.815388 
328384000    317.42352    536.11065    318.91481   -134044.28    134125.47    217.19584    34.819242 
328388000    275.72357    374.92046    506.93639   -134040.97    134155.23   -132.01593    34.821918 
328392000    268.02651    349.89899    165.85978   -134049.69    134180.21    184.03921    34.828219 
328396000    270.64003    281.57753    206.68979   -134091.43    134195.37    74.887738    34.834209 
328400000    242.30892    241.62349    336.80308   -134129.29    134240.33   -95.179595    34.829514 
328404000    243.37825    362.24163    311.14078   -134170.93    134286.79    51.100851    34.827232 
328408000    279.15883    263.17686    332.16546   -134229.22    134333.44   -68.988605     34.83086 
328412000    294.07792    365.28462    298.66091   -134252.88    134352.71     66.62371    34.833533 
328416000    300.75198    430.22034    590.36573   -134272.01    134363.24   -160.14539    34.832118 
328420000    270.91072    294.86398    204.53771   -134286.45    134399.34    90.326273    34.831934 
328424000    259.23336    280.58105    229.07297    -134309.2     134425.3    51.508081    34.827837 
328428000    252.93668     357.6853    356.82695   -134339.67    134451.37    0.8583493     34.83556 
328432000    290.92268    657.73528    299.94059   -134369.58    134445.89     357.7947    34.844452 
328436000    281.13662    475.28465    204.37261   -134403.47    134498.93    270.91204    34.839115 
328440000    302.32979    222.77338      581.753   -134425.47    134495.18   -358.97962    34.837012 
328444000    292.67847    239.47515    251.35984   -134420.73    134520.56   -11.884692    34.832964 
328448000    260.37297    531.83265    226.26133   -134459.57    134579.91    305.57132    34.831005 
328452000    294.62811    472.16418    296.09628   -134489.32    134595.34     176.0679    34.829559 
328456000    290.17622    348.13225    213.67652   -134512.21    134618.59    134.45572    34.828778 
328460000    280.38973    382.94233    367.85687    -134545.5    134636.32    15.085459    34.818354 
328464000    278.99343      372.163    339.03451   -134580.72    134681.26     33.12849    34.814208 
328468000     271.8289    614.87787    344.49426   -134604.95     134713.4    270.38361    34.817671 
328472000    263.88299    222.35732    279.68292   -134626.35    134720.74   -57.325597    34.828407 
328476000    285.99563    408.55951    389.30904   -134682.86    134767.05    19.250468    34.826727 
328480000    288.47976    405.87732    218.98488   -134711.37    134810.35    186.89245    34.828174 
328484000    290.80509    546.05623    254.84411   -134717.51    134815.85    291.21212    34.830792 
328488000    273.53013    368.08382    270.08695   -134743.63    134832.62    97.996872    34.831628 
328492000    279.24792    348.72258    318.93665   -134757.57    134866.89    29.785925    34.835784 
328496000     273.4356    249.34917    291.46302   -134787.85     134883.8   -42.113852    34.830061 
328500000    269.90986    333.05533    254.80164    -134814.9    134943.57    78.253693    34.832786 
328504000     262.7066    361.94549    314.55572   -134857.46     134960.3    47.389771    34.829709 
328508000    324.30859    482.13141    575.86215   -134889.49    134958.71   -93.730746    34.837231 
328512000    274.36515    222.12209    498.31256   -134877.77    134982.86   -276.19046    34.841731 
328516000    281.71469    354.15395     236.3118   -134897.98    135009.21    117.84216    34.843539 
328520000    299.75607    386.92921    426.63129   -134979.85     135064.9    -39.70208    34.840469 
328524000    265.41353    352.93609    347.65495   -134991.61    135095.99    5.2811392    34.840308 
328528000    300.11016    375.39676    467.32561   -135029.82    135125.51    -91.92885    34.833824 
328532000    290.13631    371.82134    496.61676   -135063.24    135154.05   -124.79542    34.834793 
328536000    292.99491    339.11356    215.74966    -135106.2     135181.6     123.3639    34.831229 
328540000    276.24423    277.04271    338.57609   -135108.35    135208.85   -61.533373    34.834706 
328544000    276.35091    414.79077    370.36104    -135134.4    135247.66    44.429736     34.82828 
328548000    290.64808    259.92429    306.67064   -135187.37    135276.63   -46.746352    34.832388 
328552000    290.56918    250.22418    133.30716    -135192.6    135273.81    116.91703    34.829338 
328556000    276.92919    504.22647     253.8482   -135186.44    135274.83    250.37826     34.83354 
328560000    267.74801    446.39759    281.07871   -135198.78    135291.93    165.31888    34.831688 
328564000    277.48671     517.5705    223.30693   -135218.25    135306.58    294.26357    34.831355 
328568000    301.25494    283.66816    328.19467   -135231.62     135317.8   -44.526514    34.829764 
328572000    331.73454     281.5209    237.26395   -135274.79    135348.44    44.256947    34.831273 
328576000     290.8416    449.91687    359.33495   -135313.65    135389.62    90.581926    34.833886 
328580000    283.87539    605.85433    249.83675   -135328.32     135420.4    356.01758    34.832547 
328584000    283.53591    281.49272    307.77019   -135359.76    135450.78   -26.277475    34.835958 
328588000    321.43054    477.46937    284.69405   -135391.31    135470.84    192.77531    34.830104 
328592000    308.22037    425.93583    361.86064   -135400.89    135496.99    64.075194    34.826066 
328596000     271.5449    335.86075    412.14964   -135429.49    135526.74   -76.288884    34.826757 
328600000     300.7211    473.57721    554.00048   -135444.71    135534.84   -80.423263    34.815329 
328604000    259.64352    416.25386    419.25459   -135451.56    135586.34   -3.0007276    34.815892 
328608000     286.4333    456.71596    295.91086   -135496.96     135583.5     160.8051    34.815103 
328612000    273.55503     448.7535    375.62376   -135522.28    135628.27    73.129733    34.814711 
328616000    279.77619    354.35053    180.39656   -135551.76    135653.66    173.95397    34.819263 
328620000    301.69956    522.06794    219.97852    -135578.2    135682.32    302.08942     34.81993 
328624000    289.06595    325.36062    451.70861   -135594.62    135696.14   -126.34799    34.821486 
328628000    302.87618    426.92937    283.88932   -135594.67    135679.56    143.04006    34.825773 
328632000    279.37087    245.91706    409.26312   -135599.91    135705.48   -163.34605    34.827081 
328636000    303.02359    300.74909     292.7454   -135637.14    135722.34    8.0036893    34.824948 
328640000    289.85911    504.16645    196.55193   -135650.19    135734.75    307.61453    34.826117 
328644000    289.94245    306.18406      273.238   -135662.69    135757.87    32.946059    34.829626 
328648000    264.72821    191.84189    313.27613   -135693.05     135790.6   -121.43424    34.826405 
328652000    302.69989    307.70691    380.00512   -135736.76    135817.57   -72.298209    34.826311 
328656000    304.74963    400.48384    295.32637   -135740.74     135820.3    105.15747    34.824359 
328660000    271.09977    255.92769    450.77335   -135780.28    135857.99   -194.84566    34.822285 
328664000     291.2122    218.87884    235.28822   -135801.16    135883.36   -16.409382    34.822938 
328668000    280.38008    380.20211    301.09409   -135856.27    135937.81    79.108018     34.82183 
328672000    309.69549    471.66176    201.38486   -135874.74    135958.15     270.2769    34.828036 
328676000    281.87983    301.62081    442.98986   -135880.56    135971.76   -141.36904    34.824083 
328680000    278.34562    459.25166    331.65762   -135894.21    135996.63    127.59405    34.825244 
328684000    300.19871    350.02227    302.67072    -135923.4    136000.15    47.351546    34.818995 
328688000    276.20164    327.00235     218.7961    -135928.6    136030.79    108.20625    34.819074 
328692000     270.6008    301.77775     329.6221   -135943.68    136053.22   -27.844358    34.812276 
328696000    301.55444    396.36395    228.14306   -135999.12    136083.66    168.22089    34.808602 
328700000    293.66171    389.82515    417.26584   -135993.25    136113.83   -27.440698    34.805944 
328704000    292.47615    310.57243    382.01015   -136021.54    136125.24   -71.437716    34.805157 
328708000    276.24992    518.89101    438.36498   -136021.83    136140.65    80.526034    34.801667 
328712000    272.71569    330.11142    491.62824   -136017.14    136129.21   -161.51682    34.800186 
328716000    257.76817      229.087    287.72995   -136064.81    136174.35    -58.64295    34.796506 
328720000    253.21155    236.50329    288.76443   -136083.27    136190.75   -52.261141    34.795463 
328724000    285.35172    492.77514    338.88822    -136120.3    136215.13    153.88692     34.79485 
328728000    286.40593    189.52271    354.50982   -136142.83    136228.55    -164.9871    34.796202 
328732000     270.1295     378.9047    493.61341   -136186.18    136264.97   -114.70871    34.791194 
328736000    301.26368    351.14733    214.88459   -136171.57    136257.19    136.26274    34.789284 
328740000    284.23133    261.56153    422.49805   -136172.38    136274.81   -160.93652    34.787324 
328744000    283.11226     235.4542    241.76996   -136188.71    136292.04   -6.3157579    34.786441 
328748000    295.13766    518.39677     425.9224   -136224.57    136315.58    92.474365    34.789288 
328752000    289.01771    418.83422    549.03176   -136241.51    136334.38   -130.19754    34.784724 
328756000     277.6754    396.14994    275.17407   -136298.48    136378.36    120.97588    34.785829 
328760000    304.78114    640.14783     247.8494   -136320.04    136406.67    392.29843    34.784921 
328764000    273.22475    621.05959    299.78636   -136351.61    136428.41    321.27323    34.784255 
328768000    282.36584    386.44683    226.52065   -136368.94    136467.55    159.92618    34.780059 
328772000    311.40758    538.98363    441.58948   -136405.99     136477.5    97.394146    34.776703 
328776000    283.54194    426.99265    376.41302   -136431.48    136537.98    50.579626    34.774129 
328780000    269.96613    348.36214    225.73329   -136443.86    136548.37    122.62886      34.7782 
328784000    286.16545     407.0139    173.85324   -136486.39    136585.92    233.16066    34.778825 
328788000    275.47365    346.37634    287.19928   -136517.27    136614.56    59.177059    34.780006 
328792000     269.7693    225.64903    198.55509    -136543.9    136664.28    27.093935    34.776933 
328796000    286.52127    495.56309    263.23033   -136574.33     136675.2    232.33276    34.775652 
328800000    272.44666    290.94562    276.78024   -136590.23    136684.23    14.165374    34.770317 
328804000    288.04231    436.48832    437.60893   -136624.85    136725.84   -1.1206081     34.77141 
328808000    285.53255    393.98808    194.32496   -136643.41    136749.53    199.66311    34.775448 
328812000    297.46346    235.50657    297.40933   -136698.73     136769.6    -61.90276    34.774646 
328816000    293.42081     316.7432    343.48858   -136709.78    136782.09   -26.745378    34.771757 
328820000    280.77877    546.30825    288.70332   -136730.34    136827.65    257.60493    34.764635 
328824000    270.56559    414.48533    411.04922   -136777.73    136872.81    3.4361074    34.775339 
328828000    247.33527    268.83393    311.16838   -136824.55    136913.09    -42.33445     34.77396 
328832000    298.35407    472.51756    254.15094   -136854.41    136916.36    218.36662    34.775984 
328836000    280.03492    283.37068    332.96235   -136836.62    136929.87   -49.591678    34.772138 
328840000    314.74754    457.91959    524.14035   -136874.03    136950.25   -66.220762    34.776988 
328844000    269.89621    311.48786    336.87135   -136894.35    136987.17   -25.383486    34.770334 
328848000    277.34977    383.70779    441.84985   -136900.55    136998.85   -58.142067    34.763798 
328852000    297.70501    665.83483    363.15732   -136929.13    137010.76    302.67751    34.765682 
328856000    301.09515    353.72619     321.6849   -136952.07    137046.78    32.041293    34.761998 
328860000    282.13158    424.05712    240.07777   -136971.21    137075.19    183.97935    34.762617 
328864000    297.12739    552.71034     270.5484   -137025.88    137110.89    282.16195    34.758384 
328868000    291.03043    348.63755    361.84986   -137028.67    137122.68   -13.212307    34.756928 
328872000    264.99536    298.70098    313.83467   -137036.09    137133.66   -15.133693    34.754462 
328876000    295.24356    331.47491    295.35307   -137071.71    137159.33    36.121843     34.75165 
328880000    285.52556    255.81101    289.84294   -137083.02    137186.61   -34.031928    34.752066 
328884000    298.89587    404.25562    329.46861   -137094.21    137187.04    74.787015    34.758615 
328888000    264.27738    260.27462    204.41889   -137107.54    137220.86     55.85573    34.754245 
328892000    317.71834    304.27267    544.92401   -137144.56    137226.29   -240.65133    34.756278 
328896000     297.4183     243.3637    347.31125   -137190.02    137269.27   -103.94755    34.751946 
328900000    255.36943    372.66014    215.93667   -137176.59    137316.11    156.72347     34.75133 
328904000    260.61325    155.78107     464.7293   -137207.27    137309.98   -308.94823    34.752987 
328908000    277.71252    223.93217    390.61993   -137224.11    137321.55   -166.68777    34.756492 
328912000    283.82137    394.33366    194.96785   -137248.95    137360.56    199.36581    34.754174 
328916000    267.85453    158.97616    292.98855   -137262.01     137361.6    -134.0124    34.753247 
328920000    304.58926    373.96422    300.60595    -137295.9    137372.89    73.358266    34.745773 
328924000    264.84442    416.02045    281.02456   -137291.71    137387.21    134.99588    34.743924 
328928000     278.0797    210.20829     237.0341    -137309.5    137403.24   -26.825805    34.739821 
328932000    272.38787    528.61932    280.19383   -137336.92    137430.03    248.42548    34.741507 
328936000    279.59317    587.84381    470.51602   -137384.49    137465.26    117.32779    34.738834 
328940000    282.89058    496.08267    281.83435   -137407.81    137512.45    214.24832    34.739244 
328944000    260.97315    228.96933    274.97623      -137425    137536.47   -46.006902    34.737111 
328948000    290.09181    369.06759    292.53257   -137450.41    137541.93    76.535018    34.736403 
328952000    294.03944    381.08566    239.83965   -137450.92    137547.73    141.24601    34.737269 
328956000     289.2342    337.18889    213.75775   -137479.47    137570.83    123.43114    34.745079 
328960000    292.18344    441.62579    456.19412   -137493.83    137588.73   -14.568334     34.74778 
328964000    302.07071    304.19718    339.04102   -137519.74    137606.43   -34.843847     34.75046 
328968000    320.06678    548.63334    241.67404   -137543.94    137628.46    306.95929     34.74789 
328972000    275.26956    450.31906    318.46262   -137529.05    137623.03    131.85644     34.74953 
328976000     299.4819     485.0523    218.00086   -137547.68    137639.86    267.05145    34.746726 
328980000    274.59334    356.91942    374.28518   -137569.82    137672.89   -17.365763    34.749326 
328984000    284.55834    268.67546    242.03051   -137617.52    137721.81     26.64495    34.745711 
328988000    279.47685    336.37752    330.27085   -137631.26    137730.05    6.1066694    34.740077 
328992000    264.44733    286.04435    363.08704   -137645.01    137742.99   -77.042693    34.736514 
328996000    284.11459    286.51338    298.03908   -137673.58     137766.4   -11.525702    34.738602 
329000000    311.15298    422.79162    367.72619   -137712.57    137794.55    55.065432    34.739011 
329004000    276.20484    279.30393    208.33954   -137715.48    137814.57    70.964385    34.741542 
329008000    306.84057    228.61272    355.89346   -137751.44    137837.38   -127.28074    34.737151 
329012000    304.76909    267.62446    470.15109   -137789.53    137871.88   -202.52663    34.735961 
329016000    240.44086    272.34521    203.78434   -137804.42    137895.58    68.560866    34.742766 
329020000    273.98155    291.33513    225.91367   -137820.74    137931.69    65.421455    34.744596 
329024000    290.01263    509.87411    250.55674   -137851.09    137940.41    259.31738    34.748483 
329028000    297.79271     500.9806    243.29339   -137879.08    137990.38    257.68721    34.752941 
329032000    271.32535    350.79584    282.28158   -137882.33    137996.97    68.514254    34.757102 
329036000    317.77959    302.27545    410.80747   -137910.17    137989.85   -108.53202    34.755922 
329040000    267.31467    186.64116    332.41691   -137936.32    138041.45   -145.77575    34.749472 
329044000    277.22227    448.93182    194.75837   -137958.76    138051.16    254.17345    34.750755 
329048000    274.52421     374.3132     218.0303   -137944.67    138053.07     156.2829    34.748672 
329052000    323.27009    430.51335    402.00329   -137972.06    138041.45    28.510057    34.751393 
329056000     289.4109    392.34258    325.06784   -137987.84     138084.8    67.274735    34.750525 
329060000    303.12217    441.21701    250.18962   -138037.23    138116.47    191.02738    34.753924 
329064000    238.35816     324.4653    264.36535   -138051.62    138187.46    60.099957    34.751782 
329068000    302.38996    312.25386    313.56747   -138101.67    138185.87   -1.3136085    34.751613 
329072000    279.16135    183.90911    279.50318   -138122.16    138211.84   -95.594066    34.745729 
329076000    279.79142    298.98056    292.11738   -138135.68    138242.53    6.8631806    34.751589 
329080000    293.63877    417.61864    481.78539   -138168.76    138264.71   -64.166751     34.75365 
329084000    276.76274    307.74132    350.24409   -138186.97     138285.8   -42.502767    34.758968 
329088000    271.30287    220.92875    319.23081   -138218.67    138303.58   -98.302068    34.755428 
329092000    271.80279    335.89273    315.44053   -138230.86    138323.44    20.452195     34.75348 
329096000     254.2865    446.59854    290.69484   -138252.48    138360.45     155.9037    34.757083 
329100000    263.53423    277.27067    304.63724   -138270.73    138386.51   -27.366577    34.754095 
329104000    269.01659    237.19584    243.19606   -138284.49    138403.55   -6.0002182    34.758328 
329108000    286.47356    170.32419    481.77722   -138309.34    138401.07   -311.45303    34.757366 
329112000    254.65437    228.72716     458.1784   -138336.06    138451.05   -229.45124     34.75815 
329116000    256.16173    812.09167    154.05816   -138376.87    138484.47    658.03351    34.759013 
329120000     304.3836    379.67818    481.59976   -138420.42    138517.12   -101.92158    34.764156 
329124000    304.69531    366.26333    334.04961   -138468.34    138552.66    32.213722    34.763132 
329128000    302.11498    376.83667    356.44871   -138487.59    138583.62    20.387954    34.769074 
329132000    301.63394    495.56981    234.75225   -138500.67    138582.28    260.81756    34.771836 
329136000     280.3197    172.07727    322.96622   -138506.24    138601.35   -150.88895    34.768447 
329140000    315.13365    600.75823    353.04629   -138559.94     138645.9    247.71194    34.769882 
329144000    278.16976    511.85724    205.85016   -138573.44    138691.32    306.00708    34.767545 
329148000    270.76457    296.61241    458.21334   -138608.42    138721.26   -161.60093    34.765705 
329152000    280.12317    264.08319    307.26682   -138633.93    138726.48   -43.183629    34.761509 
329156000    274.83358    323.39259    303.19791    -138684.4    138780.74    20.194673    34.762107 
329160000    276.40947    319.63945    159.33524   -138711.59    138812.04    160.30421    34.763476 
329164000    263.82283    416.35727    288.30232   -138732.54    138845.78    128.05495    34.766638 
329168000    295.69153    453.97771    310.42196   -138745.92    138843.77    143.55575    34.770752 
329172000    326.37296    503.19652    221.32429   -138788.41    138867.57    281.87223    34.776221 
329176000    303.14035    507.05371    323.02821   -138787.75    138886.35    184.02551    34.779488 
329180000    280.17733    365.73788    293.03562   -138814.64    138914.09    72.702259    34.778174 
329184000    263.89111    370.25298    210.61239   -138811.18    138899.09    159.64059    34.772842 
329188000     275.7019    473.71612    271.47959    -138867.7    138947.35    202.23652    34.774334 
329192000    287.32728    468.37022    326.33702   -138893.24    138989.43     142.0332    34.769213 
329196000    271.08382    373.53865    291.31622    -138909.5    139009.93    82.222429    34.769463 
329200000    307.77993    537.86857    264.96656   -138961.47    139056.94    272.90201    34.772294 
329204000    296.42347    316.61196    352.33772   -138966.93    139061.22   -35.725765    34.768612 
329208000    288.71894    270.43999    438.23657   -139000.35    139103.53   -167.79658    34.760458 
329212000    278.13588    249.60012    288.66043   -139019.42    139113.36   -39.060306    34.756489 
329216000    293.65691    372.76003    244.42322   -139059.21    139145.85    128.33681      34.7484 
329220000    301.32013    291.31398    311.48828   -139078.65    139159.89   -20.174297    34.743435 
329224000    289.59569    236.64511    318.04774   -139085.97    139188.12   -81.402624    34.737146 
329228000    279.98237    289.20436    483.67628   -139107.86    139202.66   -194.47192     34.73797 
329232000    264.50885    411.11074    395.90675   -139116.18     139233.5    15.203993    34.737677 
329236000    268.88324    209.76306    307.85764   -139150.92    139268.58   -98.094588    34.735493 
329240000    288.86764    632.36678    598.87691   -139178.21    139281.04    33.489868    34.731342 
329244000     266.0408    378.36018    378.00523   -139177.66    139295.35   0.35495593     34.73234 
329248000    314.30142    478.16979      279.675   -139202.39    139287.77    198.49479    34.729653 
329252000    301.11379    406.19469    396.43415   -139214.17    139298.17    9.7605457    34.736575 
329256000    254.37756    264.06082    289.19737   -139205.89    139337.67   -25.136545    34.744406 
329260000    269.24686    409.55618    322.20886   -139244.53    139358.18    87.347325     34.74897 
329264000    275.97684    397.10509    209.03951   -139255.67       139363    188.06557    34.756877 
329268000    283.26144     345.4284    319.34991    -139283.2     139385.5    26.078483    34.762447 
329272000     302.0961    314.02001    439.33893   -139305.74    139399.32   -125.31892    34.758577 
329276000    273.11675    256.37939    287.04785    -139333.5    139428.17   -30.668458    34.762308 
329280000    265.47162    220.85988    163.37556   -139360.77    139467.39    57.484324    34.757555 
329284000    272.24651    354.17022    205.92389   -139396.18    139489.82    148.24633    34.758594 
329288000    285.77594    348.45777    340.51425   -139414.77    139508.45    7.9435256    34.759966 
329292000    282.88389    390.77737    575.38351   -139447.28    139545.96   -184.60614    34.758241 
329296000    269.99994    347.23486    195.34437   -139455.48    139573.52    151.89049    34.755119 
329300000    282.18124    488.35661    271.93335   -139489.81    139596.19    216.42326    34.753192 
329304000    291.14193    350.42653    269.88782   -139519.25    139614.24    80.538711    34.752016 
329308000    279.65338    323.52145    224.02758   -139533.13    139641.51    99.493868    34.759186 
329312000    269.34375    277.01238    271.66554    -139536.4    139647.41     5.346838    34.753084 
329316000    254.53053    507.30118    324.76626   -139528.44    139650.27    182.53493    34.753618 
329320000    276.60101    506.76791    214.61669   -139541.36    139656.07    292.15122    34.749822 
329324000     290.4449    295.58518    471.10117   -139548.47    139658.16   -175.51599     34.74819 
329328000     286.4875    283.17882    329.11064   -139558.64    139645.57   -45.931815    34.745576 
329332000    273.48547    438.69323    570.71252   -139582.74    139687.06   -132.01928    34.749554 
329336000    267.19375     248.7618    243.17083   -139601.24    139708.62    5.5909702    34.744142 
329340000     269.9665    213.69465    204.17961   -139618.81    139724.32    9.5150384    34.746519 
329344000    299.76403    357.16577    280.39524   -139628.01    139721.64    76.770527    34.746124 
329348000    273.88242    296.23873    390.17566   -139664.89    139777.56   -93.936926    34.738448 
329352000    268.82299    256.89976    320.37912   -139681.84    139800.91   -63.479363    34.741353 
329356000    295.92859    364.93558    296.03618   -139732.89    139813.45    68.899404    34.741548 
329360000    276.75799    221.57578    380.26153   -139750.55    139859.15   -158.68575    34.747874 
329364000    247.35358    237.48455     285.4636   -139759.79     139880.8   -47.979058    34.743241 
329368000    276.91474     539.0058    283.93619   -139814.17    139909.32     255.0696    34.742893 
329372000    287.79132    456.43224    341.08712   -139810.55    139921.78    115.34512    34.737151 
329376000     287.8462    394.03523    328.09831   -139824.74    139922.09    65.936915    34.732969 
329380000    255.17056    506.56433    350.63741   -139838.32    139935.46    155.92692    34.736349 
329384000     302.4458    304.56759    277.34164   -139844.55    139923.93    27.225946    34.742889 
329388000    290.02921    389.69973    284.56324   -139846.44    139942.96    105.13649    34.742258 
329392000    286.01708    523.58417    154.66232   -139847.08     139956.7    368.92185    34.743672 
329396000    313.28031     324.8646     307.2536   -139876.74    139950.95    17.611001    34.746632 
329400000    298.68031    358.63473    463.48648   -139904.31    139974.96   -104.85175    34.750209 
329404000    271.38555      205.419     233.8325   -139860.24    139981.26   -28.413497    34.754253 
329408000    254.19893     310.0253     317.6252   -139895.93    140015.71   -7.5998954    34.753726 
329412000    266.34811    411.94341    222.76241   -139946.32    140068.25      189.181    34.750565 
329416000     273.2622    346.21578    274.76992   -139954.13     140069.2     71.44586    34.749052 
329420000    317.56124    412.51315    316.31256   -140003.45    140093.84    96.200585    34.751109 
329424000    282.74601    347.40742     240.3426   -140027.93    140129.87    107.06483    34.750042 
329428000     267.6268    371.20469    277.17961   -140045.29    140161.74    94.025077    34.754348 
329432000    296.09969    292.56338    246.89849   -140088.35    140186.42    45.664892    34.756605 
329436000    266.09143    385.26126    232.08056   -140102.62     140220.9    153.18071        34.76 
329440000    261.31728    378.33761    289.73354   -140130.22    140257.12     88.60407    34.761356 
329444000    270.48397    265.93167    330.09734   -140155.95    140271.33   -64.165679    34.758647 
329448000     279.7011     419.7434    291.70991   -140193.34    140284.96    128.03349    34.762481 
329452000    270.42798    158.95149    398.26665    -140221.8     140326.6   -239.31517    34.758453 
329456000    264.57563    368.74935    327.42788    -140256.6    140358.32    41.321471    34.751016 
329460000    285.50988    362.81914    219.88981   -140252.43    140353.68    142.92933    34.752464 
329464000    267.54755    388.85771    275.82062   -140277.63    140381.52    113.03709     34.75188 
329468000    283.87649    278.86385    317.95232      -140291     140389.7   -39.088463    34.749925 
329472000    288.44382    333.52988    518.06259   -140310.93    140411.82   -184.53271    34.749299 
329476000    281.84236    185.29791    493.21763   -140339.37    140456.89   -307.91972    34.753275 
329480000     285.6684    363.80955    289.00036    -140390.3    140491.75    74.809189    34.749365 
329484000    306.15278    446.81871    338.57426   -140444.61    140534.91    108.24445    34.753265 
329488000    269.37535    327.35126    508.83377   -140481.99    140578.24   -181.48251     34.75314 
329492000     342.8088    446.19215    380.57709   -140520.45    140595.78    65.615057    34.753044 
329496000    272.38975    718.80005    369.70776   -140563.97    140658.38    349.09229    34.753897 
329500000    247.51453    371.73546    371.00077   -140565.61    140687.71   0.73468959    34.749751 
329504000    306.59046    203.74039    415.62514   -140611.78     140697.4   -211.88475      34.7475 
329508000    296.32079    383.25811    347.35431   -140657.31    140754.41    35.903796     34.74505 
329512000    267.66717    315.25356    287.97188   -140684.34    140811.41    27.281679    34.747366 
329516000    274.77393    340.36541    428.78778   -140694.57    140816.01   -88.422363    34.745675 
329520000    285.63465    475.57423    364.60135   -140725.76    140821.54    110.97288     34.73758 
329524000    284.98534    227.32496    323.09033   -140752.18    140867.18   -95.765377    34.740128 
329528000      282.114    492.45414    536.48572   -140795.58    140890.04   -44.031584    34.742065 
329532000    264.97767    436.47231     513.1254   -140816.32    140932.35   -76.653088     34.73286 
329536000    293.01495    384.36056    372.19321   -140848.62     140952.2    12.167347    34.731043 
329540000     312.9322    474.10223    358.98548   -140891.12    140972.02    115.11675    34.727464 
329544000    293.91919    285.44483    297.05484   -140891.89    140994.28   -11.610012    34.726737 
329548000    285.75935    409.49403    435.99173   -140906.51    140996.03   -26.497697    34.729823 
329552000    291.12381    394.11126    309.15085   -140923.26    141012.09    84.960406    34.730455 
329556000    310.19235     465.9901    307.69514   -140938.26    141021.34    158.29496    34.733978 
329560000    268.06665    430.88487    277.32516    -140961.6    141057.66    153.55971    34.736231 
329564000    273.71165    253.09805    205.33999    -140956.3    141070.96    47.758066    34.735374 
329568000    284.29157    357.60492    279.07028   -141006.36    141088.54    78.534644     34.73716 
329572000    300.90712    200.50448    356.52837   -141025.93     141121.9   -156.02389    34.738934 
329576000    287.61334    240.00548     261.8186    -141067.5     141163.9   -21.813112    34.744548 
329580000    296.76872    356.11538    278.86581   -141098.71    141179.59    77.249575    34.749316 
329584000    291.18668    330.45536    282.48035   -141115.72    141208.34    47.975003    34.749578 
329588000    262.73132    329.02527    241.56114   -141121.04    141243.07    87.464123    34.747436 
329592000    286.22688    512.50445    579.03973    -141141.4    141243.52   -66.535279    34.745566 
329596000    271.43902    341.56375    347.76454    -141143.4    141246.76    -6.200788      34.7472 
329600000    297.30595    305.25341    227.42715    -141172.2    141259.47    77.826264    34.745847 
329604000    280.43712    485.32208    249.62256   -141180.79    141271.09    235.69952    34.745972 
329608000    293.95252    355.21188    303.11896   -141191.03    141295.01    52.092911    34.742329 
329612000    280.02122     130.6395     445.5149   -141214.99    141304.35    -314.8754    34.740088 
329616000     303.0746    387.77112    447.05654    -141230.7    141325.51   -59.285411    34.737457 
329620000    283.58248    376.98333    288.79667   -141254.69    141370.18    88.186655    34.735855 
329624000    292.53849    252.62706    287.83271   -141275.17    141377.43   -35.205644     34.73505 
329628000    285.75122     306.2256    105.17669   -141316.94    141424.05    201.04891    34.734266 
329632000    299.23035    275.60268    506.14854   -141332.28    141415.48   -230.54585    34.737818 
329636000    275.66326    343.92098    484.24597   -141365.28    141453.51   -140.32499     34.73174 
329640000    306.68518    411.65435    354.51764   -141377.61    141464.64    57.136705    34.737998 
329644000    294.27906    482.79662     412.4789   -141392.12    141480.42    70.317724    34.735672 
329648000    326.39255    532.12854    425.81605    -141416.5    141481.12    106.31248    34.737525 
329652000    297.88974    375.42342    373.53719   -141453.98    141515.51    1.8862357    34.733952 
329656000    305.80022    398.66167    249.24317   -141461.02    141558.02     149.4185    34.738718 
329660000    284.51872    547.00746    362.73857   -141499.32    141606.55    184.26889    34.733806 
329664000    241.24723    241.19786    321.58563   -141504.99    141636.77   -80.387769    34.737743 
329668000    298.55146    366.70085    301.12517   -141550.31    141648.25    65.575684    34.734969 
329672000    311.07217    540.89264    385.38307   -141567.94    141659.56    155.50957    34.733546 
329676000    255.29486    330.60867    296.39601   -141580.63    141706.01    34.212659    34.739037 
329680000    257.51655     328.0541    421.91161   -141622.08    141748.22   -93.857513     34.74126 
329684000    259.80609    416.13453    255.96025   -141653.83     141755.2    160.17427     34.74609 
329688000    271.67943    326.82889    396.56997   -141654.17     141763.8   -69.741079    34.745444 
329692000     254.2415    210.56801    242.26615   -141645.78    141757.04   -31.698147    34.744314 
329696000     266.3751    332.89774    215.48945   -141670.85    141794.55    117.40829    34.748404 
329700000    276.89075    347.60349    256.29867   -141717.54    141823.82    91.304815    34.745173 
329704000    294.51713    436.98798    375.23164   -141742.91    141845.12     61.75634    34.743803 
329708000    258.04593    328.90983    283.92041   -141747.42    141880.98    44.989418    34.740757 
329712000     256.1868    443.63288    292.40891   -141756.31    141885.83    151.22397    34.743222 
329716000    295.69837    465.22578    393.03673   -141808.97    141895.52    72.189055    34.740679 
329720000    268.20076    279.45975    396.78203   -141817.61    141931.36   -117.32228    34.735445 
329724000     275.9075    239.41022    261.48685   -141851.56    141950.77   -22.076626    34.732581 
329728000    319.85175    323.97938    393.83397   -141888.28    141954.77   -69.854584    34.732036 
329732000    265.38102    274.88507    277.25167   -141889.68    142003.96    -2.366597    34.731881 
329736000    283.85059    250.29016    225.92033   -141928.65    142038.01    24.369828    34.730149 
329740000    286.93257    302.26013    324.37472   -141948.94     142034.6   -22.114588    34.728779 
329744000    259.20517    461.05904    175.59545   -141967.55    142078.08     285.4636    34.730633 
329748000    241.89909    271.56553    344.88407   -141973.28    142102.69   -73.318542    34.725119 
329752000    270.04237    303.92636    276.87345   -142004.14    142114.07     27.05291    34.724588 
329756000    267.66527    367.49699    411.44659   -142047.05    142162.81   -43.949598    34.720136 
329760000    290.56175    355.33237    224.11677   -142093.47    142193.52     131.2156    34.727746 
329764000     313.6447    459.28156    320.21106    -142098.8    142189.89     139.0705    34.735701 
329768000    271.59299    193.75162    249.81249    -142088.9    142185.55   -56.060871    34.736151 
329772000    293.04954    352.81089    333.43388   -142101.88    142215.05    19.377011    34.735712 
329776000    300.53008    260.52383    451.98475   -142132.61    142221.09   -191.46092    34.730039 
329780000    277.22291      355.918     303.8133   -142133.46     142255.2    52.104699    34.731561 
329784000    292.05289     524.7169    325.52785   -142165.58    142252.95    199.18905    34.730577 
329788000    331.01725    777.24626    367.35743   -142176.27    142250.13    409.88883    34.732213 
329792000    301.60969    453.19126    234.67295   -142199.58    142306.28    218.51831    34.732892 
329796000    281.71326    365.55753    389.14027   -142222.26    142326.01    -23.58274    34.727562 
329800000    281.04285    385.48978    379.82533   -142238.43    142343.63    5.6644503    34.731275 
329804000    313.48347    471.83633    255.76997      -142279    142360.54    216.06636    34.731853 
329808000     297.9729      360.127    416.79421   -142298.79    142398.55   -56.667205    34.731064 
329812000    310.71797    413.52171    503.32814   -142322.83     142411.9   -89.806428    34.727887 
329816000    276.56731    249.04671    335.71744   -142313.63    142420.76   -86.670731    34.732023 
329820000    285.14639     280.2798    304.92655    -142357.9    142465.88   -24.646753    34.731641 
329824000    269.94594    280.68852    379.05346   -142381.55    142492.12   -98.364945    34.731429 
329828000    265.07938    141.77704    384.86951      -142393    142507.78   -243.09247    34.728281 
329832000    267.46961    212.39479    305.41579   -142413.42    142518.58   -93.020998    34.726307 
329836000    292.47481    369.41039    389.99293    -142427.6    142528.93   -20.582536    34.735613 
329840000    276.79014    195.07385    461.79697   -142452.52    142559.59   -266.72313    34.731922 
329844000    287.35531    412.64444     477.5203   -142476.49    142586.84   -64.875859    34.733042 
329848000    281.59899    596.95553    358.93909   -142508.87     142620.8    238.01644    34.734006 
329852000    305.37213     363.7376    463.94356   -142535.83    142629.21   -100.20596    34.737561 
329856000    299.28712    387.08739    387.07341   -142545.37    142656.88  0.013982844     34.73246 
329860000    286.76727     408.3342    196.26227   -142590.69     142685.1    212.07193    34.736083 
329864000    297.19606    369.70035    321.83269   -142630.29    142715.97    47.867652    34.731672 
329868000    260.99329    337.68672    188.02006   -142612.48    142736.67    149.66667     34.73382 
329872000    301.58522    244.96514    340.46219   -142645.39    142723.88   -95.497057     34.73475 
329876000    286.57799    271.68938    355.84464   -142630.35    142738.73   -84.155264    34.734436 
329880000    331.39379    381.00689    535.15033   -142641.41    142722.27   -154.14344    34.729666 
329884000    284.37256    348.95233    383.43251   -142644.12    142756.17   -34.480182    34.730399 
329888000    264.00949    417.03065    282.68574   -142650.45    142748.34    134.34491    34.726904 
329892000    279.16393    303.12228    362.28179   -142661.14     142778.6   -59.159513    34.727525 
329896000    303.74391    444.80965     431.1799   -142674.79    142790.54    13.629749    34.732797 
329900000    305.41225    307.29769     311.1321   -142705.87    142795.24   -3.8344092    34.735844 
329904000     272.3346    357.00526    314.59231   -142718.53    142824.43     42.41295    34.734085 
329908000    290.78505    342.34053     337.2813   -142717.95    142799.18    5.0592308    34.736899 
329912000    286.31436    442.87912    480.30205   -142773.02    142856.21   -37.422931    34.742434 
329916000    334.97141    700.29101    290.47688   -142812.34    142882.95    409.81413    34.745331 
329920000    278.05321    254.75535    209.90699   -142826.57    142924.84    44.848358    34.740644 
329924000    297.15216     397.9063    291.11132   -142854.35    142961.88    106.79498    34.737547 
329928000    305.06701    409.82058    273.26971   -142923.02    142991.63    136.55087    34.735519 
329932000    319.34725    456.24649    408.12804   -142924.87    143003.98    48.118444    34.737185 
329936000     279.0617    379.85828     250.7798   -142958.01    143040.23    129.07848    34.737244 
329940000    270.20541    188.63525    424.52052   -142954.83    143076.81   -235.88527    34.741938 
329944000    266.47228    426.41451    253.73494   -143011.96    143133.76    172.67957    34.743697 
329948000    275.81409    292.49209    216.50368   -143053.16    143166.37     75.98841    34.742153 
329952000    269.61466    424.32809    401.48229   -143059.61    143184.05    22.845795    34.741692 
329956000    305.72028    348.92294    272.23304    -143106.5    143198.14    76.689901    34.744919 
329960000    284.20443    449.13964     302.7088   -143091.32    143199.94    146.43084    34.748569 
329964000    273.78705    434.71208    255.23014    -143093.9       143208    179.48194    34.743886 
329968000    263.31824    373.85894    325.82239   -143126.39     143249.7    48.036548    34.745553 
329972000    279.66146    243.40476     276.9147   -143157.86    143257.18   -33.509937    34.741842 
329976000    327.70081    341.75914    484.58006   -143187.63    143255.92   -142.82092     34.74233 
329980000     303.9039    375.47849    339.29088   -143219.55     143293.7    36.187616    34.743356 
329984000    308.10496    395.00119    365.49373    -143238.2    143324.17    29.507458    34.745231 
329988000    278.50513    448.46718    358.06873   -143277.39    143367.41    90.398451    34.748812 
329992000      281.224    299.70733    294.13644   -143288.23    143391.79    5.5708885    34.741041 
329996000    279.50186    466.42674    490.90195   -143318.69    143421.18   -24.475206    34.742638 
330000000    292.64417     245.5401    277.50258   -143318.48    143421.32   -31.962477     34.74855 
330004000    271.56177    502.29901     383.1061   -143352.22     143454.8    119.19291    34.747989 
330008000    294.52859    328.14292    277.84233   -143371.81    143475.63    50.300598    34.749346 
330012000    294.30476    386.70074    230.26882   -143399.06    143494.19    156.43191     34.74822 
330016000    302.23815    370.02734    225.62295   -143415.92    143514.31    144.40439    34.750266 
330020000     272.6092    396.47912    236.63368   -143432.73    143544.14    159.84544    34.752004 
330024000    273.00773    370.00466    327.73322   -143456.53    143563.55    42.271444    34.750175 
330028000    274.91987    228.93487    351.47573   -143456.24    143567.07   -122.54086    34.751416 
330032000    285.06671    242.14384    345.38707   -143479.65    143577.97   -103.24324    34.751948 
330036000    311.24314    334.50607    278.10373   -143513.94    143605.39    56.402344    34.757144 
330040000      276.404    423.53276    270.69595   -143554.18    143659.23    152.83681    34.746454 
330044000    262.25847    330.66819    390.75911   -143553.39       143684   -60.090913    34.744745 
330048000       266.16    260.00272    329.93187   -143555.14    143677.67   -69.929148    34.742705 
330052000    271.04948    543.82508     345.3169   -143583.23    143700.24    198.50818    34.742577 
330056000    255.40111    162.33761    311.48273   -143604.56     143722.7   -149.14512    34.741074 
330060000    297.40017    215.47706    413.72292   -143622.22    143730.21   -198.24587    34.740595 
330064000    285.20841    309.04734    553.86157   -143665.42    143751.08   -244.81423    34.738667 
330068000    279.53291    341.88351    313.27719   -143684.75    143791.37    28.606315    34.735955 
330072000     283.4344    532.34879    351.73464   -143708.14    143817.02    180.61416    34.736023 
330076000    263.02063    405.04327    413.16944   -143714.34       143837   -8.1261675    34.737822 
330080000    299.89424    274.02215     493.2094   -143762.69    143856.37   -219.18725    34.733724 
330084000     249.7535    342.75068    356.32015   -143783.97    143921.05   -13.569472    34.736882 
330088000    283.33471    226.17729    481.86705   -143809.93    143913.72   -255.68976    34.733522 
330092000     279.6189    262.04397    550.67703   -143813.08     143918.7   -288.63306    34.730993 
330096000    291.63034    225.10398    349.40771   -143832.22    143919.63   -124.30372    34.726375 
330100000    291.76833    349.77166    426.30511    -143838.1    143939.06   -76.533452    34.729054 
330104000    275.91772    467.56323      409.894   -143869.86    143983.56    57.669231    34.732323 
330108000    280.40735    215.34322    199.62287   -143893.69    144007.16    15.720354    34.726836 
330112000    307.70169    335.09832     560.8059   -143957.72    144045.07   -225.70758    34.731641 
330116000    301.36479    495.37683    452.94299      -143973    144076.74     42.43384    34.733146 
330120000    277.08871    276.13444    233.05886   -144005.76    144109.81     43.07558    34.731615 
330124000    299.20835      457.884    339.00325   -144005.77    144100.26    118.88075    34.730647 
330128000    285.32874    320.18259    250.96494    -144015.6     144120.4    69.217651    34.736772 
330132000    306.83049    264.42788    268.79096   -144051.35    144129.62   -4.3630826    34.733957 
330136000    247.49161    283.73331    211.71232   -144076.29    144180.09    72.020996    34.734922 
330140000    292.96713    273.20259    327.31058   -144097.95    144190.48   -54.107983     34.73285 
330144000    292.01703    329.42157    313.43946   -144114.75    144215.15    15.982112    34.725249 
330148000    298.75396    258.05606    227.22294   -144123.91     144224.9    30.833122    34.722988 
330152000    297.33691    281.08607    341.79893   -144125.43       144221   -60.712861    34.713782 
330156000    287.20993     426.9816    271.31469   -144179.28    144260.19    155.66691    34.716909 
330160000    309.24913    346.04326    395.03174   -144197.02    144273.17   -48.988481     34.71788 
330164000    312.24694    370.55792    416.14195   -144208.85    144295.43   -45.584031    34.722632 
330168000    279.92158    306.46555    371.94794    -144223.6    144320.29   -65.482388    34.716603 
330172000    315.75176    408.27198    410.12154    -144245.9    144346.36   -1.8495554    34.718035 
330176000    298.28321    520.90871    305.76597   -144286.04    144372.22    215.14274    34.718857 
330180000    329.93542    356.96861    456.34191   -144300.57    144373.17   -99.373298    34.715235 
330184000    314.15335    294.66659    505.26719    -144309.7    144389.81   -210.60059    34.712952 
330188000    294.70513    253.57463    364.58961   -144350.13    144443.12   -111.01498    34.710325 
330192000    293.69422    406.12034    321.57468   -144366.62    144459.95    84.545651    34.713324 
330196000    303.29782    462.81472    282.97261   -144382.95    144470.38    179.84211    34.715319 
330200000      282.773    217.77447    357.97046   -144393.85    144508.34   -140.19599     34.71232 
330204000     269.7276    288.43679    297.38503    -144406.8    144524.35   -8.9482403    34.711125 
330208000    285.40585     377.3209    333.13064   -144424.59    144519.27    44.190264     34.70917 
330212000    267.42829    399.83338    232.74844   -144447.39     144548.6    167.08494     34.71338 
330216000     278.0496    616.21359    272.73592   -144498.26    144600.83    343.47767    34.714814 
330220000    270.19025    275.03855    332.50561   -144486.21    144624.66   -57.467053    34.712816 
330224000    293.94816    416.99613    320.17401   -144536.28    144619.66    96.822113    34.708835 
330228000    308.64741    512.59419    279.50625   -144571.93    144648.28    233.08794    34.707532 
330232000    320.54905    615.66966    205.91966   -144593.65    144674.83       409.75    34.715057 
330236000     295.3268    358.11657    293.00311   -144598.27    144701.75    65.113464      34.7131 
330240000    264.82761    273.19823    268.65305   -144616.62    144730.32    4.5451837    34.715198 
330244000    291.00683    367.02563     332.7211   -144655.41    144765.81    34.304536    34.715108 
330248000    271.37377    287.23197    428.65826   -144708.65    144815.17   -141.42629      34.7239 
330252000    290.57378    413.71555    226.57997    -144747.5    144841.01    187.13559    34.720042 
330256000    281.01085    314.94843    395.95319   -144739.92    144848.77    -81.00476    34.720475 
330260000    297.77165      317.983    353.50849   -144750.18    144851.54   -35.525489    34.721547 
330264000    271.96944    306.69275    451.53695   -144771.33    144878.46    -144.8442    34.722312 
330268000    288.69059    525.43687    370.08029   -144772.39    144870.57    155.35657    34.725509 
330272000    282.18548    428.77625    254.72961   -144780.78    144873.37    174.04663    34.726847 
330276000    309.38871    370.81467     239.4982   -144807.89    144887.32    131.31647    34.722508 
330280000    318.93383    503.13718    430.59503   -144854.95    144925.98    72.542152    34.726786 
330284000    287.29096    438.20882    286.94637   -144828.19    144930.78    151.26245    34.723404 
330288000    278.61989     324.5074    466.96519   -144836.12    144945.47   -142.45779     34.71876 
330292000    279.58788    356.48491    247.96636   -144848.46    144963.92    108.51855    34.715392 
330296000    277.75524    348.61216    293.21853    -144870.1    144972.49    55.393633    34.720453 
330300000     269.2995    189.45941    234.17346    -144853.9    144965.27   -44.714044    34.725489 
330304000    285.47784    322.13938    238.50473   -144877.16    144967.15    83.634653    34.720365 
330308000    301.61652    394.17451    264.07581   -144888.49     144979.7    130.09869    34.717213 
330312000    249.93171    331.47307    253.65718   -144898.66    145030.06    77.815894    34.710928 
330316000    288.77533    188.31405    353.14517   -144922.65    145037.13   -164.83112    34.708556 
330320000    258.62048      243.044    259.46289   -144945.13     145058.8   -16.418894    34.709702 
330324000    267.41365    282.79308    278.21431   -144953.75    145066.47    4.5787718    34.707847 
330328000    277.50481     347.9145    255.78421   -145002.82    145103.03    92.130294    34.710064 
330332000     298.9586    400.50429    257.83517   -145028.41    145141.52    142.66912    34.714952 
330336000    251.99328    330.66194    276.50247   -145058.37    145178.54    54.159473    34.719566 
330340000     280.3384     251.5009    412.96126    -145089.7    145200.93   -161.46035    34.720467 
330344000    293.89318    234.93544    448.16564   -145111.24    145223.78   -213.23019    34.717329 
330348000     293.4346    328.52431    150.63587   -145142.04    145239.24    177.88844    34.724006 
330352000    277.90078    258.51424    333.85791   -145168.34    145293.66    -75.34367    34.724188 
330356000    285.76365    258.37183    166.71261   -145195.51    145297.08    91.659216    34.724094 
330360000    274.96457    393.24001    125.52167   -145202.65    145311.15    267.71835    34.724124 
330364000    310.49835    545.10362    457.15685   -145214.85    145316.29    87.946774    34.721585 
330368000    296.54789    425.61235    254.23619   -145226.92    145324.85    171.37615    34.715007 
330372000    300.36305    342.62933    388.64395    -145273.6    145377.33   -46.014619    34.716247 
330376000    283.43555    178.66061    403.42007   -145322.62    145436.78   -224.75946    34.717287 
330380000     292.6893    329.71639    569.75963   -145357.88    145444.85   -240.04324    34.713823 
330384000    305.90447    378.10231    412.46871   -145396.15    145490.44   -34.366403    34.710789 
330388000    271.85224    345.51835      237.419   -145425.04    145533.67    108.09935    34.713872 
330392000    281.20764    442.50622    241.03529   -145462.56    145559.19    201.47093     34.71447 
330396000    275.57905     477.7949    429.59731   -145457.84    145556.74    48.197592    34.713729 
330400000     278.8335    422.25795    385.86584   -145464.85    145574.66    36.392108    34.715085 
330404000    253.65808    389.62295    335.74447   -145498.14    145616.31    53.878481    34.711693 
330408000    275.08996    265.96051    263.73615   -145526.04    145624.17    2.2243632    34.706999 
330412000    286.68221     482.7633    207.11264   -145557.27    145675.85    275.65066    34.713452 
330416000    334.15282    475.14046    425.22676   -145601.22    145679.45    49.913692    34.710533 
330420000    277.91086    349.62882    257.57603   -145623.08    145731.24    92.052789    34.704308 
330424000    298.48516    183.15872    351.96599   -145679.29    145767.42   -168.80727    34.708144 
330428000    280.47321    256.66128    279.64265   -145708.58    145804.16   -22.981375    34.710797 
330432000    285.54375    263.40279    402.14096   -145734.24    145835.44   -138.73817    34.706733 
330436000      264.947    313.79594    281.06964    -145751.3    145868.67    32.726302    34.705008 
330440000     261.0648    274.12306    220.26579   -145772.94    145898.53    53.857266    34.703442 
330444000    264.78977    271.94956    355.22806   -145786.85    145922.14   -83.278505    34.706665 
330448000    320.44101     341.1978    374.00939   -145835.79    145915.83   -32.811592    34.706099 
330452000    278.75253    357.02282    328.22794   -145853.49    145963.29     28.79488    34.706322 
330456000    302.52157    431.39486    336.46068   -145898.96    145981.46    94.934181    34.705452 
330460000    265.98194    264.59773    252.88519    -145926.1    146032.59    11.712544    34.698789 
330464000    278.24623    187.50549    253.48049   -145937.27    146060.94   -65.975004    34.698458 
330468000    296.13612     310.0022    283.32604   -145973.34    146068.78    26.676158    34.702287 
330472000    256.68496    220.90437    275.00501   -146003.27    146119.39   -54.100633    34.697461 
330476000    278.73624    222.96766    314.49556   -146034.67    146132.52   -91.527908    34.696412 
330480000    274.52599    502.58852     352.4113   -146060.89    146182.56    150.17723     34.68986 
330484000    281.36267    358.94916    214.76625   -146074.76    146186.83    144.18291    34.685768 
330488000    305.11565    584.99996    273.22913   -146090.61    146199.02    311.77083    34.684861 
330492000    289.53063    319.52534    424.49352   -146109.71    146200.34   -104.96818    34.683719 
330496000    301.76047    384.57169     262.3194   -146165.78    146262.01     122.2523    34.683544 
330500000    286.79918    421.42401    518.76011   -146207.42    146303.98   -97.336105     34.68143 
330504000    306.60399     360.9567     308.1403    -146216.7     146298.8    52.816403    34.675584 
330508000    264.58944    268.26707    306.19524   -146222.47    146330.44   -37.928164    34.670732 
330512000     296.6953    750.15237    434.25843   -146273.83    146371.25    315.89394    34.672188 
330516000    286.30582    382.65663    373.54956   -146310.74    146409.47    9.1070701     34.67271 
330520000    291.43806    241.25262     268.6262   -146322.71    146416.25    -27.37358    34.669975 
330524000     266.6191    281.25221    371.82282   -146334.79    146451.35   -90.570612     34.67248 
330528000    271.33741    315.28495    299.68017   -146358.61    146462.03    15.604775    34.672291 
330532000    259.88156    307.81331    382.13737    -146345.1     146453.7   -74.324064    34.671615 
330536000    296.16135    436.92287    455.84072   -146375.12    146474.74   -18.917847    34.668724 
330540000    278.36902    262.39426    352.92522    -146395.4    146508.68   -90.530965    34.665706 
330544000    305.25132    394.21206    589.47326   -146413.49    146505.85    -195.2612    34.666474 
330548000     276.0015     345.6839    212.74049   -146434.38    146554.56    132.94341    34.669324 
330552000    269.73328    487.94837    193.97418    -146477.3    146583.02    293.97419     34.67117 
330556000    290.81949    410.61635    266.40128   -146494.45     146596.1    144.21507    34.675012 
330560000    266.72963    345.80523    246.54039   -146525.93    146631.95    99.264843    34.674659 
330564000    263.52653    338.26909    190.36438   -146549.26    146665.22    147.90471    34.676569 
330568000    267.74828    316.65105    371.99184   -146586.41    146692.17   -55.340787    34.672645 
330572000    300.69043     265.9528    517.02628    -146601.7    146701.69   -251.07348    34.675096 
330576000    274.35989    454.75029    247.78263   -146601.92    146709.87    206.96767    34.676599 
330580000    309.34631    350.75866    400.79351   -146632.47    146737.17   -50.034854    34.677217 
330584000    255.37054    230.86482    312.47381    -146619.4    146732.57   -81.608991    34.674321 
330588000    290.56607     252.2592    391.70684   -146656.11    146740.92   -139.44764    34.678183 
330592000    272.93368    189.56511    182.29585   -146663.53     146775.1    7.2692596    34.672762 
330596000     301.2141    225.17609    307.84721   -146709.28    146788.12   -82.671124    34.666778 
330600000    275.70406    350.26806    337.14981   -146697.44    146799.94    13.118251    34.662225 
330604000    286.09385    598.68782    192.75431   -146720.92    146828.05    405.93351    34.663947 
330608000    274.63713    409.63783    293.29613   -146746.24    146834.98     116.3417    34.664912 
330612000    277.99066    321.57355    228.99871   -146764.41    146865.02    92.574842    34.666815 
330616000    273.17251    330.78861    430.15323   -146768.82    146874.03   -99.364622    34.663027 
330620000    291.86242    340.16411    235.48195   -146793.58    146893.43    104.68216     34.66601 
330624000    306.00415    315.62319    334.44567   -146835.47    146934.86   -18.822482    34.668919 
330628000    281.54149    304.91208    309.84158   -146859.65    146949.83   -4.9294943    34.667758 
330632000    264.98693    369.36195    409.01153   -146888.03    147001.97   -39.649577    34.665721 
330636000    290.76204    207.87925    278.21025   -146916.87    147031.32   -70.331001    34.670216 
330640000    285.73584    523.31067     282.0412   -146953.85    147048.46    241.26947    34.667125 
330644000    271.76946    331.56061    277.44878   -146978.78    147074.53    54.111826    34.666268 
330648000    328.84284    309.91467    222.69579   -147021.72    147118.27     87.21888    34.668291 
330652000    300.99411    322.51432    355.25166   -147054.57    147151.36   -32.737343    34.668098 
330656000    316.45392    368.30385    353.84539   -147079.92    147174.91    14.458466    34.672706 
330660000    324.55359    253.76276    375.69549   -147118.24    147195.51   -121.93273    34.665831 
330664000    262.53086    462.29397    255.33347   -147098.09    147212.06     206.9605    34.668751 
330668000    306.21666    417.95157    521.24569    -147134.1    147228.69   -103.29412    34.664438 
330672000    268.72628    276.90393    353.15148   -147145.57    147267.72   -76.247559    34.666856 
330676000    261.64656      366.365    189.87453   -147173.56    147300.23    176.49046    34.669267 
330680000     300.4673    498.92311    355.38314    -147222.2    147291.44    143.53997     34.67099 
330684000    313.01044    286.71349    431.54434   -147228.94    147315.94   -144.83086    34.672719 
330688000    280.84225    241.47141    308.18729   -147272.29    147374.62   -66.715879    34.673512 
330692000    301.43953    420.55382    352.84129   -147294.07    147388.24     67.71253    34.671261 
330696000    266.44017    312.83638    292.10322   -147317.47    147422.27    20.733154    34.670884 
330700000    275.13383    422.97883    241.65129   -147340.45    147462.99    181.32754    34.667004 
330704000    275.31074    329.48739    186.31812   -147363.14    147479.05    143.16927    34.671471 
330708000    290.27622    373.64892    286.89681   -147371.49    147482.47    86.752111    34.671557 
330712000    289.39758    450.40738    248.92976   -147406.11     147507.1    201.47762    34.671162 
330716000    290.35676    363.29289    353.89029   -147425.82    147529.63    9.4025974    34.673961 
330720000    285.94608    307.46362    246.50129   -147446.76    147561.98    60.962329    34.675369 
330724000    280.17061    313.55289    194.89053   -147458.42     147568.9    118.66236    34.682924 
330728000    289.60411     451.0017    404.23827   -147472.67    147576.88    46.763431     34.68172 
330732000    260.88309    394.46973    403.25961   -147473.32    147584.66   -8.7898794    34.683632 
330736000     285.7422    391.66164     256.3236   -147487.33    147586.44    135.33804    34.689159 
330740000    270.40397     420.7709    345.51556   -147511.35    147628.59    75.255342    34.684764 
330744000    314.42892    489.27606    647.53831   -147546.98     147640.3   -158.26225    34.681447 
330748000    264.18455    331.43262    371.01465    -147553.6    147662.87   -39.582029    34.680956 
330752000    277.38848     419.7059     387.7644   -147584.98    147701.51    31.941497    34.681165 
330756000    272.09204    327.16924    232.49411   -147623.17    147750.15    94.675134    34.681197 
330760000    300.03996    190.80959    192.22482   -147650.12    147748.34   -1.4152224    34.683128 
330764000    300.86622    329.09876     459.2117   -147657.14    147754.37   -130.11295    34.678111 
330768000    296.19643    304.10717    218.72288   -147668.21    147779.33    85.384288    34.680512 
330772000    287.97482    351.50303    246.43528   -147678.96    147807.94    105.06775    34.681782 
330776000    309.88517    498.61722    442.80631   -147709.87    147793.65    55.810914    34.682112 
330780000    277.65974    421.64797    337.57872    -147696.7     147794.2    84.069259    34.679725 
330784000    275.75974    285.90649    253.72107   -147725.67    147837.23    32.185428    34.675388 
330788000    272.36435    288.04038    229.97606    -147748.1     147871.5    58.064322    34.679076 
330792000    283.83736     220.2421     361.3706   -147771.25    147899.98    -141.1285    34.680369 
330796000    295.88971    195.29079    197.91758    -147800.4    147924.48   -2.6267841    34.680625 
330800000     260.4225    270.28312    226.18887   -147845.97    147961.12    44.094251     34.68186 
330804000    249.76071    307.53401     187.3997   -147827.82    147971.33    120.13432     34.68167 
330808000    287.81171    228.26886     447.4791   -147864.82    147969.96   -219.21024    34.680462 
330812000    288.88395    211.96279    237.25346   -147881.94    147982.45   -25.290677    34.677763 
330816000    307.52126    384.06293    291.72461   -147904.14    148006.48    92.338328    34.673954 
330820000    275.99349    228.61208     276.0861   -147913.24    148023.35   -47.474021    34.672561 
330824000     291.3358    362.41713    348.03234   -147909.82    147991.33    14.384791    34.672127 
330828000    278.88495    366.04181    255.49058   -147896.61    147994.78    110.55123    34.672921 
330832000     288.5219    408.68398    295.23344    -147920.3    148024.67    113.45054    34.671605 
330836000    306.71698    438.95783    295.13882   -147965.16    148037.42    143.81901    34.673863 
330840000    296.67338    434.90828    333.61011    -147997.5    148074.18    101.29816     34.67968 
330844000    304.31995    306.65608    320.02236   -148031.25    148103.44   -13.366279      34.6772 
330848000    267.11974    415.14243    318.23503   -148033.32    148126.96    96.907399    34.675581 
330852000    285.84974    499.95496    262.78301   -148043.32    148140.97    237.17195     34.66992 
330856000    294.94547    309.75316    550.45946   -148070.64    148148.66   -240.70631    34.668367 
330860000    309.96198    208.73886    239.07861    -148091.1    148177.63   -30.339749     34.66583 
330864000    293.21585    443.66321    129.37572   -148090.94    148186.64     314.2875    34.669645 
330868000    283.72697    243.80184    313.49903   -148080.82    148184.77   -69.697189    34.667719 
330872000    269.64814    561.26028    377.23828   -148131.12    148219.81      184.022    34.667618 
330876000    301.89651    400.45404    217.56632   -148155.35    148248.82    182.88772     34.66697 
330880000    260.63887    403.10772    282.92848    -148145.8    148251.93    120.17924    34.669004 
330884000    287.37328    322.76873    262.74647    -148168.1    148282.28    60.022262    34.668671 
330888000    298.37643    350.46128    178.79003   -148201.85    148321.66    171.67126     34.66831 
330892000    282.11857    257.88104     403.9467   -148228.91    148341.02   -146.06567    34.671965 
330896000    292.99934    433.44501    188.78201   -148253.28    148353.37      244.663     34.67365 
330900000    244.68107    313.76352    316.84133    -148253.9    148363.87   -3.0778098    34.673043 
330904000    271.95556    360.38532    303.56403   -148262.78    148381.06    56.821286    34.670295 
330908000     288.8995    341.50273    289.83228   -148269.76    148377.94    51.670452    34.669927 
330912000    285.91314    340.03373    159.73018   -148310.94    148420.42    180.30356    34.668281 
330916000    248.66204    255.06354    237.52383   -148334.02     148469.2    17.539708    34.665387 
330920000    262.21019    460.85897    205.94952   -148378.16    148489.54    254.90945    34.662777 
330924000    284.84427    467.45331    253.87199    -148401.6    148507.61    213.58132    34.664406 
330928000    274.76607    405.48335    437.36147   -148416.66    148544.96   -31.878123    34.661771 
330932000    251.93395    230.57066    293.05781   -148461.36    148594.63   -62.487144    34.658189 
330936000    232.65521    428.81852    115.37298    -148465.7    148604.05    313.44554     34.66227 
330940000     297.8092    375.09457    307.58249    -148493.8       148586    67.512089     34.66535 
330944000    271.36685     329.6638    468.64614   -148520.22    148636.44   -138.98235    34.669566 
330948000    283.20346    460.19447    380.17929   -148530.25    148650.45    80.015184     34.67473 
330952000    318.76671    318.79562    388.86621   -148568.07    148653.18   -70.070586    34.674715 
330956000    273.57826    263.68797    269.62461   -148565.17    148684.62   -5.9366391    34.669998 
330960000    291.66213    427.05672    243.24475   -148591.96    148690.84    183.81197    34.675212 
330964000    292.17203    223.73991    226.99426   -148598.49    148694.09   -3.2543496    34.667871 
330968000    277.98429    260.87231    209.13327   -148614.44    148711.38    51.739043    34.661821 
330972000    300.83808    552.80132    464.60077   -148656.22    148757.42    88.200552     34.66902 
330976000    311.62856    452.62934    294.77805   -148687.65    148780.01    157.85129    34.672531 
330980000    284.64272    393.98445    173.46661   -148710.33    148811.09    220.51784     34.67428 
330984000    295.22998    320.00154    428.79541   -148760.42    148849.84   -108.79387    34.673693 
330988000     283.8342    289.65588    372.75966   -148750.81    148851.62   -83.103782    34.669759 
330992000    279.96285    404.75135    248.12896   -148775.04    148881.15    156.62239    34.667002 
330996000    293.20643    387.35008    445.10304   -148796.42     148909.9   -57.752964    34.660949 
331000000    291.91364    402.13943    367.38963   -148829.64    148918.71    34.749791    34.661752 
331004000    272.37007    342.79662    339.26929   -148821.69    148926.83    3.5273372    34.658203 
331008000    272.43608    382.39862    382.85376   -148842.01    148952.17  -0.45513612    34.660235 
331012000    257.82174    249.23438    409.46364   -148831.82    148963.74   -160.22925    34.658761 
331016000    311.89605    496.97626     509.9402   -148887.85    148972.51   -12.963937    34.657181 
331020000    263.14802    516.76015    315.04634   -148868.27    148999.69    201.71381    34.654677 
331024000    290.22945    551.63962    406.12953   -148904.05    149031.43    145.51009    34.652669 
331028000    287.61573    532.73732    388.86529   -148948.04    149048.11    143.87203    34.648016 
331032000    255.18395    312.77998    274.02715   -148958.49    149087.19    38.752826    34.647082 
331036000    288.86791    395.64502    237.23649    -148969.8    149075.03    158.40853    34.649549 
331040000    286.90074    279.62624    298.86649   -148979.12    149089.54   -19.240248    34.652473 
331044000    255.06342    300.62713    218.95651   -149002.41    149109.02    81.670626    34.653298 
331048000    292.78695    299.64668    509.04861    -149016.7    149119.17   -209.40193    34.651126 
331052000    308.95462    361.43709    266.15486   -149025.68    149118.44    95.282228    34.656221 
331056000    268.85817    248.89039    309.42785    -149027.3    149151.95   -60.537456    34.655894 
331060000    326.30304    395.82626    391.03946   -149095.64    149170.73    4.7867996    34.658419 
331064000    279.11347    314.19635    375.79497   -149117.95    149215.77    -61.59862    34.659552 
331068000      297.305    486.81111    294.27457   -149162.31    149258.34    192.53654    34.657359 
331072000    279.82446    410.77707     336.2863   -149180.81    149278.21    74.490766    34.657015 
331076000    249.18045    282.61648      344.127   -149192.96    149326.16   -61.510514    34.654468 
331080000    259.73689    330.10492    260.13508   -149212.74    149334.15    69.969837    34.655918 
331084000    288.24588    359.08445    318.91159    -149226.2    149336.99    40.172861    34.654557 
331088000    280.42844    449.76749    340.34998   -149249.83    149361.43    109.41752    34.653432 
331092000    298.51527    374.49859    416.94367   -149259.01       149355   -42.445076    34.654507 
331096000    287.22598    503.53322    345.01219   -149263.86    149373.68    158.52104    34.651446 
331100000     297.4054    278.55878    248.39495   -149277.31    149391.09    30.163828    34.645703 
331104000    273.92241    387.20885    423.01997   -149314.39     149429.1   -35.811116    34.641851 
331108000    276.56049     303.3717    460.26222   -149317.88    149432.99   -156.89052    34.638627 
331112000    295.45414    292.32954    475.25277   -149334.59    149424.13   -182.92323    34.637241 
331116000    256.57271     242.9952    295.99073   -149336.19    149458.62    -52.99553    34.633817 
331120000    283.80259    449.41901    454.81002   -149350.06    149445.21    -5.391017    34.638475 
331124000    285.97025     321.4453    294.60117   -149390.66    149503.32    26.844131    34.638816 
331128000    310.00012    370.46057    268.08092   -149429.31    149535.05    102.37965    34.641901 
331132000    290.86103    295.12855    238.94117   -149440.49    149557.12    56.187383    34.638425 
331136000    295.39897     512.4936    410.78767   -149452.84    149576.94    101.70592    34.637804 
331140000    266.78225    132.13392    491.10268   -149492.08    149590.48   -358.96876    34.634585 
331144000    271.00382    287.45411    321.04904   -149522.84     149652.3   -33.594931    34.633223 
331148000    272.33974    393.34086    245.61963   -149525.23    149666.98    147.72123    34.639213 
331152000     288.3352    636.82649    250.36568   -149584.77    149693.76    386.46081     34.64383 
331156000    278.64335    436.89609    202.38824   -149587.03    149697.69    234.50785    34.644836 
331160000    264.48259    260.39589    251.99353   -149603.25    149724.88     8.402363    34.644877 
331164000    288.13654    537.41349    527.81154   -149632.32    149730.17    9.6019519    34.642887 
331168000    285.10549    364.46737    377.06306    -149643.7    149766.52    -12.59569    34.645995 
331172000     280.6461    299.09278    295.55567   -149676.68    149774.59    3.5371146    34.645327 
331176000     289.8987    246.87403    172.15496   -149694.47    149775.47    74.719062    34.641274 
331180000    283.51903    288.54601    320.75786      -149680    149792.76    -32.21185    34.634811 
331184000    294.34023    332.80268     334.9031   -149724.58    149821.54   -2.1004199    34.631351 
331188000    294.58481    470.03269    275.01251   -149717.57    149809.83    195.02018    34.630567 
331192000    267.62041     288.8561    345.33983   -149719.33    149835.83    -56.48373    34.626709 
331196000    249.34477    229.75226    354.59013   -149722.58    149839.74   -124.83787    34.629959 
331200000    271.61722    399.47987    293.88688   -149733.77    149849.86    105.59298     34.63185 
331204000    287.09515    343.47843    205.15752   -149765.01     149864.8    138.32091    34.634398 
331208000    289.16494    315.34562    327.37551   -149791.86    149875.75   -12.029892    34.636205 
331212000    280.14351    483.45835    315.94771   -149815.98    149901.04    167.51064    34.631903 
331216000    256.14544    413.87364    306.42795   -149825.21    149941.04    107.44569    34.636193 
331220000    287.15053    300.44264    290.69509   -149828.68    149936.08    9.7475453    34.637852 
331224000    280.61835     234.8394     409.0288    -149852.5     149960.5    -174.1894    34.635735 
331228000    264.05845    318.44047    498.47606   -149889.05    149993.03    -180.0356    34.628428 
331232000     297.0414    423.94232    378.76072   -149927.92    150023.97    45.181599    34.625492 
331236000    300.96556    332.81765    375.54427   -149942.36    150051.46   -42.726618    34.626765 
331240000     287.8826    518.49562    318.03603   -149964.48    150063.61    200.45959    34.635029 
331244000    273.00222    341.31865    157.39278   -150010.33    150107.66    183.92586    34.636542 
331248000    283.01912    379.88757    221.20161   -150031.05    150140.43    158.68596    34.631284 
331252000    277.21022    435.73108    469.34542   -150041.34    150153.18   -33.614344    34.624879 
331256000    281.34383    518.15896    442.42421   -150066.54    150193.42    75.734749     34.62276 
331260000    267.84115    373.64364    507.94887   -150110.81    150227.77   -134.30524    34.622144 
331264000    317.42521     410.1971    351.31354   -150132.21    150219.53    58.883567    34.623253 
331268000    307.33842    543.57021    331.46579   -150162.12    150259.26    212.10442    34.630073 
331272000    311.88819    418.14038    429.58643   -150173.57    150266.59   -11.446052     34.62918 
331276000    290.11997    337.82584    373.50551   -150209.31    150311.62   -35.679668    34.628898 
331280000    304.94798    387.31674    350.83727   -150257.74    150338.69    36.479471    34.627351 
331284000    325.13954    623.16827    431.04934   -150285.06    150352.65    192.11893    34.633921 
331288000    283.88679    615.37821    282.39327   -150328.23    150437.39    332.98494    34.629496 
331292000    280.99307    237.19142    304.02092   -150344.24    150463.04   -66.829498    34.627597 
331296000    262.34489     292.5685    281.35538   -150362.89    150499.01    11.213114    34.634358 
331300000    243.73974    358.02052     226.8079   -150391.73    150518.31    131.21262    34.641787 
331304000    299.02592     331.1954    222.30131   -150396.41    150499.85    108.89409    34.643339 
331308000     281.7499    512.40537    323.92729   -150411.18       150525    188.47808    34.639104 
331312000    270.32193    209.61672    199.67623   -150432.94    150536.75    9.9404881    34.640876 
331316000    300.84956    470.79043    327.53653   -150443.26    150561.58     143.2539    34.638237 
331320000    286.18424    420.68609    283.26644   -150474.83    150581.12    137.41965    34.634381 
331324000    265.55463    278.63111    244.42168    -150507.4    150611.89    34.209434    34.632221 
331328000    281.75645    158.95974    237.49161   -150520.47    150631.27   -78.531876    34.635171 
331332000    287.77599    552.33249    249.50451   -150547.27    150648.38    302.82799    34.636545 
331336000    299.19075    830.27725    340.47524   -150575.17    150661.18    489.80202    34.639906 
331340000    291.60491    301.41096    187.45286   -150594.05    150703.44     113.9581    34.633828 
331344000    269.14883    350.37123    483.92392   -150600.57    150708.43   -133.55269     34.63712 
331348000    283.10026    465.27271    445.63161   -150613.37    150709.51    19.641106    34.639732 
331352000    292.78755    292.21829    218.31518   -150655.08    150741.16     73.90311    34.635249 
331356000     290.8907    187.45886    386.67273   -150690.22    150791.39   -199.21387    34.629748 
331360000    263.66153    331.16405    206.01545   -150700.05    150797.26     125.1486     34.63253 
331364000    290.12186    229.12955    409.97168   -150715.11    150828.99   -180.84213    34.628297 
331368000    280.38482    269.09494      332.153   -150722.82    150826.07   -63.058056    34.630947 
331372000    262.17172    401.78589    292.10532   -150724.56    150848.33    109.68057    34.628622 
331376000    286.38124    237.42132    250.64914   -150736.26    150833.69   -13.227829    34.634186 
331380000    299.46514    330.22743    352.30472   -150763.11    150843.86   -22.077286    34.638741 
331384000    281.97191    354.88237    373.99478   -150772.06    150895.58    -19.11241    34.634959 
331388000    266.20248    281.71033    393.62883   -150792.26    150914.78    -111.9185    34.632455 
331392000    274.51007     309.1029    350.23572    -150826.3    150949.59   -41.132821    34.632625 
331396000    322.74777    317.77554    332.17062   -150849.33    150935.11    -14.39508    34.631702 
331400000    294.92031    362.22549    395.75057   -150876.99    150963.69   -33.525078    34.629823 
331404000    279.35629    265.28751    281.66955   -150911.05    150999.77   -16.382043    34.631555 
331408000    271.44066    420.41026    105.08059   -150894.81    151008.12    315.32967    34.636417 
331412000    282.22228    374.50172    190.82822   -150905.19    151035.45     183.6735    34.638405 
331416000    278.08725    250.95384    382.16253   -150923.61    151051.59   -131.20869    34.638006 
331420000    264.61811    368.55661    379.29615    -150927.2    151052.53   -10.739541    34.633209 
331424000     279.1815    285.49766    368.07492   -150938.21    151055.22   -82.577263    34.629886 
331428000    275.88828    331.65069    405.41056   -150967.17    151091.84   -73.759865    34.629366 
331432000    308.16599    431.84352    501.11966   -151019.17    151120.48    -69.27614    34.632045 
331436000    264.57186    351.12151    289.45811   -151019.83    151139.75    61.663408     34.63562 
331440000    291.88275    401.73656    314.85976   -151051.91    151151.53    86.876792    34.637116 
331444000    288.40999    278.46961     513.6446   -151051.85    151165.38   -235.17499    34.635704 
331448000    277.77036    354.35929    233.67256   -151093.52     151191.8    120.68672    34.632729 
331452000    275.71626    301.77076    301.11945   -151115.32    151238.98   0.65131092    34.635353 
331456000    301.48488    657.96858    299.09099   -151169.72    151259.79    358.87759    34.633088 
331460000    295.49946    279.54655    358.32528   -151211.97    151304.94   -78.778725    34.627986 
331464000    275.38845     443.0886    346.39439   -151258.91    151363.55    96.694211    34.633285 
331468000    268.70657    267.50979    509.83121   -151275.89    151397.65   -242.32142    34.631001 
331472000    277.64926    403.94482    199.56509   -151306.89    151409.79    204.37973    34.634921 
331476000    281.18443    242.69247    393.12326   -151343.13     151444.2   -150.43079    34.636769 
331480000    298.55232    524.30954    456.71472   -151365.71    151472.72    67.594816    34.635087 
331484000    277.91716    270.41954     382.0601   -151386.11     151494.5   -111.64056    34.633765 
331488000    304.40663    530.60138    372.06718   -151417.57    151510.19    158.53419    34.637277 
331492000     321.1144     590.5851    584.08694   -151467.61    151553.43    6.4981602    34.634738 
331496000    298.61574     397.3322    625.01668   -151518.64    151620.52   -227.68449    34.633037 
331500000    319.30562    461.80403    570.33461   -151572.92    151646.88   -108.53058    34.628888 
331504000    264.33873    497.38402    229.77968   -151579.39    151695.54    267.60434    34.631395 
331508000    281.98693    282.14377    470.52589   -151608.35    151705.86   -188.38212    34.632394 
331512000    285.58876     376.6746    478.14414   -151620.39    151737.18   -101.46954    34.631282 
331516000    286.70595    219.58654     141.4297   -151636.64    151764.24    78.156842    34.631798 
331520000    281.25377    332.95134    364.42308   -151673.43    151770.82   -31.471743    34.629265 
331524000    308.53824    346.60394      583.539   -151700.11    151798.11   -236.93505    34.633061 
331528000    279.56074    576.51481    403.24369   -151708.35    151834.73    173.27112    34.632434 
331532000    273.57599    184.90712    313.85679   -151732.51     151839.4   -128.94967    34.632154 
331536000    288.82213    328.32403    314.83339   -151741.45    151849.47    13.490641    34.629207 
331540000    277.77744    289.84085      275.399   -151762.95    151871.66     14.44185    34.626299 
331544000    281.50365      327.344    357.03787   -151793.01    151893.11   -29.693866    34.624075 
331548000     264.9809    335.60909    225.18563   -151816.77    151942.13    110.42346    34.623927 
331552000    289.06748    339.06374    343.12274   -151843.25    151948.82   -4.0589988     34.62821 
331556000    280.94081    380.24498    402.91276   -151871.49    151970.94   -22.667786    34.626787 
331560000    292.04516    334.61917    467.18684   -151890.85    151993.72   -132.56767    34.624175 
331564000    275.87048    400.27364    268.44746   -151912.48    152027.54    131.82618    34.628546 
331568000    277.79231    251.86789    333.70851   -151932.14    152035.37   -81.840625    34.628629 
331572000    265.42829     396.0724    405.52444   -151941.57    152041.99   -9.4520373    34.629657 
331576000    288.94088    330.81629    206.09318   -151969.61    152084.87    124.72311    34.635689 
331580000    289.20251    302.32452    338.92817   -152011.46     152085.4   -36.603648    34.638458 
331584000    284.09487    264.24492    286.56252   -152017.15    152107.81   -22.317599    34.645388 
331588000    295.77896     383.0369    273.63935   -152052.11    152142.28    109.39756     34.64466 
331592000    283.24757    197.53434      395.532   -152060.35    152183.02   -197.99766    34.641139 
331596000     276.0909    429.61259    318.24511   -152072.87    152187.59    111.36748    34.642669 
331600000     316.2221    301.03764    373.16865   -152102.55    152189.01   -72.131013    34.642485 
331604000     270.0807    302.48578    247.30656   -152110.93    152218.01    55.179224    34.641882 
331608000    287.25036    288.12425    409.05269   -152142.15    152250.09   -120.92844    34.641821 
331612000    274.09186    214.79543     412.9983   -152172.13    152280.42   -198.20287    34.640049 
331616000    281.24092     528.0524    291.60341   -152195.56    152324.36    236.44898    34.646592 
331620000     289.3365    486.30012    223.02782   -152251.29    152340.11     263.2723    34.644226 
331624000     303.8007    452.73069    339.73037   -152265.58    152360.69    113.00032    34.641627 
331628000    261.27793     242.3405    345.48687   -152256.48    152379.39   -103.14637    34.646838 
331632000    281.47476    473.76842    244.79799   -152270.55    152377.39    228.97043    34.648785 
331636000    286.44097    593.38058      464.224   -152305.25    152413.86    129.15658    34.645888 
331640000    295.89074    370.92412    306.13827   -152335.37    152433.56     64.78585    34.644664 
331644000    292.50546    404.15235    246.44474   -152369.52    152457.31    157.70761    34.648168 
331648000     313.0591    429.09251    292.13904   -152368.67    152466.98    136.95347    34.652816 
331652000    291.23056     309.9743    189.26505   -152404.26    152503.13    120.70925    34.657981 
331656000    292.49594    494.11799    314.19691   -152420.81    152522.87    179.92108    34.655299 
331660000    273.61531    245.72391    479.79257    -152439.5     152570.1   -234.06867    34.651667 
331664000    268.75719    309.48311    296.59421   -152479.76    152592.29    12.888903    34.654732 
331668000    280.61107    427.23154    400.42232   -152507.63    152608.12    26.809218    34.651558 
331672000     293.8861    413.84328    425.80622   -152529.76    152636.41   -11.962941    34.654124 
331676000     272.1985    312.72281    325.38363   -152532.83    152648.65   -12.660817    34.656341 
331680000    289.86864    230.54197    307.87407   -152573.54    152669.46   -77.332094    34.659784 
331684000    289.36932    446.48905    250.73962   -152598.59    152716.18    195.74942    34.663261 
331688000    282.26312    246.07357    329.42626   -152617.29    152707.03   -83.352692     34.66353 
331692000    283.72043    285.18686    348.06893   -152641.47    152748.55   -62.882068    34.661219 
331696000    286.12613    430.76866    349.94991      -152684    152785.67    80.818752    34.660918 
331700000    274.13294    304.17733    325.71166   -152700.84    152799.39   -21.534326     34.66121 
331704000    252.88239    304.34682    351.85732   -152705.78    152831.96   -47.510506    34.660593 
331708000    279.95031    455.25013    297.83006   -152700.58    152828.67    157.42008    34.657145 
331712000    275.40988     305.8773    227.98714   -152738.39    152851.16    77.890151     34.66197 
331716000    320.92326    285.51211    198.42478   -152811.77    152877.39    87.087339    34.666258 
331720000     272.8046     349.2567    302.80767   -152807.81    152909.12    46.449029    34.667257 
331724000    274.94206    312.51956    296.36372   -152792.35     152915.6    16.155841    34.666419 
331728000    283.34799    527.82881    276.79342   -152825.85    152933.91     251.0354     34.66895 
331732000    296.51354    183.47048    415.49899   -152837.25    152944.46   -232.02851    34.672953 
331736000    260.44466    386.18331    234.58934   -152840.54    152965.34    151.59397    34.673951 
331740000    269.87613    405.69023    601.65599      -152859    152970.85   -195.96576    34.677545 
331744000    294.49242    400.81527    298.65322   -152885.38    152977.87    102.16205    34.680047 
331748000     286.6749    331.91241    302.60358   -152909.25     153011.9    29.308828    34.678673 
331752000    275.84441    283.29595    372.93136   -152908.81    153028.21   -89.635414     34.67671 
331756000    272.04047    354.02712    304.24314   -152952.96    153077.52    49.783985    34.674982 
331760000    287.94332    297.69304    227.76509   -152992.85    153102.66    69.927949    34.670523 
331764000    264.60652    455.93009    238.95382    -153006.8    153113.99    216.97627    34.669687 
331768000    288.69669    269.52772    350.83277   -152985.42    153111.01   -81.305051    34.666217 
331772000    275.88754    346.83668    317.62097   -153035.45    153139.25    29.215704    34.669166 
331776000    288.42363    380.76596    374.99242   -153032.21    153145.99    5.7735468    34.669017 
331780000    269.21816    425.94079    242.29562   -153033.31    153157.44    183.64517    34.668426 
331784000    307.35469    273.00327    389.32925   -153074.75    153167.71   -116.32598    34.668576 
331788000     276.9877    302.23875    404.59124   -153092.36    153214.93   -102.35249    34.671651 
331792000    269.48935     620.4846    312.18122    -153117.9    153237.53    308.30338     34.67778 
331796000    269.80327    205.33542    352.88089   -153116.55    153252.11   -147.54547    34.675484 
331800000     281.8582    258.35498    273.17739   -153175.87    153295.12   -14.822408    34.675781 
331804000    300.89079    256.66863    297.79173   -153211.02    153316.26   -41.123101    34.669916 
331808000    272.93036    425.13211    302.35985   -153218.18    153334.49    122.77226    34.672975 
331812000    243.44897    301.25478    168.83493   -153247.73    153388.82    132.41985    34.674061 
331816000    259.16634    277.53818    264.52156   -153294.37    153428.68    13.016623    34.674437 
331820000    268.57194    309.55214    347.73373   -153318.12    153435.54   -38.181592    34.673042 
331824000    288.02312    360.36683     342.0666   -153307.47    153430.22    18.300232    34.673708 
331828000    275.73713    479.83752    252.79697   -153345.15    153470.13    227.04056    34.672268 
331832000    279.15324    329.08965    301.47215   -153375.03     153479.6    27.617506    34.672135 
331836000    313.49874    590.11003    453.96379   -153405.71    153496.73    136.14625     34.67207 
331840000    266.53112    364.31849    321.38401   -153424.88    153535.52     42.93448    34.673423 
331844000    277.36609    519.69399    350.16426   -153465.35    153567.04    169.52974    34.672353 
331848000    264.17469    306.01175    463.62993    -153480.8    153608.02   -157.61817    34.671568 
331852000    282.86932    215.96759    350.58792   -153500.93    153634.81   -134.62033    34.671381 
331856000    293.34778     281.5709    212.99254   -153508.02    153609.14    68.578363    34.676567 
331860000    306.88449    442.12177    288.88196   -153514.51    153613.99    153.23981    34.670415 
331864000    264.11601     414.6828    242.48499   -153538.69    153650.13    172.19781    34.672747 
331868000    305.70508     235.5153    259.16184   -153602.32    153689.85   -23.646549    34.669756 
331872000    294.83125    232.29118    321.23711   -153620.19    153724.65   -88.945932     34.66984 
331876000    271.92373      238.076    277.98357   -153635.75    153765.33   -39.907573    34.665509 
331880000    262.90347    314.17727    295.55483   -153668.34     153791.5    18.622439    34.671519 
331884000    285.39626    355.16164    581.25566   -153719.14    153812.43   -226.09401    34.674663 
331888000     269.8979    407.15924    206.19947    -153722.8    153823.99    200.95976    34.668598 
331892000    281.81028    517.39413    438.56379    -153727.1    153845.04    78.830334    34.667184 
331896000    282.93479    302.61292    556.80539   -153764.05    153875.75   -254.19247    34.670642 
331900000       281.44    310.31131    517.24376   -153785.16    153896.48   -206.93245    34.673148 
331904000    283.54469    424.81773     511.9101   -153790.67    153904.35   -87.092366    34.672511 
331908000    261.55624     464.6747    184.13697   -153815.09    153948.45    280.53773    34.671839 
331912000    243.68611    525.49919     176.6949   -153838.12       153970    348.80429    34.674592 
331916000    275.08617    215.62065    428.19725   -153873.23    153977.24   -212.57659    34.673374 
331920000    293.15306    190.50317    473.52079    -153907.8    154018.03   -283.01762    34.671972 
331924000    323.06514     297.6844    504.31594   -153939.89    154035.03   -206.63154    34.673756 
331928000    309.97421    319.12944    439.84152   -153974.28    154067.02   -120.71208    34.669295 
331932000    286.56088    418.70262    235.82882   -153998.67    154100.68     182.8738    34.671593 
331936000     276.0801    460.79452    343.87747   -154004.54    154121.09    116.91705    34.671004 
331940000    242.71162    353.90261    302.52455   -154020.12    154153.43    51.378057    34.671935 
331944000    273.87168    435.79641    446.25461   -154075.22    154185.56   -10.458205    34.673377 
331948000    293.94034     455.6353    205.80109   -154085.75    154194.75     249.8342    34.668542 
331952000    281.46334    349.47972    594.56662   -154123.99    154226.76    -245.0869    34.669804 
331956000     276.6851    276.99634    399.95337   -154156.45    154272.63   -122.95703    34.674304 
331960000    266.59804    305.99299    460.04199    -154186.5    154299.88     -154.049    34.673035 
331964000    262.70545    217.36928    320.06868   -154177.97    154303.25    -102.6994    34.671999 
331968000    291.50973    519.16539    296.24988   -154223.58    154340.42    222.91551    34.677004 
331972000    280.73153    371.42074    396.09159   -154233.75    154344.92   -24.670852     34.67579 
331976000    293.87997    429.25844    328.74797   -154249.69    154341.85    100.51048    34.675277 
331980000    254.09048    258.36525    180.05804   -154245.85     154369.6    78.307208    34.675008 
331984000    249.81768    287.24942    232.92498   -154253.26    154378.77    54.324445    34.673893 
331988000    307.28592    513.21023    206.54353   -154281.85    154394.88     306.6667     34.67679 
331992000    306.18177    306.00444    410.50108   -154313.39    154403.25   -104.49664     34.67693 
331996000    314.20009    253.78854    232.25904   -154328.64    154420.35    21.529495    34.675668 
332000000     298.9357    474.93754    456.85103   -154353.03    154449.41    18.086511    34.671517 
332004000     283.8218     235.5459    293.33247   -154353.92    154474.32   -57.786578    34.668062 
332008000    280.31604    494.37588    257.76117   -154393.17    154503.68    236.61471    34.672212 
332012000    304.94513    490.50457    344.04652   -154406.39    154492.97    146.45805    34.678128 
332016000    279.03618    256.50372    376.97667   -154408.85    154522.21   -120.47295    34.684504 
332020000    300.23788    214.06967     354.5085   -154428.46    154528.49   -140.43883    34.678934 
332024000    293.35889    350.42652    251.15849   -154463.54    154561.87    99.268026    34.675258 
332028000    267.33846    297.92255    430.75365   -154489.78    154626.35    -132.8311    34.670891 
332032000    283.51598    392.55661    349.63493   -154525.25    154645.99    42.921683    34.666228 
332036000    264.53512    351.98473    333.47594   -154551.87    154667.29    18.508787    34.668638 
332040000    295.90377     238.6699     344.4535   -154569.19    154687.89    -105.7836    34.662661 
332044000    321.00531    461.54796    357.19869   -154603.65    154694.07    104.34927    34.661658 
332048000    307.82686     313.9282    425.78666   -154620.55    154706.14   -111.85846     34.65995 
332052000    291.32758    365.73463    483.91236   -154660.33    154751.81   -118.17773    34.658954 
332056000    304.02724     477.9331    475.12566   -154665.23    154779.34    2.8074383    34.662111 
332060000    295.95825    310.31145    239.70569   -154691.73    154777.82    70.605755    34.659095 
332064000    263.70196    428.08187    397.47443    -154683.1    154796.22    30.607439    34.661605 
332068000     269.5308    197.55385    302.36535   -154694.66    154817.92    -104.8115    34.665727 
332072000    269.93493    304.14259    469.86319   -154737.87    154865.79    -165.7206    34.663524 
332076000    294.82709    348.47188    423.14959   -154758.87    154871.18   -74.677703    34.665153 
332080000    307.26546    300.11472     302.0114   -154800.63    154888.95   -1.8966842    34.667102 
332084000    298.32511     524.8838    365.92368   -154845.86    154934.13    158.96012    34.667054 
332088000     250.0677    251.70239    350.46115    -154844.3    154969.82   -98.758764    34.667711 
332092000    285.48419    379.41026    400.18698   -154886.71    155010.88   -20.776723    34.668297 
332096000    280.18589     298.6214    230.25946   -154916.91    155030.61    68.361937    34.666069 
332100000    286.03408    276.01472    455.68263   -154948.22    155035.05   -179.66791    34.667259 
332104000    290.39862    321.00358     301.0679   -154961.36    155060.26    19.935689    34.667995 
332108000    258.29759    280.60455     197.5348   -154972.08     155097.7    83.069741    34.659938 
332112000    282.82266    357.42252     439.2692   -155015.96    155134.13   -81.846678    34.663415 
332116000      278.983    345.93858    362.42588    -155048.2    155169.15   -16.487301    34.664848 
332120000    277.82975     413.8126    302.71847      -155081    155186.04    111.09412    34.663993 
332124000    299.76647    279.39714    423.96264   -155105.79    155202.35    -144.5655    34.662994 
332128000    282.34133    376.78427    261.78301   -155131.88    155221.44    115.00126    34.663397 
332132000    291.63448    339.36593    408.65641   -155152.07    155253.46   -69.290479    34.666638 
332136000     279.0261     618.9933    155.03549   -155163.77    155293.89    463.95781    34.668443 
332140000    276.15287    275.59721    236.41115   -155196.04     155332.7     39.18606    34.669074 
332144000    296.04277    416.74333    371.76513   -155228.69     155320.9    44.978197    34.667421 
332148000    303.08967    302.37018    373.57167    -155237.5    155340.41   -71.201491    34.670376 
332152000    298.00588    340.66824    314.13075   -155293.45    155372.94    26.537489    34.666377 
332156000    273.27465     151.3702    302.36364   -155334.01    155437.16   -150.99344    34.665129 
332160000    257.01323    410.44763    386.58001   -155366.31    155485.66    23.867623    34.666208 
332164000    289.84531    356.00119    476.58937    -155417.9    155503.89   -120.58818    34.669046 
332168000    294.11338    356.03283    326.63833   -155435.79    155537.58    29.394497    34.667948 
332172000    288.62643    529.80643    367.13698   -155456.79    155577.36    162.66944    34.666265 
332176000     287.4276     233.1787    205.81642   -155503.69    155619.22     27.36228    34.667675 
332180000    295.48286    203.14159    465.11013   -155551.31     155654.2   -261.96854    34.671355 
332184000    300.84002     490.2578    350.76365   -155564.59    155656.51    139.49416    34.667872 
332188000    268.87547    437.81955    320.20468   -155570.77    155688.58    117.61487    34.663704 
332192000    318.91353    388.81659    353.12476   -155616.66    155686.77    35.691832    34.666178 
332196000     273.0585    447.03932    318.98248   -155608.55    155729.36    128.05685    34.661877 
332200000    317.28187    256.92217    382.48191   -155652.83    155750.64   -125.55974    34.657441 
332204000     279.0207     257.4628    226.26713   -155643.38    155763.18    31.195667    34.657685 
332208000    263.56546    385.07373    386.75836   -155637.62    155768.82   -1.6846361    34.656299 
332212000    282.65365    444.34593    310.50173    -155662.9    155789.18     133.8442    34.660131 
332216000    272.59651    136.27445    181.28134   -155667.23    155801.47    -45.00689    34.655145 
332220000    245.63907    360.75886    172.13724   -155694.86     155820.2    188.62162    34.653503 
332224000    283.26775    343.56762     140.5741   -155740.72     155859.5    202.99352    34.654875 
332228000    282.90901    468.01106    276.75056   -155781.96    155900.51    191.26049    34.652668 
332232000    259.62561    320.60492    384.59465   -155794.83    155925.01   -63.989738    34.648191 
332236000    273.05675    384.37086     314.5738   -155809.94     155925.4    69.797055     34.65183 
332240000     266.8194    439.64537    474.88383   -155835.24    155957.84   -35.238466     34.64493 
332244000    269.01049    338.72803    285.85281   -155902.47    156006.21    52.875218    34.641185 
332248000    296.13539    489.87192    331.30638   -155944.62    156049.82    158.56554    34.642472 
332252000     271.6343    257.36949    320.75426   -155964.89    156090.92   -63.384775    34.645508 
332256000    290.17436     315.5574    344.35883   -156016.93    156131.71   -28.801429    34.644347 
332260000    265.41961    255.93201    395.52544   -156034.95     156140.7   -139.59343    34.647833 
332264000    295.58689    494.47026    345.79686   -156041.94    156141.71     148.6734    34.648059 
332268000    302.55631    233.49882    365.00221   -156070.06    156151.33   -131.50339    34.646952 
332272000    301.01979    301.15935    366.49211   -156092.69    156214.74   -65.332756     34.64713 
332276000    283.41491    340.09524    223.32561   -156124.26    156244.32    116.76963    34.648074 
332280000    246.89525    371.83777    143.83364   -156137.76    156280.24    228.00413    34.645706 
332284000    274.50786    486.90103    464.72787   -156155.15    156277.44    22.173158    34.644308 
332288000    296.66759    351.57144    330.24195   -156218.81    156325.41     21.32949    34.645183 
332292000    277.76721    318.35647    249.06983   -156241.22    156362.32    69.286638    34.644778 
332296000     296.2254     386.6366    361.20375   -156287.22    156380.02    25.432848    34.645862 
332300000    270.59008    402.06073     232.8646   -156310.76    156426.74    169.19613    34.646604 
332304000    273.32406     308.2669     242.8745   -156327.17    156441.44    65.392398    34.647032 
332308000    288.86629    372.84597    209.71165   -156336.58    156463.02    163.13432    34.647668 
332312000    301.56994    457.60776    314.98847   -156382.43    156489.06    142.61929    34.651112 
332316000    269.81242    316.68232    330.55272    -156378.3    156500.31   -13.870408    34.646015 
332320000    260.23659    250.14072    153.02902   -156384.98    156499.69    97.111705    34.648241 
332324000    299.56591    445.12574    411.87698   -156407.77    156510.95    33.248759    34.647027 
332328000    265.88452    243.83798    117.15685   -156419.63    156535.88    126.68113    34.651758 
332332000    277.90955    284.27288    226.35297    -156450.6    156568.58    57.919919    34.648625 
332336000    266.02069    286.08701    334.70728   -156491.77    156604.41   -48.620277    34.651842 
332340000    247.34311    202.41065    386.77629   -156515.04    156648.81   -184.36564    34.650781 
332344000    269.26657    317.09339    349.98468   -156514.48    156634.67   -32.891284    34.649559 
332348000    317.29313     302.4262    303.67307   -156538.91    156640.95   -1.2468655    34.645352 
332352000    287.69337    408.46772     385.3042   -156546.81    156651.59     23.16352    34.642262 
332356000    293.58439    437.68002    324.36332   -156555.55     156664.4    113.31671    34.643064 
332360000    277.59966    508.28479    359.34356   -156553.33    156685.57    148.94123    34.645609 
332364000    306.45096    693.25892    258.50005   -156591.01    156696.18    434.75887    34.645773 
332368000    287.17171      293.066    432.25856   -156603.87    156709.48   -139.19256    34.643522 
332372000    291.62881    410.20713    307.67959   -156641.07    156735.62    102.52755    34.639762 
332376000    297.54825    308.42157    131.29169   -156671.66    156779.03    177.12988    34.640923 
332380000    278.32249    486.93353    236.46333   -156695.04    156808.79     250.4702     34.63933 
332384000    266.31602    355.09899    488.54005   -156692.72    156810.59   -133.44105     34.64254 
332388000    281.96878    182.55163    278.69073   -156692.49    156797.41   -96.139096    34.637358 
332392000    274.42562     232.0767     348.1685   -156713.09    156820.76   -116.09179    34.636598 
332396000    294.71955    369.10214    326.89436   -156725.49    156826.02    42.207787    34.640673 
332400000    274.79643    548.49562    271.28333   -156738.88     156866.8    277.21228    34.638381 
332404000    298.22849    334.36933      270.668   -156805.59    156887.97    63.701333    34.638398 
332408000     284.5809    212.39957    289.18976    -156795.4    156922.04   -76.790186    34.636324 
332412000    312.03544    505.13559    385.63927   -156831.99    156933.08    119.49631    34.633661 
332416000    279.65673    269.87383    491.34416    -156830.6    156949.03   -221.47033    34.638161 
332420000    314.96856    324.43546    385.27381   -156859.17    156960.14   -60.838347    34.637304 
332424000    327.53683    520.31238    318.91834   -156901.98     157012.3    201.39404    34.636451 
332428000    294.57924    417.04978    167.91303   -156926.82    157018.77    249.13675    34.636518 
332432000    281.71636    446.10554    221.57496   -156924.07     157029.7    224.53058    34.639356 
332436000    282.35953    298.51826    511.45291   -156930.31    157054.22   -212.93465    34.630287 
332440000    279.44471    231.49111     247.6942   -156931.24    157068.91   -16.203091     34.63345 
332444000    309.08354    378.06885    362.02156   -156978.23    157080.29    16.047289    34.630779 
332448000    302.36082    375.92947    355.46078   -156999.19    157106.18    20.468689     34.63091 
332452000    297.04735    395.26414    143.95713   -157042.92    157143.86    251.30701    34.636696 
332456000    284.99413     505.1109    219.08907   -157034.63    157154.59    286.02183    34.635037 
332460000    274.49555     404.3511    378.97767   -157044.28    157172.17    25.373425    34.637305 
332464000    310.65589    475.67934    451.66839   -157051.37    157155.79    24.010947     34.63722 
332468000    283.40166    424.41765    220.80283   -157060.02    157177.52    203.61481    34.633829 
332472000    300.40914    424.55823      286.936   -157124.78    157225.39    137.62223     34.63047 
332476000    347.51899    360.54145    448.02824   -157151.36    157228.38   -87.486788    34.626443 
332480000    275.20528    424.88158    218.47961   -157137.16    157253.74    206.40197    34.631675 
332484000    287.87756     296.2307    340.19035   -157145.23     157267.4   -43.959641    34.634875 
332488000    296.25656    473.97881    357.53868   -157172.76    157264.66    116.44013    34.633725 
332492000    274.16798    450.23399    227.16507    -157195.9    157321.57    223.06893    34.633201 
332496000     268.3998    303.79388     234.7527    -157214.7    157351.83    69.041172    34.633783 
332500000    262.61387    300.14358    205.88571   -157204.45    157339.03    94.257871    34.633299 
332504000    255.02838    282.41415    182.64427   -157239.03    157368.16    99.769879    34.636537 
332508000    280.72489    374.94042     412.7605   -157267.67    157394.66   -37.820078    34.633595 
332512000    303.67441    532.18316    574.20187   -157289.61    157395.94    -42.01871    34.635795 
332516000     277.8107    382.26066    388.96495   -157321.78    157446.93   -6.7042848    34.633236 
332520000    300.22801    268.20742    222.06451   -157367.57    157460.47    46.142906    34.639081 
332524000    312.39743     393.1889    662.43145   -157401.25    157490.05   -269.24254    34.638335 
332528000    281.80074    342.52321    267.41898   -157402.67    157518.36    75.104231    34.641229 
332532000    331.39121    688.66098    437.50326   -157473.49       157553    251.15772    34.643026 
332536000    288.95361     304.3032    265.21294   -157454.28    157562.58    39.090254    34.646654 
332540000    309.61422    232.61962    588.84299   -157483.87    157578.14   -356.22337    34.650898 
332544000    255.62314    251.80959    326.36801   -157471.71    157592.31   -74.558424    34.650387 
332548000    285.32108    488.00628    375.87138    -157495.8    157605.56    112.13489    34.655931 
332552000    262.23592    390.85237     391.7018   -157534.25     157654.1  -0.84943155    34.662118 
332556000    292.15745    299.89866    351.54505   -157566.25    157678.85   -51.646384    34.658936 
332560000    303.01108    277.49557    378.04366   -157606.07    157703.18   -100.54809    34.662541 
332564000    279.14795    418.25148    618.59227   -157635.63    157748.16   -200.34079    34.663326 
332568000    273.35562    372.55112    383.00952   -157634.41    157759.93   -10.458396    34.661691 
332572000    310.69691    319.72388    197.90565   -157695.97    157788.03    121.81823    34.661937 
332576000      322.663    565.94111    455.38334   -157709.67    157793.05    110.55776    34.659934 
332580000    273.35987    292.44911    307.34593   -157707.26    157820.45   -14.896828    34.661317 
332584000    295.28852    321.04642    479.16484    -157736.8     157844.2   -158.11843    34.660794 
332588000    290.43883    506.71535    346.22245   -157759.94     157844.9     160.4929    34.657729 
332592000    281.56887    479.15943    246.74764   -157764.23    157879.05    232.41179    34.656365 
332596000    313.57135    308.35531    309.41451   -157805.08    157886.57   -1.0592067    34.661697 
332600000    316.65593    493.68456    416.44215   -157839.31    157926.77    77.242417    34.664139 
332604000    312.19994    166.15396    256.05069   -157833.96    157937.15   -89.896728    34.665145 
332608000    300.04512    441.14774    333.41747   -157838.37     157935.8    107.73027    34.663707 
332612000    304.12642    228.62763    185.49768    -157852.2    157943.02    43.129956    34.666993 
332616000    279.83053    263.17176    263.89612   -157843.57    157949.02  -0.72435733    34.665239 
332620000     280.4906     274.7916    265.54721   -157839.28    157952.96    9.2443942    34.665365 
332624000    251.34847    333.45697    192.87015    -157846.9       157970    140.58682     34.66396 
332628000    272.12595     334.8874    295.16424   -157874.82    157998.51    39.723157    34.665609 
332632000    295.21657    290.52776    610.01456   -157895.32    157994.54    -319.4868    34.668263 
332636000    275.29203    369.20755    264.57261   -157892.82    157997.43    104.63494     34.66468 
332640000    301.04804    273.57222    248.90558   -157895.09    158017.44    24.666638    34.658689 
332644000    280.20617    370.53111    238.13228   -157912.44    158035.48    132.39883     34.66343 
332648000    259.78419    443.53417    317.10107   -157933.57    158071.99     126.4331    34.662762 
332652000    286.02861    352.20598     274.6538   -157979.03     158099.3    77.552174    34.659633 
332656000    290.54132     362.0366    475.22849   -157994.57    158110.13   -113.19188     34.65639 
332660000    305.29177    439.01679    460.58998   -158054.66    158161.23   -21.573183    34.652683 
332664000    275.54471     371.5546    285.51424   -158072.37    158193.91    86.040362    34.651151 
332668000      277.154    393.53079    320.53481   -158113.89     158233.7    72.995982    34.652622 
332672000     289.5361    361.23666     507.2655   -158128.84    158237.01   -146.02884    34.649454 
332676000    291.59617    265.37416    296.50942   -158152.72    158258.36   -31.135259    34.649555 
332680000    257.46367    422.45386    258.82337   -158174.05     158297.2    163.63049    34.653096 
332684000    259.80042    254.47229    355.60008   -158193.02    158304.81   -101.12778    34.652508 
332688000    276.08685    493.15269    568.80023   -158201.54     158327.8   -75.647539    34.658864 
332692000    304.10966    589.45329    238.98151   -158230.35    158330.32    350.47178    34.661346 
332696000    295.86051    453.42781    219.79449   -158249.97    158345.03    233.63333    34.658003 
332700000    288.74918    372.18184    365.56165   -158269.78    158364.37    6.6201934    34.655177 
332704000    269.71036    212.70552    211.41513   -158296.07    158409.08    1.2903931    34.653229 
332708000    271.22688    346.09865    263.57961   -158356.26    158452.45    82.519038    34.651014 
332712000    299.64127     371.5226    337.50695   -158371.78    158476.69    34.015652    34.651598 
332716000    278.14918    346.76772    372.33292   -158393.38    158490.42   -25.565207    34.653757 
332720000    306.35479    466.10536     537.3703   -158417.35    158504.26   -71.264942    34.651321 
332724000    286.14338    297.67984    334.20995    -158452.7    158557.33   -36.530104    34.646015 
332728000    292.35541    292.69533    368.88786   -158468.15    158583.08   -76.192536     34.64854 
332732000    286.22074    425.39124     345.3328   -158542.61    158647.81    80.058441    34.647403 
332736000    283.65045    169.22579    417.70165   -158559.75     158684.6   -248.47586    34.649649 
332740000    297.72829    305.57169    375.25054   -158597.53     158696.2   -69.678851     34.64894 
332744000    291.21865    355.81673     344.2071   -158618.48    158708.73     11.60963      34.6525 
332748000    297.51695    385.23232    269.60869   -158624.02    158737.47    115.62363    34.650903 
332752000    281.04592    401.60442    372.37787    -158642.9    158773.87    29.226546    34.644891 
332756000     250.2615    406.99333    270.75615   -158658.42    158794.28    136.23718    34.644854 
332760000     305.3347     361.9801    535.47073   -158697.04    158807.19   -173.49063    34.647249 
332764000    243.61222    390.73188    153.45498   -158726.15    158852.91     237.2769    34.651224 
332768000    291.33508     569.8267    247.08374    -158766.1     158884.5    322.74296    34.653758 
332772000    294.49405    332.41215    538.19173   -158790.88    158907.17   -205.77958    34.656403 
332776000    265.98423    201.82892     247.3006   -158783.92    158919.53   -45.471677    34.656694 
332780000    306.73715    622.38125    355.89428   -158842.04    158944.83    266.48697    34.665293 
332784000    302.07353    590.75983    482.56627   -158876.89    158969.13    108.19355    34.664316 
332788000    296.74247     257.0411    338.79924   -158898.24    158988.72   -81.758142    34.664198 
332792000    275.07815    187.77696    317.75112   -158923.33     159025.1   -129.97416    34.662152 
332796000    298.03806    441.41528    326.10338   -158939.57    159028.39     115.3119    34.667922 
332800000    274.29838    499.92294    327.94294   -158964.47    159078.27    171.98001    34.670864 
332804000    287.47896    340.88755    401.74326   -158967.56    159080.17   -60.855701     34.66879 
332808000    300.71409    529.96831    255.45513   -158986.02    159081.33    274.51318    34.670346 
332812000    308.74425    437.62487    492.67037   -159014.39     159102.5     -55.0455     34.66831 
332816000    317.00496    214.60969    362.42927   -159022.65    159118.07   -147.81959    34.672654 
332820000    288.74675    461.78186    267.29078   -159030.71    159120.78    194.49108    34.671871 
332824000    254.34619    263.16426    387.44537   -159041.64     159180.3   -124.28111    34.668913 
332828000    287.72166    405.35603    331.69655   -159101.49     159217.2    73.659485    34.666229 
332832000     301.6873    497.72063    222.97605    -159135.6    159241.74    274.74459    34.669585 
332836000    285.92789    371.87722    261.20127   -159154.86    159268.53    110.67595    34.665949 
332840000     269.8216    410.50742    351.43435   -159152.85    159262.14    59.073068    34.667207 
332844000    292.38364    342.78018    329.81717   -159175.97    159273.06    12.963014    34.670775 
332848000    317.80773    321.46486    381.12719   -159208.65    159309.77   -59.662327    34.668832 
332852000    282.51114    234.01732    328.58605   -159220.06    159339.97    -94.56873    34.671054 
332856000    291.60825    398.19173    389.62355   -159238.47    159352.33    8.5681773    34.668963 
332860000    253.28662    239.58352    258.63292   -159283.24    159409.74   -19.049398    34.668566 
332864000    279.70753    302.09777    264.51862    -159297.9    159407.75    37.579148    34.667909 
332868000    286.11488     337.2882    309.05487   -159314.37    159413.02    28.233332    34.669237 
332872000    293.74602    287.19242    390.34042   -159336.77    159446.41     -103.148    34.667063 
332876000    267.75628    322.80097    404.00266   -159325.64    159457.29   -81.201686    34.668114 
332880000    280.89252    302.00597    252.74955    -159356.2    159466.29     49.25642    34.663949 
332884000    298.56958    449.78559    316.59208   -159362.11    159463.07    133.19351    34.663832 
332888000     277.7339    285.40428    524.91211   -159377.32    159501.45   -239.50783     34.66401 
332892000    246.41091     228.4888    178.62714   -159424.73    159548.59    49.861658    34.661383 
332896000     302.6352    461.02447    595.19233    -159472.1    159567.83   -134.16786    34.658316 
332900000    275.94361    332.36899    261.86131      -159485    159597.87    70.507677    34.659022 
332904000    282.37314    449.20996    456.24973   -159495.67    159621.08   -7.0397654    34.657989 
332908000    286.60756    646.30809    450.85895   -159509.65    159629.72    195.44914    34.660031 
332912000    297.13237    359.51716    279.92324   -159541.58    159643.87    79.593921    34.657152 
332916000    282.96773    363.12591    366.72888   -159559.06    159686.19   -3.6029733    34.660986 
332920000    263.56334    210.54979    236.22361   -159580.17    159714.14   -25.673819    34.658078 
332924000    265.33033    227.08531     342.6346   -159627.53    159754.99   -115.54928    34.653148 
332928000    247.62792    430.43185    264.43402   -159656.48    159797.34    165.99783    34.653889 
332932000    291.57058    325.16148    308.69527   -159729.01    159830.21    16.466209    34.659872 
332936000    297.07004    177.13115     324.5445   -159757.32    159848.25   -147.41335    34.664177 
332940000    288.08908    373.87936    223.77189   -159776.56    159869.98    150.10747    34.660538 
332944000    305.92783    421.67699    474.75387   -159819.88    159914.44   -53.076878    34.656082 
332948000    279.94892    499.69751    271.69728   -159858.14    159946.55    228.00024    34.656597 
332952000    263.07061    169.89366    227.67887   -159857.52    159993.56   -57.785202    34.652731 
332956000    286.03611    288.09909    296.15564   -159884.13    160020.29   -8.0565518    34.660398 
332960000    290.26468    452.35491    424.62947   -159913.49    160023.84    27.725445    34.656255 
332964000    256.42994    315.43567    327.02298   -159929.05    160066.46   -11.587313    34.656406 
332968000    308.02434    324.50663    409.06651   -159977.51    160063.43   -84.559886    34.653942 
332972000    309.90751    356.81652    406.13704   -159999.16    160086.47   -49.320526    34.653391 
332976000    274.27314    352.18895    253.61077   -159981.37    160091.98    98.578183    34.649387 
332980000    274.73147    306.18208    332.14298   -160000.91    160104.47   -25.960894    34.649598 
332984000    284.32661     233.6536    345.68063   -159997.07    160119.89   -112.02703    34.652535 
332988000    265.75001    241.35072    323.16651   -160014.11    160136.92   -81.815793      34.6522 
332992000    301.84048    344.73786    309.56913   -160052.56    160166.19    35.168729    34.652659 
332996000    304.68537    525.04129    265.10166   -160054.81    160165.53    259.93963    34.653864 
333000000    296.77744    319.84733    291.41757   -160093.22    160207.63    28.429759    34.652394 
333004000    260.77167    275.79331     183.4622   -160132.93    160253.55    92.331109    34.647916 
333008000    265.26959    535.95829    270.08873    -160148.7    160277.78    265.86956    34.647847 
333012000    275.30811    210.62139    342.43764   -160203.62    160314.38   -131.81625    34.649353 
333016000    274.80281      286.713    302.34978   -160236.13    160358.66    -15.63679    34.651478 
333020000    323.66864      496.075    368.36358   -160285.66    160377.08    127.71142    34.649025 
333024000    306.65522    322.41978    251.27577   -160307.13    160428.23    71.144009    34.643728 
333028000    260.23123    356.24388    261.47303   -160325.73    160461.12    94.770851     34.64456 
333032000    277.86184    486.17185    271.87358   -160341.18    160462.15    214.29827    34.650281 
333036000    270.98076    437.49124    306.11453   -160377.25    160496.85    131.37671     34.65319 
333040000    288.81178    377.01908    344.50445   -160418.17    160510.01    32.514633    34.644959 
333044000    306.01815     321.5201    357.28705   -160449.99    160546.74   -35.766951    34.643222 
333048000    289.70829    381.13935    188.75606   -160477.13    160572.52     192.3833    34.649079 
333052000    296.76414    406.03548    288.13961   -160498.04    160600.62    117.89587    34.650672 
333056000    271.12284    427.66889    283.88604   -160500.56    160632.17    143.78285     34.65442 
333060000    287.58609    357.36185    444.69135   -160536.51    160630.79   -87.329499    34.654806 
333064000    269.72084    487.78688    215.15408   -160538.23    160678.88     272.6328    34.660105 
333068000    298.11784    307.07662    373.46808   -160576.92    160693.94   -66.391453    34.655438 
333072000    285.81669      247.923    361.58619   -160572.64    160682.95   -113.66319    34.655529 
333076000    281.25111    321.36272    303.26082   -160573.22    160691.14    18.101901    34.654056 
333080000     290.9489    308.07499    252.94553   -160614.41    160715.33    55.129463    34.658247 
333084000    257.05356    263.96475    375.87483   -160631.01    160762.03   -111.91007    34.655024 
333088000    268.78234    506.34196    301.29246   -160647.36    160771.04     205.0495    34.655409 
333092000    258.63712    324.50999    188.13065   -160662.71    160802.12    136.37934    34.655025 
333096000    246.94025     269.7784    430.40203    -160702.1    160832.51   -160.62363    34.654117 
333100000    302.35163    246.42185    447.88258   -160761.31    160863.58   -201.46073    34.654863 
333104000    276.97425    334.23063    237.48635   -160793.13    160921.18    96.744278    34.654802 
333108000    304.77792    249.51047    382.42511   -160856.13    160950.94   -132.91464     34.65689 
333112000    275.51934    159.29153    298.27222   -160877.33    160980.82   -138.98069    34.658103 
333116000    261.92177    346.38752    253.05491   -160874.23    161020.51    93.332605    34.655431 
333120000    285.60411    237.49439    602.84679   -160897.54    161011.97   -365.35239    34.649007 
333124000    275.61095    335.83833    542.48164   -160912.61    161029.97   -206.64331    34.649697 
333128000    260.39774    233.50865    281.56165   -160907.17    161055.78   -48.053003    34.648095 
333132000    249.26346     284.9009    198.30364    -160929.9    161064.34    86.597262    34.645765 
333136000    273.58509    341.78151    438.63523   -160958.44     161095.1   -96.853725    34.645347 
333140000    255.64455    251.77475    398.51253   -160967.89    161108.41   -146.73778    34.643076 
333144000    266.72909    204.08219    207.73358   -161026.31     161153.3    -3.651397     34.64787 
333148000    262.16417    327.71239    390.19809   -161063.16    161196.41   -62.485697    34.649293 
333152000    291.58498    232.68092    386.53276   -161105.82    161206.07   -153.85184    34.649333 
333156000    297.82582     349.6086    343.54763   -161126.03    161230.21    6.0609737    34.652121 
333160000    262.83789    291.11683    388.57447   -161111.38    161239.52    -97.45764    34.650276 
333164000    271.95808    292.80801    253.31824   -161142.95    161256.52    39.489766    34.649777 
333168000    286.27231    423.29653    331.79401   -161187.84     161298.7    91.502516     34.64971 
333172000    270.24464    401.28248    249.29276   -161205.93    161335.91    151.98972    34.649969 
333176000    280.04435    232.03362    297.02571   -161238.75    161361.63   -64.992091    34.647454 
333180000    308.26174    266.48095    258.42847    -161294.2    161391.71     8.052482    34.645806 
333184000     306.5418    329.29972    280.30908   -161340.32    161438.75    48.990644    34.640858 
333188000     275.5209    206.60797    399.39169   -161345.11    161480.52   -192.78372    34.641958 
333192000    302.08411    392.61012     262.3722   -161374.72    161484.66    130.23792    34.646403 
333196000    326.57204    414.25649    446.83535   -161407.91    161510.39   -32.578856    34.641286 
333200000    285.57136    358.25385    398.14417   -161447.35    161557.21   -39.890325    34.642505 
333204000    286.58347    362.16674    285.69811   -161448.19    161558.85    76.468632    34.638928 
333208000    320.24624    423.67482    361.94669   -161496.27    161579.83    61.728129    34.647762 
333212000    281.83139    357.14319    144.28058    -161492.7    161608.75    212.86261    34.650782 
333216000    305.35209    439.66189    180.40747   -161534.34    161634.76    259.25442    34.654563 
333220000    283.09043    271.26502    357.02942   -161554.29    161662.67   -85.764404    34.658579 
333224000    296.14249    586.81021    379.62471   -161574.75    161692.07     207.1855    34.659986 
333228000    269.01793    425.34065    368.38841   -161590.48    161714.62    56.952233    34.656115 
333232000    286.51771    354.40158      329.212   -161611.36     161700.5    25.189575    34.663936 
333236000    303.55133    251.75006    222.28182   -161650.64     161748.4    29.468233    34.666131 
333240000    280.71937    288.89841    357.49629   -161670.91    161783.92    -68.59788    34.664331 
333244000    284.36293     284.0275    159.90045   -161700.66    161826.77    124.12705     34.66625 
333248000    294.66053     278.5648    291.25835   -161732.85    161850.56   -12.693554    34.661426 
333252000    327.45063    385.91184    473.31448   -161763.49    161850.42    -87.40264     34.66057 
333256000    286.73901    278.59842    147.27407   -161760.09    161875.82    131.32434    34.663643 
333260000    277.64586    584.47925    227.65566   -161788.35    161898.44    356.82358    34.663177 
333264000    282.90199    239.80366    262.27029   -161798.21     161918.5   -22.466633    34.660167 
333268000    305.20024    419.56079    305.30227      -161811    161904.26    114.25853    34.653973 
333272000    291.06806    348.31735     452.2201   -161801.66    161921.24   -103.90275    34.649379 
333276000    302.61612    391.32034    254.46764   -161835.13    161940.91     136.8527    34.649592 
333280000    300.82812    311.80563    213.74839   -161851.92    161942.27    98.057234    34.652854 
333284000    304.71644    358.32885    231.99326   -161858.31    161948.61    126.33559    34.650898 
333288000    298.65086     224.2676    665.85325   -161872.62    161988.67   -441.58565    34.650381 
333292000    310.35708    589.97442    329.37795   -161905.23    161999.85    260.59647    34.648665 
333296000    305.26963    280.61512    352.42029   -161941.56    162044.71    -71.80517    34.652753 
333300000    302.03154     350.9028    428.38495   -161945.54    162041.12    -77.48215    34.652353 
333304000     293.0922    345.67098    340.34208   -161961.25    162066.63    5.3289008    34.653388 
333308000     284.9985    165.46956    357.99791   -161982.88    162080.75   -192.52835    34.656121 
333312000    275.25017    500.38644    230.30696   -161996.89    162109.24    270.07949    34.653286 
333316000    262.60304    399.80745    249.40502   -162009.98    162122.68    150.40243     34.65752 
333320000    281.43611     464.6163    449.18551   -162031.71    162145.04    15.430785     34.65581 
333324000    262.94045    449.56393     492.2324   -162065.12    162188.34   -42.668471    34.657248 
333328000    290.97011    375.02807    353.62356   -162098.68    162208.77    21.404511    34.663196 
333332000    309.84554    425.91038    479.10906   -162140.19    162240.71   -53.198679    34.661843 
333336000    271.67882    386.66923    339.54965   -162158.52    162271.17    47.119584    34.659946 
333340000     263.4006    382.94449    264.09635   -162175.41    162287.04    118.84814    34.652573 
333344000     266.6137    363.45736    355.24287   -162193.94    162324.18    8.2144914     34.65763 
333348000    296.08858    414.44522     347.6401   -162214.44    162323.34    66.805122    34.656781 
333352000    285.84341    333.71971    314.43048   -162235.43    162356.25    19.289235     34.65267 
333356000    293.23689    370.60553    324.31106   -162252.65    162359.63    46.294475    34.653688 
333360000    290.64585    219.24029    429.72939    -162275.3    162382.11    -210.4891    34.658521 
333364000    284.22507    251.75755    372.47938   -162289.98     162397.9   -120.72184    34.655441 
333368000    266.01257    509.28321    131.33439    -162319.6    162443.98    377.94882    34.652387 
333372000    269.76871    418.26676    419.87383   -162350.69    162466.81   -1.6070742    34.655802 
333376000    286.87024    281.27977    353.26869   -162388.33    162506.84    -71.98892    34.656993 
333380000    294.94324    466.35732    330.82735   -162388.97    162498.51    135.52997    34.663822 
333384000     267.7864    327.73422    328.50972    -162408.5    162536.07  -0.77549931    34.663208 
333388000    275.67637    393.69743    199.00619   -162462.94    162563.02    194.69124    34.665508 
333392000    270.74685    379.36694    266.95074   -162486.83    162609.25     112.4162    34.662756 
333396000    253.85479      298.204    261.32697   -162478.72    162610.03     36.87703    34.665163 
333400000    272.75164    308.51578    258.17782   -162491.31    162625.27    50.337964    34.663802 
333404000    296.53596    371.89123    428.76641   -162512.67     162622.3    -56.87518    34.664988 
333408000    258.30031    303.08206    224.87482    -162508.7    162642.89    78.207241    34.659825 
333412000    280.51178    350.79148     352.4747   -162544.88    162679.36   -1.6832253    34.663316 
333416000    276.67821    388.74642    288.05879   -162585.17    162697.89    100.68764    34.666814 
333420000    275.66111    353.49841    437.48768   -162620.49    162739.01   -83.989275     34.67085 
333424000    304.16075    408.59557    354.65944   -162663.87    162759.79     53.93613    34.669754 
333428000    274.50978     270.9536    336.30341   -162671.21    162782.86   -65.349813    34.663462 
333432000    284.67432    353.44139    497.79226   -162666.69    162786.62   -144.35087    34.663313 
333436000    288.93586    341.64039    294.73732   -162708.57    162827.08     46.90307     34.66004 
333440000    275.10383    345.78546    322.33883    -162733.8    162855.72    23.446627    34.666898 
333444000    248.13242    212.34569    445.72272   -162738.14    162853.37   -233.37704    34.669121 
333448000    281.59859    392.18516    237.16634   -162764.28    162857.94    155.01882     34.67092 
333452000    292.77596     422.8868    193.34152   -162795.25    162901.94    229.54528    34.670177 
333456000    262.21891    316.46828     292.4441   -162794.77    162935.41    24.024176     34.67074 
333460000    256.17698    254.27647    286.86177   -162809.08    162940.51   -32.585302    34.671726 
333464000     264.9628      267.132    155.86325   -162837.33    162938.19    111.26874    34.672044 
333468000    290.24001    424.74364    319.65076    -162870.3    162967.16    105.09289    34.677106 
333472000    282.37679    305.94094    415.42837   -162892.38    162994.96   -109.48743    34.678263 
333476000    266.23158    367.54302    216.17062   -162890.63    163028.28     151.3724    34.677773 
333480000    313.98857    401.11676    212.82129   -162943.41     163035.4    188.29547    34.681176 
333484000    263.75541    162.76359    350.24004   -162953.49    163086.77   -187.47645    34.682453 
333488000     290.7078    436.20871    245.61049   -163006.51    163118.63    190.59822    34.686964 
333492000    284.34979    512.35508    384.97638   -163039.98    163150.83    127.37869    34.686366 
333496000    292.79516    342.73376     530.3183   -163084.75     163204.3   -187.58454    34.686075 
333500000    275.69814    227.85764    259.78207   -163113.21    163226.25   -31.924436    34.685483 
333504000    318.95573    371.37925      382.988   -163152.06    163244.07   -11.608751    34.687066 
333508000    293.08525    243.02065    314.68408   -163184.72    163302.49   -71.663431    34.688915 
333512000    305.72947    368.86005    251.33203   -163245.58     163341.8    117.52801    34.686675 
333516000    287.69691    254.21447    271.38491   -163266.12    163387.16   -17.170437     34.68857 
333520000    288.33573    376.44884    270.06481   -163295.87    163405.54    106.38403    34.688656 
333524000     284.2691    226.10716    259.97875   -163307.95     163422.1   -33.871589    34.684571 
333528000    272.48866    374.09353    158.16854    -163323.3    163439.27      215.925    34.686585 
333532000    281.41746    257.98014    249.89186   -163357.99    163474.54    8.0882795    34.683865 
333536000      316.568    322.91486     362.3299   -163390.61     163492.8   -39.415041    34.683635 
333540000     259.2575    211.85481    359.33939   -163408.59    163546.48   -147.48458    34.679879 
333544000    259.32376    593.15992    239.21501   -163432.58    163547.53    353.94491    34.682259 
333548000    278.72614    271.93805    266.99944    -163420.2    163558.09     4.938612    34.691929 
333552000    256.26865    199.09147    269.04959   -163443.08    163584.04   -69.958121    34.690115 
333556000    263.91997    318.76196    277.00545   -163492.31    163628.51    41.756503     34.68896 
333560000    287.39644    283.64224     303.3437   -163538.14    163641.56   -19.701455    34.690791 
333564000    287.96591    341.11105    415.41534   -163555.92    163668.77    -74.30429    34.689646 
333568000    282.86523    374.07332     463.7178   -163590.44    163690.75   -89.644475    34.692505 
333572000     294.3838    332.74468    302.75649   -163616.35    163719.14    29.988187    34.693511 
333576000    305.87338    499.77083     420.1251   -163646.42    163735.21    79.645725    34.691899 
333580000    312.84052    407.91803    535.41545   -163669.17     163767.4   -127.49742    34.688676 
333584000    287.81169    432.49103    331.68147   -163687.69    163795.31    100.80956    34.688018 
333588000    285.84681    227.10603     283.8453   -163716.89    163827.06   -56.739271     34.69064 
333592000     293.9059    355.12986    394.28235   -163720.26    163823.55   -39.152491    34.696241 
333596000    286.99535    490.97728    350.66218   -163755.65    163876.53     140.3151    34.699371 
333600000    288.51507    259.90481    475.33733      -163774    163884.62   -215.43252    34.694407 
333604000    298.63188     451.7161     341.1854   -163808.58    163905.61     110.5307     34.69788 
333608000    296.87553    388.01993    418.01789   -163865.73    163962.03   -29.997956    34.698216 
333612000    304.48926    407.41502    394.52597   -163897.92    163990.78    12.889051    34.702495 
333616000    247.28838     402.3104    329.96299   -163916.02     164052.6     72.34741    34.707561 
333620000    273.68497    301.55206    437.20676   -163945.61    164066.67    -135.6547    34.707029 
333624000    285.50679    228.89532     299.0416   -163969.85    164083.53    -70.14628     34.70903 
333628000    301.12291    447.37746    423.24319    -164022.5    164115.36    24.134271    34.708741 
333632000    301.73952    390.18293    252.82669   -164057.77    164148.06    137.35624    34.707107 
333636000    285.32713    275.73359    320.46681   -164079.71    164178.44   -44.733222    34.706948 
333640000    294.40708    390.26651    212.23001   -164083.14    164184.63     178.0365    34.711131 
333644000    302.34564    475.53574    265.23923   -164121.18    164213.15     210.2965    34.710628 
333648000    292.26288    269.46604    432.45793   -164122.37    164232.72   -162.99189    34.708046 
333652000    297.04269    223.95484    433.22463   -164124.27    164232.97   -209.26979     34.70978 
333656000    289.24844    303.83273     420.3597   -164129.67    164237.34   -116.52697    34.704498 
333660000    281.92273    409.86555    332.40363   -164147.06    164268.84    77.461918    34.700135 
333664000    280.38798    482.49418    198.46141   -164156.37    164270.18    284.03277    34.696096 
333668000    266.55455    145.72192     260.4186   -164164.74    164284.65   -114.69668    34.694766 
333672000    264.08781     317.7954      235.835   -164159.68    164298.16    81.960397    34.693273 
333676000    264.80581    419.90879    238.42379   -164172.26    164304.12      181.485    34.695035 
333680000    264.20791    297.56059    515.33298   -164196.46     164341.5   -217.77238    34.693251 
333684000    289.32254    514.95595     373.4731   -164208.72    164346.46    141.48285    34.690361 
333688000    319.13296    370.17474    458.02782   -164242.08    164361.33   -87.853083    34.684873 
333692000    272.03369    353.68461     315.9081   -164281.03    164407.55    37.776512    34.691741 
333696000     284.3217    421.07574    470.94265   -164299.42    164424.02   -49.866903    34.688572 
333700000    266.93399    384.98802    320.81847   -164291.74    164411.89    64.169551    34.688928 
333704000    265.71438    220.49139     357.9006   -164307.14    164439.61   -137.40921     34.69191 
333708000    269.67348    279.37625    243.38139   -164320.44    164443.77    35.994854    34.690996 
333712000    285.48757    471.90862    313.90441   -164363.56     164479.7    158.00421    34.685528 
333716000    300.55493    456.56996    223.26981   -164396.49    164507.21    233.30015    34.681097 
333720000    278.83258    445.35999    421.54919   -164403.32    164518.63    23.810795    34.677376 
333724000    244.29162    209.98215    307.24697   -164401.55    164544.68   -97.264819    34.678162 
333728000    257.44509    520.65064    363.43863   -164433.51     164573.3    157.21201    34.681536 
333732000    276.64026    451.74578    165.32888    -164466.4    164600.85     286.4169    34.685819 
333736000    278.88686    548.25958    252.31793    -164488.2    164613.71    295.94165    34.691105 
333740000    256.40988    271.93763    302.40061    -164490.4    164606.88   -30.462976    34.695242 
333744000    291.64589    345.74325    432.06079   -164529.42    164626.34   -86.317538    34.700826 
333748000    293.56364    325.47552    345.03166   -164538.15    164671.65   -19.556133    34.700375 
333752000    271.55155    279.38773    166.12285   -164579.08    164701.02    113.26488    34.699005 
333756000    281.97032    337.66932    290.13965   -164619.82    164732.12    47.529672    34.700549 
333760000    271.61949    204.93225     200.1157   -164627.07    164750.42    4.8165461    34.700587 
333764000     311.7137    406.14578    316.81888   -164648.63    164755.91    89.326898    34.702889 
333768000    252.32543    392.38888    318.15909   -164659.65     164790.6    74.229784    34.700293 
333772000    298.60493    360.24556    501.19801   -164675.94    164774.44   -140.95245    34.702299 
333776000    276.22725    458.90835    316.33461   -164674.38    164793.33    142.57374    34.700202 
333780000    288.33795     460.0472     475.5505   -164703.66    164824.92   -15.503309    34.701451 
333784000    284.23871    232.85672    306.66307   -164741.27    164852.25   -73.806347    34.698625 
333788000    261.79105    267.43622      230.172   -164744.27    164876.46    37.264225     34.69312 
333792000    298.41927     616.4024    347.12966   -164783.24     164903.7    269.27274    34.695422 
333796000    285.08109    240.84511    442.03873   -164829.86     164946.3   -201.19361    34.693748 
333800000    259.85935    380.73914    285.07006   -164872.77    165003.56    95.669081    34.692405 
333804000    277.65283    289.51101    335.69506   -164885.07    165003.94   -46.184053     34.70306 
333808000     287.3519     390.8778    302.11226   -164917.52    165014.45    88.765543    34.704477 
333812000    297.55114    426.59008    371.34561   -164947.72    165056.62    55.244472    34.702937 
333816000    271.59862    326.21785    307.44026   -164979.78    165113.77    18.777585    34.706666 
333820000    270.97557    459.20073    367.03914   -164992.33    165118.76    92.161583    34.707057 
333824000    266.94194    415.54944     414.5722   -164999.49    165122.65   0.97723477    34.708833 
333828000    274.96092    503.14529    431.59265   -165029.93    165162.92    71.552639    34.708605 
333832000    303.52743    258.02959    288.02869    -165088.7    165197.25     -29.9991    34.711577 
333836000    266.78961    184.70214    216.58144   -165090.47    165218.98   -31.879302    34.713282 
333840000    275.44739    314.66238    192.27264   -165091.59    165227.12    122.38974    34.710167 
333844000    258.03477    321.54554    338.66937   -165100.03    165232.07   -17.123824    34.706926 
333848000    295.88327    410.80641     425.8541   -165124.35    165224.74   -15.047691    34.706199 
333852000    286.66901    389.20161     327.4841    -165135.4    165246.69    61.717515    34.713385 
333856000    290.76612    309.12232    275.04437   -165187.84    165289.35     34.07795    34.711639 
333860000    260.77378    370.99866    186.37039   -165182.67    165305.47    184.62828    34.708971 
333864000    273.84286    344.29412    317.29214   -165206.29    165348.41    27.001972    34.706832 
333868000    289.79163    422.16497    244.08206    -165254.7    165370.81    178.08291    34.708945 
333872000    298.99046    510.26644    400.21486   -165264.57    165365.11    110.05158    34.708222 
333876000    292.74507    236.35578    322.49523   -165290.28     165397.9   -86.139443    34.705244 
333880000    268.55577    557.41027    375.52792   -165311.83    165442.67    181.88235     34.70682 
333884000    274.80322    538.15611    456.19304   -165339.51    165461.31     81.96307    34.708817 
333888000    270.25778    197.20406    280.24097    -165353.6     165482.4   -83.036908    34.708595 
333892000    288.62737    444.24437    157.61723   -165387.74    165501.81    286.62714     34.71291 
333896000    307.10135    270.82052     393.2217   -165418.62    165516.41   -122.40118    34.712674 
333900000    285.15786     326.1389    178.83541   -165444.02    165552.34     147.3035    34.714519 
333904000    268.29886    273.74868     183.4318   -165450.35     165573.5     90.31688    34.716069 
333908000    302.72209    339.66623    186.70157   -165467.67     165594.4    152.96466    34.717769 
333912000    293.37656    358.96967    333.49171   -165490.48    165600.82    25.477962    34.723285 
333916000    287.51209    224.80518     433.4069      -165518     165620.4   -208.60172    34.723435 
333920000    269.82464    308.68593    270.19506      -165537    165650.88    38.490871    34.725819 
333924000    264.91809    359.41757    322.76586   -165577.46    165710.57    36.651717    34.721473 
333928000    247.75435    288.37263    309.67852   -165595.72    165727.72    -21.30589    34.714773 
333932000    270.05777    356.99822    350.86546   -165596.11    165720.69    6.1327634    34.716367 
333936000    284.13091    166.38968    426.76261   -165623.12    165738.49   -260.37293    34.715945 
333940000    257.93176    369.37747    254.42865   -165651.11    165773.53    114.94882    34.714271 
333944000    280.98367    222.50996    208.40424   -165644.92    165761.87    14.105728    34.713314 
333948000    315.11536    411.91367    539.71107   -165685.23    165779.18    -127.7974    34.713302 
333952000    276.71128    204.03649    225.81901   -165704.83    165814.85   -21.782513    34.719119 
333956000    280.75606     273.4041    270.97524   -165765.38    165871.44    2.4288529     34.71289 
333960000    290.87646    771.62794    226.77998    -165784.7    165903.12    544.84797    34.713312 
333964000    281.33778    291.02966    344.77956   -165812.12    165924.47   -53.749902    34.712143 
333968000    300.11308    437.59706    484.27146   -165843.18    165939.46   -46.674404     34.70803 
333972000    268.17885    381.02127    335.48343   -165857.67    165983.88    45.537845    34.703475 
333976000    291.63217    437.24097     380.3506   -165882.56    165991.31    56.890372    34.702811 
333980000    278.11476    228.76874    168.88501    -165890.8    166020.54    59.883726    34.703791 
333984000    309.93653    350.47792    417.29658   -165933.24    166035.33   -66.818665    34.703643 
333988000    307.60925    435.76149    253.55556    -165955.6    166064.63    182.20593    34.703485 
333992000    300.35115    311.73753    595.57817    -165977.4    166088.38   -283.84063    34.703591 
333996000    248.37599    328.76005     278.0468   -165976.94    166106.92    50.713252    34.702889 
334000000    279.17894    384.73108    217.79272    -166003.6    166103.78    166.93836    34.705325 
334004000    295.54259    348.94113    360.24284   -165989.57    166121.89   -11.301713    34.707835 
334008000    295.24733    253.69131    306.29985    -166022.5    166133.56   -52.608545    34.710895 
334012000     301.5668    444.26506     412.0984    -166042.8    166135.96    32.166661    34.709319 
334016000    280.15986    286.69342     279.9361   -166063.67    166180.36    6.7573183    34.706142 
334020000    269.14979    254.07381    365.02927   -166095.74    166224.44   -110.95546    34.702303 
334024000     296.3543     430.8983     479.6943    -166117.7    166231.84   -48.796001    34.705323 
334028000    283.56446    501.95485    397.84604   -166139.53    166267.07    104.10881    34.706671 
334032000    304.29691    428.19271     324.8062   -166173.33    166271.73    103.38652    34.712636 
334036000      294.304    162.13885    379.43825   -166181.35    166291.52    -217.2994    34.712042 
334040000    253.29938    347.02463    212.15886   -166203.71    166322.79    134.86577    34.713637 
334044000    275.85168    325.60293    256.06292   -166239.78    166356.39    69.540009    34.709873 
334048000    261.68638    534.56213    365.09397   -166250.19    166392.34    169.46816    34.712511 
334052000    270.42272    396.17953    180.43082   -166307.89    166431.27    215.74871    34.715552 
334056000    320.58213    421.12266    390.34657   -166340.84    166438.71     30.77609    34.720597 
334060000    318.01345    367.50544    308.11938   -166364.84    166460.97    59.386062    34.722812 
334064000    283.63517    371.53211    234.13928   -166381.48    166494.31    137.39283    34.721177 
334068000    287.41325    272.35673    303.80705   -166409.25     166521.6   -31.450318    34.724433 
334072000     312.2396    466.08452    370.01093   -166439.58    166544.36    96.073592    34.723686 
334076000    265.66043    350.97797    316.21119   -166467.31    166587.82    34.766777    34.720239 
334080000    272.76963    225.58294    335.78936   -166506.26    166606.41   -110.20641    34.720455 
334084000    291.90996    368.76231    353.12244   -166555.52    166656.61    15.639871    34.723471 
334088000    267.38899    440.23646    470.48003   -166572.92    166687.62   -30.243565    34.722185 
334092000    287.83655    300.10282    350.63865   -166601.18     166717.2   -50.535827    34.729652 
334096000    307.82451    469.15208    435.60083   -166628.21    166730.22    33.551249    34.727922 
334100000    279.31079    237.67132    261.53909    -166638.7    166762.59   -23.867765    34.733298 
334104000    269.87471    268.66959    224.39661   -166628.66    166765.16    44.272976    34.737064 
334108000    308.03988    481.73134    509.88904   -166681.56    166774.82   -28.157701     34.73717 
334112000    277.25097    242.99607    346.96106   -166675.77    166790.67   -103.96499    34.739319 
334116000      300.205    380.22921     263.9528   -166707.83    166808.71    116.27641    34.745353 
334120000    285.06399    257.54232    313.73998   -166710.78    166822.32   -56.197662    34.751254 
334124000    293.53778    438.20272     253.1198   -166738.25     166838.7    185.08292     34.74909 
334128000     269.5356    274.61538    210.61012   -166734.71    166849.53    64.005256    34.748473 
334132000     284.0308    343.46495    101.26994   -166757.76    166876.83    242.19501    34.747306 
334136000    303.85974    464.26223    240.82586   -166787.59    166880.54    223.43637    34.746588 
334140000    280.45467    382.87831    292.52158   -166769.67    166895.04    90.356734    34.744939 
334144000    281.19186    307.95454    382.14522   -166791.86     166921.5   -74.190679    34.742817 
334148000    300.00858    359.12976     293.2288    -166855.2    166952.68    65.900956    34.745451 
334152000    316.91329    278.04674    301.69717   -166888.61    166988.77    -23.65043    34.747408 
334156000    294.19467    270.58949    442.66712   -166929.11     167028.3   -172.07763    34.745717 
334160000    322.00755    670.32066    322.97586   -166957.15    167059.02     347.3448    34.745249 
334164000    269.15444    406.03543    170.82391    -166959.9    167083.77    235.21152    34.747323 
334168000    295.51673    530.63716    381.06895   -166996.43    167101.77    149.56821    34.745983 
334172000    275.96551    674.05884    245.58016   -167017.35    167129.02    428.47868    34.749678 
334176000    290.47115    369.13584    356.17089   -167037.05    167137.94    12.964954    34.753219 
334180000    276.53496    373.14421    317.60988   -167054.03    167160.26    55.534323     34.75478 
334184000     305.3286    580.24721    323.56479   -167069.36     167159.8    256.68241    34.758284 
334188000     251.2537    309.25603    250.78706   -167091.45    167233.83    58.468971    34.756414 
334192000    265.45871    405.54543    256.25048   -167119.37    167252.59    149.29495    34.753536 
334196000     287.9398     425.3743     305.7675   -167156.07    167270.63     119.6068    34.755111 
334200000    273.27319    283.47251    427.87854   -167177.48    167301.52   -144.40603    34.758791 
334204000     290.9576    252.38991    314.35204   -167213.46     167317.5   -61.962131    34.758499 
334208000    278.82945    444.11057    462.99378   -167210.77    167322.03    -18.88321    34.761337 
334212000    282.18093    357.32661    225.13725   -167225.57    167345.81    132.18936    34.763929 
334216000    285.37984    421.89515    185.56807   -167255.84    167360.72    236.32708    34.763541 
334220000    294.90711    231.20713    202.20105   -167293.19    167384.33    29.006078    34.765184 
334224000    264.17308     264.7031    356.59992   -167322.78    167458.16   -91.896824     34.76024 
334228000    273.52479    331.30416    345.67658   -167326.34    167442.88   -14.372423    34.762337 
334232000    253.89775    350.33477    372.12453   -167335.92    167469.13   -21.789759    34.764259 
334236000      240.839    252.35778    244.27388   -167364.61    167508.22    8.0838995    34.766419 
334240000    273.97374    578.74623    296.33253   -167403.52    167530.58    282.41369    34.767011 
334244000    287.31854    480.63489     406.0757   -167423.21    167532.74    74.559196    34.765073 
334248000    297.82116    277.66234    312.93558   -167442.86    167549.18   -35.273241    34.763086 
334252000    258.15854    205.81491     273.0643   -167452.35    167579.56   -67.249396    34.757188 
334256000     266.5221    259.38998    276.16499   -167505.27    167613.93   -16.775008    34.757952 
334260000    302.36876    536.24115     244.9594   -167539.72    167642.01    291.28175    34.754968 
334264000    278.00902    236.22726    371.66996   -167531.16    167640.54    -135.4427     34.75514 
334268000    298.07377    363.34711    286.79108   -167571.91    167666.24    76.556037    34.758595 
334272000    263.82747    182.86455    250.77419   -167594.38    167703.38    -67.90964    34.760896 
334276000     270.0362    243.20622    187.73052   -167597.57    167717.62      55.4757    34.757719 
334280000    259.41099    463.75246    231.24233   -167613.24    167733.06    232.51013    34.760861 
334284000    291.07769    406.73205    419.76076   -167615.44    167741.86    -13.02871    34.764735 
334288000    301.69137    679.91151    222.80778    -167625.8    167722.32    457.10373    34.766854 
334292000    271.93386    224.52607     260.9851   -167597.78    167728.14   -36.459028    34.765391 
334296000    305.80572    327.94005    402.13141   -167620.54    167735.46   -74.191357     34.76224 
334300000    277.21486    250.41859    307.92894   -167642.61    167760.59   -57.510353    34.758603 
334304000    283.60849    324.55468    357.28437   -167673.73    167779.47   -32.729695    34.756504 
334308000    315.50277    538.39363    444.01749   -167688.41    167783.18     94.37614    34.749757 
334312000    266.51907    374.76882    364.26395   -167694.04    167808.75     10.50487    34.748741 
334316000    280.60528    382.65739     247.2786   -167706.89    167837.73    135.37879    34.751458 
334320000    308.06252    387.94307    366.48656    -167714.8    167825.31    21.456517    34.751404 
334324000    280.20219    293.15319    333.70538   -167731.09    167857.32   -40.552194    34.750573 
334328000    289.22708     330.8002    441.70458   -167747.05     167868.8   -110.90439    34.753885 
334332000    303.32762     446.7609    286.75393   -167759.57    167859.72    160.00697    34.757066 
334336000    290.01615    523.28723    262.93341   -167774.63    167880.51    260.35382    34.761917 
334340000     286.0529    262.67188    273.23352   -167777.02    167894.29   -10.561635    34.761419 
334344000    308.08782     543.3002    188.03469   -167804.14     167916.7    355.26551    34.759251 
334348000    269.74784    269.97111     301.6513    -167833.7    167957.61   -31.680193    34.756875 
334352000    276.46637     489.3775    291.97908   -167877.45    167981.34    197.39842    34.753125 
334356000    307.00424    464.36826    447.30683   -167871.21    167973.74    17.061429    34.752369 
334360000    297.06957    370.36428    389.21087   -167891.18    167979.42   -18.846585    34.753688 
334364000    265.84784    210.14353    284.38767   -167900.72    168028.92   -74.244139    34.756602 
334368000    283.70878    313.88665    244.37154   -167923.11    168047.32    69.515101    34.757681 
334372000     258.0801    231.47704    279.32021   -167934.98    168063.24   -47.843173    34.758307 
334376000     292.7818    321.79407    449.75314   -167968.32     168097.5   -127.95907    34.755248 
334380000    312.34516    283.48893    335.50632   -168009.56    168100.44   -52.017393    34.753722 
334384000     253.9092    259.13772    312.47042   -168019.59    168158.38   -53.332708    34.754093 
334388000    307.21675    506.39722    362.74927   -168032.82    168148.27    143.64795    34.755355 
334392000    254.65528    367.58545    307.74303   -168024.24    168159.26    59.842424    34.756983 
334396000    286.43428    276.88324    389.70777   -168067.69    168187.82   -112.82453    34.758719 
334400000    269.14732     405.0371    439.86965   -168085.44    168214.05   -34.832549    34.760501 
334404000    301.41804    546.56448    305.32541   -168102.48    168206.91    241.23906    34.758569 
334408000    287.25144      291.077    296.40661   -168085.62    168206.35   -5.3296131    34.759548 
334412000    288.89214    413.98936    359.63671   -168127.67    168245.59    54.352653    34.752836 
334416000    282.73057    341.40298     419.9028   -168129.71    168252.88   -78.499815    34.749003 
334420000    286.89548    381.10187    344.29855   -168162.91     168243.1    36.803321    34.752433 
334424000    306.62602     266.9746    353.04996   -168162.68    168261.36   -86.075364    34.749773 
334428000    266.25483    300.33184    399.46436   -168151.18    168268.96   -99.132517    34.747642 
334432000     278.8362     418.6182    299.70173   -168185.68    168294.57    118.91647    34.744253 
334436000    284.68136    415.00821    355.11428   -168194.74    168301.03    59.893929    34.743601 
334440000    289.43065    429.86054    340.93237   -168188.39    168294.59    88.928165     34.74201 
334444000    270.13898    449.00057    203.76792   -168213.82    168339.31    245.23265    34.744371 
334448000    294.28646    447.49594     340.2044   -168248.46    168361.07    107.29154     34.75263 
334452000    292.08563    314.92286    335.21746   -168258.04    168365.92   -20.294598    34.753919 
334456000    272.82155    312.92232     240.5852   -168267.94    168393.91    72.337119    34.755218 
334460000    295.05477    450.86997    401.66499   -168280.61    168394.68    49.204982    34.756611 
334464000    294.80483    523.20218    210.58315   -168320.69    168422.31    312.61904     34.75831 
334468000    285.90874    215.84309    344.16281   -168343.92    168442.93   -128.31972    34.763215 
334472000    262.63334    433.34382    172.36566   -168349.77    168465.17    260.97815    34.767152 
334476000    279.41391    382.75451    231.99788   -168358.21    168489.92    150.75664    34.766736 
334480000    313.47998     372.6868    345.95429   -168417.91    168514.54    26.732511    34.766855 
334484000    269.63418    449.64571    580.33792    -168412.1    168529.36   -130.69221    34.764529 
334488000    279.30885    320.89878    516.90128   -168449.92    168549.93    -196.0025     34.76442 
334492000    275.53249    284.98376    420.76161   -168452.87    168584.77   -135.77785    34.760902 
334496000    271.19441    347.30795    268.32935   -168474.09     168599.1      78.9786    34.760894 
334500000    259.80923    397.15464    335.83705   -168502.62    168644.36    61.317592    34.759346 
334504000     257.3161    309.96893    270.68781   -168522.58    168648.74    39.281123    34.761384 
334508000    274.06967    427.53204    480.62883   -168549.62    168687.68   -53.096787    34.764358 
334512000    281.37696    533.65331     421.6442   -168563.43    168688.38    112.00912     34.75987 
334516000    272.07494    412.02933    181.28566   -168563.69    168696.37    230.74368    34.764021 
334520000    238.84459    286.78695    426.77274    -168567.4    168712.25   -139.98579    34.762376 
334524000    271.04239     367.2418    269.43625   -168597.86    168712.42    97.805552     34.76125 
334528000    277.72367    649.41457    340.34916   -168611.41    168740.94    309.06541    34.757959 
334532000    256.56058    404.04806     242.5282   -168667.86    168779.39    161.51986    34.754316 
334536000    253.03955    358.35143    304.00759   -168678.71    168813.42    54.343838    34.751334 
334540000     283.4325    392.19267    343.23774   -168702.08    168814.13    48.954925    34.752308 
334544000    282.82965    177.30128    386.62569   -168722.86    168827.37   -209.32441    34.749329 
334548000    276.43869    294.62062    364.66072   -168713.51    168844.82   -70.040102    34.750574 
334552000    270.68989    240.85782    349.61718   -168744.93    168867.55   -108.75936    34.753225 
334556000    292.20685    260.34736     233.2185   -168778.33    168888.25    27.128854    34.748987 
334560000    294.27433    513.17635    145.01966    -168818.8    168916.15    368.15669    34.752249 
334564000    293.37641     543.0446    227.73655   -168827.89    168954.43    315.30805    34.755301 
334568000    297.07459    327.79343    536.36458   -168849.74    168950.79   -208.57115    34.751621 
334572000    263.20605    261.02104    405.23892   -168853.12    168966.03   -144.21788    34.747383 
334576000    251.90448    279.39047     303.4299   -168871.27    168996.91    -24.03943    34.746057 
334580000    301.53702    495.29961    298.54764   -168938.92    169036.72    196.75197    34.750754 
334584000    269.62547    201.64711    318.10037    -168936.4    169086.17   -116.45326    34.751047 
334588000    284.93389    420.71639    326.93438    -168968.8    169083.16    93.782009    34.749016 
334592000    300.69932    373.08653    412.03712    -168991.6    169112.56   -38.950593    34.749656 
334596000    296.07411    461.10558     235.1083   -169042.79    169152.91    225.99728    34.747995 
334600000    282.05147    366.30444    512.65775   -169067.22     169186.2   -146.35332    34.745389 
334604000    318.29709    513.52955    372.82661   -169096.91    169207.04    140.70294    34.746587 
334608000    264.98003    383.04177    253.48284   -169094.23    169228.76    129.55893     34.74638 
334612000    280.07194    545.44315    349.65361   -169151.17     169266.1    195.78955    34.745841 
334616000    266.34845    550.92802    301.25462      -169189    169313.32     249.6734    34.743052 
334620000    257.73872    163.32712     273.9562   -169190.65    169321.99   -110.62908    34.739946 
334624000    314.17457     619.3208    513.84807   -169211.23     169300.8    105.47273     34.73082 
334628000     269.7957    323.22301    323.35312   -169188.44    169321.75  -0.13011029    34.726983 
334632000    271.17421    308.31279    487.27869    -169212.4    169349.36    -178.9659    34.722558 
334636000    271.03173    306.39539    328.96647    -169209.8    169338.51   -22.571082    34.725049 
334640000    284.18738    291.92249    339.11492   -169255.93    169389.16   -47.192429    34.726557 
334644000    258.24044    348.49518    228.59875   -169307.92    169434.23    119.89642    34.729436 
334648000    272.27297    498.24496    216.04659   -169306.44    169457.08    282.19838    34.725507 
334652000    272.86098    431.81512    294.51561   -169350.78    169482.56    137.29951    34.726169 
334656000    277.77333    337.71817    331.74393   -169362.49    169493.64    5.9742366    34.722446 
334660000    294.78138     344.9519    378.64503    -169401.6    169526.17   -33.693135     34.72347 
334664000    282.58431    387.19983    291.01241   -169427.52    169559.13    96.187428    34.720672 
334668000     271.3995    245.06958    161.15135   -169470.63    169592.37    83.918223    34.718623 
334672000    297.61402    469.62496    251.80437   -169505.82    169609.91    217.82059    34.719061 
334676000    281.26679    353.61848     217.1305   -169521.47    169632.24    136.48798    34.723231 
334680000    291.71038    302.71386      582.103   -169506.06     169616.3   -279.38913    34.719937 
334684000     281.4261    629.44431    405.66435   -169511.34    169638.02    223.77996    34.723845 
334688000    289.39401    338.92079    381.34009   -169546.21    169677.36   -42.419306    34.723009 
334692000    278.22002    503.20524    234.27608   -169574.19    169689.48    268.92916    34.725831 
334696000    297.83002    308.45537    301.73216   -169603.63    169719.57    6.7232071    34.727983 
334700000    271.29685    345.41235    535.54534   -169615.21    169741.09   -190.13299    34.731046 
334704000    284.48453    417.49313    199.32625   -169630.82    169761.88    218.16688    34.732256 
334708000    259.24692    247.60954    235.70862   -169663.38    169787.94    11.900918    34.733125 
334712000     277.3258    402.32309     260.7613   -169713.43    169840.74    141.56179    34.730197 
334716000    291.34134    316.99894    242.40286   -169746.05    169869.84     74.59608    34.731478 
334720000    301.75639    199.28071    278.86932   -169772.64    169879.55   -79.588601    34.733545 
334724000    290.28009    285.00118    252.09576   -169808.68    169915.55    32.905421    34.731846 
334728000    283.17814    372.86343    245.65209   -169810.11    169928.24    127.21134    34.732695 
334732000    270.75824    522.84637     122.1184   -169839.59    169953.21    400.72796    34.731838 
334736000    287.31571    347.05918    172.02079   -169835.54    169953.82    175.03839    34.731041 
334740000    286.33238    314.18281    802.45038   -169853.91       169977   -488.26757    34.728934 
334744000    288.09789    243.35063     229.9676    -169883.1    170006.94    13.383025    34.723785 
334748000    278.15436    384.73432    396.15594   -169910.59    170041.97   -11.421618    34.722604 
334752000    277.99613    388.10094    203.86408   -169954.84    170082.49    184.23686    34.721993 
334756000    267.13988    289.77002    266.91493   -169986.08    170109.75    22.855096    34.718386 
334760000     264.9343    473.62437    188.19413   -169990.92    170120.41    285.43024    34.720248 
334764000    294.24205    320.22546     465.4872   -170026.28    170140.35   -145.26174    34.717756 
334768000    271.81617    451.41885     278.7333   -170042.88    170163.79    172.68555    34.717449 
334772000    309.65582    335.88014    243.30486   -170061.54    170158.49    92.575278    34.717888 
334776000    271.89772    334.82345    284.62322   -170045.94     170180.2     50.20023    34.722506 
334780000    279.00597    355.51662    337.26161   -170080.31    170199.99    18.255015    34.722579 
334784000    253.16791    305.72356    297.76996   -170106.85     170228.6    7.9536024    34.723279 
334788000    270.93497    525.57095    342.17836   -170160.83    170275.39    183.39259    34.721918 
334792000    315.44411    331.14284    494.45289   -170162.73    170270.13   -163.31005    34.717548 
334796000    286.89321    240.87224    560.39932   -170177.65    170290.13   -319.52708    34.720487 
334800000    294.92848    399.32073    365.99714   -170229.04    170337.22     33.32359    34.719305 
334804000    264.62256    313.40125    225.34485   -170226.51    170369.57    88.056404    34.718848 
334808000     275.5621    391.32448     291.0426   -170276.59    170382.65    100.28188    34.717959 
334812000    297.12648    244.52314    268.22579   -170289.49    170414.78   -23.702646    34.725083 
334816000    296.35663    435.60741    233.52315   -170342.95     170461.4    202.08426      34.7204 
334820000    260.63886      261.668    314.01178   -170367.61    170494.51   -52.343781    34.721177 
334824000    284.00385    386.35489    299.52278    -170369.5    170480.74    86.832114    34.717821 
334828000    333.38747     150.3835     464.6783   -170411.02    170497.45    -314.2948    34.718079 
334832000    268.85516    340.70318    226.67176   -170422.88    170530.93    114.03141      34.7172 
334836000    261.70691    381.78115    307.89519   -170413.79    170539.63    73.885962    34.717608 
334840000    303.36235    479.97428    271.25621   -170452.74    170559.81    208.71807    34.718991 
334844000    307.22016    513.51966    328.79644   -170485.93    170586.39    184.72322    34.717984 
334848000    279.08639    284.98453    319.17277    -170515.3    170645.39   -34.188233    34.715346 
334852000     254.0285    200.09498    257.83995   -170550.57     170684.4   -57.744964     34.71481 
334856000    294.86393    262.26242    291.07678    -170564.6    170697.28   -28.814359    34.716143 
334860000    276.98584    297.75902    462.08408   -170579.83    170706.18   -164.32506    34.717281 
334864000    284.27336    230.58853    315.36611   -170606.02    170719.49   -84.777581    34.713994 
334868000     271.2085    286.24476    225.51462   -170626.03    170732.97    60.730143    34.715972 
334872000    264.38297    267.52156    217.75234   -170644.62    170770.86    49.769221    34.713637 
334876000    301.58262    362.23631    515.47013   -170658.67    170766.15   -153.23382    34.715681 
334880000    264.36035     398.5366    277.84507   -170669.33    170795.52    120.69153    34.714796 
334884000    277.85977    346.17944    350.37861   -170703.07     170815.6   -4.1991695    34.715317 
334888000    263.33408    291.65268    261.56828   -170704.55    170837.67    30.084406    34.714477 
334892000    308.70283    396.88549    375.49471   -170724.07    170833.13    21.390779    34.713916 
334896000    292.74372    315.46683    280.17389   -170741.38    170858.69    35.292942    34.715633 
334900000    286.60425    295.79396    191.23171   -170789.14    170903.41    104.56225    34.717118 
334904000    302.01264    307.01679    267.87336   -170833.33    170931.41    39.143437    34.719451 
334908000    298.17093    545.32653    370.75067   -170855.56    170956.78    174.57587    34.716084 
334912000    280.24809    292.01229    374.75906   -170865.58    170980.09   -82.746771    34.719673 
334916000    328.91132    298.82775    292.60367   -170897.91    171024.77    6.2240848    34.720457 
334920000    311.39588     431.1044    357.08528   -170955.64    171052.99    74.019129     34.72172 
334924000    281.54788    367.62715    271.93392   -170973.65    171087.87    95.693228    34.719441 
334928000    284.29202    372.80004    268.65938   -170987.36    171097.12    104.14066     34.71992 
334932000    242.59007    137.81371    289.64707    -170993.4    171127.64   -151.83336       34.718 
334936000    293.95477    459.42572    388.19697   -171026.96    171141.63    71.228754    34.710928 
334940000     300.9558    241.29642    230.09965   -171047.44    171165.25    11.196774    34.712677 
334944000    297.77934    525.05988    291.92604   -171064.09    171189.72    233.13384    34.716487 
334948000    312.60765    180.37454    396.51655   -171094.33    171204.77   -216.14201    34.714681 
334952000    270.78768    323.27299    193.90944   -171125.01    171258.51    129.36355    34.710974 
334956000    275.68179    322.66458    342.86793   -171139.58     171265.2   -20.203347    34.709599 
334960000    263.58311    430.11379    243.10288   -171187.56    171303.34    187.01091    34.708094 
334964000    295.02532    469.25534      329.242   -171219.76    171341.65    140.01334    34.702855 
334968000    252.86761     393.0434    426.48509    -171237.9    171368.25   -33.441687    34.708296 
334972000     257.9674    565.59104    418.86895   -171263.04    171395.87     146.7221    34.707006 
334976000    285.39312    559.11405    250.72523   -171277.48    171406.44    308.38882    34.708905 
334980000    286.20594    582.56101    226.36736   -171299.81    171411.81    356.19365    34.709687 
334984000    294.54172    456.65621    261.54011   -171302.22    171436.02    195.11611    34.709787 
334988000    297.61226    546.81214    199.80207   -171340.91    171445.95    347.01008    34.712548 
334992000     293.3193    377.52566    301.65355   -171335.62    171458.84    75.872111    34.709914 
334996000    279.09357    490.66843    133.90039   -171345.58     171473.6    356.76804    34.716539 
335000000    317.67641    525.92967    392.81086   -171374.11    171486.84    133.11881    34.713215 
335004000    289.60371     546.8488    342.63468   -171403.62    171517.16    204.21412      34.7166 
335008000     281.4805     306.6442    325.53769   -171440.56     171547.1   -18.893489    34.720874 
335012000    307.03396    592.71899    341.91042   -171460.36    171564.11    250.80857     34.72144 
335016000    300.11447    451.63676    276.64571   -171487.65    171588.33    174.99105    34.722187 
335020000    270.26475    300.70224    357.18252    -171483.9    171600.77   -56.480278    34.720502 
335024000    288.62987    405.83551    313.00716   -171536.81    171645.23    92.828354    34.723442 
335028000    281.06122    336.99787    240.15321   -171584.94    171714.91    96.844658    34.723381 
335032000    285.58504    272.43556    420.11229    -171630.4    171743.88   -147.67673    34.728671 
335036000    312.98469     438.9915    541.30997   -171640.99    171748.57   -102.31847    34.729553 
335040000     284.4418    329.37474    289.29211    -171657.7    171770.81    40.082633    34.728976 
335044000     302.1129    236.92271    205.08126   -171694.17    171803.71    31.841446    34.728348 
335048000    273.72876    418.05457    288.20246   -171721.44    171832.13    129.85211    34.729745 
335052000     284.0553    250.98472    261.22964   -171706.78     171834.8    -10.24492    34.729082 
335056000    254.20062    378.60532    280.71515   -171738.65    171876.19    97.890167    34.730426 
335060000    266.07461    316.49974    275.90727   -171749.72    171873.94    40.592474    34.732203 
335064000    319.74654     365.7988    307.44628   -171800.34    171899.09     58.35252    34.729304 
335068000    289.71308    255.73602    463.42143   -171800.84     171917.3   -207.68541    34.723917 
335072000    308.93902    413.44096    405.80127   -171831.22    171934.03    7.6396851    34.721226 
335076000    301.95705    532.07992    413.96999   -171843.34    171964.16    118.10993    34.718522 
335080000     285.4181    406.81522    291.68761   -171872.31    171992.31    115.12761    34.713341 
335084000    271.79444    398.37765    386.00763   -171890.73    172027.46    12.370021    34.709369 
335088000    269.91011    679.86267     316.2791   -171918.07     172046.7    363.58357     34.70638 
335092000     277.5243    526.03374    421.56548    -171952.9    172060.88    104.46826    34.710224 
335096000    296.88567    415.52207    367.07904   -171980.89    172076.33    48.443034     34.70649 
335100000    285.48888    406.49562     244.8915   -171987.32    172114.14    161.60411    34.708353 
335104000    285.97578    219.80744    345.60008    -172004.9    172107.55   -125.79264    34.708293 
335108000    292.56467    317.68811    386.87956   -171988.39    172109.52   -69.191447    34.708347 
335112000    267.18882    260.80145    420.21281   -172000.43    172128.96   -159.41136    34.705055 
335116000    279.10406    201.92236     504.4434   -172035.47    172142.62   -302.52104    34.700422 
335120000    275.03009    194.50227    361.88558   -172078.18     172185.9   -167.38331    34.695289 
335124000    290.80699     372.7888    435.16035   -172073.84    172189.19   -62.371555    34.691974 
335128000    270.06934    247.79358    533.78156   -172072.44    172198.86   -285.98798    34.692937 
335132000    257.28596    563.95759    306.99482   -172098.25    172216.49    256.96277    34.694616 
335136000    324.55024    331.07498    323.70916   -172139.28    172244.48    7.3658189    34.690955 
335140000    313.06622    434.87116    433.65605   -172174.96    172259.57    1.2151097     34.69042 
335144000    276.95462    396.96136    450.80096   -172170.31    172307.59   -53.839595     34.69285 
335148000    282.58626     343.1178    252.55435   -172203.45    172329.84    90.563451    34.692862 
335152000    291.85648    260.09205    546.65967   -172223.38    172340.75   -286.56762     34.68616 
335156000    305.85579    308.61742    845.91495   -172242.06    172343.97   -537.29753    34.682504 
335160000    258.66264    209.56214    358.38919   -172256.49    172387.71   -148.82705    34.679845 
335164000    275.20426    463.85138     301.2632   -172281.52    172409.96    162.58818    34.682447 
335168000    270.31287    316.62472    191.38996   -172293.23    172412.99    125.23476    34.678583 
335172000    283.05477    293.43236    291.27785   -172329.11    172431.55     2.154505    34.678492 
335176000    282.84192    388.77503    306.74084   -172358.65    172482.98    82.034191    34.675089 
335180000    276.37619     265.4078    330.71432   -172372.26    172508.17   -65.306525     34.67333 
335184000    315.53709     387.7242    320.47857   -172399.42    172508.63    67.245631     34.67248 
335188000    292.95214     426.3834    205.84368   -172416.64    172522.57    220.53972    34.678775 
335192000     249.0681    208.54289    334.19183   -172408.38    172542.88   -125.64894    34.673925 
335196000    280.72292    402.58985    192.35215   -172434.44    172561.24     210.2377     34.67195 
335200000     290.9681    317.03588     197.4463   -172476.97    172600.17    119.58958    34.666098 
335204000    264.01221    207.12234    173.12817   -172476.39     172609.7    33.994162    34.663594 
335208000    307.78014    348.91278    350.66791   -172510.92    172623.33   -1.7551238     34.66162 
335212000    311.14729    274.62015    347.42249   -172539.41    172639.01   -72.802334    34.663839 
335216000    306.41554    382.54266    242.42068   -172564.18    172649.25    140.12199    34.665128 
335220000    296.01234     564.0192    247.44307   -172578.31    172700.79    316.57613     34.66489 
335224000    305.55233    350.78927    376.20736   -172609.86    172722.73   -25.418093    34.663305 
335228000    291.43656    284.26615    398.57362   -172654.25    172763.54   -114.30747    34.662827 
335232000    264.46141    220.17087    257.24152   -172647.45    172780.64   -37.070652    34.661831 
335236000    297.99236    316.28359    516.54502   -172688.48     172806.6   -200.26143    34.662572 
335240000    249.17263    235.24802    391.43885   -172724.13     172866.1   -156.19083    34.663835 
335244000    307.17741     376.3898    296.35926   -172777.53     172878.3    80.030536    34.665216 
335248000    294.18702    270.15051    599.81975   -172803.45    172917.64   -329.66925    34.660075 
335252000    290.30521    325.22814    243.85102    -172844.4    172968.78    81.377128    34.661268 
335256000     283.5732    310.55612    164.56585   -172863.59    172979.84    145.99026    34.659419 
335260000    290.18077    412.84079    232.46216   -172848.87     172982.6    180.37863    34.665329 
335264000    283.43696    383.93119    429.42611   -172875.82    172997.65   -45.494927    34.664761 
335268000    285.57499    350.52999    171.91215   -172888.81    173023.72    178.61784    34.667298 
335272000    271.23714    355.41444    425.59115   -172916.53     173030.8    -70.17671     34.67123 
335276000    287.80575     548.1425    386.40149   -172927.11     173064.6    161.74101    34.672788 
335280000    297.33428    388.44754    299.68491   -172954.98    173068.46    88.762633    34.671381 
335284000     283.6861    285.36277    421.36506   -172994.77    173115.74   -136.00229    34.673624 
335288000    297.55224    505.03987    308.92843    -173026.1    173136.74    196.11144    34.671404 
335292000    280.18736    264.17556     365.6982   -173063.87    173199.78   -101.52264    34.673719 
335296000    257.72906    355.87919    224.11172   -173115.91     173239.8    131.76748    34.672664 
335300000    284.39317    174.53646    341.90033   -173125.95    173266.26   -167.36387    34.671004 
335304000    250.03347    353.65871    269.88729   -173154.76    173301.43    83.771417    34.672295 
335308000    277.02095    369.71627    461.12326   -173171.27    173305.02   -91.406987    34.668332 
335312000    282.72142    525.08736    386.72025   -173202.79    173324.64    138.36711    34.674399 
335316000    273.15752    359.37409    323.63607   -173196.22    173332.37    35.738016    34.668422 
335320000     310.3236    247.46464    311.10893   -173223.91    173348.44   -63.644292    34.666223 
335324000    260.31004    252.54209    240.06508   -173237.56    173370.82    12.477007    34.666103 
335328000    282.38328    347.27161    283.93621   -173268.91    173404.94    63.335404    34.668953 
335332000    275.66943    331.43495    281.84144   -173301.48    173437.85    49.593514    34.661391 
335336000    275.09285    275.95614    440.61674   -173328.54    173449.53    -164.6606    34.661384 
335340000    251.46576     359.1637    247.01098   -173326.51    173465.91    112.15272    34.658412 
335344000    289.07377    380.02828    259.35548    -173373.7     173485.9    120.67279    34.655949 
335348000    288.42558    220.77292    478.53302   -173415.06    173523.53   -257.76011    34.653908 
335352000    285.84451    202.31868    253.31036   -173438.38    173553.23   -50.991683    34.650014 
335356000    270.44557    530.36035    421.85757   -173454.37    173586.21    108.50278    34.655765 
335360000    296.21014    381.67788    386.27661   -173460.13    173579.25   -4.5987286    34.655828 
335364000    281.21304    432.15086    376.46937   -173488.69    173605.99    55.681484    34.653514 
335368000    285.19079    402.55335    277.87984   -173512.86    173632.51    124.67351    34.657907 
335372000    281.32968     509.7429    231.02144   -173542.58    173664.07    278.72146    34.658158 
335376000    278.62218     466.1411    262.89847   -173576.88    173697.47    203.24262    34.658004 
335380000    272.09517    205.27335      196.416   -173583.79    173710.05    8.8573478    34.661246 
335384000    277.98661    331.76858    249.40466   -173611.24     173727.5    82.363913    34.659831 
335388000    285.23981    314.09371    416.93466   -173622.26    173746.61   -102.84096    34.658337 
335392000    268.22206    644.54995    252.71425   -173647.44    173785.26     391.8357    34.662058 
335396000    273.04014    295.85828    365.11727   -173663.24    173787.56   -69.258994     34.65985 
335400000    299.09907    416.59189    463.56357   -173696.33    173812.09   -46.971683    34.662961 
335404000    313.63171    490.72237    377.94917   -173705.07    173808.25     112.7732    34.664331 
335408000    296.33853    431.62165    312.03331   -173686.96    173805.23    119.58834    34.664079 
335412000     305.4005    541.35547    306.72058   -173715.18    173826.05    234.63489    34.665644 
335416000    270.81888    358.15357    233.64379   -173735.88    173860.88    124.50978     34.66094 
335420000    261.51597    186.23974     423.4304   -173738.33    173860.88   -237.19066    34.659235 
335424000    274.30797    304.04511     351.5156   -173757.86    173899.15   -47.470488    34.657806 
335428000    296.60557    442.70709    519.05232      -173795    173917.04   -76.345238    34.656593 
335432000    255.38279    245.28689    254.68376   -173814.88    173944.23   -9.3968695    34.658265 
335436000    287.24496    533.30416    436.42376   -173817.72    173957.54    96.880394    34.660086 
335440000    277.84131    430.94239    463.10132   -173826.03     173959.9   -32.158926    34.657695 
335444000    273.60573    363.62786    243.03765   -173837.95    173952.84    120.59021    34.657103 
335448000    306.88979    372.25391     273.5102   -173867.02    173983.39    98.743705    34.653399 
335452000    278.92137    297.74651    326.59672   -173880.07    174000.67   -28.850216    34.653456 
335456000    268.58377    421.30801    246.43986   -173890.13    174025.56    174.86816    34.655376 
335460000    275.45906    645.45099    364.27996   -173911.79    174044.25    281.17103    34.653369 
335464000    280.61429    445.94372    480.18672   -173931.98    174041.76      -34.243    34.653247 
335468000    284.66745     370.2921    419.07774   -173936.89    174039.28   -48.785646    34.649897 
335472000    250.41473    259.91314    356.74051   -173914.72    174075.34   -96.827371    34.648562 
335476000    306.42381    420.83992    315.37484    -173966.6    174071.39    105.46509    34.651952 
335480000    266.45354    375.10045    229.65825   -173971.41    174091.13     145.4422    34.652891 
335484000    262.74454    210.60998    234.21647   -173967.39    174093.72   -23.606495    34.653869 
335488000    299.75486    353.82192    270.64652   -173986.51     174117.5    83.175397    34.653956 
335492000    308.75097    262.48385     524.1308   -173994.38    174102.01   -261.64695    34.654139 
335496000    279.80848    410.95651    147.71174   -174028.21    174136.69    263.24477    34.655829 
335500000    287.81311    430.84072    345.82093    -174052.2     174157.1    85.019798    34.650562 
335504000    282.87424     275.3065    413.43165   -174047.93    174159.32   -138.12515    34.651898 
335508000    297.71932    389.69702    282.60752   -174089.96    174205.25     107.0895     34.65593 
335512000    287.85261     412.5415    241.61331   -174084.55    174208.82    170.92819    34.656883 
335516000    301.36991    405.67114    381.71775   -174109.32    174205.94    23.953392    34.662052 
335520000    307.97479    352.56823    309.69237   -174139.37    174241.46     42.87586     34.66536 
335524000    284.43062    426.47182    201.28357   -174172.34    174288.36    225.18824    34.664632 
335528000      267.164    281.74898    310.33299   -174179.88    174327.16   -28.584009    34.667267 
335532000    267.11564    461.66747    325.51661   -174220.03    174341.82    136.15086    34.663833 
335536000    299.85919    512.89218    374.95421   -174271.39    174385.39    137.93797    34.662036 
335540000    297.84735    417.58471    241.29372   -174306.51    174423.49    176.29099    34.657373 
335544000    309.17721    414.44588    280.59074      -174357    174465.93    133.85515    34.657624 
335548000    291.62333    536.66893    416.62482   -174382.37    174495.48    120.04411    34.659039 
335552000    270.31895    286.51634    316.17017   -174385.46    174508.35   -29.653829    34.661671 
335556000    274.26728    492.03566    258.57608   -174422.41    174534.46    233.45958    34.662759 
335560000    286.06449    282.55713    255.65423   -174454.63    174557.56    26.902895    34.661761 
335564000    310.77602    361.20946    448.51546   -174477.29    174586.02   -87.306002    34.658316 
335568000    288.38754    490.50831    253.99703   -174500.54    174639.58    236.51128    34.661167 
335572000    270.04967    309.56357    321.35345   -174530.87    174678.75   -11.789874    34.659679 
335576000    290.30745    485.25639    390.29616   -174567.47    174690.37     94.96023    34.661269 
335580000    262.04879    267.57747    305.98239   -174591.35    174722.35   -38.404924    34.661153 
335584000    258.92794    267.62893    251.16045   -174608.68    174753.08    16.468482     34.66195 
335588000    301.17924    272.51437    508.69824   -174628.89    174747.39   -236.18387    34.665952 
335592000    281.44972    419.37953    310.15766   -174650.77    174778.64    109.22187    34.663746 
335596000    278.11104     391.0826     313.6817   -174684.71    174818.78    77.400902    34.666466 
335600000    286.06263    202.20441    342.09411   -174706.15    174813.33    -139.8897    34.667396 
335604000    275.59949    234.42555    310.05941   -174695.47    174817.89   -75.633862    34.665888 
335608000    259.58152    302.94998     225.3201   -174718.08    174852.94    77.629879    34.668442 
335612000    296.03454    432.92868    379.36297   -174754.25    174864.46    53.565711    34.670781 
335616000    287.71144    274.25367    352.37733   -174774.21    174885.83   -78.123652    34.669706 
335620000    315.19854    620.41139    193.99709   -174805.95    174910.47    426.41429    34.670626 
335624000     278.4864    262.31906    230.56573   -174821.22    174947.11    31.753333    34.668699 
335628000    309.52021    225.53221    521.12376   -174858.26    174964.79   -295.59155    34.665128 
335632000    298.02141    276.15686    354.97341   -174879.12    174991.53   -78.816554    34.667838 
335636000    252.44328    340.36772    296.23361   -174895.98     175024.5    44.134113    34.666078 
335640000    267.47391    327.73859    439.55801   -174906.47     175037.7   -111.81942     34.66202 
335644000    261.41346    272.21181    493.49499   -174911.97       175041   -221.28318    34.658475 
335648000    283.96005    275.03934    399.68471   -174926.67    175043.07   -124.64536    34.660582 
335652000    269.68317       495.22    166.18596    -174958.1     175093.2    329.03404    34.663289 
335656000    303.92505    413.03251    329.14066    -174974.9    175086.46     83.89185    34.667773 
335660000    258.65815    332.04614    295.38387   -174944.32    175073.96     36.66227    34.666243 
335664000    295.31975    302.71133    575.41108   -174953.44    175071.01   -272.69975    34.665437 
335668000    292.78432    287.91002    148.58297   -174978.63    175072.04    139.32705    34.663454 
335672000    286.55804     427.4148    342.45062   -174988.79    175115.44    84.964184     34.66247 
335676000    307.23049    377.01797    227.56849   -175015.36    175126.93    149.44948    34.659758 
335680000    264.94182    244.34847    391.86045   -175032.07    175152.56   -147.51198    34.657029 
335684000    307.98985     426.7537    507.69188   -175093.82     175185.7   -80.938179    34.656265 
335688000    295.40713    346.23034    502.81016   -175123.19     175236.5   -156.57981    34.658598 
335692000    277.35046    463.88891    261.13946      -175134    175264.82    202.74945    34.658391 
335696000    257.87684    302.84522    226.17163   -175142.49    175294.09    76.673588    34.655987 
335700000    276.43866    441.51323    238.55471   -175157.26    175299.87    202.95853    34.659652 
335704000    260.83681    381.24094    316.01895   -175182.06     175314.3    65.221994    34.660427 
335708000    329.11428    276.26708     474.1854   -175209.91    175318.68   -197.91832     34.66073 
335712000    269.40526    320.81043    383.32947    -175220.2    175362.77   -62.519036    34.657414 
335716000    278.66256    486.51218    362.05601   -175275.43    175386.49    124.45617    34.653617 
335720000     302.0993    517.36895    385.41475   -175309.66    175429.12     131.9542    34.651194 
335724000    274.42309    240.27732    281.21874   -175346.35     175463.7    -40.94142    34.654583 
335728000    271.70278    395.84615    395.75058   -175378.97    175497.87  0.095567345    34.650739 
335732000    302.07121     602.9461    360.99748   -175430.69    175536.67    241.94861    34.649492 
335736000    288.68378    340.65831     552.1505   -175469.04    175583.97   -211.49218    34.649729 
335740000    316.54001    426.56517    738.02881   -175507.77    175628.62   -311.46364    34.651518 
335744000    282.77599    341.19948    316.83401    -175558.4    175668.55     24.36547    34.653372 
335748000    272.23913    331.28617    282.05505   -175570.03    175705.04    49.231117    34.648769 
335752000    285.13538    326.39857    335.84124   -175597.63    175743.53    -9.442668    34.653831 
335756000    278.34616    214.59433    412.42109   -175621.13    175734.16   -197.82676    34.653826 
335760000    298.40917    382.70841    269.23763   -175656.59    175769.69    113.47078     34.65338 
335764000    261.13217    223.83354    443.14913   -175688.67    175810.28    -219.3156    34.652571 
335768000    299.88731    268.67181    377.67696   -175763.31    175869.85   -109.00515    34.651357 
335772000    289.38463    463.24146    391.46859   -175800.33    175918.74    71.772871    34.652591 
335776000    267.75317    334.08934    213.36525    -175813.8    175951.36    120.72409    34.651899 
335780000    286.06832    189.26808    219.26975   -175841.45    175965.58   -30.001669     34.65597 
335784000    294.05491      466.867    340.97216   -175871.04    175990.91    125.89484    34.660114 
335788000    264.42021    395.75188    176.52173   -175898.63    176024.27    219.23015    34.660983 
335792000    279.30856     581.0147    372.84288   -175922.77    176043.73    208.17182    34.663424 
335796000     279.6352    249.69147    423.30905   -175971.98    176072.22   -173.61758     34.66106 
335800000    311.45312     349.9767    484.63416   -175986.98    176099.98   -134.65746    34.655241 
335804000    263.98551     314.8131    441.65782   -175976.21    176100.51   -126.84471    34.656112 
335808000    260.09097    276.82059    332.53875   -176001.63    176115.98   -55.718159    34.657962 
335812000      285.714    353.37976    165.52232   -176026.92    176143.43    187.85744    34.662354 
335816000    277.05385    211.04889    419.70092   -176066.14     176198.4   -208.65203    34.662365 
335820000      299.823    334.56953    321.75378   -176088.83    176198.18     12.81575    34.657302 
335824000    285.17915    253.67468    215.41667   -176111.96    176234.31     38.25801    34.654543 
335828000    268.25313    289.01812    549.26167   -176156.89    176276.98   -260.24355    34.656281 
335832000    283.23369    299.38176    231.86735   -176191.13    176310.82     67.51441    34.659427 
335836000    252.36519    369.46781    317.81209   -176196.64    176335.15    51.655724    34.658906 
335840000    250.37105    204.62007    370.22658    -176196.7    176348.87    -165.6065    34.657841 
335844000    306.23089    315.47549     243.4049   -176238.56    176350.38    72.070591    34.655642 
335848000    298.29932     384.6825    442.39475    -176258.7    176378.43   -57.712256    34.655974 
335852000      282.103     423.0617    199.99194   -176256.97    176401.01    223.06976    34.660146 
335856000    271.15368    328.68159    387.67907   -176251.15    176389.22   -58.997478    34.663236 
335860000    265.68425    325.06656    318.98448   -176301.53    176428.46    6.0820802     34.66763 
335864000    299.03303    497.17131    294.05606   -176320.48    176433.62    203.11525    34.666347 
335868000    303.33599    363.18713    521.16088   -176384.53    176469.96   -157.97375    34.666404 
335872000    300.12099    415.37853    347.26317    -176392.9    176505.21    68.115358    34.668159 
335876000    285.57989    428.45209    312.69692    -176413.8    176540.38    115.75517    34.666007 
335880000    284.89128    292.09644    376.97269    -176442.3    176562.04   -84.876249    34.667322 
335884000    280.76819    346.16159    339.53401   -176478.77    176596.05    6.6275815    34.670662 
335888000    248.69714    345.84498    493.28871   -176469.68    176629.52   -147.44373    34.668932 
335892000    294.31066    293.67104    289.03656   -176489.08    176624.34    4.6344847    34.669375 
335896000    269.10492    382.96846    411.73993      -176527    176649.06   -28.771471    34.670286 
335900000    300.50052    366.62255    463.35859   -176559.67    176675.15   -96.736036    34.667864 
335904000    318.03302     288.1506    558.01388   -176621.84    176723.49   -269.86327    34.671421 
335908000    271.15235    379.79572    441.30657   -176641.13    176755.81   -61.510843    34.667623 
335912000    279.82631    312.71471    197.30135   -176670.97    176779.15    115.41337    34.665993 
335916000    315.03655    629.67453    237.81656   -176708.37    176802.04    391.85797    34.663562 
335920000    294.06753    501.19597    334.96815   -176731.01    176832.46    166.22782    34.663061 
335924000    283.00609     480.2001    169.15729   -176741.46    176859.38    311.04281    34.660027 
335928000    256.17315    228.73666    282.26345   -176753.63    176894.49   -53.526785    34.661173 
335932000    257.15291    363.81792    317.30868   -176785.68    176913.14    46.509232    34.657683 
335936000    268.80518    254.04672    294.96382   -176803.05    176934.12   -40.917093    34.652792 
335940000    260.49298    406.92698    227.14869   -176812.71    176968.58    179.77829    34.658174 
335944000    282.45543    274.04451    189.19677   -176862.19    176979.64    84.847737    34.657604 
335948000     309.6922    481.67073    456.93733   -176930.47    177037.95    24.733401    34.653362 
335952000    268.84428    193.08133    221.13378   -176941.45    177074.15   -28.052448    34.651582 
335956000    275.16464    424.09113    228.93067   -176967.85    177096.68    195.16046    34.656012 
335960000    276.91272    477.56083    331.99396    -177006.9    177137.24    145.56687    34.659575 
335964000    301.50818    430.74217    406.06602   -177041.85    177165.65    24.676148    34.657504 
335968000    276.61689    391.79008    268.69038   -177071.14    177196.94    123.09971     34.65608 
335972000    254.52734    367.11599    243.42162   -177092.51    177237.32    123.69437    34.655093 
335976000    285.90722    433.59654    392.33311   -177135.34    177258.57    41.263431    34.655757 
335980000      276.157    307.28692    366.30965    -177160.7    177292.58    -59.02273    34.650271 
335984000    269.02993    251.11716    442.84159   -177176.75    177311.56   -191.72443    34.652408 
335988000    286.29368    281.14206    312.97541   -177212.94    177337.16   -31.833351    34.652788 
335992000    248.24358    406.88303    247.66466   -177230.04     177366.5    159.21837    34.652203 
335996000    338.03676    311.24574    268.98108   -177283.39    177384.79    42.264658    34.648137 
336000000    271.70832    423.65804    254.18649   -177297.15    177426.26    169.47156    34.646702 
336004000    254.52553    302.00031    218.55906   -177310.73    177457.48    83.441246    34.649298 
336008000    258.71117     706.2268    220.43917   -177333.67    177477.96    485.78763    34.646958 
336012000    284.23069    381.57288    457.14683   -177331.85     177453.2   -75.573956       34.643 
336016000     310.9993    325.33746    258.59947   -177370.07    177474.47    66.737989    34.640619 
336020000    281.79122    550.98593    166.40463   -177377.81    177496.14     384.5813    34.645553 
336024000    279.90271     487.4977    299.26461   -177393.11     177530.4    188.23308    34.649195 
336028000    274.03715     233.8341    347.74775   -177405.14    177534.68   -113.91365    34.649042 
336032000    272.54423    260.83003    152.81887   -177446.42    177556.34    108.01116    34.649443 
336036000    303.49519    315.50115    191.83721   -177470.57    177588.67    123.66394    34.650033 
336040000    272.17352    239.42131    234.14715   -177490.59     177630.6    5.2741622    34.648358 
336044000    290.21246    289.05764     492.1192   -177517.23    177644.97   -203.06156    34.648748 
336048000    301.79465    580.94381    272.95466   -177566.82    177686.57    307.98915    34.652125 
336052000    280.97448    403.90101    288.86862   -177578.13    177712.22    115.03239    34.650729 
336056000    294.91588    423.22317    409.43634    -177594.8    177714.14    13.786828    34.651948 
336060000    291.12254    254.67893    341.31963    -177599.3    177709.51     -86.6407    34.649395 
336064000    295.58201    309.97798    326.17885   -177601.74    177726.67   -16.200867    34.647524 
336068000    270.14977    412.00513    372.31279   -177629.07    177753.94    39.692337    34.642315 
336072000    264.71804    294.83258    169.92032   -177656.12    177785.88    124.91227    34.643479 
336076000    294.60392    339.01333    234.34297   -177678.19    177792.34    104.67037      34.6483 
336080000    276.48044    361.38424    208.67069    -177684.4    177791.46    152.71356    34.645805 
336084000    276.20277    312.24807    477.44369      -177703     177830.4   -165.19562     34.64121 
336088000    250.84445    344.51203    346.79662   -177712.79    177848.75   -2.2845836    34.640756 
336092000    272.51177    516.72852    331.72453    -177743.2    177863.83      185.004      34.6356 
336096000    270.31528    290.34899    298.94883    -177763.4    177879.61   -8.5998357    34.633912 
336100000    302.12718    508.99292    540.53916   -177776.38    177888.14   -31.546242    34.635361 
Loop time of 2242.38 on 4 procs for 32000000 steps with 196 atoms

Performance: 1541.222 ns/day, 0.016 hours/ns, 14270.572 timesteps/s
99.9% CPU use with 4 MPI tasks x no OpenMP threads

MPI task timing breakdown:
Section |  min time  |  avg time  |  max time  |%varavg| %total
---------------------------------------------------------------
Pair    | 428.09     | 500.04     | 581.46     | 260.4 | 22.30
Bond    | 867.87     | 907.16     | 964.82     | 118.2 | 40.46
Neigh   | 7.5147     | 7.6444     | 7.7652     |   3.3 |  0.34
Comm    | 307.52     | 367.89     | 410.5      | 217.6 | 16.41
Output  | 8.3109     | 9.8526     | 11.778     |  48.8 |  0.44
Modify  | 378.3      | 391.11     | 405.36     |  61.4 | 17.44
Other   |            | 58.68      |            |       |  2.62

Nlocal:    49 ave 57 max 41 min
Histogram: 2 0 0 0 0 0 0 0 0 2
Nghost:    147 ave 155 max 139 min
Histogram: 2 0 0 0 0 0 0 0 0 2
Neighs:    977.5 ave 1203 max 787 min
Histogram: 1 0 0 1 1 0 0 0 0 1

Total # of neighbors = 3910
Ave neighs/atom = 19.949
Ave special neighs/atom = 5.87755
Neighbor list builds = 96415
Dangerous builds = 0

write_restart FINALCONFIG

Total wall time: 0:39:15
