LAMMPS (16 Mar 2018)
# 1. INITIALIZATION
#allows pair, bond, bending and dihedral interactions
atom_style molecular

  # periodic (video game) boundaries in all cartesian directions
boundary p p s

  # uses real units (instead of units based on pair potential parameters).  List of units used in manual
units real

###########
# 2. ATOM DEFINITION
##########

   ##
   # Read in data from starting configuration file
   ##

#read_data chainconfig.dat

 #use to restart
read_restart RESTART
  orthogonal box = (-400 -400 -0.0371648) to (400 400 123.895)
  1 by 1 by 1 MPI processor grid
  196 atoms
  194 bonds
  192 angles
  190 dihedrals
  2 = max # of 1-2 neighbors
  2 = max # of 1-3 neighbors
  4 = max # of 1-4 neighbors
  6 = max # of special neighbors

   ##
   # Specify the nature of the bond interactions
   ##


bond_style harmonic
bond_coeff 1 450 1.54

special_bonds lj 0.0 0.0 0.0 angle no dihedral no

angle_style harmonic
angle_coeff 1 62.1  114.00

dihedral_style opls
dihedral_coeff * 1.4110 -0.2708 3.143 0.0

mass * 14.0

pair_style lj/cut 14.0
pair_coeff 1 1 0.0912 3.95 14.0
#pair_modify tail yes

group twistables type 3
6 atoms in group twistables
group freeze type 2
6 atoms in group freeze
fix startend freeze setforce 0.0 0.0 0.0
fix startend0 twistables setforce 0.0 0.0 0.0

################
# 3.  Simulation Settings
###############

neighbor        2.0 bin
neigh_modify    every 1 delay 0 check yes



# Define some variables
variable Lx          equal xhi-xlo   # Ang
variable Ly          equal yhi-ylo   # Ang
variable Lz          equal zhi-zlo   # Ang

variable dz          equal ${Lz}/30  # Ang
variable dz          equal 123.93194371632/30  

variable zzlo        equal zlo+0.05  # Ang
variable zzhi        equal zhi  # Ang
variable vol         equal ${Lx}*${Ly}*${Lz}  # Ang^3
variable vol         equal 800*${Ly}*${Lz}  
variable vol         equal 800*800*${Lz}  
variable vol         equal 800*800*123.93194371632  
variable TEMP        equal 300.00 # K
variable TThi        equal 320.00 # K
variable TTlo        equal 280.00 # K
variable dt          equal 1.25 # fs

timestep     ${dt}
timestep     1.25

variable zlo1      equal ${zzlo}+2.7
variable zlo1      equal 0.0128352418400019+2.7
variable zlo2      equal ${zzlo}+8.4
variable zlo2      equal 0.0128352418400019+8.4
variable zhi1      equal ${zzlo}+115.5
variable zhi1      equal 0.0128352418400019+115.5
variable zhi2      equal ${zzlo}+121
variable zhi2      equal 0.0128352418400019+121

# heat layers

region          hot  block  INF INF INF INF ${zlo1} ${zlo2}
region          hot  block  INF INF INF INF 2.71283524184 ${zlo2}
region          hot  block  INF INF INF INF 2.71283524184 8.41283524184
region          cold block INF INF INF INF ${zhi1} ${zhi2}
region          cold block INF INF INF INF 115.51283524184 ${zhi2}
region          cold block INF INF INF INF 115.51283524184 121.01283524184
compute         Thot all temp/region hot
compute         Tcold all temp/region cold


# 1st equilibration run
fix             1 all nvt temp ${TEMP} ${TEMP} 50
fix             1 all nvt temp 300 ${TEMP} 50
fix             1 all nvt temp 300 300 50
thermo          100
run             8000
Neighbor list info ...
  update every 1 steps, delay 0 steps, check yes
  max neighbors/atom: 2000, page size: 100000
  master list distance cutoff = 16
  ghost atom cutoff = 16
  binsize = 8, bins = 100 100 16
  1 neighbor lists, perpetual/occasional/extra = 1 0 0
  (1) pair lj/cut, perpetual
      attributes: half, newton on
      pair build: half/bin/newton
      stencil: half/bin/3d/newton
      bin: standard
Per MPI rank memory allocation (min/avg/max) = 9.689 | 9.689 | 9.689 Mbytes
Step Temp E_pair E_mol TotEng Press Volume 
   20000            0    225.50431    1494.3508    1719.8551   -4.7785073     79316447 
   20100     218.1902    222.44165    1453.2995    1802.5659   -4.7428099     79316447 
   20200    334.07261    253.94826    1461.2338    1909.3645   -4.6236074     79316447 
   20300    330.39951    228.68913    1474.8054    1895.5419   -4.8822748     79316447 
   20400    293.34074    230.62766    1492.1259    1893.2602   -4.8493589     79316447 
   20500    329.33762    218.49269    1505.5028    1915.4256   -4.8965996     79316447 
   20600    283.32246     234.1445    1485.1828    1884.0108    -4.796131     79316447 
   20700    315.55366    254.22684    1478.6443    1916.2892   -4.6930039     79316447 
   20800    269.83045    232.74728    1488.3183    1877.9067   -4.7210027     79316447 
   20900     307.8643     231.8589     1493.188    1903.9955   -4.6996443     79316447 
   21000     282.2439    229.72957    1510.0521    1903.8382   -4.7753316     79316447 
   21100    290.32225    249.10168    1473.8531    1891.7069    -4.773864     79316447 
   21200    332.87516    236.80297    1483.8213    1914.1106   -4.9547255     79316447 
   21300    304.70129    234.32904    1477.1486    1888.5877   -4.8998981     79316447 
   21400    305.44166    229.95486    1504.1198     1911.615   -4.8239709     79316447 
   21500    272.38416    243.51601    1473.2436    1875.0851    -4.563085     79316447 
   21600    315.43188    234.06628     1490.633    1908.0466    -4.654302     79316447 
   21700    328.88978    240.18649    1473.5577     1904.914   -4.8166326     79316447 
   21800    284.43845    229.13585    1479.9362    1874.4042   -4.9334603     79316447 
   21900    284.95372    229.29788     1506.301    1901.2305   -4.9220834     79316447 
   22000    311.11596     232.0632    1497.0449    1909.9467   -4.7880974     79316447 
   22100    301.53616    258.61241    1481.5978    1915.4805    -4.545301     79316447 
   22200    284.92114    241.26108    1471.0036    1877.8774   -4.6061335     79316447 
   22300    324.29272    217.37098    1503.6188    1909.4875   -4.9282002     79316447 
   22400    290.90117    224.07521    1503.0328    1896.1967   -4.8710418     79316447 
   22500    353.22463    255.09265    1464.2274    1924.6347   -4.6887428     79316447 
   22600    291.85338    243.98225    1476.8445    1890.4688   -4.8570684     79316447 
   22700    298.76419    231.52097    1495.9634    1901.1434   -4.8470112     79316447 
   22800    311.07795    233.61744    1496.1738    1910.6078    -4.790198     79316447 
   22900    286.89488    238.16761    1472.3936    1877.3212   -4.6617076     79316447 
   23000    290.90888    249.41213    1494.1431    1912.6484   -4.5960666     79316447 
   23100    294.14911    223.13777     1509.893    1904.0073    -4.863756     79316447 
   23200    283.61604    227.33029    1492.0639    1884.2483   -4.9252516     79316447 
   23300    314.67573    234.75968    1489.1476     1906.815   -4.8619314     79316447 
   23400     298.2859    257.49856    1454.1162    1884.9958   -4.4878208     79316447 
   23500    331.54256    226.70753    1497.0585    1916.4778   -4.6991278     79316447 
   23600    280.66772    239.89262    1490.5993    1893.6323   -4.7253859     79316447 
   23700    300.72382    229.89704    1521.4284    1926.1236   -4.9434988     79316447 
   23800    278.77993    219.93336    1504.2441    1886.2205   -4.9581877     79316447 
   23900    284.64833    243.61786    1487.4556    1896.5276   -4.7683638     79316447 
   24000    317.21271    243.05833    1485.6222    1913.0629   -4.5350681     79316447 
   24100    282.51041    230.23509     1491.253    1885.6995   -4.7147004     79316447 
   24200    330.78655    226.45238    1501.9748    1920.6995   -4.8615303     79316447 
   24300    295.59327    234.72274    1485.3888    1891.9275   -4.8393911     79316447 
   24400    302.92658    240.68166     1480.111    1896.8712   -4.8305609     79316447 
   24500    303.46238    247.91917    1498.1979     1922.507   -4.7696127     79316447 
   24600    311.58765    237.61649    1480.7586    1899.4879    -4.673475     79316447 
   24700    288.87197    247.38567    1487.7418    1903.0366    -4.678708     79316447 
   24800    288.19768    245.71224    1499.1912    1912.4207   -4.7032708     79316447 
   24900    263.22172    243.90033    1491.9544    1888.8544   -4.7357723     79316447 
   25000    309.18929    231.34685    1496.9235    1907.9891   -4.7438685     79316447 
   25100    283.18426    228.06454    1484.6931    1877.3607   -4.7932091     79316447 
   25200    307.52735    244.12387    1485.6592    1908.5358   -4.7254969     79316447 
   25300    299.88417    229.25015    1472.5015    1876.0617   -4.7687995     79316447 
   25400    273.63458    242.67034    1495.2894     1897.012   -4.7439849     79316447 
   25500      307.456    240.71793    1493.4011    1912.8303    -4.722825     79316447 
   25600    265.30698    241.57731    1480.3166    1876.1057   -4.6878205     79316447 
   25700    291.69424     239.2115    1498.0068    1906.7679   -4.8314316     79316447 
   25800    323.31255    233.59838    1474.7951    1896.3215   -4.8166507     79316447 
   25900    344.10007     217.9482    1500.8088    1918.7679   -4.7802958     79316447 
   26000    310.22066    232.19416    1477.6106     1890.123   -4.7406209     79316447 
   26100    316.77255    237.09786    1484.4448    1905.6692   -4.8358362     79316447 
   26200    285.67482    245.95544    1505.5116    1917.5178   -4.7928154     79316447 
   26300    305.84704    236.50847    1477.6647    1891.9492   -4.6553847     79316447 
   26400    309.85494    247.78998    1486.9829    1914.8786   -4.6305598     79316447 
   26500    283.99149     237.7114    1480.5375    1883.3212   -4.7794055     79316447 
   26600    298.59884    231.63946    1495.7114    1900.9139   -4.9229874     79316447 
   26700    279.55865    223.96558    1507.1403    1893.6016   -4.9378734     79316447 
   26800    299.89877       239.97    1483.6169    1897.9055   -4.7909407     79316447 
   26900    315.84704    229.73137    1505.7848    1919.1048   -4.7012785     79316447 
   27000    323.08053    237.66698    1468.3447    1893.8048   -4.5765786     79316447 
   27100    302.33258    238.69861    1495.5574    1909.9893   -4.7379538     79316447 
   27200    264.30638    230.76691    1500.2618    1884.6589    -4.956209     79316447 
   27300    306.74378    260.84606     1478.804    1917.9474   -4.7394427     79316447 
   27400     286.1941     243.1397    1485.5348    1895.0271   -4.7185958     79316447 
   27500    282.99448    213.14758    1524.6014    1902.2418   -4.8286105     79316447 
   27600    322.72037    225.29883    1530.4802    1943.3628    -4.833103     79316447 
   27700    325.71776    243.91138    1468.7875    1902.0249   -4.6834601     79316447 
   27800    306.13816    256.29996    1453.1012    1887.3464   -4.7317709     79316447 
   27900    330.28157    210.44289    1513.7216    1916.1433   -5.0371537     79316447 
   28000    277.25466    231.84406    1503.0223    1896.0229   -4.7420234     79316447 
Loop time of 2.04164 on 1 procs for 8000 steps with 196 atoms

Performance: 423.190 ns/day, 0.057 hours/ns, 3918.426 timesteps/s
100.0% CPU use with 1 MPI tasks x no OpenMP threads

MPI task timing breakdown:
Section |  min time  |  avg time  |  max time  |%varavg| %total
---------------------------------------------------------------
Pair    | 0.72836    | 0.72836    | 0.72836    |   0.0 | 35.68
Bond    | 1.2019     | 1.2019     | 1.2019     |   0.0 | 58.87
Neigh   | 0.016087   | 0.016087   | 0.016087   |   0.0 |  0.79
Comm    | 0.0050144  | 0.0050144  | 0.0050144  |   0.0 |  0.25
Output  | 0.0010133  | 0.0010133  | 0.0010133  |   0.0 |  0.05
Modify  | 0.071789   | 0.071789   | 0.071789   |   0.0 |  3.52
Other   |            | 0.01747    |            |       |  0.86

Nlocal:    196 ave 196 max 196 min
Histogram: 1 0 0 0 0 0 0 0 0 0
Nghost:    0 ave 0 max 0 min
Histogram: 1 0 0 0 0 0 0 0 0 0
Neighs:    3900 ave 3900 max 3900 min
Histogram: 1 0 0 0 0 0 0 0 0 0

Total # of neighbors = 3900
Ave neighs/atom = 19.898
Ave special neighs/atom = 5.87755
Neighbor list builds = 37
Dangerous builds = 0
velocity        all scale ${TEMP}
velocity        all scale 300
unfix           1

# Second Equilibration
fix             1 all nve
fix             hot all langevin ${TThi} ${TThi}  50.0 599804  tally yes
fix             hot all langevin 320 ${TThi}  50.0 599804  tally yes
fix             hot all langevin 320 320  50.0 599804  tally yes
fix             cold all langevin ${TTlo} ${TTlo} 50.0 27859 tally yes
fix             cold all langevin 280 ${TTlo} 50.0 27859 tally yes
fix             cold all langevin 280 280 50.0 27859 tally yes
fix_modify      hot temp Thot
fix_modify      cold temp Tcold


variable        tdiff equal c_Thot-c_Tcold
thermo_style    custom step c_Thot c_Tcold f_hot f_cold v_tdiff
thermo          4000
run             1600000
Per MPI rank memory allocation (min/avg/max) = 10.44 | 10.44 | 10.44 Mbytes
Step c_Thot c_Tcold f_hot f_cold v_tdiff 
   28000    505.80485    370.42904           -0           -0    135.37581 
   32000    349.96809    422.67512   -3.6259134    25.903079    -72.70703 
   36000    316.49574    312.75177   -1.2595373    12.578941    3.7439771 
   40000    512.94769    325.40139   -26.533613    47.702544     187.5463 
   44000     409.3349     221.7389   -36.108286    61.949808      187.596 
   48000    287.57587    288.43153   -52.931917    80.484015  -0.85566127 
   52000    350.02344    251.06464    -82.57087    102.95791    98.958803 
   56000    411.04115    177.38579   -90.368174    118.54805    233.65536 
   60000    458.33279    397.11133   -76.535016    114.52524    61.221458 
   64000    255.78892    277.77799   -101.82899    114.56283   -21.989078 
   68000     349.1576    282.28602   -108.25578    142.08943    66.871575 
   72000    408.14119    282.15711    -129.3203    144.50721    125.98408 
   76000    233.44881     295.0922   -132.33926     163.1153   -61.643389 
   80000    266.13797    473.42247   -163.23054     212.3053    -207.2845 
   84000    230.13703    518.69423   -195.78094    224.97438    -288.5572 
   88000    366.81297    335.53043    -202.4667    252.55329    31.282537 
   92000    336.50114    524.06458   -253.84255    260.95326   -187.56344 
   96000    226.87602    306.83005   -258.17092    286.91296   -79.954021 
  100000    252.32071    263.17406   -290.62502    337.41397   -10.853356 
  104000    183.19339    193.48599   -310.78603     350.1797   -10.292598 
  108000    304.65316    398.31561    -349.7987    391.46353   -93.662445 
  112000    469.71413    253.28833   -377.65068    420.49163     216.4258 
  116000    456.05575    444.53985   -385.91141    409.20008    11.515899 
  120000    582.56618    312.99464   -387.16528    426.06989    269.57154 
  124000    302.21916    530.64577   -399.88704    448.51355   -228.42661 
  128000    349.51083    299.09308   -418.83683    471.35974    50.417753 
  132000    269.19834    289.65109   -439.11534     467.7686   -20.452754 
  136000    217.63947    256.56642    -432.2816    492.91729   -38.926957 
  140000    337.49088     460.4549    -442.3668    494.55521   -122.96402 
  144000    345.03335    198.57419   -439.63617    475.69125    146.45916 
  148000    555.33527    344.10149   -449.95528    480.02654    211.23378 
  152000    408.66323    252.13047   -450.13765    479.13136    156.53276 
  156000    387.61201    340.48334   -473.48715    504.08265    47.128674 
  160000    423.04371    274.69409   -506.98855    521.89395    148.34962 
  164000    293.12069    214.87977   -521.19435    543.19722    78.240928 
  168000    220.09637    289.23413   -536.59438    572.79284   -69.137762 
  172000     515.3741    277.21611   -534.85957    569.96269    238.15799 
  176000    318.76492    500.17089   -516.81367    554.18728   -181.40597 
  180000    419.24507    376.68314   -534.62031    569.75787    42.561924 
  184000    426.12705    398.65652   -566.05126    594.06767     27.47053 
  188000    288.89543    290.86535   -573.58184     610.2969   -1.9699192 
  192000    215.61539     291.3095   -602.84678    631.54267   -75.694107 
  196000    310.87256    358.33299   -603.61545    650.27003   -47.460429 
  200000    259.16538    425.48139   -661.11487    683.02579   -166.31601 
  204000    296.48008    507.44272   -674.48681     699.1664   -210.96264 
  208000    280.20921    272.19275    -684.9461    697.90729     8.016457 
  212000    336.73248    396.52787   -692.18729      723.306   -59.795389 
  216000    327.28838     427.7806   -729.08607    771.80483   -100.49221 
  220000    371.82546    288.58693   -753.09437     806.9508    83.238521 
  224000    262.15514    226.73357   -795.23243    838.79208    35.421574 
  228000    190.03275    292.67466   -831.85502    863.14832   -102.64191 
  232000    376.91428     357.7183   -841.91305    868.41343     19.19598 
  236000    385.52927    389.09589   -849.08397    884.26448   -3.5666187 
  240000    586.08097    291.31864   -871.79429    886.77783    294.76233 
  244000    163.14172    264.21614   -864.79054    894.38246   -101.07442 
  248000    344.99064    361.36493   -874.55615      918.643   -16.374294 
  252000    477.91676    197.71225   -902.24875    932.37466    280.20451 
  256000    530.60173    339.25068   -905.35982    947.73223    191.35104 
  260000    546.20943    533.38894   -924.56567    953.35804    12.820489 
  264000    301.11548    329.46021   -947.81534     975.1377   -28.344726 
  268000    184.53799    478.81745   -971.05478    1004.4047   -294.27946 
  272000    269.57291     272.0686   -975.49989    1007.0052   -2.4956877 
  276000    396.51887     308.7962     -1002.24    1031.0454    87.722669 
  280000     153.9902    413.67774   -1024.6923    1039.8787   -259.68755 
  284000    457.73215    218.08884   -1047.9842    1068.5297    239.64331 
  288000    253.43211    400.27326   -1055.9732    1078.8522   -146.84115 
  292000     358.7815    434.18426   -1086.0037    1111.6951   -75.402763 
  296000    401.33438    261.83034   -1079.3402     1128.977    139.50404 
  300000     347.1108    414.16869   -1085.6275    1119.1188   -67.057888 
  304000    426.27754    342.96977   -1101.5891    1125.5339    83.307776 
  308000    245.14599    464.87746   -1112.4795    1144.5536   -219.73147 
  312000    265.22665    374.50681   -1167.1181    1202.2541   -109.28015 
  316000    325.29248    278.46775   -1181.9711    1240.6719    46.824724 
  320000     316.1829    287.99898   -1218.7925    1227.7657    28.183918 
  324000    603.09055    276.76114   -1242.4686    1242.7597    326.32941 
  328000    388.70114    265.49841   -1250.0134    1295.5083    123.20273 
  332000    474.97781    351.23817   -1293.4604    1321.9043    123.73964 
  336000    232.96321    241.94632   -1285.0013    1343.0015   -8.9831123 
  340000    235.63845    257.86363   -1295.9972    1329.5884   -22.225185 
  344000     415.1453    246.27299   -1332.7306     1350.785    168.87231 
  348000    258.78037    302.54738   -1338.4501    1385.5306   -43.767002 
  352000    338.02704    387.72554   -1382.7622    1401.1004   -49.698501 
  356000    255.92393    427.60275   -1397.2429    1428.3397   -171.67882 
  360000    324.59339    360.50566   -1400.3142    1451.0793   -35.912268 
  364000    220.33309    391.98289   -1415.0123    1455.9004   -171.64979 
  368000    373.77545    313.42874   -1443.5501    1486.7719    60.346713 
  372000    528.57135    537.93921     -1476.67    1507.6869   -9.3678528 
  376000    228.98231    303.05908   -1489.4431     1534.653   -74.076772 
  380000    276.99451    399.25417   -1506.9843    1528.8271   -122.25967 
  384000    431.62529    248.19118   -1507.9856    1535.9682    183.43411 
  388000    401.98538    520.55593   -1531.8777    1561.8444   -118.57055 
  392000    437.54244     303.0724   -1576.0022    1600.6817    134.47004 
  396000    133.13937    407.71733   -1598.3118    1618.4515   -274.57796 
  400000    489.38988    257.67751   -1625.3832    1648.1864    231.71237 
  404000     340.8905    432.50768   -1647.5759     1684.635   -91.617186 
  408000    283.80154    341.75011   -1668.0989    1712.3289   -57.948573 
  412000    277.50178    278.97687   -1681.1414    1720.0052   -1.4750927 
  416000    294.32728    294.05431   -1706.1076    1736.3716   0.27296467 
  420000    386.59351    365.07483   -1725.9431     1750.726    21.518682 
  424000    345.93799    373.98592   -1727.9859    1746.7148   -28.047936 
  428000     375.8128    437.75538   -1745.8236    1778.7641   -61.942587 
  432000    304.20322    311.30829   -1733.1758    1812.4044   -7.1050652 
  436000    371.44361    287.04447   -1760.7735    1786.2552    84.399145 
  440000    548.70011    189.00693   -1801.3328     1819.759    359.69318 
  444000    402.14706    397.91487   -1809.8108    1828.0955    4.2321887 
  448000    407.99118    189.23151   -1838.3016    1872.3691    218.75967 
  452000    282.49459    412.84486   -1844.9833    1881.6245   -130.35027 
  456000     280.9071    387.28687   -1863.4577     1882.486   -106.37977 
  460000    325.93173    268.72128   -1867.8209    1883.0421    57.210447 
  464000    376.59368     157.8574   -1876.1939    1901.7766    218.73628 
  468000    192.21912    217.80635   -1898.7847    1924.4854   -25.587231 
  472000    501.50688    471.32749   -1923.0325    1948.1061    30.179384 
  476000    397.21515    262.69565   -1933.8791    1978.4206     134.5195 
  480000    277.54107     506.2258   -1967.7527    1990.2199   -228.68473 
  484000    295.54093    379.98973   -1974.0525    2001.9684   -84.448795 
  488000    326.15945    334.64583   -1981.9019    2034.1278   -8.4863776 
  492000    342.52903    203.45014   -1999.0473    2040.5967    139.07889 
  496000     427.8917    331.39438   -2056.4176    2058.7472    96.497318 
  500000    289.42533    326.36707   -2061.0194      2092.45    -36.94174 
  504000    372.22283    215.55058   -2094.3889    2115.6877    156.67224 
  508000    415.89144    396.87489   -2108.3647    2139.4852    19.016545 
  512000    308.99574    226.84555   -2134.3334    2164.5506    82.150193 
  516000    417.41974      313.264   -2169.9613    2188.3216    104.15574 
  520000    322.75384    344.72645   -2167.6699     2213.868   -21.972603 
  524000    320.24859      276.431   -2194.2038    2235.2223    43.817586 
  528000    373.05166    324.32438   -2227.9171    2244.8404    48.727284 
  532000    419.36499     391.5546   -2211.5852    2257.5844    27.810386 
  536000    426.16599    202.12887   -2242.5272    2277.2476    224.03712 
  540000    262.47387    335.64333   -2259.6013    2300.5787   -73.169457 
  544000    275.35623    552.04123   -2275.0615    2295.2443   -276.68499 
  548000     332.8352    171.54343   -2285.7558    2305.8526    161.29177 
  552000    196.92556    385.96788    -2292.902    2326.5785   -189.04232 
  556000    471.02112    296.65552   -2312.4798    2356.3508    174.36561 
  560000      307.966    201.94309   -2324.3728    2349.5526    106.02291 
  564000    465.44707    442.11958   -2355.1615     2368.439    23.327486 
  568000    595.34052    408.26221   -2383.8161    2408.2799    187.07831 
  572000    494.71269    294.38779    -2423.395    2446.9302    200.32491 
  576000    390.03436    268.00368   -2454.2111    2482.8603    122.03068 
  580000    398.86494    330.23489   -2446.1264     2480.721    68.630046 
  584000    241.81095    162.99101   -2455.0051    2504.1807    78.819942 
  588000    384.76782    188.61771   -2477.2006    2508.2645     196.1501 
  592000    314.09698    409.43579   -2512.2557    2539.7704   -95.338813 
  596000    254.24613    344.36218   -2516.3352    2562.8508   -90.116057 
  600000    534.35814    201.43498   -2564.5984    2585.9415    332.92316 
  604000    365.19378    202.51391   -2570.7565     2588.216    162.67987 
  608000    296.82724    302.08229    -2570.461    2623.4204   -5.2550516 
  612000    527.15599    438.27713    -2586.452    2630.7734    88.878859 
  616000    324.15571    236.01904   -2624.4694    2669.5332    88.136676 
  620000    271.17585     501.4956   -2650.4615     2673.182   -230.31975 
  624000    420.55757    375.09952   -2685.0358    2716.9646    45.458052 
  628000    554.29082    296.75662   -2686.3243    2716.3044     257.5342 
  632000    317.60977    389.15098   -2685.4621    2709.2951    -71.54121 
  636000    252.53976    282.49523     -2688.44    2738.0497   -29.955471 
  640000     311.4165    506.42227   -2691.6171    2732.9414   -195.00577 
  644000     341.1559     347.1998   -2728.8581    2741.3709   -6.0438963 
  648000    200.91838    406.94503   -2741.8633    2770.3119   -206.02665 
  652000    336.15938    282.09673   -2746.6976     2783.528    54.062646 
  656000    228.31852    280.50235   -2755.2432    2787.9495   -52.183828 
  660000    485.11208    396.70261   -2758.9928    2800.7026    88.409472 
  664000     429.3872    295.82589   -2777.5621    2815.1131    133.56132 
  668000    409.51911    433.76004   -2773.4111    2817.1205   -24.240937 
  672000    431.17477    383.15294   -2787.7639    2826.0314    48.021838 
  676000    381.26254    291.41987   -2818.4652    2837.0793    89.842675 
  680000    203.44784    311.31507    -2832.774    2868.3701   -107.86723 
  684000    335.71461    284.59577   -2886.1931    2898.8037    51.118842 
  688000    350.70786    269.49184   -2907.9389    2939.9237    81.216017 
  692000    226.41177    287.41688   -2945.2139    2935.5665   -61.005116 
  696000    329.51486    267.05953   -2939.4262    2937.8688    62.455328 
  700000    428.64348    358.35074   -2914.1506    2957.8133    70.292742 
  704000    255.86602    555.98386   -2925.6311    2970.8157   -300.11784 
  708000    270.72369    221.53841   -2918.2254    2970.2826    49.185274 
  712000    330.74259    511.09995   -2945.6668    2974.3401   -180.35736 
  716000    194.38815    210.62287   -2960.0689    2976.5472   -16.234713 
  720000    352.72134    333.60398   -2994.7459     2993.036    19.117359 
  724000    318.20236    426.26885   -2994.0577    3034.9467   -108.06649 
  728000    257.34091    197.61741   -3029.4914    3054.4742    59.723502 
  732000    305.00103    422.62126   -3052.8888     3072.946   -117.62023 
  736000    454.86053    520.74118   -3074.3498    3110.0795   -65.880642 
  740000    330.15322    381.69563   -3095.2764    3115.0692   -51.542407 
  744000    322.13517    192.30713   -3110.8922    3150.6134    129.82804 
  748000    331.00568    441.52682    -3137.293    3168.6969   -110.52113 
  752000    317.08384     266.1644   -3154.9276     3182.493    50.919439 
  756000    455.87642    286.49434   -3160.3782    3195.5422    169.38208 
  760000    399.58774    356.12578   -3152.0429    3198.5108    43.461965 
  764000    483.60361    335.08411   -3161.4042    3208.7881    148.51949 
  768000     331.6448    274.03775   -3211.0796    3248.1446     57.60705 
  772000    369.94163    280.39228   -3256.1201    3270.7197    89.549348 
  776000    444.05131    333.72509   -3264.6076     3265.366    110.32622 
  780000    151.72038    319.87872    -3232.962    3286.6125   -168.15835 
  784000    326.37952    341.47557   -3253.9446    3285.1378   -15.096048 
  788000    199.10182    429.92817   -3283.8991    3298.5825   -230.82635 
  792000    260.74305    376.46914   -3269.6914    3305.2404   -115.72609 
  796000     577.3539    215.88814   -3284.6032    3317.2189    361.46576 
  800000    596.14638     336.2128   -3299.2948    3329.1531    259.93358 
  804000    334.03269     310.7924   -3322.8852    3346.3938    23.240287 
  808000      248.328    486.43832   -3316.7149    3361.9104   -238.11032 
  812000     287.8013    564.41889   -3341.7357    3369.9668   -276.61759 
  816000    265.29468     250.9668   -3361.7202    3392.8125    14.327886 
  820000    520.37898    330.56379   -3389.4308    3417.6397    189.81519 
  824000    209.53546    423.74018   -3380.1241    3425.5229   -214.20472 
  828000    705.28327    336.61623   -3397.9454    3414.3223    368.66704 
  832000    338.52025    343.70844   -3407.0606    3423.7042   -5.1881934 
  836000    303.74759    397.67717   -3420.3127    3443.3312    -93.92958 
  840000    345.53005    236.24157   -3451.7397    3447.1373    109.28847 
  844000    297.32685    415.97617   -3445.3449     3473.186   -118.64933 
  848000     381.6954    407.72824   -3469.6347     3478.415   -26.032839 
  852000    372.62528    378.64925   -3445.8677    3479.7273   -6.0239662 
  856000    250.76897    321.15228   -3462.1168    3504.0072    -70.38331 
  860000    399.66124    363.88829   -3467.0955    3506.5898     35.77295 
  864000      315.233    280.80793   -3487.6075     3506.128    34.425064 
  868000    206.19516    268.38269    -3516.284    3541.2702   -62.187532 
  872000    319.67641    345.36247   -3508.2753    3525.5583   -25.686054 
  876000    408.50235    256.85926   -3524.1646    3565.3631    151.64309 
  880000    245.14309    316.35245   -3535.9392    3574.3381    -71.20936 
  884000    306.58883    244.32218   -3544.1432    3576.6689    62.266647 
  888000    254.51606    289.08855   -3560.5585    3593.6257   -34.572498 
  892000    264.56226    209.93318   -3569.8946     3596.313    54.629085 
  896000    402.39455    274.77347   -3595.1342    3624.8027    127.62108 
  900000    342.68269    381.97526    -3617.088    3628.8202   -39.292564 
  904000    370.44441    152.24796   -3622.7338     3674.062    218.19645 
  908000    376.52441    448.20652    -3635.036    3676.6488   -71.682111 
  912000    343.69887    712.00452   -3648.3071    3696.2712   -368.30565 
  916000    338.76405    223.87573   -3680.1851    3695.8356    114.88832 
  920000    468.19166    443.34289   -3684.4245    3709.8022     24.84877 
  924000    378.56243    399.84148   -3718.2125    3745.5161   -21.279048 
  928000    365.18851    307.28276   -3748.0161    3749.7473    57.905757 
  932000    240.01804     246.6923   -3749.8679    3785.3583   -6.6742602 
  936000    378.43341    389.41985   -3774.9293    3792.5553   -10.986436 
  940000    393.87715    319.76897   -3779.5215    3804.3892    74.108184 
  944000    362.01886    333.86521   -3789.6256    3815.1343    28.153651 
  948000     213.0901    213.60608    -3807.558    3846.0509  -0.51598647 
  952000    204.76276    305.05208   -3823.7552    3866.7091   -100.28932 
  956000    389.32996     384.2414   -3857.9031    3897.7319    5.0885619 
  960000    568.46675    214.96896   -3866.8242    3883.6163    353.49779 
  964000    289.44795      381.288    -3874.047    3908.7517   -91.840049 
  968000    425.48516    278.11936   -3892.7949    3931.1907     147.3658 
  972000    409.50718    261.66888   -3928.3555    3946.4241     147.8383 
  976000    199.41437     219.7172   -3924.4688    3957.0292   -20.302837 
  980000    366.18456     236.1158   -3938.8986    3960.0987    130.06876 
  984000    374.05578    186.94059   -3964.5103    3980.1412    187.11519 
  988000    531.72267    409.02863   -3980.2013     3998.696    122.69404 
  992000    353.30868    319.61563   -3967.3609    3994.9019    33.693052 
  996000     351.2599     390.4696   -3991.4238    4007.2822   -39.209697 
 1000000    269.05751    551.32717    -4008.087    4051.3125   -282.26965 
 1004000    308.46099    418.69165   -4024.0664    4065.2344   -110.23066 
 1008000    352.02854    372.45966   -4063.8423     4088.378   -20.431113 
 1012000    445.69572     330.0402   -4094.7293    4102.9357    115.65552 
 1016000    420.50307    504.28222   -4115.9946    4148.7825   -83.779151 
 1020000    330.40513    277.76288   -4117.3864    4134.9378    52.642249 
 1024000      218.252    304.65689   -4129.7917    4140.1024   -86.404887 
 1028000    346.68018    389.30878   -4147.1145    4155.4966   -42.628603 
 1032000    375.76055     240.1736   -4168.6901    4188.3106    135.58694 
 1036000     329.1675    359.10654   -4181.8833    4207.5189   -29.939044 
 1040000    581.40521    273.74502   -4194.3946    4240.5328    307.66019 
 1044000    271.70605    295.87658   -4201.8286    4252.3474   -24.170532 
 1048000    309.72291    217.41292   -4234.2087    4256.2701    92.309988 
 1052000    430.23243     452.4214   -4233.0339    4255.1763    -22.18897 
 1056000    379.29862    445.53042    -4239.646    4265.3715   -66.231795 
 1060000    444.01102     199.9706    -4264.367     4295.125    244.04042 
 1064000    474.31206    286.98704   -4255.5451    4294.5251    187.32502 
 1068000    414.77417    491.68044   -4270.2144    4292.9561   -76.906267 
 1072000    271.06521    259.39844   -4259.4757    4299.8442    11.666771 
 1076000    242.53634    359.86576   -4267.9808    4308.7327   -117.32942 
 1080000    420.90763    391.08409   -4298.4793    4329.1568    29.823537 
 1084000    362.10421    262.58025    -4343.116     4363.787    99.523969 
 1088000    546.04991     298.4645   -4359.8914    4382.8818    247.58541 
 1092000    434.67608    198.16179    -4363.818    4398.1851     236.5143 
 1096000    382.27004    447.37123   -4402.3779      4421.65   -65.101193 
 1100000    151.49317    426.90088   -4432.3789    4461.1425   -275.40771 
 1104000    272.63116    339.64858   -4449.2457     4501.071   -67.017411 
 1108000    437.58223    333.64686    -4468.006     4519.979    103.93536 
 1112000    176.63685    400.34583   -4475.1312    4499.1762   -223.70898 
 1116000    298.83828    299.81429   -4491.6679    4530.3828  -0.97600551 
 1120000    409.64351    620.42075   -4521.4415    4526.5867   -210.77724 
 1124000     385.1015    346.94899   -4537.4991    4547.6198    38.152507 
 1128000    252.76232    394.16317   -4537.2111    4560.9341   -141.40085 
 1132000    305.26448    241.65923   -4529.1178    4557.5485    63.605253 
 1136000    470.42342    215.85798    -4551.776    4592.4026    254.56544 
 1140000    337.51255    481.90735   -4543.0875    4586.1369   -144.39481 
 1144000    247.34754     382.1168   -4547.4572     4582.888   -134.76926 
 1148000    423.44797    360.10832   -4584.0504    4607.1921    63.339646 
 1152000    314.72024    185.91146   -4610.3963    4629.5906    128.80878 
 1156000    482.61701    408.50526   -4603.6945    4635.6155     74.11175 
 1160000     277.2356    471.64571   -4633.6315    4645.8065   -194.41011 
 1164000      460.632    304.18067   -4665.1814    4683.1695    156.45134 
 1168000    365.81567    416.71806   -4651.7199    4678.9555    -50.90239 
 1172000    461.57408     358.7376   -4656.5511     4684.644    102.83649 
 1176000    329.93548    483.40346   -4689.2336    4697.6401   -153.46798 
 1180000    343.51271    373.30468   -4682.1723    4724.6336   -29.791964 
 1184000    390.34702    381.11318   -4687.1689    4732.6275    9.2338389 
 1188000    481.58709    273.81677   -4716.3142    4749.0926    207.77032 
 1192000     290.9682    213.77397   -4724.1772    4749.1999    77.194227 
 1196000    370.06213    284.47426   -4745.5267    4768.0224    85.587864 
 1200000    241.73534      351.008   -4726.8046    4769.5916   -109.27266 
 1204000    282.03075     574.3685   -4741.1344    4796.3303   -292.33775 
 1208000    293.37783    204.97585   -4786.6798    4803.9475    88.401982 
 1212000    177.57674    332.52421   -4792.2378    4828.8402   -154.94747 
 1216000    691.05477    433.56916   -4830.9277    4843.5011    257.48562 
 1220000    257.35611    204.14692   -4858.6319    4875.0792    53.209182 
 1224000    269.80575    370.90948   -4877.4289    4897.4922   -101.10374 
 1228000    323.39452    444.67403   -4885.1907    4910.0111   -121.27951 
 1232000     371.1226    281.84838   -4903.9412    4932.6466    89.274224 
 1236000    472.94714     422.3096   -4902.1502     4924.623    50.637537 
 1240000    274.81913    247.08511   -4925.9407    4939.2289    27.734027 
 1244000    235.93587    273.74201   -4950.5742    4975.2479   -37.806144 
 1248000    490.44559    273.18378   -4959.6515    4983.0721    217.26182 
 1252000    403.17856    290.05635   -4972.4499    4998.9697    113.12221 
 1256000    301.60295    283.96331   -4989.9603    5018.1915    17.639644 
 1260000    294.02212    301.01654   -4997.7616    5045.4546   -6.9944254 
 1264000    281.94881    377.53529   -5017.8139    5053.5595   -95.586481 
 1268000    258.28896     289.0134   -5051.3805    5073.3678   -30.724445 
 1272000    448.34339    305.04868   -5087.2667    5107.4528     143.2947 
 1276000    360.02725    324.07171   -5095.8777    5105.9854    35.955537 
 1280000    470.03929    341.54637   -5094.3338    5139.2424    128.49292 
 1284000    304.68836    113.00953   -5123.9293    5158.5005    191.67883 
 1288000    403.70728    198.40129   -5145.6311    5202.9066    205.30599 
 1292000    472.47267    222.63706   -5182.7136    5227.3085    249.83561 
 1296000    201.17387    182.80906   -5186.9277    5242.6115    18.364815 
 1300000    586.09607    303.69337   -5197.8653    5241.4839     282.4027 
 1304000    216.32638    189.24067   -5196.4266    5260.5708     27.08571 
 1308000    368.66659    347.09677   -5237.3986     5256.683    21.569816 
 1312000    412.27719    165.89561   -5257.5334     5277.406    246.38158 
 1316000    178.49743     286.1068   -5252.9075    5304.7652   -107.60936 
 1320000    455.53074    220.59628   -5262.8567    5306.2459    234.93445 
 1324000    142.07181     317.6471   -5287.1046    5325.8469   -175.57529 
 1328000    301.71149    405.50741    -5298.461    5323.5998   -103.79592 
 1332000    337.92485    234.58662    -5304.281    5352.6608    103.33822 
 1336000    343.98728    231.84269   -5308.7909    5369.4792    112.14459 
 1340000     505.3848    351.98938   -5328.9516    5365.4782    153.39542 
 1344000    460.19915    379.02123   -5334.9221    5378.4438    81.177927 
 1348000    332.32982    400.71607   -5373.1717    5395.6132   -68.386248 
 1352000    432.55478    251.68431   -5368.3185    5403.6115    180.87047 
 1356000     289.2503    268.34996   -5363.4465    5410.4459    20.900346 
 1360000    378.66815    488.59012   -5385.2506    5424.2016   -109.92197 
 1364000     437.6912    332.86537    -5422.059    5448.5472    104.82583 
 1368000    369.03435    355.13367    -5441.524    5489.0227    13.900687 
 1372000    276.82078    329.32237   -5473.0493    5506.0199   -52.501597 
 1376000    456.88455     456.0852   -5498.5311    5509.0274   0.79935052 
 1380000    453.33259    398.59442   -5523.4545    5533.0421    54.738166 
 1384000     658.6976    337.87022   -5522.8482    5557.4648    320.82738 
 1388000    294.55839    357.48055   -5528.8766    5560.1859   -62.922161 
 1392000    261.72944    206.92443   -5563.3093    5609.1283    54.805009 
 1396000    266.82942    379.04937   -5594.0432    5622.8967   -112.21994 
 1400000    424.02278    306.25586   -5625.5016    5665.3387    117.76692 
 1404000    262.61558    458.65027   -5645.7492    5682.5721   -196.03469 
 1408000    347.10641    559.73945   -5666.3924    5695.7882   -212.63304 
 1412000    385.57126    582.71064    -5700.969    5707.9566   -197.13939 
 1416000    332.07716    212.82967   -5680.6348    5747.7703    119.24749 
 1420000    524.19889    420.25331   -5709.2333    5747.7775    103.94559 
 1424000    381.71965    447.22923   -5724.9903    5766.0923   -65.509578 
 1428000     326.2691    237.32396   -5753.9969    5790.1753    88.945136 
 1432000     242.4159    441.86392   -5770.4799    5802.0497   -199.44802 
 1436000    523.41384     314.0745   -5789.7626    5815.4648    209.33934 
 1440000    434.76906    331.50486   -5804.9476    5837.9103     103.2642 
 1444000    484.21734    349.38967   -5808.6379    5857.5852    134.82768 
 1448000      522.073    211.34826   -5845.9153    5887.2559    310.72475 
 1452000    433.99442    349.98269   -5857.7013     5893.008    84.011732 
 1456000    414.17826    351.29016   -5865.0101    5902.8386    62.888099 
 1460000    203.23777     314.2838   -5888.0121    5904.8313   -111.04603 
 1464000    439.27003    270.47412   -5913.6747    5948.9919    168.79591 
 1468000     454.2886    254.39682   -5920.9218    5973.9873    199.89178 
 1472000    281.13621    305.62581   -5950.0708    5980.3261   -24.489592 
 1476000    259.11879    330.89442   -5949.6489    5999.4409   -71.775627 
 1480000    520.23323    363.70358   -5967.7948    6000.2608    156.52965 
 1484000    357.06395    236.76057   -5986.8529    6032.1724    120.30338 
 1488000    182.18121    183.68977   -6006.6106    6057.9184   -1.5085588 
 1492000    461.95311    299.46787    -6043.686    6076.0175    162.48524 
 1496000    378.15588    343.67039   -6059.8111    6104.3383    34.485489 
 1500000    573.95477    212.04416   -6091.4966    6132.3129    361.91061 
 1504000    470.43664    539.49139   -6087.1612    6133.0135    -69.05475 
 1508000    293.49931    292.45557   -6134.3684    6166.2615    1.0437376 
 1512000    294.76533    333.17512   -6124.5728    6155.7102   -38.409788 
 1516000    433.85963    299.85807   -6157.6512    6189.8782    134.00156 
 1520000    420.74095    372.34383   -6183.2998    6202.7672    48.397124 
 1524000     306.8852    254.28178   -6168.5361    6221.2692    52.603414 
 1528000    354.38038    195.81791   -6194.3819    6244.0395    158.56248 
 1532000    444.09148    341.00649    -6214.911    6251.6624    103.08499 
 1536000    263.62244    225.14086   -6238.3902    6284.6668    38.481587 
 1540000     329.0482    375.61174   -6295.3617    6291.4239   -46.563544 
 1544000    306.45096    422.67743   -6287.0254    6301.2264   -116.22647 
 1548000    286.42542    282.47064   -6313.6008    6369.1521    3.9547815 
 1552000    221.10109    269.27843   -6321.6486    6367.6965   -48.177345 
 1556000    385.13674    243.38849   -6336.1513    6384.3048    141.74825 
 1560000    580.03945    236.15983   -6366.9828    6389.3264    343.87961 
 1564000    322.94926    494.24689   -6391.3459    6392.0297   -171.29763 
 1568000    345.06554    278.41454   -6377.1485    6408.9034    66.650998 
 1572000    426.60901    230.98431   -6398.6391    6423.7148     195.6247 
 1576000    609.03953      183.864    -6449.382     6456.784    425.17553 
 1580000     138.9851    399.02476   -6433.2914    6467.6173   -260.03966 
 1584000    434.94552    272.93252   -6447.7178    6494.9712      162.013 
 1588000    450.99972    254.11988   -6489.5836    6507.9535    196.87983 
 1592000    320.69651     251.8506   -6500.5037    6541.9026    68.845903 
 1596000    508.55312    518.11833   -6536.7521    6561.9985   -9.5652076 
 1600000    271.95981    275.49654   -6536.6067    6572.3909   -3.5367361 
 1604000    497.05698    357.77804   -6562.8757    6586.3238    139.27894 
 1608000    409.22677    452.65507   -6581.8167    6601.9269   -43.428301 
 1612000    218.61169    324.94818   -6602.2555    6610.6704   -106.33649 
 1616000    584.21796    327.23475   -6626.1454    6647.7281    256.98321 
 1620000    239.10144     404.7204   -6627.1473    6673.0739   -165.61896 
 1624000    308.48452    292.94522   -6657.8561    6711.2456    15.539303 
 1628000    191.52358    279.16925   -6684.7896    6722.6061   -87.645674 
Loop time of 493.188 on 1 procs for 1600000 steps with 196 atoms

Performance: 350.373 ns/day, 0.068 hours/ns, 3244.197 timesteps/s
100.0% CPU use with 1 MPI tasks x no OpenMP threads

MPI task timing breakdown:
Section |  min time  |  avg time  |  max time  |%varavg| %total
---------------------------------------------------------------
Pair    | 149.65     | 149.65     | 149.65     |   0.0 | 30.34
Bond    | 246.82     | 246.82     | 246.82     |   0.0 | 50.05
Neigh   | 3.2238     | 3.2238     | 3.2238     |   0.0 |  0.65
Comm    | 1.0812     | 1.0812     | 1.0812     |   0.0 |  0.22
Output  | 0.011434   | 0.011434   | 0.011434   |   0.0 |  0.00
Modify  | 89.147     | 89.147     | 89.147     |   0.0 | 18.08
Other   |            | 3.255      |            |       |  0.66

Nlocal:    196 ave 196 max 196 min
Histogram: 1 0 0 0 0 0 0 0 0 0
Nghost:    0 ave 0 max 0 min
Histogram: 1 0 0 0 0 0 0 0 0 0
Neighs:    3898 ave 3898 max 3898 min
Histogram: 1 0 0 0 0 0 0 0 0 0

Total # of neighbors = 3898
Ave neighs/atom = 19.8878
Ave special neighs/atom = 5.87755
Neighbor list builds = 7192
Dangerous builds = 0
unfix 1


# PRODUCTION

fix             1 all nve
fix             hot all langevin ${TThi} ${TThi}  50.0 52804  tally yes
fix             hot all langevin 320 ${TThi}  50.0 52804  tally yes
fix             hot all langevin 320 320  50.0 52804  tally yes
fix             cold all langevin ${TTlo} ${TTlo} 50.0 297859 tally yes
fix             cold all langevin 280 ${TTlo} 50.0 297859 tally yes
fix             cold all langevin 280 280 50.0 297859 tally yes
fix_modify      hot temp Thot
fix_modify      cold temp Tcold


variable        tdiff equal c_Thot-c_Tcold
thermo          4000

dump gigo all atom 40000 dump.cords_xyz.dat
dump_modify gigo scale no
dump vfgigo all custom 4000 dump.velo.dat id vx vy vz fx fy fz

# thermal conductivity calculation
# # reset langevin thermostats to zero energy accumulation
#
compute         ke all ke/atom
variable        temp atom c_ke/1.5/0.0019872

fix             ave all ave/time 100 40 4000 v_tdiff ave running
thermo_style    custom step temp c_Thot c_Tcold f_hot f_cold v_tdiff f_ave

#compute         layers all chunk/atom bin/1d z lower 0.05 units reduced
compute         layers all chunk/atom bin/1d z lower ${dz} units box
compute         layers all chunk/atom bin/1d z lower 4.131064790544 units box
fix             2 all ave/chunk  100 40 4000 layers v_temp file profile.langevin

dump mydump2 all xyz 40000 prod-coord.xyz
dump_modify mydump2 element C S S

run             32000000
Per MPI rank memory allocation (min/avg/max) = 11.82 | 11.82 | 11.82 Mbytes
Step Temp c_Thot c_Tcold f_hot f_cold v_tdiff f_ave 
 1628000     279.1265    191.52358    279.16925           -0           -0   -87.645674            0 
 1632000    296.88212    446.16259    325.91551     -33.9831     19.45138    120.24709    20.607031 
 1636000    304.01444    567.73883    198.62031   -38.753795    25.172717    369.11852    25.298562 
 1640000    300.96984    486.26878    338.00079   -62.060352    27.230695    148.26799    21.801152 
 1644000    298.15389    335.27277    204.55043   -76.133343    46.120542    130.72234     21.74409 
 1648000    298.42451    369.04534     279.3116   -101.69488    79.119967    89.733743    22.767752 
 1652000     282.5878    249.75712    385.43713   -96.500398    97.523804   -135.68001    24.712069 
 1656000    266.61023    371.88342    280.31205   -116.73817    119.26561    91.571368    28.829877 
 1660000    266.99785    449.61378    282.47976   -141.68886    148.62885    167.13401     33.88909 
 1664000    281.45278    218.43386    262.80419   -182.67762    158.17288   -44.370336    36.024361 
 1668000    294.78083    556.73347    512.85746   -200.38616    184.06038    43.876008    35.956159 
 1672000    270.18264    272.21302    337.81336   -210.96196    213.38536   -65.600339    36.251466 
 1676000    324.17969    384.99744    503.05983   -260.62631    217.61459   -118.06239    34.723295 
 1680000    296.43315     193.3796    356.36273     -284.586    277.59987   -162.98313    34.380066 
 1684000    266.50203    341.60842     187.0944   -288.49539    304.81989    154.51402    34.168038 
 1688000    261.98713    330.88558    422.48833   -322.59916    333.24931   -91.602746    34.128834 
 1692000    274.43271    300.26746    368.23071   -351.05881    358.88144   -67.963251    35.106338 
 1696000    273.02064    518.14946    331.28376   -379.44234    363.82019     186.8657    34.637485 
 1700000    293.31735    293.83934    234.15345   -388.19648    375.83556    59.685892    36.818573 
 1704000    268.74641    297.14219    316.06423   -384.70298    382.89715   -18.922038    35.969172 
 1708000     292.3308    369.15029    422.92919   -389.60821    368.15766   -53.778899    35.177743 
 1712000    281.13789     419.5138    351.86932   -413.89949     404.4266    67.644473    34.888995 
 1716000    299.98089    264.42628     334.6593   -428.74923    419.58559   -70.233021    36.401817 
 1720000    280.79227     315.4867    200.95708   -456.68682    445.36082    114.52962    35.081155 
 1724000    260.69978    451.12502    207.62301   -452.24661    456.80973    243.50201    34.987163 
 1728000    269.08725    316.51969    270.05618   -456.98665    459.93416    46.463509    35.343031 
 1732000    295.07964     305.1342    349.92879   -477.83316    464.57176   -44.794584    34.835515 
 1736000    292.80998    773.35309    342.24384   -489.41068    476.74455    431.10925    35.404915 
 1740000    282.61095    491.37583    268.78145   -501.65414    480.14975    222.59438    35.871267 
 1744000    268.76244    273.65594    381.11615   -514.61858    506.10931   -107.46022    36.397226 
 1748000    281.44062    305.11884    288.99294   -548.61516    558.10303    16.125898    35.891854 
 1752000    280.60522    240.17135    333.33418   -564.01922    570.19003   -93.162828    34.775558 
 1756000    278.78235    318.14551    253.58895     -574.133    580.06961    64.556556    35.001434 
 1760000    291.56546    452.12474    396.22774   -586.89254    560.25664    55.896995    35.147089 
 1764000    265.37495    358.06987    240.51022   -601.89547    608.35026    117.55964    34.065437 
 1768000    286.60011    393.24641     283.8383   -603.67374    604.89564    109.40811    34.782131 
 1772000    276.65184    498.58118    187.55727   -614.28992    617.24132     311.0239    34.669959 
 1776000    272.36949    338.41146     364.9406   -628.34306    627.47595   -26.529134    33.679939 
 1780000    312.16545    485.16936    323.71108     -640.581    619.89933    161.45827     34.96548 
 1784000    284.14255    208.72737    316.27405   -642.39095    624.73704   -107.54668    34.250709 
 1788000    262.36242    399.93836    238.22726   -628.25392    626.34568     161.7111    34.059251 
 1792000    289.96892    252.60202    404.14247   -649.41738    639.10657   -151.54046      33.5304 
 1796000    276.79949    425.18859    332.73716   -657.23402    649.69717    92.451433    32.915769 
 1800000    312.11672    464.79452    419.07341   -690.24573    679.01544    45.721106    33.672275 
 1804000    290.56355    242.67889      432.824   -701.66274    691.73109   -190.14511     33.40551 
 1808000    284.16223    333.22918    261.33942   -715.40759    700.65424    71.889766    32.644235 
 1812000    281.47898    279.03464    333.50435   -725.79115    725.43268   -54.469719    32.987696 
 1816000    304.43733    297.42003    383.60949   -772.88791    751.17212   -86.189456    33.735076 
 1820000    258.79641    327.25987    277.16715   -773.39486    777.97466    50.092725     33.89736 
 1824000    285.58464    332.75149     320.6673   -775.31028    779.51646    12.084192    34.091384 
 1828000    298.63074    410.06663    406.97779   -811.00306    790.15369    3.0888352    34.034438 
 1832000    283.86026    468.27697    265.34984   -827.51583    839.07932    202.92713    33.637295 
 1836000    249.07545    241.52308    256.68006   -833.85282    861.83571   -15.156978    33.821126 
 1840000    256.34001    328.56936    343.75326    -865.1347    868.76666     -15.1839    33.322438 
 1844000    260.00745    494.14651    386.18897   -868.22738    877.26333    107.95754    33.941213 
 1848000      264.203    414.31986    229.84898   -909.59026    924.54948    184.47088    34.318051 
 1852000    303.32225    521.88925    246.02151   -930.07297     910.6568    275.86774    33.858278 
 1856000     291.1678    345.10445    377.82257   -947.37212    946.32896   -32.718123    33.534176 
 1860000    302.68119     256.9977    527.61724   -986.94723    960.07626   -270.61954    34.022102 
 1864000    283.67945    296.31172    414.03368   -1001.9284    981.31071   -117.72196    33.719466 
 1868000    287.47264    608.43201    497.13074   -1015.7239    985.10017    111.30127    33.414239 
 1872000    277.08221      306.314    289.37278   -1055.9879    1034.9734    16.941223    33.654896 
 1876000    288.31704    272.58276    269.01168    -1058.844    1050.8616    3.5710812    33.389293 
 1880000    295.95727    342.21593    597.54874   -1072.9266    1073.5861    -255.3328    32.639509 
 1884000    256.80145    360.77445    229.90718   -1116.6306    1117.0028    130.86727    32.595249 
 1888000    320.21698    468.18116    316.11141   -1141.6356    1125.6014    152.06975    32.961721 
 1892000    278.47855    378.65943    337.16938   -1133.3629    1137.6335     41.49005    33.339651 
 1896000     261.4129    310.82179    150.45573   -1164.8773    1165.8949    160.36606     33.19851 
 1900000    269.14567    385.41289    272.62764   -1186.9264    1192.6115    112.78525    33.553531 
 1904000    257.15589    480.60871    314.85501   -1185.1759    1202.9743     165.7537    34.000704 
 1908000     288.8118    355.45307    232.15074    -1211.336    1202.3261    123.30234    34.116255 
 1912000    256.96416    319.39579    313.80898   -1216.5886    1234.7969    5.5868149    34.307235 
 1916000      268.763    283.45429     303.6411    -1229.392    1242.5476   -20.186808    34.332385 
 1920000    281.33093    340.33123    167.58661   -1268.8686    1258.3621    172.74462    34.157432 
 1924000    275.12812    214.32205    278.84676   -1266.6009    1270.3775   -64.524703    34.511925 
 1928000     259.2462    420.95838    245.64668   -1306.5825    1309.7061     175.3117    34.574941 
 1932000    278.62212    357.50472    341.81461   -1343.6605    1348.6252    15.690108    34.688903 
 1936000    288.26439    264.51459    384.73054   -1351.8463    1348.4747   -120.21594    34.911534 
 1940000    292.91167    371.96734    414.71909   -1389.4297    1382.5505    -42.75175    35.053974 
 1944000    294.89382    452.41982    422.09104   -1405.0261    1389.9247    30.328774    34.953057 
 1948000    297.39111    295.40392    354.96704   -1415.6082    1392.1279   -59.563111     35.17792 
 1952000    285.23568    288.15231    293.80146   -1441.3262    1428.9024   -5.6491573    35.280156 
 1956000    299.24669     269.1377    440.80719   -1464.7453    1458.3377   -171.66949    35.249153 
 1960000    277.50747    260.87264    187.57706   -1471.3932    1465.5247    73.295581    34.845624 
 1964000    286.85902    269.42272    286.58476    -1497.906    1482.9882   -17.162044    34.866989 
 1968000    288.53195     391.5938    407.79695   -1500.1335    1491.3348   -16.203148    34.769604 
 1972000    299.60981    360.61361    439.68965   -1520.1488    1504.8799   -79.076036    34.836833 
 1976000    261.54896    338.52958    460.72294   -1533.0013    1545.3096   -122.19336     34.67012 
 1980000    289.63937    408.68776    514.79496   -1569.5137    1538.2457    -106.1072    34.762243 
 1984000    310.13385    328.43407    356.16397   -1586.3446     1563.173     -27.7299    34.752236 
 1988000    246.24088    361.97842     174.2781   -1600.5326    1617.6614    187.70032    34.632031 
 1992000    305.17413    251.83245    406.32977   -1646.9988    1615.1652   -154.49732     34.46391 
 1996000    276.34794    305.06495    304.09896   -1681.2237    1653.4014   0.96599381    34.089445 
 2000000    272.12534    347.77767    200.58761   -1688.7898     1692.475    147.19006    34.140885 
 2004000    286.38972    239.16974    316.65141   -1714.2606    1700.0832   -77.481677    34.152862 
 2008000    285.05115    460.09555    385.37063   -1732.0596    1711.8471    74.724918    33.832719 
 2012000    301.65978    501.33169    262.32472   -1749.5119    1723.6055    239.00698    33.826717 
 2016000     284.6393    464.06776    277.18244   -1756.4085    1737.0949    186.88532    34.002975 
 2020000    253.89959    354.22735    127.43038   -1772.1122    1788.3945    226.79697    34.463311 
 2024000    295.87373    304.36972    390.84523   -1809.1539    1813.3483   -86.475511    34.159885 
 2028000    304.94593    443.08357    252.45961   -1836.4148    1828.9111    190.62396    34.017065 
 2032000    307.32978    187.40445    445.89217   -1863.2048    1837.9078   -258.48772    34.074702 
 2036000    281.40194    144.31528    336.18737   -1879.0832    1881.5983   -191.87209      34.0862 
 2040000    305.89357    447.99377    345.32422   -1910.7866    1870.9587    102.66956    33.838018 
 2044000     278.1435    409.62573    396.09798   -1880.5952    1878.6091    13.527748    33.945902 
 2048000    270.53663    546.73741    312.46666   -1896.7472    1897.6163    234.27075    33.988503 
 2052000    284.52164    268.44021    246.17717   -1910.0224    1915.5288    22.263048     34.07735 
 2056000    311.98109    301.88053     596.4702   -1957.2703    1937.3273   -294.58967    33.950502 
 2060000    267.41382    339.84662    307.33842   -2000.9632    2003.2366    32.508193    33.835904 
 2064000    297.82462    360.05786    458.69629   -1998.2902    2001.5141   -98.638423     33.63743 
 2068000    292.80559      589.469    328.31914   -2007.9892    2004.4004    261.14986    33.492403 
 2072000    289.69831    447.97345     277.2733   -2041.0034    2036.4632    170.70015    33.712858 
 2076000    255.15876    211.49621    404.68253   -2056.3828    2080.0246   -193.18631    33.638773 
 2080000    293.38253     291.8773    311.15566   -2086.7257    2089.9558   -19.278362     33.76512 
 2084000    282.39871    354.26853    419.71021   -2106.7963    2110.5326   -65.441681    33.787091 
 2088000    265.53414    218.58569    130.69422   -2088.7152     2091.738    87.891471    33.527841 
 2092000    290.90722    432.76753    197.83035   -2102.9419    2089.6301    234.93718    33.713336 
 2096000    253.09676    233.14099    203.68773   -2099.6036    2103.8088    29.453257    33.711209 
 2100000    281.78812    346.15309     309.3015   -2121.0457    2122.9085    36.851596    33.836791 
 2104000    273.09441    421.90913    454.93169   -2126.1548    2138.9013   -33.022558    33.948624 
 2108000    292.98377    343.77172    358.47833   -2141.0587    2138.1559   -14.706611    33.904606 
 2112000    321.29737    388.17466    403.19907   -2177.9032    2154.5602   -15.024408    33.894519 
 2116000    249.32703     368.5174    419.87906   -2181.5085    2183.5676   -51.361663    33.541989 
 2120000    260.99286    445.12975    367.87967   -2201.1391    2207.5875    77.250079    33.238548 
 2124000    286.96939    364.42248    196.75377   -2222.0325    2226.3339    167.66871    33.517194 
 2128000     272.3789    417.70061    411.94561   -2242.3331    2235.7309    5.7550064    33.881097 
 2132000    300.52295    677.51569    245.23204   -2262.1088    2255.1923    432.28365    33.988217 
 2136000    252.43835    417.37935    455.56191   -2263.9924    2268.1734   -38.182563     33.84311 
 2140000    263.02345    387.79845    203.44604   -2296.4903    2304.8072    184.35242    33.925563 
 2144000    291.70146    378.38146    105.49364   -2334.7893    2327.4912    272.88782    34.125738 
 2148000    300.86591    506.87761    295.82179   -2344.4429    2322.5418    211.05582    34.132839 
 2152000      293.668    504.74256    320.22298   -2352.4217    2345.5304    184.51958     34.21023 
 2156000    274.93602    335.71853    321.92707   -2363.6655    2352.1429    13.791456    34.213982 
 2160000    268.93066    190.26055    386.15752   -2398.0711    2391.6948   -195.89697     33.91559 
 2164000    252.15401    148.96705    300.76856   -2398.9385    2416.8133   -151.80151     33.92982 
 2168000    268.41641    281.86228    294.24181   -2406.3545    2424.3382   -12.379528    34.179182 
 2172000    300.38758    295.52274    304.47668   -2457.9267    2425.9036    -8.953942    34.518714 
 2176000    274.68347    336.97642    324.85926   -2449.2999    2457.2332    12.117156    34.367741 
 2180000    281.82427    404.50559    332.10275   -2480.0761    2481.7098    72.402836     34.66978 
 2184000    297.17256    305.06754    564.72175   -2516.7541    2490.9516   -259.65422    34.623564 
 2188000    300.90827     528.0789    546.54054    -2550.315    2538.4828   -18.461635    34.651892 
 2192000    252.32146    147.30768    363.18089   -2540.6223    2558.3689   -215.87321    34.524192 
 2196000    274.34313    270.16939     307.6728   -2562.7025    2569.4715   -37.503403    34.716718 
 2200000    261.44161    356.81848    354.16646   -2599.2131    2599.2676    2.6520235    34.660445 
 2204000    263.30154    351.21694     187.1976   -2632.1004    2632.0341    164.01934    34.532912 
 2208000    288.79637    360.15183    259.31055   -2642.3849    2637.8846    100.84128    34.787973 
 2212000    290.12112    317.47036    384.73331   -2654.5651    2633.4436   -67.262951    34.931008 
 2216000    251.76942    334.58444     217.3056   -2664.5491    2666.4762    117.27884    34.851622 
 2220000    292.06506    375.68688    463.42974   -2666.8784    2666.6679   -87.742859    34.952011 
 2224000    293.97676    325.58936    369.34074   -2692.1233    2668.7205   -43.751388    34.836404 
 2228000    251.75794    160.42635    326.02632   -2685.9481    2700.6281   -165.59997    34.937264 
 2232000    292.23184     311.6861    328.15386   -2718.1857    2715.4959   -16.467759    35.269974 
 2236000    304.02853    529.08166    287.29507   -2747.3669    2723.6366    241.78658    35.494862 
 2240000    323.85925    523.96845    533.14407    -2765.817    2751.3239   -9.1756179    35.586322 
 2244000    281.02195    279.10183     589.1701    -2756.576    2758.9261   -310.06827    35.482009 
 2248000    259.25778    319.50112    317.71039   -2789.6784    2769.3838    1.7907318    35.631583 
 2252000    271.48604    361.16864    329.33698    -2798.364    2779.7176     31.83166    35.557359 
 2256000     309.2945    122.03783    317.88133   -2795.0394    2764.9077    -195.8435    35.865421 
 2260000    279.20129    325.43026     263.5182   -2800.8158    2792.6267    61.912053     35.73211 
 2264000    275.79523    239.50376    240.46855   -2824.0641    2827.3352  -0.96478885    35.853243 
 2268000     278.1393    438.90673     241.0922   -2837.7297    2824.3812    197.81453    35.844941 
 2272000    302.30909    383.29291    424.29313   -2841.1916    2813.9075   -41.000218    35.791839 
 2276000     257.8151    288.01245    366.91654   -2850.2203    2859.7275   -78.904093    35.711465 
 2280000    265.86125    133.96084    247.49333   -2848.9981    2853.6418   -113.53249    35.822036 
 2284000    254.22659    456.33728    338.87005   -2861.7918    2869.7824    117.46723    35.724823 
 2288000    262.84847     508.6514    315.42516   -2912.0888    2903.2415    193.22623    35.815602 
 2292000    269.70593     247.6816    257.36279   -2948.3066    2941.0322   -9.6811882    35.899223 
 2296000    292.20102    495.32664    398.96551   -2958.3984    2939.0613    96.361121    35.938834 
 2300000    283.09667    328.09728    435.21355   -2962.9187    2945.7809   -107.11627    36.190116 
 2304000    300.43696    342.47593    258.66558   -2980.1758     2971.579    83.810353    36.183052 
 2308000     289.5293    443.35128    381.11413   -3019.7181    3004.1024    62.237147    36.380074 
 2312000    288.27281    446.82542    298.00766   -3036.9108    3032.4275    148.81776    36.505769 
 2316000    278.45593    323.00222    151.62665   -3022.5452    3026.1784    171.37557    36.544747 
 2320000    284.78394    222.21796    342.31594   -3069.9493    3035.4854   -120.09799    36.378506 
 2324000    290.86638    713.83039    445.15832   -3074.2381    3066.4381    268.67207    36.528691 
 2328000    273.24404    270.79499    218.37049   -3071.0721    3072.2949    52.424501    36.544069 
 2332000    278.66269    272.77051    350.68706   -3103.2464    3099.3493   -77.916542    36.456261 
 2336000    270.98535      190.614    367.45282    -3124.821    3101.0978   -176.83882    36.365065 
 2340000    301.02192    410.94053    462.56543   -3143.7181    3134.7588   -51.624896    36.134358 
 2344000    302.79102    440.56941    159.83489   -3172.3223    3157.8066    280.73452    36.031012 
 2348000    313.84595    510.39126    273.07605   -3218.1146    3178.6328    237.31521    35.952428 
 2352000     288.4366    196.66525    419.97974   -3235.2619    3213.1683   -223.31449    35.771116 
 2356000    279.21001    296.34905    400.28909    -3255.485    3243.7219   -103.94004    35.672311 
 2360000    261.15934    245.67913    428.99124   -3253.6568    3267.2575   -183.31211    35.487231 
 2364000    267.90687    339.82492     338.6214   -3286.2541    3289.5551    1.2035213    35.502023 
 2368000    271.80536    198.99736     267.7065    -3302.307    3299.0544   -68.709142    35.325713 
 2372000      265.899    345.51988    377.27023   -3331.2505     3329.137   -31.750357    35.063542 
 2376000    287.74716    576.87017    447.69793    -3348.122    3334.8802    129.17224    35.034914 
 2380000    285.31821    442.47647    229.90604   -3337.7126    3337.0851    212.57044    35.050562 
 2384000    273.88488     278.6605    300.75443    -3351.089    3355.5802   -22.093929    35.030617 
 2388000    292.69188    422.94691     301.1071   -3374.8032    3380.2875    121.83982     35.05397 
 2392000    287.06594    325.67571    391.20507   -3392.5212    3378.4277   -65.529358    34.939403 
 2396000    313.19832    573.24018    332.01434   -3388.9163    3377.5512    241.22584    35.106641 
 2400000    288.48272    415.37052    494.70902   -3390.2366    3395.6151   -79.338502    35.040025 
 2404000    283.28933    434.54359    319.39642   -3407.5898    3399.2041    115.14717    35.097622 
 2408000    284.35154    481.97555     340.0529    -3406.544    3392.8013    141.92265    35.097628 
 2412000    248.59562    238.22149    295.55671   -3400.4255    3409.4525    -57.33522    35.061483 
 2416000     283.2183    249.93325    321.20503   -3436.4956    3416.0066   -71.271775    35.159898 
 2420000    328.76959    281.52081    237.77312   -3465.9341    3423.6305    43.747693    35.149392 
 2424000    278.29203    347.18171    277.26316   -3470.2464    3460.9268    69.918544    35.370816 
 2428000    288.73643    393.63521    349.50005   -3471.3272    3465.5798    44.135157    35.526094 
 2432000    272.01519    487.30901     398.4744   -3481.0899    3490.5999    88.834612    35.510262 
 2436000    271.87082    343.78092    246.23798    -3486.744    3496.3161    97.542944    35.541084 
 2440000    270.61343    281.63225    392.20197   -3487.7651    3479.3799   -110.56972    35.505882 
 2444000    268.13763    118.46563    416.41992   -3481.1707    3501.2799   -297.95429    35.650868 
 2448000    262.55659    312.72142    326.57464   -3499.8932    3508.7928   -13.853219    35.471483 
 2452000    280.43626    392.10473    159.11663   -3536.0786    3530.8324     232.9881     35.58505 
 2456000    258.20785    394.40577    248.48499   -3543.4914    3548.8768    145.92078    35.541449 
 2460000    257.93876    487.19938     436.5569    -3570.661    3578.9921    50.642481    35.655326 
 2464000    262.17076    335.29721    343.08645   -3597.4933    3612.8853   -7.7892379    35.641043 
 2468000    281.24949    415.66289    304.04589   -3601.9263    3610.8708    111.61701    35.688359 
 2472000    254.59139    539.77778    236.23229    -3606.648    3618.9186    303.54549    35.660401 
 2476000    281.25957    542.05419    278.98222   -3623.5045    3616.3262    263.07196    35.727354 
 2480000    255.61881    301.13197    462.53409   -3611.3481    3614.4886   -161.40212    35.561083 
 2484000    260.33897    384.15935    154.17283   -3632.9623    3640.1094    229.98652     35.73713 
 2488000    273.81451    326.57081    366.95123   -3639.4639    3639.1523   -40.380415     35.87102 
 2492000    275.70859    443.75082    114.76014   -3661.4505    3676.0665    328.99069    35.976223 
 2496000    273.48187    325.74143    363.36189   -3705.8054    3700.8544    -37.62046    35.974723 
 2500000    306.69256    381.78541    313.44615   -3718.0667    3704.7653    68.339253    36.154815 
 2504000    294.73634    364.42423    413.77712   -3732.9066    3708.5107   -49.352882    36.159302 
 2508000    252.34513    270.46206     197.0378   -3725.4507    3750.8371     73.42426     36.25841 
 2512000    261.33383    491.49248    333.17635   -3755.9948    3775.2741    158.31613    36.299276 
 2516000    283.36382    438.18297    286.07598   -3801.5722    3791.8863    152.10699    36.143225 
 2520000    252.36347    261.56641    344.33564   -3810.9881    3825.4464   -82.769229    36.105674 
 2524000    270.35715    286.82222    278.62888   -3821.0464    3827.6232    8.1933361    36.164006 
 2528000    274.06001     277.9766    285.13675   -3828.4938    3832.7855   -7.1601539    36.305638 
 2532000     287.7465    636.63885    373.11886   -3872.7982    3870.9306       263.52    36.381533 
 2536000    284.92427    324.08934    279.78903   -3880.4212    3876.5056    44.300314    36.491238 
 2540000     293.2515    262.97699    215.26738   -3895.1283    3886.4339    47.709612    36.516813 
 2544000    279.51885    380.91845    395.58729   -3908.0358    3888.5084   -14.668847    36.504932 
 2548000    296.30653     239.1228    196.03222   -3923.1781    3906.1962    43.090573    36.484565 
 2552000     262.6834     314.9482    383.38091   -3921.8731     3932.334   -68.432704    36.430885 
 2556000    268.34167    336.68602    323.11872   -3940.4144    3941.3231    13.567294    36.304663 
 2560000    281.05665    443.65444    454.86622   -3944.7175    3957.2299   -11.211787    36.168578 
 2564000    300.92916    178.91733     223.5737   -3983.9126    3967.7864   -44.656368     36.25533 
 2568000    252.83591    265.93739    280.05102   -3987.0922    3993.9639   -14.113634    36.331797 
 2572000    278.86843    375.49295    269.92573   -4002.1901    3999.4622    105.56722    36.309122 
 2576000    280.86771     315.2803    261.43632   -4018.2898    4019.4604    53.843979    36.330493 
 2580000    301.62444    496.45471    217.30775   -4044.3041    4042.8891    279.14696    36.489932 
 2584000    278.10182    457.82582    235.46483    -4073.492    4055.4167    222.36099    36.533155 
 2588000    300.15495    442.80508     328.6881   -4101.8622    4076.7356    114.11697     36.66812 
 2592000    284.38571     168.1381    333.13085   -4104.6251    4091.6808   -164.99274    36.707754 
 2596000    261.42476    339.27894    228.52327   -4121.2425    4113.0792    110.75567    36.874968 
 2600000    293.07562    326.29088    382.65989   -4141.5766     4121.515   -56.369014    36.896812 
 2604000    287.06099    440.87877    501.07071   -4172.1664    4158.9324   -60.191939    36.884905 
 2608000    294.38633    284.50905    420.36355   -4186.1191     4185.693    -135.8545     36.78342 
 2612000    246.94633    333.42145    299.10395    -4185.585     4205.349    34.317505    36.752919 
 2616000    273.43076    257.46336    270.24911   -4217.1715    4218.2304   -12.785751    36.726601 
 2620000    285.47659    251.50165    266.86974   -4221.8854    4215.7122   -15.368095    36.729009 
 2624000    284.23714    484.39792    264.85169   -4247.3815    4237.2808    219.54623    36.761782 
 2628000    240.54857    320.39652    230.25933   -4237.0084    4267.9516    90.137192    36.875685 
 2632000    273.13314    398.84411    331.73334   -4243.6502    4250.9899    67.110773    36.752793 
 2636000    288.98787    430.36277    471.08858   -4250.6402    4243.2792   -40.725813    36.875796 
 2640000    264.66513    358.36101      255.441   -4276.0367     4271.477    102.92001    36.819427 
 2644000     280.7401    252.66275    437.86282    -4275.465    4274.6894   -185.20007    36.880605 
 2648000     266.6171    210.62554    172.47982   -4295.2631    4293.8708    38.145715    36.855156 
 2652000    295.38641    230.03027    559.86966   -4334.7598     4302.867    -329.8394    36.730948 
 2656000    315.03364    407.26264    531.89394   -4360.1563    4334.0362    -124.6313    36.720074 
 2660000     291.8676    506.87792    279.65223   -4363.1986    4363.1661    227.22569    36.666923 
 2664000    283.43715    494.94672    190.27001     -4395.23    4379.5339    304.67671    36.643376 
 2668000    273.31942    248.96065     320.6158   -4408.4766    4389.3629   -71.655154    36.742411 
 2672000    289.33538    219.90411    315.30056    -4430.102    4419.2623   -95.396443    36.626682 
 2676000     312.4259    399.96544    410.95239   -4466.6374    4448.8611   -10.986947    36.623145 
 2680000    279.00565    296.51338    192.49295   -4495.6575    4492.4795    104.02043    36.738528 
 2684000    276.34109    259.48792    347.38946   -4534.2395    4524.9155   -87.901534    36.661856 
 2688000    309.93696    486.06668    392.36671   -4554.2613    4509.7421    93.699968    36.664733 
 2692000    279.13731    340.11819    235.35026   -4532.3765    4523.2503    104.76793     36.64944 
 2696000    263.10375    295.21969    259.54347   -4543.9448    4545.5795     35.67622    36.710046 
 2700000    288.23229    349.02243    447.65985   -4571.6469    4564.0279   -98.637424    36.577715 
 2704000    284.26936    268.83892     399.1379   -4584.6021    4577.1678   -130.29898    36.618232 
 2708000    296.97344    297.52549    378.21158    -4604.081    4588.1231   -80.686093    36.634208 
 2712000    271.68243    265.91493    303.36811   -4615.2974    4609.5412    -37.45318    36.589069 
 2716000     302.6804    391.99172    223.79586   -4659.7149    4644.2907    168.19586    36.617797 
 2720000    270.68733    222.04043    353.41859   -4653.2295    4649.9695   -131.37817    36.549221 
 2724000    304.10154    177.49032    252.48331   -4680.0619    4654.5561   -74.992991    36.825784 
 2728000    271.12359    273.22961    270.77391    -4701.582    4697.1053    2.4556963    36.833571 
 2732000    272.71551    268.07519    371.07364   -4717.0618    4708.0277   -102.99845    36.871455 
 2736000    266.51548     407.6829     436.6595   -4729.0593     4733.577   -28.976602    36.950605 
 2740000    262.31786    192.51746    208.35036   -4739.1748    4736.1807   -15.832897     37.01846 
 2744000    302.53134    270.61751    201.33659   -4760.1977    4742.0726    69.280918    37.065863 
 2748000    282.53396    450.49661    305.50231   -4772.1129     4758.151     144.9943    37.126831 
 2752000    276.49476    164.85124    391.00247   -4774.6568    4770.3521   -226.15123    37.175252 
 2756000    264.85104    217.07395    279.65568   -4789.5301    4792.8393   -62.581722    37.084189 
 2760000    266.60568    428.82138    439.33358    -4805.374    4804.3898   -10.512195     37.08354 
 2764000    264.50922    373.18414    307.39803   -4803.4894    4804.8761    65.786112    37.061657 
 2768000    269.56712    415.81021    339.19109   -4839.7729    4833.6549    76.619125    37.115238 
 2772000    279.06206    321.97006    321.61088   -4849.0909    4830.9154   0.35918112    37.088468 
 2776000    265.67261    380.56444    396.24077   -4848.7395    4844.6901   -15.676326    37.041249 
 2780000     265.5558    397.28929    176.47404   -4877.0755    4865.3453    220.81525    37.131425 
 2784000    303.87974     335.7211    423.10727   -4873.2225    4862.1819   -87.386168    37.005958 
 2788000    274.58774    291.08723    373.70877   -4895.7819    4894.0963   -82.621547    37.093276 
 2792000    271.17212    517.28344    377.53619    -4923.336    4919.9604    139.74725     36.79766 
 2796000    309.15932    560.53522    357.18454   -4944.4167    4931.0882    203.35068    36.676651 
 2800000    283.84686    238.65119    268.55445   -4955.0515    4946.2511   -29.903266    36.658281 
 2804000    327.21007    434.46997    497.10077   -4965.3233    4941.8543   -62.630802    36.575816 
 2808000    265.59503    265.87154    424.70993   -4968.6725    4979.7273    -158.8384    36.575609 
 2812000    279.60007    375.97105    347.61459   -5004.0085    5000.4208    28.356462    36.642652 
 2816000    291.52456    386.24667    288.58451   -5053.9403    5053.2648    97.662169     36.75549 
 2820000    286.73876    269.84432     231.1433   -5069.0847    5065.0945    38.701017    36.827781 
 2824000    264.86554    354.16351    202.28235   -5074.1888    5068.0167    151.88116    36.852214 
 2828000      262.569    209.42558    320.06098   -5099.9431    5088.1434   -110.63539    36.952843 
 2832000      299.491    640.47281    129.93902   -5111.0362    5092.3716     510.5338    37.050448 
 2836000    273.60339    449.75088    254.71234   -5103.5403    5116.6039    195.03853    37.026925 
 2840000    288.52781    217.79293    470.43599   -5148.3193    5145.7554   -252.64306    36.983636 
 2844000    308.65896    239.14192    255.41258   -5181.2643    5160.3484   -16.270666    37.026892 
 2848000    279.92017    400.06621    373.68732   -5220.8434    5199.8898    26.378899    36.958835 
 2852000    286.83047    306.84153    326.82804   -5231.5031    5234.6739   -19.986514    36.913345 
 2856000    246.20985    221.32517    278.23179   -5230.5115    5255.9184    -56.90662    36.781439 
 2860000    256.46202    564.23442    194.01182   -5255.6816    5272.6757     370.2226    36.789871 
 2864000    280.14663    763.73542    382.53851   -5264.6695    5282.5889    381.19691    36.815019 
 2868000    281.14273    424.83218    478.31354   -5287.9486    5266.8039   -53.481355    36.891767 
 2872000    240.07197    328.99004    624.24927   -5274.3342    5299.0548   -295.25922    36.878252 
 2876000    294.49428    431.94712    370.71257   -5319.9213    5312.8382    61.234552    36.878756 
 2880000    281.71204    395.21699    175.91769   -5332.3125    5335.0148     219.2993    36.849942 
 2884000    281.20396    354.10149    276.55038   -5326.3575    5318.3139    77.551114    36.853182 
 2888000    285.99697    213.04237    414.46987   -5333.4391    5331.2741    -201.4275    36.859381 
 2892000    279.83196    210.04064    393.10084   -5353.5592    5349.9676    -183.0602    36.789923 
 2896000    282.45221    232.03947    249.57834   -5365.7504    5356.7039   -17.538865    36.809617 
 2900000    252.25261    359.77917    317.96358   -5363.5225     5375.911    41.815599    36.775876 
 2904000    269.63744    300.21576    471.57091   -5373.0672    5368.7399   -171.35515    36.597384 
 2908000    304.22407    691.46085    251.71007   -5402.1023    5373.6943    439.75079    36.594834 
 2912000    286.99623    206.10772    237.20369   -5403.5873    5392.1157   -31.095972    36.508893 
 2916000    274.90365    503.59566     272.4043   -5406.0163    5406.4653    231.19135    36.541247 
 2920000    290.99058    373.21199    393.83794   -5424.7407    5415.6214    -20.62595    36.653495 
 2924000    290.93245    377.09782    470.70194   -5425.8567    5426.0612   -93.604121    36.764492 
 2928000    253.41153    301.69866    385.88134   -5441.7994    5458.7109   -84.182682    36.767518 
 2932000    248.94444    464.71691      290.275   -5425.2527    5448.0779    174.44191    36.691546 
 2936000     262.9989    448.67384    589.70671   -5459.6592    5454.1848   -141.03287    36.771963 
 2940000    300.16442    357.37795    346.27247   -5498.5659      5483.17     11.10548    36.731015 
 2944000      253.401    491.90741    182.88031   -5511.1051    5502.4689     309.0271    36.808302 
 2948000    267.11347    400.90186    186.41654   -5554.6305     5551.823    214.48532    36.858964 
 2952000    293.42384    362.86289    163.75515   -5579.7186    5586.2534    199.10773    36.893844 
 2956000    265.97146    431.18225      237.232    -5599.608     5593.925    193.95025    36.940394 
 2960000    291.84955    376.73339    253.19086   -5627.3472    5622.2322    123.54253    36.948525 
 2964000    240.79688    337.74866    282.44073   -5628.8869    5647.6909    55.307936    36.914717 
 2968000    282.06672    499.20073    227.34892   -5630.4151    5651.5357    271.85182    36.857948 
 2972000    296.37169    316.42838    336.74457   -5639.2371    5642.1512   -20.316189    36.938962 
 2976000    272.49525    404.42666    294.20719   -5687.5008    5667.4238    110.21947    37.041995 
 2980000    279.58388     305.3344    340.30711   -5678.1016    5679.4431   -34.972714    36.861957 
 2984000    287.56867    301.49313    293.97285   -5700.5479    5689.7544    7.5202846    36.818981 
 2988000    288.02828    300.87108     217.2498   -5709.0139    5694.2853    83.621281    36.780699 
 2992000     301.5737    370.54494       332.63   -5735.3581    5729.3332    37.914939    36.796976 
 2996000    289.62276    296.30659    233.99636   -5765.7476      5756.15    62.310227    36.787595 
 3000000    284.22933    305.45624    340.80139   -5795.1172    5753.2065   -35.345151    36.775666 
 3004000    275.02416    532.85945    335.70781   -5792.8517    5783.2594    197.15164    36.776616 
 3008000    267.40553    303.59687    344.12771   -5799.0567    5795.9786   -40.530836    36.798041 
 3012000    262.83543    305.42347    315.64107   -5810.6865    5817.1404   -10.217601    36.823486 
 3016000    304.39665    469.40768    240.26185   -5831.0915    5829.6092    229.14583    36.871294 
 3020000    325.65902    547.03173    353.32235   -5861.4504    5818.4172    193.70938    36.969969 
 3024000    263.74727    534.30527    201.68039   -5842.7933    5846.8745    332.62488    37.036645 
 3028000    281.92628    296.71373    197.99315   -5860.8648    5865.5571    98.720579    37.116229 
 3032000    296.82756    365.35228    234.17864   -5880.5446     5860.715    131.17363    37.044939 
 3036000    284.81962    565.97159    331.07134    -5903.334    5886.4514    234.90024    36.997861 
 3040000    300.14558    240.34251    433.14658   -5927.8462    5918.4789   -192.80407    36.930852 
 3044000    293.40455     412.7973     433.6235    -5938.165    5941.5722     -20.8262    36.861951 
 3048000    306.28856    270.29169    409.81947   -5949.0492    5934.3597   -139.52778    36.837249 
 3052000    263.07029    214.10721    279.10404   -5963.0336    5949.0297   -64.996828    36.810179 
 3056000    271.35534    205.68835    243.05741   -5954.7717    5939.9058   -37.369059    36.817418 
 3060000    305.03632    450.77814    349.13705   -5954.4552    5940.3065    101.64109     36.85742 
 3064000    275.56848    294.59474    276.32543   -5981.5627     5984.503    18.269312    36.739053 
 3068000    267.82846    278.09948    355.27983   -6001.8475    5991.1226   -77.180344    36.905168 
 3072000    300.62941    297.44555     293.7522   -6013.1504    6000.0271    3.6933449    36.808447 
 3076000    300.77864    575.21711    356.83233   -6034.0464    6011.9777    218.38478    36.712689 
 3080000    295.07401    411.43888    214.93593   -6034.4396    6027.9678    196.50294     36.58619 
 3084000    288.14533    487.95045    299.36493    -6067.464    6044.7754    188.58552    36.634931 
 3088000    308.29778    540.55106     285.0938   -6080.2928    6078.0589    255.45726    36.646787 
 3092000    265.69636    474.13668    389.74815   -6082.6613    6105.0943    84.388524    36.686875 
 3096000    279.83029    259.40372    305.58045   -6124.9148    6116.0602   -46.176731    36.633384 
 3100000    269.50867    187.40746    324.43598   -6125.5075    6123.8957   -137.02852    36.680428 
 3104000    284.57704    236.24015    276.77548   -6141.4006    6141.1368   -40.535329    36.720529 
 3108000      288.008    404.71813    278.05279   -6150.5577    6145.5109    126.66534    36.877662 
 3112000    299.49793    353.37599    232.95921   -6188.6222    6169.5341    120.41678    36.958735 
 3116000    260.06955    283.55527    315.06841   -6204.7489    6193.7603   -31.513143    36.959492 
 3120000    281.86336    566.17823    307.59448   -6225.7728    6215.9021    258.58375    36.914646 
 3124000    298.25367    387.94171    330.97809   -6245.4306    6227.0791    56.963628    36.932767 
 3128000    286.45905      348.978    322.79063   -6258.6832    6252.3584    26.187368    36.880665 
 3132000    281.57128    637.83253    336.81552   -6285.4627    6288.8135    301.01702    36.908328 
 3136000    286.97103    469.84223    356.28035    -6330.118    6300.6786    113.56188    36.922518 
 3140000    300.76657    375.55717    620.02233   -6328.2809    6307.5795   -244.46516    36.923505 
 3144000    252.64703    301.95106    303.59224   -6316.9696    6342.3182   -1.6411809    36.918947 
 3148000    260.74682    309.50024    308.27882   -6360.8131    6373.9096    1.2214265    36.985581 
 3152000    269.45601    540.19575    217.62093   -6385.7648    6395.2213    322.57482    37.099696 
 3156000    300.69995     435.0535    204.77059   -6403.7526    6404.2139    230.28291     37.02708 
 3160000    278.51468    427.49517    224.02525   -6431.5306    6430.1554    203.46992    36.921174 
 3164000    280.87333    346.67394    262.90199   -6448.7375    6437.8925    83.771954    36.893755 
 3168000    282.27418     344.7399    305.33321   -6454.7458    6449.8082    39.406688    36.913776 
 3172000    279.91939    512.05423     350.7975    -6472.381    6457.1547    161.25673    36.924317 
 3176000    263.35096    347.53631    317.65486    -6479.825    6481.5786    29.881452    36.995566 
 3180000    272.40969    303.17257    332.18562   -6492.4603    6512.8637    -29.01305    37.017901 
 3184000    309.86107    364.52788    419.34423   -6542.6802      6510.47   -54.816351    36.968536 
 3188000    262.91024     245.1477    440.92844   -6552.2071    6573.2286   -195.78074    36.980343 
 3192000    306.69478    527.79648    389.85773   -6597.3969    6559.4773    137.93875    36.960303 
 3196000    280.50489    294.43251    391.77755   -6588.8285    6590.0343   -97.345043    36.933627 
 3200000    272.57683     468.5467    303.19014   -6610.1908    6625.4348    165.35656    36.887324 
 3204000    289.95776    290.19139    417.70846   -6642.0519    6622.4807   -127.51707    36.831365 
 3208000     290.4127    377.21534    391.12285    -6638.391    6637.6473   -13.907508      36.7768 
 3212000    288.50302    508.55261    316.91691   -6663.5089    6646.1057     191.6357    36.767665 
 3216000    276.55702    347.73343    317.13033   -6651.9124    6661.3472    30.603101    36.734294 
 3220000    299.42006    211.40772    378.57936   -6675.2349    6676.6685   -167.17164    36.671724 
 3224000    268.36041      321.161    256.71027   -6699.8318    6704.3192    64.450727    36.803338 
 3228000    262.06982    332.11227    255.60328   -6734.9515    6742.5359    76.508987    36.829698 
 3232000    291.72636    297.92918     289.8156   -6745.8004    6758.7802    8.1135773    36.835381 
 3236000    287.63087    360.81961     369.9237   -6770.4809    6780.2147   -9.1040917    36.870923 
 3240000    260.86329    231.30182    336.34322   -6764.5339    6793.3936    -105.0414    36.864926 
 3244000     268.5303    268.88641    307.06786   -6771.7987    6769.4292   -38.181453    36.859122 
 3248000    271.83634    278.09188    305.67223    -6803.692    6781.5317   -27.580349    36.904716 
 3252000    290.67828    228.38523    260.86375   -6817.7959    6806.5456   -32.478528    36.789082 
 3256000    306.70533    445.11869    238.38442   -6863.0391    6823.7261    206.73428    36.753175 
 3260000    306.36053    323.70258    339.20428   -6858.7949     6841.699   -15.501701    36.710055 
 3264000    313.58899    443.87796    610.40591   -6863.2302    6841.8493   -166.52795    36.730085 
 3268000    278.86791    519.70393    278.50987   -6861.6612    6852.1282    241.19406    36.755948 
 3272000    294.67689    300.69864    189.07978   -6872.2072    6875.6163    111.61886    36.726315 
 3276000    279.10709    348.76563    329.58523   -6904.4475    6905.3028      19.1804    36.684632 
 3280000    322.53557     466.4607    395.08759   -6907.2023    6886.1046    71.373115    36.699588 
 3284000    273.72493    188.45909    273.22547   -6905.0067    6896.2821   -84.766383    36.696331 
 3288000    278.03121    385.52218    250.73695    -6905.919    6890.8247    134.78524    36.835456 
 3292000    277.89255    379.78234    341.20691   -6895.3659    6899.1861    38.575429    36.819531 
 3296000    250.58304    201.86992    297.03332   -6891.0303    6906.4235   -95.163403    36.822605 
 3300000    282.55208    318.65917    156.56193   -6891.3821    6888.0343    162.09723    36.916571 
 3304000    254.01057    246.80346    264.25748   -6904.6221    6895.9999   -17.454015    36.876744 
 3308000    289.42901    237.67753     168.0469   -6906.1963    6885.8009    69.630627    36.986922 
 3312000    283.36878    403.53273    498.39716   -6931.5535    6925.9979   -94.864429    36.992838 
 3316000    288.65756    514.44614    254.38359   -6928.9837    6917.9477    260.06254    36.994778 
 3320000    275.96763    315.68748    357.50767   -6945.1386    6950.6626   -41.820187    37.001194 
 3324000    271.64754    454.97648    348.86054   -6979.4004    6976.7409    106.11594    36.962898 
 3328000     273.4343    285.44005     330.4639   -6999.2494    7006.7005    -45.02385    36.979177 
 3332000    299.73797    300.80815     425.9659   -7024.2122    7021.3936   -125.15775    36.927936 
 3336000    264.83145    244.66508    380.80414   -7039.2669    7042.9543   -136.13906    36.857548 
 3340000    274.49672    419.21089    223.28112   -7074.2325    7065.8305    195.92976    36.845966 
 3344000    279.46602     412.0956    390.85909   -7103.1492    7099.0244    21.236507    36.858362 
 3348000    281.49882     337.2128    165.04146   -7156.8881    7137.4288    172.17133    36.841784 
 3352000     274.9098    447.19761    181.86422   -7158.2784    7174.0427    265.33339    36.837097 
 3356000    301.12475    307.77191    267.27316   -7166.0027    7142.0875    40.498747    36.855612 
 3360000    290.88153    338.72825    402.58646   -7168.3452     7141.547   -63.858212    36.830166 
 3364000    286.96842    261.18307    336.15177   -7181.5883    7172.4336   -74.968701    36.912141 
 3368000    289.39634    346.23451    309.16987   -7203.1294    7197.8753    37.064644      36.8882 
 3372000     270.2821    272.51715    279.00634   -7223.0747    7213.7446   -6.4891901    36.880784 
 3376000    298.13569    409.16932     321.2475   -7240.7406    7232.5563    87.921827    36.949063 
 3380000    329.16451    318.09107    319.60845   -7284.7516    7244.0302   -1.5173805    36.828852 
 3384000    300.83976     366.6622    429.19634   -7283.0497    7259.8804   -62.534135    36.883545 
 3388000    296.31717    267.86817    319.57407   -7290.8286    7282.7396   -51.705896    36.867661 
 3392000    295.31129    354.30946    311.01483   -7331.9491    7312.2526    43.294633    36.796888 
 3396000    298.18504    283.66522    348.38618   -7326.6714     7316.908   -64.720958    36.800433 
 3400000    314.49381    484.81025    229.45068   -7345.9709    7327.9762    255.35957    36.818755 
 3404000    289.23143    355.96127    446.55966    -7359.633    7344.7344   -90.598385    36.832649 
 3408000    277.75489    513.32408    277.11719   -7404.6082    7387.2316    236.20689    36.911629 
 3412000    253.24898    427.87112    229.06877   -7397.5678    7409.8116    198.80235    36.812983 
 3416000    292.34018    256.28859    370.10601   -7433.6454    7437.7253   -113.81742    36.723819 
 3420000    272.94729    389.00952     392.5404   -7459.4905    7460.2343   -3.5308748    36.751734 
 3424000    281.94532    217.83854     355.2055   -7473.7324    7475.7723   -137.36696    36.769521 
 3428000    285.02592    358.83819    418.77196   -7492.6868    7489.4132   -59.933772    36.855124 
 3432000    288.52845    475.85141    383.22386   -7521.9512    7492.8419    92.627545    36.886059 
 3436000    273.16867    500.77521    138.54994   -7521.6318    7517.4081    362.22527    36.878192 
 3440000    272.10346    317.06442    368.63476   -7536.5927    7546.5548   -51.570342    36.880022 
 3444000    264.49115    255.05497      426.135   -7570.0443    7577.7592   -171.08003    36.928517 
 3448000    274.69559    529.25701    229.83406   -7590.8069    7600.0714    299.42295    36.902584 
 3452000    295.32761    577.43191    342.93761   -7608.5869     7614.569     234.4943    36.938626 
 3456000     258.1438    511.84886    270.96106   -7623.4829    7631.7255     240.8878    36.935315 
 3460000    257.38681    278.06746    225.38334   -7640.3362    7647.2001     52.68412     36.92254 
 3464000    312.03274    347.23128    268.44969   -7693.5733    7665.8396    78.781595    36.983812 
 3468000    263.51923    232.86244    256.82417    -7686.857    7712.2808    -23.96173     37.03309 
 3472000     280.1268     248.3626    282.79277   -7739.7469    7728.7358    -34.43017     36.95596 
 3476000    246.64124    313.38927    351.24823   -7751.5848    7757.3428   -37.858955    36.927353 
 3480000    276.06621    467.21824    437.06583   -7783.1791    7778.2545    30.152403    37.010244 
 3484000    259.26981    266.76712    276.83948   -7782.3681    7789.1427   -10.072358    37.025377 
 3488000    290.42433     514.3855    429.09664   -7802.2078    7796.0521     85.28886    37.062176 
 3492000     285.5187    255.32935    301.12425   -7826.1698    7806.1104   -45.794898     37.10996 
 3496000    280.44744    345.59977    292.07258   -7824.2143    7821.9764    53.527193     37.14545 
 3500000    247.06448    251.85866    154.43139   -7829.6463     7838.948     97.42727    37.108272 
 3504000    280.90915    419.41764    246.76476   -7838.1758    7838.5122    172.65288    37.125512 
 3508000    253.65186    219.19641    200.62813      -7846.7    7851.2325    18.568282    37.136274 
 3512000    282.10877    401.02479    251.68029   -7861.4872    7853.1516     149.3445     37.13306 
 3516000    295.38245    623.87974    395.48299   -7873.5693    7871.9314    228.39675    37.195023 
 3520000    307.22763    347.12114    270.52331   -7891.5384    7881.5207    76.597838    37.150544 
 3524000    259.37439    352.54876    220.57775   -7906.0142    7915.2023    131.97101    37.138645 
 3528000    294.51975    424.82909    210.80313   -7934.6548    7936.6821    214.02596    37.088564 
 3532000    284.56497    397.11236     340.4692   -7933.0004    7922.0637    56.643163    37.064972 
 3536000    298.89465    343.33483    222.45078   -7942.3635    7934.2047    120.88405    37.038776 
 3540000     305.2324    336.81829    333.97578   -7975.1765    7961.9177    2.8425037    37.084932 
 3544000    275.67953    296.64325    200.90638   -7981.0121    7992.5289    95.736868    37.116962 
 3548000    307.37337    495.28495    467.30157   -7988.4575    7977.5066    27.983375    37.233774 
 3552000    264.79841    398.62605    356.76191   -7965.0261    7979.9693    41.864145    37.220167 
 3556000    260.52071    232.15077    270.51867   -7992.2541    7991.5654   -38.367904    37.186023 
 3560000    266.34432    232.23162    347.33822   -8014.0764    8003.0851    -115.1066    37.151181 
 3564000    279.95196    404.09683    333.98387    -8037.584    8010.9517    70.112957    37.177329 
 3568000    261.11097    379.38297    298.93881   -8034.7147    8037.4985    80.444162     37.11334 
 3572000    277.18655    321.34024    344.53254   -8042.2975     8052.442   -23.192303    37.060354 
 3576000    280.87571    539.91108    273.12145   -8080.4109    8084.4618    266.78963    37.000693 
 3580000    257.31245    444.78749    328.62584   -8095.4379    8086.7711    116.16165    37.026353 
 3584000    279.33995    357.62891    236.23759   -8118.3961    8114.4459    121.39131    37.088004 
 3588000    249.20913    223.27483    242.93789   -8144.0502    8152.6177   -19.663057    37.100671 
 3592000    265.72955    495.39506     299.5996    -8164.306    8166.8215    195.79546    37.061087 
 3596000    272.94161    455.85388    379.15279   -8160.3588    8168.8533    76.701093    36.971453 
 3600000    275.28988    355.41603      260.526   -8199.3949    8199.2614    94.890034    37.003789 
 3604000    265.21635    447.26458    332.86434   -8213.5522    8221.1612    114.40024    36.963308 
 3608000    241.38913    314.68386    274.75823   -8237.7281    8253.1855    39.925627    37.037703 
 3612000    290.26558    333.18716    205.44109   -8247.8881    8247.7228    127.74607    36.967152 
 3616000    305.17531    355.95073    414.74502   -8262.0541    8255.5044   -58.794285    36.981498 
 3620000    300.38809    414.41032    351.57983     -8266.66    8256.7307    62.830493    36.945009 
 3624000     301.5454     241.4935    275.18613   -8286.2697    8267.0971   -33.692627    36.970839 
 3628000    295.59852    542.39809    355.10109   -8290.0329    8293.5041      187.297    37.072075 
 3632000     266.4575    415.73898    312.10015   -8279.1401    8293.1641    103.63883    37.072012 
 3636000    302.88504    280.64997    468.75792   -8320.5567     8319.705   -188.10794    37.053495 
 3640000    292.89601    364.80599    331.60733   -8338.3131    8324.3497    33.198656    37.050564 
 3644000    277.01576    271.54072     329.9415   -8365.9511    8362.0675   -58.400783    37.017507 
 3648000    272.99278    402.97881    311.73297   -8401.0185     8401.941     91.24584    36.959512 
 3652000    294.68773    206.96693     221.2015   -8431.9258     8426.057    -14.23457    36.935156 
 3656000    299.40001    549.41919    381.28626   -8457.4584    8453.7351    168.13293    36.954314 
 3660000    295.26282    330.16761    462.74414     -8461.29    8439.8248   -132.57653     36.90478 
 3664000    289.53279    403.60915    233.43591   -8473.2031    8455.7299    170.17324    36.861522 
 3668000    279.98746    481.78142    321.75876   -8480.7806    8474.9895    160.02266    36.868069 
 3672000    288.58233    281.99867    273.32988   -8481.3646    8485.9781     8.668786    36.800297 
 3676000     262.7103    424.80093    251.05791    -8495.577    8507.0506    173.74302    36.826891 
 3680000    263.95399    264.55404     435.4085    -8506.026    8511.8377   -170.85446    36.843265 
 3684000    262.80958    261.66971     238.2926   -8523.2797    8536.7716    23.377112    36.863039 
 3688000    269.69706    421.59035    385.29226   -8537.9359     8538.303    36.298089    36.811355 
 3692000    303.22448    455.76354    406.20177   -8555.7247    8535.8524    49.561764    36.829034 
 3696000    277.43662    381.53906    273.25314    -8590.239    8586.6322    108.28592    36.787272 
 3700000    281.16682    415.64566    245.39871   -8616.3531    8591.3106    170.24695    36.817842 
 3704000    299.28547    646.77759    408.34208   -8628.8664    8609.7261    238.43551    36.846476 
 3708000     279.2848    331.61962    230.52638   -8633.1211    8622.3429    101.09324    36.929967 
 3712000    267.11095    284.47985     194.3944   -8650.6615    8649.4491     90.08545    36.959434 
 3716000    275.03987    385.14859    278.37592    -8656.079    8674.1015    106.77267    36.877159 
 3720000    272.31856    554.15512    341.82192     -8677.33    8676.5021     212.3332    36.884014 
 3724000    275.01948    285.37781    191.02485   -8693.6226    8685.0521     94.35296    36.867244 
 3728000    278.79205    377.01772    331.65567   -8708.8322    8703.6663    45.362042     36.88104 
 3732000    268.84016    206.33873     408.8915   -8719.2354    8718.7891   -202.55278    36.878546 
 3736000    304.55757    464.81417    310.78865   -8758.5514    8742.2483    154.02552    36.885076 
 3740000    294.95041    395.51383    204.44588   -8760.2098    8755.8615    191.06795    36.924391 
 3744000    309.52792    319.51752    394.34509   -8790.4445    8777.5984   -74.827571    36.914498 
 3748000    272.32243    247.21922    282.10002   -8795.1087    8794.4293   -34.880794    36.987212 
 3752000    268.11823    311.52195    374.65963   -8792.6974    8794.6315   -63.137675    37.032728 
 3756000    257.40466    369.98155    185.42398    -8811.714    8826.3719    184.55758    37.034124 
 3760000    247.32731    190.48231    356.15417   -8832.7326    8841.9409   -165.67186    37.068998 
 3764000    292.22738    376.66251    529.93675   -8852.1476    8853.3816   -153.27425    37.073595 
 3768000    259.68739    435.85413    235.95069    -8851.454    8869.6244    199.90345    37.058086 
 3772000    261.75086    175.61662     222.1618   -8871.1457     8886.308   -46.545185    37.022207 
 3776000    285.05199    260.03897    268.21291   -8892.2625    8881.0516   -8.1739412     37.02995 
 3780000    286.84813    302.05624    244.23212   -8908.2624    8890.1613    57.824119    36.995483 
 3784000    282.22468     385.1463    437.55212   -8893.6775    8907.1857   -52.405826    36.982679 
 3788000     269.9084    309.61093    390.89503   -8914.4137    8938.5923   -81.284093    36.958302 
 3792000    288.90883    220.43937    247.95825   -8946.7829    8942.7714   -27.518883    36.937197 
 3796000    306.14701     411.9469     258.8337   -8964.6191    8956.0291     153.1132    36.977855 
 3800000    276.63811    456.11383    264.82309   -8958.5909    8965.5901    191.29074    36.948585 
 3804000    270.93319    247.12607    396.34451   -8973.2867    8977.5528   -149.21844    36.920894 
 3808000    287.94768     442.7164    382.91394   -8993.0424    8991.0587    59.802463    36.930809 
 3812000    281.98155    425.27222    341.13936   -9033.9705    9026.3965    84.132858    36.970571 
 3816000       286.04    520.94105    291.71222    -9075.615    9054.0108    229.22883    36.974016 
 3820000    274.60937    269.79483     427.2409    -9115.865    9104.2082   -157.44607    36.934661 
 3824000    269.03978    240.45745    180.30248   -9130.9611    9134.6002    60.154968    36.949995 
 3828000    263.49231    480.21392    371.13512     -9138.53    9151.7215     109.0788    36.886429 
 3832000     291.7579    349.31051    374.60571   -9178.4478    9154.7047   -25.295196     36.92135 
 3836000    238.84117    247.68808    465.89161   -9160.3818    9190.1437   -218.20353    36.928251 
 3840000    288.18271    301.78877    178.61266   -9184.8407    9195.2847    123.17611    36.856536 
 3844000    309.96844    327.79545    210.93244   -9230.3692    9212.9832    116.86302    36.912316 
 3848000    277.31625    430.62026    316.84238   -9250.8403    9238.3599    113.77787    36.931958 
 3852000    251.08849    199.97274    373.49015   -9246.4901    9245.2224   -173.51741    36.941065 
 3856000    281.28125     370.6566     246.4246   -9265.0543    9251.1741      124.232    37.004204 
 3860000    269.14736     403.6079    265.31615   -9291.9428    9290.5743    138.29174    37.057065 
 3864000    287.69203    377.91082    391.89816   -9301.1234    9301.2404   -13.987339    37.066521 
 3868000    280.58722    357.27298    347.68854   -9321.6311    9317.3887    9.5844381    37.087285 
 3872000    262.53259    312.25831    223.08246   -9354.8318     9350.058    89.175855    37.079839 
 3876000    288.24812     318.9865    336.98132    -9375.475    9358.0935   -17.994823    37.134022 
 3880000    271.66788    340.98584    343.27555    -9385.765    9384.4926   -2.2897118    37.151363 
 3884000    259.59445    314.88623    206.84715   -9377.7895     9389.439    108.03908    37.181875 
 3888000    271.98328    146.24641    578.46066   -9387.0417    9387.1741   -432.21425    37.167926 
 3892000    278.12171    337.16295    269.54134   -9406.3381    9412.9077    67.621607     37.13056 
 3896000    283.33525    286.28771     304.7786   -9441.1736    9439.5979   -18.490887    37.053952 
 3900000    308.18737    377.72831    370.75297   -9485.7401    9468.8296    6.9753476    37.065235 
 3904000    283.66172    152.02022    228.96177   -9501.5899    9485.2884   -76.941555    37.092193 
 3908000    263.09198    292.32669     321.9789   -9494.9842    9500.2628   -29.652205    37.096176 
 3912000    289.64406    301.93477    407.58737    -9506.937    9514.2175    -105.6526    37.076046 
 3916000    284.73003    492.32632    308.00514   -9520.2763    9522.1055    184.32118    37.134212 
 3920000    278.37356    317.75826    311.40866   -9532.8763    9536.2567    6.3496022    37.127793 
 3924000    263.85841    292.31304    393.68275   -9538.4538    9541.2131   -101.36971    37.155419 
 3928000    277.48872    325.35632     445.0864   -9549.9731    9546.6666   -119.73008    37.186893 
 3932000    273.53945    401.60868    278.96392   -9556.6708    9556.0076    122.64477    37.171415 
 3936000    279.15898    439.73053    246.94104   -9575.1666    9576.4478    192.78949     37.18523 
 3940000     264.8088    292.13834     363.2296   -9598.3386    9594.5154   -71.091261    37.195941 
 3944000    301.31959    375.58095    451.06296   -9656.3855    9648.3408   -75.482009    37.192037 
 3948000    296.01988    197.71118    248.40694    -9650.401    9644.5235   -50.695765    37.142242 
 3952000    273.89344    368.23351     261.1753   -9647.5538     9673.452    107.05821    37.137278 
 3956000    288.10882    407.11226    243.06523   -9690.2805    9691.0688    164.04703    37.216829 
 3960000     257.8186    389.30338    299.42384   -9705.5639    9731.5139     89.87954    37.236448 
 3964000    316.73965     398.3285    335.35951   -9767.4705    9738.9814    62.968983    37.216783 
 3968000    300.92904    196.01913    372.05479   -9774.4446      9762.66   -176.03566    37.197313 
 3972000    268.85149    162.04843    218.72277   -9779.8581    9776.0679   -56.674337    37.182024 
 3976000    289.90982    472.44361    441.29481   -9796.4348    9793.2708    31.148798    37.164045 
 3980000    296.78295    396.09701    503.61588   -9792.7966    9789.9336   -107.51887     37.13979 
 3984000    290.85197    310.85562    386.91548   -9798.9956    9786.8459   -76.059863    37.089894 
 3988000    306.04862    732.49505    416.26054   -9808.6128    9796.4771    316.23452    37.146296 
 3992000    305.87611      506.362    541.99618   -9814.7601    9806.9308   -35.634174    37.178087 
 3996000    268.04323    310.93448    283.58743     -9805.06     9830.408    27.347051    37.162027 
 4000000    312.38667    491.10837    229.71271   -9844.8501    9837.9625    261.39567    37.161112 
 4004000    287.79291    346.26757    191.45611   -9866.7629    9844.8026    154.81146     37.14222 
 4008000    282.90955    378.90096    436.02115   -9881.0267    9865.0864   -57.120189    37.133597 
 4012000    282.27868     528.2586    639.90911   -9876.6693    9869.2281   -111.65051    37.215175 
 4016000    253.29277    299.19759    423.16197   -9884.0848       9913.3   -123.96438    37.193686 
 4020000    303.73808    340.06924    358.73826   -9917.3296    9912.8597   -18.669022    37.200563 
 4024000    252.22536    251.78452    364.18234   -9928.2067    9943.2549   -112.39782    37.241256 
 4028000     261.8551     296.9494    349.20596   -9939.0508    9950.1591   -52.256566    37.157202 
 4032000    249.14124    362.07263    248.07346   -9938.0122    9968.7211    113.99917    37.142978 
 4036000    260.37474      361.339    381.64852   -9969.1974    9973.7915   -20.309525    37.121922 
 4040000    274.21933      573.159    348.86909   -9991.6631    9984.1111    224.28992    37.131623 
 4044000    280.70701    361.52189    484.80171   -9983.8213    10002.131   -123.27982    37.147638 
 4048000    301.36933    421.20571      452.225   -10018.992    10001.303   -31.019286    37.146264 
 4052000    283.28384    412.17689    446.25908   -10025.512    10028.239   -34.082195    37.163404 
 4056000    293.23163    424.17723    282.60141   -10040.125    10058.067    141.57581    37.197017 
 4060000    284.80559     537.9862    273.87329   -10081.726    10078.144    264.11291    37.260109 
 4064000    275.33031    257.69972    262.92542   -10102.691    10086.125   -5.2257062    37.247441 
 4068000      315.683    353.79588    387.19212   -10117.583     10077.34   -33.396243    37.299749 
 4072000    281.34961    449.35021    290.07875   -10148.899     10125.24    159.27146    37.337991 
 4076000    269.50597    505.33395    210.46348   -10142.247    10155.166    294.87047    37.319609 
 4080000    276.43442    410.49078    214.37694   -10152.419    10157.626    196.11384    37.273311 
 4084000    285.64286    614.51348    302.37629   -10162.945    10153.927    312.13718    37.296648 
 4088000    261.87132    186.25798    198.31636   -10152.112     10169.25   -12.058386    37.313415 
 4092000    295.66221     349.8966    187.35854   -10190.778    10186.733    162.53806    37.267234 
 4096000    288.07953    365.88536     263.7188   -10221.909    10218.781    102.16656    37.245906 
 4100000    275.00884    386.43514    201.66711    -10255.75     10249.74    184.76803    37.290504 
 4104000    272.54687    338.45048     493.3767   -10252.332    10267.058   -154.92622    37.309823 
 4108000    223.65097    209.46092    294.89183   -10276.621    10306.603   -85.430912    37.317944 
 4112000    277.37145    377.94837    217.60495   -10300.438    10301.888    160.34342    37.296727 
 4116000    297.50706    411.73097    278.01827   -10308.399     10284.82     133.7127    37.364819 
 4120000     278.8241    453.09098    379.84256    -10310.68    10303.868    73.248417    37.386172 
 4124000    255.89718     309.2383    258.00176   -10307.066    10323.234    51.236539    37.368585 
 4128000    300.49891     504.0513    362.45773   -10382.515    10354.568    141.59357    37.421121 
 4132000     272.5208    268.14585    205.28268   -10374.402    10362.768    62.863166    37.375169 
 4136000    318.26595    329.03382     255.2931   -10390.592    10366.639    73.740719    37.434076 
 4140000    267.87805     496.9622    351.15926   -10370.974    10363.283    145.80294    37.409388 
 4144000    282.81905    369.15243    307.80567   -10396.155    10386.475    61.346761    37.437836 
 4148000    279.50597    268.08474    251.97175    -10375.37    10384.332    16.112988    37.477338 
 4152000    270.52482    512.42429    385.67928   -10389.732    10395.781    126.74502    37.496589 
 4156000    290.31991    472.05089    283.45778   -10421.038    10422.326     188.5931    37.499877 
 4160000    295.00678    413.09506    360.90401   -10423.861    10406.831    52.191053     37.47398 
 4164000    278.23328    357.48269    281.38055   -10426.795    10428.472    76.102144    37.459708 
 4168000    289.69175    263.30798    347.38267   -10427.482    10429.713   -84.074697    37.442809 
 4172000    259.52371    326.26611     272.6571   -10450.508    10468.459     53.60901    37.482986 
 4176000     275.9523    320.09217    204.18907   -10489.461    10478.295     115.9031    37.502265 
 4180000    262.02314     280.5056    201.86998   -10497.389    10505.177    78.635611     37.45989 
 4184000    325.88325    317.16301    332.49046   -10538.491    10517.493   -15.327449    37.457233 
 4188000    271.27936      335.396    434.14039   -10552.487     10539.38   -98.744391    37.453304 
 4192000    296.77622    534.63346    372.99488   -10579.379    10573.031    161.63858    37.471862 
 4196000     264.5355    436.61551    362.48591   -10583.716    10599.577      74.1296    37.452499 
 4200000    277.60753    280.13191    301.99044   -10611.357    10629.055   -21.858531    37.450104 
 4204000    265.20945     483.0009    274.38061   -10627.563    10640.715    208.62029    37.499501 
 4208000     275.7021     261.5823    225.43855   -10672.347    10651.353    36.143743    37.494049 
 4212000    285.17964    284.78479    367.41409   -10666.863    10658.729   -82.629303     37.55779 
 4216000    275.33065    273.85701    182.35064   -10677.916    10697.749    91.506364    37.519168 
 4220000    280.01317     443.5581    368.32332    -10713.23    10701.337    75.234779    37.565814 
 4224000    264.46607    342.96636    158.41466   -10718.724    10718.681    184.55171    37.549773 
 4228000    277.12668    450.98535    332.91233   -10720.409    10707.517    118.07302    37.487352 
 4232000    304.65367    271.65937    326.65001   -10726.962    10702.734   -54.990648    37.458209 
 4236000    291.88485    535.70368    445.53574   -10750.049    10737.203    90.167947    37.469381 
 4240000    248.40299    474.94986     293.5987   -10755.528    10761.694    181.35117    37.450107 
 4244000    290.68256    476.43055    251.49891   -10751.394    10759.729    224.93164    37.440469 
 4248000    280.33029    248.04722    304.19612   -10764.788    10754.364   -56.148898    37.415001 
 4252000    282.23086    225.74031    303.80761   -10791.529    10786.511   -78.067303    37.397672 
 4256000     262.1985    424.39627    252.90761   -10812.916    10824.659    171.48866    37.371962 
 4260000    299.67899    531.86983    220.22793   -10837.453    10832.609    311.64191    37.421566 
 4264000     311.5988    594.33571    230.38746   -10898.311     10844.93    363.94826    37.441701 
 4268000    239.46177    272.70033    277.46685    -10870.02    10889.117   -4.7665175    37.402478 
 4272000    305.60663    421.35628    576.83933   -10916.128    10875.027   -155.48305    37.354408 
 4276000    284.14585    389.67576    291.37296   -10912.825    10897.744    98.302799    37.338913 
 4280000     282.8111    284.46725    425.17285   -10924.301    10921.358    -140.7056    37.364233 
 4284000    282.92622    347.81749    325.73593   -10921.564    10946.898     22.08156    37.360269 
 4288000    274.73233    361.66237    465.35222   -10943.638    10950.831   -103.68985    37.358679 
 4292000    280.77098    406.01491    214.37375   -10953.216    10962.732    191.64116    37.424719 
 4296000    304.75066    372.62287     255.2605    -10988.52    10974.518    117.36236    37.353617 
 4300000    314.72016    400.07085    203.61004   -11026.991     10996.05    196.46081    37.375495 
 4304000    280.82067     289.1137    307.58267   -11022.402    11035.071    -18.46897    37.401625 
 4308000    262.37503    153.11981    158.62138    -11010.63    11042.182   -5.5015709    37.410157 
 4312000    275.47985     360.5185    219.59489   -11047.133    11037.517    140.92361    37.417949 
 4316000     279.9965     566.5619    304.82655   -11076.877    11050.853    261.73535    37.440859 
 4320000    265.53104    220.46044    354.73329   -11068.461     11076.53   -134.27286    37.452977 
 4324000    295.04114    495.64867    438.50932   -11075.294    11070.963    57.139356     37.42113 
 4328000    291.93016    415.58737     191.7832   -11092.533    11084.873    223.80417    37.437285 
 4332000    292.37545    338.40944    486.83036   -11120.331    11096.775   -148.42092       37.413 
 4336000    308.99879    546.03668    235.35416   -11146.415    11126.197    310.68252    37.375186 
 4340000    249.92706    265.64394    164.15535   -11124.853    11141.789    101.48859    37.405085 
 4344000     268.3645    223.46296    251.00637   -11146.918    11148.473   -27.543417    37.365597 
 4348000    272.32194    468.96848    308.38911   -11145.846    11146.758    160.57937    37.388306 
 4352000    257.71461    272.00383    281.80375   -11143.024    11161.301   -9.7999171     37.40044 
 4356000    268.32835    298.46188    313.04692   -11167.605    11162.699   -14.585038    37.400226 
 4360000    277.40374     464.7473    254.31477   -11188.084    11173.453    210.43253    37.351455 
 4364000    292.14085    351.74108    369.28981   -11221.204    11195.946   -17.548735    37.358779 
 4368000     268.8714    371.04099    520.29004   -11220.422    11212.947   -149.24905    37.344237 
 4372000    318.94727    485.92781    551.60208   -11250.059    11216.278   -65.674265    37.327371 
 4376000    282.12247     432.2637    236.19654    -11229.29    11234.261    196.06716    37.345138 
 4380000    306.20698     317.2676    159.67542   -11252.939    11222.662    157.59218     37.33032 
 4384000    277.15896    320.76822    283.84984   -11276.912    11279.399     36.91838    37.289959 
 4388000    272.07695    226.71518    489.02215   -11284.178    11285.927   -262.30697     37.32965 
 4392000    273.02526    457.09707    350.24602   -11314.614    11316.738    106.85105    37.344444 
 4396000    306.00269    229.18551    324.72279   -11353.916    11330.588   -95.537286    37.339826 
 4400000    292.34217    326.10906    428.01545   -11355.686    11350.796   -101.90639    37.334267 
 4404000    285.35315    571.35482    365.64279   -11386.019    11366.398    205.71203    37.365444 
 4408000    261.70661    440.31363    450.69966   -11400.028    11409.362   -10.386036    37.377414 
 4412000    272.80035    454.68114    260.78619   -11405.426     11409.14    193.89495      37.4194 
 4416000    324.47522    292.57739    197.61384   -11419.829    11409.122    94.963552    37.342007 
 4420000    288.81763    513.52323    543.08294   -11450.152    11442.713   -29.559713    37.384159 
 4424000    243.97422     255.6404    339.89534   -11455.333     11484.79   -84.254933    37.411205 
 4428000    291.14025    277.03812    344.03803   -11482.363    11476.951   -66.999905     37.35963 
 4432000    300.96538    519.79638    289.69498   -11498.842    11489.458     230.1014    37.371951 
 4436000    272.12294    309.12959    489.31016   -11515.388    11512.802   -180.18057    37.348325 
 4440000    278.58766    346.30694    450.34046   -11545.787    11538.601   -104.03352    37.331742 
 4444000    291.78815    501.49997    308.15138   -11558.339    11549.304     193.3486    37.309439 
 4448000    278.71319    524.70575    422.42953   -11578.647    11576.128    102.27622    37.290066 
 4452000     296.4878    435.84897    262.57285   -11618.271    11607.108    173.27612    37.332783 
 4456000    293.10729    403.95964    346.18526   -11642.788    11611.475    57.774374    37.362893 
 4460000    293.80244    271.20761    330.87329   -11660.599    11629.613   -59.665683    37.376655 
 4464000    289.86571    343.98742    292.06704   -11684.455    11679.032    51.920387    37.396795 
 4468000    313.02536    413.86403    293.41681   -11701.532    11675.138    120.44722    37.410261 
 4472000    288.24223    347.67289    156.60484   -11700.597    11699.749    191.06806    37.446213 
 4476000    314.37387    439.83398    458.56614   -11728.605    11699.185   -18.732157    37.461609 
 4480000    285.11362    317.84189    394.91065   -11734.186    11732.263   -77.068754     37.39759 
 4484000    306.84252    416.86099    330.61924    -11749.03    11737.015    86.241749    37.362513 
 4488000    276.57723    505.25757    276.41738   -11732.313    11750.399    228.84019    37.435986 
 4492000    294.86071    276.69282    474.81453   -11776.411    11755.574    -198.1217    37.361248 
 4496000    280.98652    321.27172    254.35742   -11769.695    11760.286    66.914292    37.383866 
 4500000     309.1716     411.7106    430.49025   -11801.809    11789.179   -18.779645    37.408343 
 4504000    287.45247    333.20474     390.9859   -11808.138     11816.85   -57.781165    37.384631 
 4508000    281.63792     518.6327    433.46751   -11812.653    11820.382    85.165186    37.381071 
 4512000    252.30738    383.38274    326.92676   -11825.043    11837.345    56.455987    37.376752 
 4516000    248.90283    303.42187    269.46625   -11825.864    11837.894     33.95562    37.361384 
 4520000    286.94371    456.72673    464.78715   -11839.181    11845.024   -8.0604151    37.406111 
 4524000    283.64009    393.47647    276.44829   -11877.213    11871.299    117.02817    37.405874 
 4528000     285.1214    201.25033    289.89894    -11899.07    11883.811   -88.648602    37.404145 
 4532000    292.50244    468.79485    398.64348   -11908.261     11891.22    70.151366    37.385732 
 4536000    249.25958    323.10096    220.81755    -11878.74    11896.533    102.28341    37.346921 
 4540000    296.64518    568.22457    302.08437   -11912.651    11905.379     266.1402    37.364947 
 4544000    304.55697     495.8994    418.03306   -11931.628    11918.617    77.866342    37.386382 
 4548000    286.57314    449.94893    260.78845   -11941.155    11933.719    189.16047     37.36533 
 4552000    232.35609    310.41746     340.3728   -11929.041    11959.913   -29.955335    37.337759 
 4556000     264.0879     421.1693      351.694   -11973.566    11966.659    69.475303    37.299424 
 4560000    288.82896    337.27467    270.00633   -11990.515    11972.438    67.268338     37.28784 
 4564000    274.72865    441.03847    235.63095   -12004.201    12009.085    205.40752    37.292796 
 4568000    250.84044    352.69373    345.17208   -12017.163    12044.955    7.5216507    37.294747 
 4572000    284.52444    262.21069    337.52803   -12018.171    12019.955   -75.317345    37.310561 
 4576000    284.06411    512.26845    367.91125   -12059.217    12024.942     144.3572    37.300687 
 4580000    286.86164    277.00681    496.19245   -12050.384    12052.851   -219.18564    37.252389 
 4584000    301.78133    243.43605    273.73585   -12076.989    12050.405   -30.299804    37.251685 
 4588000    296.68825    279.38529    399.98174   -12093.052    12086.901   -120.59645    37.236136 
 4592000    258.76611    495.54606    255.04506   -12091.136    12116.439      240.501    37.179142 
 4596000    270.61873    412.09303    300.02155   -12090.828    12099.036    112.07148    37.189566 
 4600000     300.3367    341.10421    300.60471   -12109.676    12115.008    40.499494    37.176616 
 4604000    290.15482    488.45634    550.33447   -12153.426     12151.16   -61.878135    37.166572 
 4608000    288.63657    485.00605    149.40858   -12162.328    12158.566    335.59747    37.191031 
 4612000    299.77648    178.93894    459.33837   -12202.283    12176.455   -280.39943    37.183649 
 4616000    290.51849    183.88877    350.79667   -12219.993    12216.784    -166.9079    37.177952 
 4620000    269.81366    373.08139       265.23   -12242.565     12248.58    107.85139    37.167498 
 4624000    279.11392    326.45355    247.46852   -12258.314    12258.363    78.985021    37.192745 
 4628000    266.97167    272.15341    575.43016   -12275.679    12289.461   -303.27675    37.172369 
 4632000    274.23487    510.47534    347.61771   -12278.342    12297.823    162.85762    37.193623 
 4636000     255.0449    349.27093    334.77806   -12287.366    12300.695    14.492869    37.188651 
 4640000    281.26167    277.89906    348.45876   -12295.128    12304.394   -70.559707    37.209216 
 4644000    267.47922     320.1206    164.38831   -12300.236    12313.811    155.73229    37.256239 
 4648000    298.10743    607.81526    184.28381   -12321.904     12319.93    423.53144    37.343851 
 4652000    264.34353    274.71772    261.91327   -12342.835    12344.341     12.80445    37.306461 
 4656000    313.06382     218.9852    296.53655   -12365.266    12354.619   -77.551349    37.284986 
 4660000     293.4506    490.24985    313.19584   -12406.618     12389.73      177.054    37.282565 
 4664000     287.4607    316.34891    330.98915   -12425.717    12423.174    -14.64024    37.280054 
 4668000    291.63694    454.48264    207.65112   -12427.311    12407.474    246.83152    37.226321 
 4672000    255.86622    235.80875    328.47601   -12412.284    12433.421   -92.667266    37.204163 
 4676000    277.10452     458.2823    389.02278   -12455.136     12438.04    69.259521    37.153914 
 4680000    268.64675    212.09757    418.69356   -12462.838    12477.869   -206.59599    37.128681 
 4684000    289.32507    448.81081    268.61951   -12505.377    12489.407    180.19129    37.159651 
 4688000    278.42027     331.9215    297.18274   -12530.756    12526.264    34.738752    37.176568 
 4692000    284.99961    367.07014    347.77726   -12556.148    12548.002    19.292877    37.177299 
 4696000    279.22499    410.82857    329.96754   -12570.707    12566.294    80.861035    37.175414 
 4700000    272.16291    431.36237    309.39769   -12593.423    12595.561    121.96468    37.216072 
 4704000    277.36004    335.14108    523.43665    -12610.17    12610.702   -188.29557    37.212746 
 4708000    299.84299    486.22634    246.84669   -12644.788    12622.495    239.37966    37.235569 
 4712000     316.5477    488.82942    323.60094   -12647.772    12616.932    165.22848    37.228775 
 4716000    270.86044    413.81759    256.13059   -12635.054    12649.458      157.687    37.247868 
 4720000    253.95175    299.28866    441.35006   -12638.738    12656.006    -142.0614    37.314434 
 4724000    301.19908    602.26432    368.32726    -12666.24    12655.941    233.93706    37.262085 
 4728000    293.07299    270.95776    259.45557   -12668.174     12668.65    11.502188    37.322107 
 4732000    282.74415     346.7932     298.8889   -12697.503    12681.073    47.904296    37.341653 
 4736000    306.17244    403.41844    380.30358   -12717.416    12694.971    23.114857    37.343381 
 4740000    290.05556    361.16509    403.62641   -12738.957    12703.753   -42.461318     37.31859 
 4744000    274.03967    466.34284    398.46849   -12741.797    12737.739    67.874345    37.274744 
 4748000     269.2212    244.10719    288.91695   -12760.536    12758.574    -44.80977    37.271553 
 4752000     267.4675    340.57292      419.261   -12758.315    12768.434   -78.688083    37.257125 
 4756000    299.92941    353.26636    449.31271   -12791.304     12779.13   -96.046358    37.241715 
 4760000    277.60144    418.04799    246.04642   -12804.039    12813.814    172.00156    37.290391 
 4764000    283.01525     476.2353    269.08759   -12848.375    12830.048    207.14771    37.309165 
 4768000    285.36628    296.50192    476.49454   -12867.594    12847.479   -179.99262    37.270562 
 4772000    254.46966    375.79677    212.64108   -12860.469    12861.388    163.15569    37.251856 
 4776000    295.58806    373.94081    365.33331   -12907.448    12889.505    8.6075055    37.274108 
 4780000    276.69687    476.91103    314.12762   -12933.655    12933.685     162.7834    37.314654 
 4784000     282.2736    310.48243    245.92946   -12951.454    12944.546    64.552966    37.305449 
 4788000    306.16656    366.12539     396.8532   -12989.766    12964.956   -30.727804    37.349403 
 4792000    287.40423    216.38641    188.36692    -13010.58    13008.642    28.019493    37.353917 
 4796000    308.61051    255.39015    408.89149    -13020.52    13011.039   -153.50134    37.348084 
 4800000    277.25781    386.02679    179.71056   -13043.805    13048.908    206.31623    37.323061 
 4804000    271.29694    344.11714    385.65439   -13050.939    13066.186   -41.537248    37.310617 
 4808000    278.55843     478.8246    376.98546   -13059.925    13065.822    101.83914    37.329913 
 4812000    303.18379    363.68213     236.3505   -13110.683    13092.217    127.33163    37.403739 
 4816000    285.73018    337.34842    484.57684    -13100.81    13094.054   -147.22842    37.413869 
 4820000    278.37715    245.23732     263.0041   -13110.317     13130.82   -17.766782    37.444928 
 4824000    257.42576    153.32664     225.3866   -13119.772    13129.421   -72.059953    37.459009 
 4828000    252.21748    366.44978    239.53912   -13117.371    13131.313    126.91066    37.505186 
 4832000    272.17561    506.22719    389.20983   -13155.431    13149.787    117.01736    37.531526 
 4836000     302.3945     279.9833    407.74479   -13164.392    13160.682   -127.76148     37.52494 
 4840000    303.28723    290.42664    263.76862   -13189.921     13173.69    26.658013    37.489423 
 4844000    287.98559    401.42472    444.39717   -13203.779     13205.85   -42.972453    37.474499 
 4848000    287.21038     562.6948    133.95939   -13223.596    13210.726     428.7354    37.509787 
 4852000    292.41092     348.7097    303.43053    -13221.03    13208.869    45.279168    37.522816 
 4856000    298.80981    447.89547    343.12201    -13234.57    13226.142    104.77346    37.506786 
 4860000     268.6219    363.30473     360.0752   -13239.157    13253.405    3.2295245    37.503517 
 4864000    258.19723    309.84154    306.23239   -13263.122    13284.701    3.6091468    37.494132 
 4868000    257.74875    193.11304    193.93336   -13294.788    13290.372  -0.82032131    37.439793 
 4872000    283.88373     374.9298     292.4682    -13314.42    13293.918    82.461607    37.449544 
 4876000     309.5582    452.17504    375.37173   -13329.795    13318.953    76.803314    37.487432 
 4880000    268.75648    239.93186    264.13871   -13339.794    13331.293   -24.206856    37.465241 
 4884000    263.38146    398.22849    295.36953   -13359.104    13368.754    102.85896    37.476515 
 4888000    288.85402    445.03054    443.17948   -13381.314    13373.124    1.8510664    37.447244 
 4892000    269.10976    305.12927    428.90158   -13397.461    13401.266    -123.7723    37.455405 
 4896000    295.74546    297.91373    301.78295    -13408.27    13394.142   -3.8692208    37.462134 
 4900000      280.986     306.2068    352.95219   -13418.665    13400.339   -46.745394    37.488272 
 4904000    290.85062    576.21231    246.80555   -13416.693    13402.381    329.40676    37.498158 
 4908000    270.16433    249.06788     446.7583    -13405.63    13416.504   -197.69042    37.476052 
 4912000    311.31537    456.70058    194.18188   -13442.478     13434.45     262.5187    37.569396 
 4916000    292.56709     505.6371    246.23989   -13457.756    13443.241    259.39721    37.547029 
 4920000    286.81208    364.50606    317.06435   -13465.182    13474.923    47.441703    37.547572 
 4924000    271.06146    325.33272    421.13339   -13489.321    13498.525   -95.800669    37.570207 
 4928000     274.5738    309.62072    410.48876   -13504.648    13518.546   -100.86804    37.567556 
 4932000    293.64209    357.58308    302.68248   -13522.479    13514.102      54.9006    37.593775 
 4936000    288.70434    277.51442    232.11994   -13542.505    13519.566    45.394478    37.597181 
 4940000    276.18582    506.62381    380.24315   -13543.374    13537.162    126.38067    37.609146 
 4944000    277.20163    257.84072    85.596988   -13561.485    13556.545    172.24374    37.609098 
 4948000    301.08546    252.30207    255.34636   -13580.478    13569.275   -3.0442901    37.621257 
 4952000    284.92492    437.76368    299.72965   -13601.747    13606.201    138.03403    37.606343 
 4956000    290.23679    449.73897    365.77411   -13636.182    13634.726    83.964859    37.605347 
 4960000    277.36469     237.0632    347.91101   -13667.608    13673.514   -110.84782     37.54912 
 4964000    269.91531    302.61126    370.97221   -13683.909    13700.465    -68.36095    37.554328 
 4968000    286.76162    263.87489    348.39421   -13691.054    13674.245   -84.519329     37.51855 
 4972000    288.86711    367.85094    280.90256   -13707.127     13703.62    86.948372    37.526043 
 4976000    289.33284    377.57634     315.2076   -13727.707    13702.025    62.368736    37.539489 
 4980000    306.24117    357.62498    492.66964   -13749.687    13739.893   -135.04466     37.53801 
 4984000    272.45569    224.42772    481.75128   -13768.896    13761.463   -257.32355     37.53415 
 4988000    258.25053    384.93725    280.95499    -13759.77    13788.938    103.98226    37.502508 
 4992000    280.13586    319.84352    348.96692   -13781.943    13773.971   -29.123401    37.447719 
 4996000    287.66385    442.77459     275.3419   -13783.063    13784.426    167.43269    37.473623 
 5000000    283.36381    453.65827    275.55513   -13802.897    13807.119    178.10314    37.490514 
 5004000    270.11969    416.31329    408.85345   -13799.826    13819.163    7.4598329    37.473647 
 5008000    290.43886    253.42872    302.25046   -13824.757      13823.8   -48.821744    37.478666 
 5012000    267.24891    281.72838    249.78171   -13831.205     13842.99    31.946665    37.441404 
 5016000     282.4984    172.42274    499.40235   -13856.168    13850.481   -326.97961    37.421895 
 5020000    295.27682    420.24409    344.88095   -13879.675    13877.924    75.363141    37.374634 
 5024000     268.0026    308.00958    214.58962   -13897.056     13911.97    93.419965    37.320444 
 5028000    314.65112    575.33049    339.39809   -13940.587    13908.643     235.9324    37.361543 
 5032000    304.00279      463.149    265.18777   -13951.862    13941.244    197.96122      37.3727 
 5036000    270.12034    317.34587     320.9112   -13949.003    13956.389   -3.5653297    37.381991 
 5040000    295.18156    287.42258    271.08158     -13990.2    13970.872    16.341003    37.391326 
 5044000    286.41717    330.00509    353.68267   -14016.124    14016.671   -23.677579    37.388154 
 5048000    286.79753    332.97895    840.70024   -14016.589    14023.055   -507.72129     37.32735 
 5052000    262.01644    279.55723    317.36894   -14047.678      14041.3   -37.811715    37.315969 
 5056000     289.0033    267.19543    273.18996   -14064.516    14079.446   -5.9945303    37.365616 
 5060000    283.66944    317.85042    483.47288   -14085.475    14086.044   -165.62246    37.362837 
 5064000    263.00358    370.11554    340.35456   -14107.644    14125.161    29.760977     37.32869 
 5068000    304.15581    430.76139    314.38493   -14151.325    14134.001    116.37645    37.342193 
 5072000    289.54745    341.28671    317.22557   -14178.756    14176.875    24.061141    37.351366 
 5076000    312.04547    382.14316    379.61457    -14194.39    14183.288    2.5285903    37.380067 
 5080000     294.4714    240.35185    263.31699   -14206.877    14215.829   -22.965141    37.386048 
 5084000    276.85116    446.05159    458.64439   -14240.551    14258.321   -12.592795    37.422541 
 5088000    261.15388    413.25129    172.72638   -14283.017    14287.929     240.5249    37.387555 
 5092000    277.53258    306.71508    262.46765   -14308.972    14309.773    44.247428    37.351248 
 5096000    310.83502    408.98929    270.78095   -14327.262    14314.805    138.20834    37.324371 
 5100000    283.57371    270.20496    430.19754   -14334.578    14330.028   -159.99258    37.330511 
 5104000    291.00463    413.57072    234.29295   -14372.188    14363.016    179.27777    37.338243 
 5108000    289.25421    409.23783    542.84103   -14359.549    14365.225    -133.6032    37.282312 
 5112000    282.71494    502.09511    192.88438   -14378.411    14382.498    309.21073    37.333467 
 5116000     266.4703    580.44521    129.37526   -14378.099    14372.506    451.06995    37.310812 
 5120000    299.36146    645.27215    423.18995    -14401.98    14372.923     222.0822    37.289388 
 5124000    281.50849    334.54711    350.96365   -14404.588    14393.172   -16.416542    37.331416 
 5128000    288.48117    491.05791    347.12503   -14408.457     14394.56    143.93288    37.350025 
 5132000    273.23349    326.26575    200.13408   -14449.576    14454.001    126.13167    37.381188 
 5136000    276.27315    160.33481    348.26079   -14471.677    14474.794   -187.92598    37.347122 
 5140000    264.65949    195.63294    223.63743   -14466.018    14487.924   -28.004491    37.306572 
 5144000    263.42062    347.04299     404.6411   -14486.286    14504.306   -57.598117    37.292647 
 5148000    246.52199    265.71973    449.91951   -14502.117    14536.356   -184.19978    37.298643 
 5152000    289.92277    422.51026    282.67501   -14545.388    14547.961    139.83526    37.264868 
 5156000     259.4573    458.24841    454.20013   -14564.615    14572.692    4.0482755    37.273833 
 5160000    263.89605    295.46206    348.89758   -14569.514    14580.712   -53.435526    37.308983 
 5164000    250.15419    373.45705    242.79368   -14561.495    14580.696    130.66337    37.338601 
 5168000    333.80322     345.6035    321.09721   -14605.718    14584.371    24.506293    37.344116 
 5172000    243.75194    213.56629    244.86072   -14597.025    14611.489   -31.294432     37.35689 
 5176000    313.40775    315.66542     396.3521   -14609.819    14593.574   -80.686672    37.402006 
 5180000    294.24815    389.65156    277.28545   -14625.035    14601.849    112.36611      37.4098 
 5184000    271.62582     270.4573     386.6964   -14619.527    14627.737    -116.2391    37.401577 
 5188000    257.24363    301.76983    336.95716   -14636.861    14643.174   -35.187336    37.385265 
 5192000    249.03143    317.91468    299.82653   -14637.806    14673.475     18.08815    37.369301 
 5196000    293.88625    566.61213      371.477   -14678.581     14680.58    195.13513    37.380478 
 5200000    291.59945    318.17942    459.11145   -14703.979    14685.444   -140.93203    37.394629 
 5204000    279.38867     369.1124    229.05498   -14691.323    14704.281    140.05743    37.393596 
 5208000    261.72619    371.22748    207.05211   -14721.706    14734.407    164.17537    37.403706 
 5212000    294.83817    265.42662    255.80245   -14747.339    14748.779    9.6241699    37.350698 
 5216000    289.48333    222.59799    374.79477   -14746.598    14759.964   -152.19678    37.361387 
 5220000    299.14011    386.45252    372.53872   -14781.032    14787.195    13.913796    37.378458 
 5224000    296.77177     389.7904    383.03666   -14822.881    14814.705    6.7537398    37.403718 
 5228000    294.38295    299.37321    245.33084   -14847.339    14836.503    54.042366    37.445068 
 5232000    286.08884    330.73805    345.55382   -14850.275    14859.787   -14.815775    37.414003 
 5236000    270.12525    176.99658    303.66942   -14873.655    14870.056   -126.67283    37.388328 
 5240000    285.76953    286.77143    480.96809    -14897.84    14875.041   -194.19665    37.363487 
 5244000    284.96056    276.76045    260.15946   -14906.698    14911.266    16.600987    37.362244 
 5248000    283.07961    433.98204    456.88471   -14921.313    14933.471   -22.902678    37.339258 
 5252000    263.83524    255.09857    168.60415   -14952.451    14954.335    86.494414    37.321413 
 5256000    267.17225    476.52875     276.2803   -14981.074    14982.275    200.24845     37.33795 
 5260000    245.50442    239.23427    182.38733    -14981.22    15005.989    56.846938     37.32803 
 5264000    270.23568    309.41732    264.20805   -14985.423    14995.001    45.209274    37.300782 
 5268000    284.25766     571.1518    201.04751   -15014.151    15012.742    370.10429    37.308824 
 5272000    257.77058    402.53619     244.0009   -15010.463    15019.621     158.5353    37.308047 
 5276000    298.49434    359.61765    256.39948    -15069.55    15034.486    103.21816    37.304813 
 5280000    268.43333    373.71054    467.13997   -15055.364    15078.458   -93.429429    37.288774 
 5284000    266.91281    437.08294    357.28093   -15084.007    15095.118    79.802016    37.263861 
 5288000    270.97099    340.48536    546.23792   -15095.984    15085.998   -205.75257    37.232726 
 5292000    252.84001    162.37824    356.81896   -15114.893     15125.25   -194.44072    37.261929 
 5296000    281.34472    342.64091    264.93921   -15149.988    15140.281    77.701697    37.286466 
 5300000    276.91716    428.54779    217.30396   -15158.284    15163.046    211.24383    37.309297 
 5304000     289.6744    479.02505    291.45617   -15184.158     15171.47    187.56887    37.256638 
 5308000    285.36472    402.51191    455.10391   -15200.929    15190.354      -52.592    37.258998 
 5312000    275.69786     343.5694    446.81599   -15227.692    15227.652   -103.24659    37.229544 
 5316000    266.20988    350.70544    274.45839   -15239.849    15250.982    76.247042    37.217747 
 5320000    265.24583    456.44596    225.53816   -15281.405     15269.58     230.9078    37.264258 
 5324000    270.42335    349.05529    211.64691   -15296.794    15305.857    137.40838    37.260609 
 5328000     274.1008    336.49457    433.47303     -15318.6    15330.279   -96.978461    37.216435 
 5332000    275.47246    362.02419    234.10868   -15353.203     15361.22    127.91551    37.237732 
 5336000    256.89407    359.47958    261.58316   -15341.531    15368.312     97.89642    37.258688 
 5340000     270.1042    446.60314    422.71964   -15350.447    15370.869    23.883497    37.234156 
 5344000    276.37473    326.48891    317.84847   -15371.419     15380.15    8.6404328    37.219312 
 5348000     283.0596    218.23098     484.1868   -15357.441    15363.297   -265.95582    37.202708 
 5352000    297.98206     551.5799    346.90967   -15405.714     15393.37    204.67023    37.237815 
 5356000    273.43569    294.26359    453.92066   -15416.909    15416.226   -159.65707    37.210335 
 5360000    268.99757    511.74429     178.8847   -15439.451    15452.135    332.85959     37.22946 
 5364000    306.56403    307.06104    237.56875   -15460.699    15450.418    69.492285    37.265474 
 5368000    289.93088    412.13851    330.48589   -15478.628    15466.839    81.652621    37.237723 
 5372000    261.60166    281.05717    392.52917   -15471.555    15472.001     -111.472    37.241136 
 5376000    329.89613    512.55591    386.46808   -15500.626    15479.328    126.08783    37.246654 
 5380000     271.3992     354.7038    372.15882   -15511.901    15513.341   -17.455021    37.208116 
 5384000    277.84951    420.15711    323.44832   -15531.625    15547.007    96.708787    37.191962 
 5388000    273.03015    457.58326    310.82419   -15579.777    15578.093    146.75908    37.216243 
 5392000    290.88761    364.70597     306.5879   -15617.112     15600.31    58.118061    37.228088 
 5396000    270.49428    336.67763    327.56446    -15620.94    15644.657    9.1131719    37.229209 
 5400000    273.92931     335.6111    131.51739   -15645.928    15652.344     204.0937    37.233919 
 5404000      302.266    418.09276    451.61497   -15649.147    15645.834   -33.522203    37.252939 
 5408000    281.39073    193.56923    285.84873   -15673.619    15693.854   -92.279504    37.227227 
 5412000    295.42356    344.60925     383.2715   -15702.384    15692.391   -38.662253     37.26164 
 5416000    310.70403    607.67749    336.21688   -15702.171    15695.832    271.46062    37.267661 
 5420000    309.74715    466.17401    556.62988   -15700.551    15698.643   -90.455866    37.254856 
 5424000    250.15674    475.01835    473.34846   -15708.824    15741.318    1.6698859    37.269262 
 5428000    281.71979    257.82836    424.80506   -15751.193    15743.356   -166.97669    37.250326 
 5432000    292.02291    247.51793    259.27635   -15771.457    15759.303   -11.758417    37.274748 
 5436000    266.89948    341.13569    364.27356   -15781.977    15777.608   -23.137865    37.304932 
 5440000    267.80751    417.66179    261.46971    -15797.41     15804.31    156.19208    37.321529 
 5444000    293.65246     333.8756    532.42631   -15815.512    15802.161   -198.55072    37.282757 
 5448000      261.042    443.86599    175.97478   -15840.184    15837.648     267.8912    37.259608 
 5452000    283.68722     530.3566    322.37331   -15867.637    15845.818    207.98329    37.289323 
 5456000    297.71546    509.11373    278.57658   -15881.148    15872.806    230.53715    37.331677 
 5460000    296.88538    592.79465    288.57409   -15880.849    15889.736    304.22057    37.360479 
 5464000    301.21546    246.79572    298.79918   -15877.227    15890.697   -52.003456     37.36206 
 5468000    293.28596    424.62353    314.41926   -15882.572    15881.765    110.20426    37.374585 
 5472000    318.56152    419.92655    366.30632   -15908.137    15906.466    53.620232    37.392135 
 5476000     273.5242    347.76354    291.39114   -15917.647     15923.71    56.372401    37.385312 
 5480000    264.85035    430.10539    355.17635   -15916.991    15933.348    74.929041    37.406239 
 5484000    312.95495    652.81977    216.25119    -15933.13    15927.056    436.56858    37.408879 
 5488000    277.64168    357.21853    298.58782   -15954.218    15943.521    58.630714     37.43341 
 5492000    276.54434     345.4689    163.46125   -15969.193    15962.494    182.00765    37.445572 
 5496000     287.8277    292.51623    379.71744   -15971.545    15959.348   -87.201217    37.436639 
 5500000    290.43772    470.55583    296.66818   -16006.383    16010.566    173.88765    37.433322 
 5504000    269.66236    284.63999    360.30549    -16016.92    16038.746   -75.665503     37.42088 
 5508000    288.73744    418.50365    267.02779   -16035.628    16047.514    151.47586     37.40818 
 5512000    290.03146    433.68619    162.45987   -16057.336    16056.076    271.22632    37.419666 
 5516000    287.85022    293.46272    294.28358   -16060.088    16062.759  -0.82086326    37.413336 
 5520000    263.24598    681.09756    237.50743   -16063.458    16087.439    443.59013    37.450009 
 5524000    258.70897    441.64893    368.66617   -16082.145    16093.144    72.982763    37.467094 
 5528000    258.33423    172.53199     225.0115   -16083.474    16101.374   -52.479514    37.492248 
 5532000    273.70135    585.57544    381.49408   -16108.456    16103.162    204.08136    37.532092 
 5536000    287.08185    219.74235    256.61801   -16138.217    16133.612   -36.875664    37.554752 
 5540000    275.75077    515.62711    375.65191   -16159.579    16182.869     139.9752    37.539173 
 5544000    296.25885    558.06855    310.35597   -16180.634    16180.328    247.71258    37.553329 
 5548000    266.28932    207.57987     237.4555   -16189.291    16207.438   -29.875632    37.545976 
 5552000    289.58065    474.48683     236.7813   -16223.245    16215.919    237.70552    37.597173 
 5556000    284.03897    269.22401    326.55141   -16240.303    16249.829   -57.327395    37.591905 
 5560000    288.37469    327.25946    429.93832    -16233.55    16247.979   -102.67886    37.582755 
 5564000    290.01676    330.44042    512.43658   -16273.284     16283.66   -181.99616    37.589817 
 5568000    272.48306    387.48147    319.62382   -16293.823    16288.747    67.857654    37.586584 
 5572000    269.29911    263.45716    295.93428    -16290.76    16289.083   -32.477125    37.603021 
 5576000    269.14607    308.86899    407.99726   -16302.705    16319.128   -99.128264    37.587638 
 5580000    248.63504    342.59954    326.60128    -16296.99     16335.85     15.99826    37.589335 
 5584000    298.28786    573.76346     311.9426   -16341.196    16336.441    261.82086    37.590832 
 5588000    294.32719    460.59334    273.94034   -16354.319    16343.834      186.653    37.645525 
 5592000    247.06071    265.80157    294.89911   -16330.961    16365.584   -29.097534    37.641066 
 5596000    276.11932    506.12674    351.48986   -16360.042    16365.513    154.63688    37.651225 
 5600000    267.61415    414.22235    440.91545   -16384.484    16386.538   -26.693107    37.641138 
 5604000    252.00455    193.84432    278.99466   -16390.645    16403.128   -85.150341    37.680139 
 5608000    268.91983    286.48086    312.37193   -16392.485    16417.356   -25.891074    37.707226 
 5612000    277.10798    315.59748    369.33444   -16396.021    16402.493   -53.736952    37.714231 
 5616000    298.00405    339.79351    290.27856   -16438.833     16420.55    49.514957    37.705606 
 5620000    272.24586    429.26233    275.18829   -16449.098    16440.545    154.07404    37.729673 
 5624000    273.36178    576.43284     311.3592   -16462.456    16459.796    265.07364    37.693511 
 5628000    287.78324    178.62775    317.52353   -16477.294    16482.357   -138.89578    37.693522 
 5632000    292.85048    557.50806    506.24162   -16508.691    16504.319     51.26643    37.684646 
 5636000     283.5669    311.29463    396.17739   -16519.595    16526.543   -84.882761    37.674687 
 5640000    297.77774    294.76865    369.43569   -16545.999    16542.455   -74.667044    37.688219 
 5644000    288.68181    240.25573    243.91723   -16576.178    16580.217   -3.6615004    37.659947 
 5648000    287.51707    456.03623    241.87012   -16579.344    16573.506    214.16612    37.644223 
 5652000     264.0339    192.77276    200.53676   -16563.823     16579.55   -7.7640035     37.63274 
 5656000     312.4811    420.78125    386.34663   -16601.745    16581.692    34.434618    37.620652 
 5660000    270.46497    196.42526    341.36253   -16592.739    16601.233   -144.93727    37.674857 
 5664000    301.19724     401.1004    261.61319   -16629.136    16614.138     139.4872    37.671867 
 5668000    272.10131    268.80914     326.2919   -16645.413    16643.025   -57.482759    37.624473 
 5672000    266.96936    189.61459    301.63477   -16658.522     16668.72   -112.02018    37.605528 
 5676000    267.18076    249.06693    221.42208   -16685.217    16695.112    27.644847    37.592309 
 5680000    294.60008    272.41478    292.68588   -16710.716    16698.316   -20.271104    37.597335 
 5684000    291.28784    335.53668    234.23275   -16708.463    16710.977    101.30393    37.602036 
 5688000    295.39942    382.28469     331.4377    -16733.21    16741.441    50.846988    37.621661 
 5692000    272.85741    401.28325    165.64365    -16742.22    16742.789    235.63961    37.621176 
 5696000    305.56785    370.24602    326.54194   -16786.241    16763.501    43.704073    37.626124 
 5700000    296.66803    355.13483    242.07904   -16814.464     16800.77    113.05578     37.66234 
 5704000     277.0098     377.2647    563.72904   -16820.997    16821.147   -186.46434    37.660953 
 5708000    295.27115    327.92958    347.75489   -16836.999    16841.457    -19.82531    37.681919 
 5712000    252.21018    481.91284     226.6484   -16860.072    16883.775    255.26445    37.682407 
 5716000    267.28096    443.99521     347.7909   -16875.746    16888.174    96.204306    37.698026 
 5720000    266.50357    341.12483    310.37446   -16890.924    16905.502    30.750371    37.690101 
 5724000    278.20678    301.91075    289.18609   -16909.768    16926.622    12.724659    37.662648 
 5728000    269.28212    282.89023     313.6513   -16930.624    16952.838   -30.761074    37.679175 
 5732000    291.52425    292.62994    472.06842   -16980.579    16968.035   -179.43848    37.669093 
 5736000    275.35223    356.58988    534.61626    -16998.63    16990.299   -178.02638    37.670963 
 5740000    285.61918    282.74578    319.16474   -17002.592    16997.029   -36.418958    37.689379 
 5744000     282.3789    364.19664    209.09015   -17023.435    17008.781    155.10649    37.698371 
 5748000    254.65942    282.98865    303.94349   -17005.139    17015.142   -20.954833    37.698895 
 5752000    317.59615    395.94101    193.56912   -17020.159    17008.565    202.37189    37.703663 
 5756000    281.38426    190.64216    224.25793   -17031.455    17035.616   -33.615771    37.676151 
 5760000    255.25084    316.83304    199.96564   -17039.626    17054.942     116.8674    37.657933 
 5764000    259.23503    452.12361    254.27898   -17064.311    17071.956    197.84463    37.652735 
 5768000    271.94266    324.11081    307.66271   -17077.417    17102.693    16.448098    37.659771 
 5772000    262.90152    341.51327    327.76888   -17109.355     17114.17    13.744384    37.653159 
 5776000    267.75278    454.12778    342.61958   -17135.115    17143.904     111.5082    37.663781 
 5780000    276.16878    282.64632    384.31592   -17165.689    17177.248    -101.6696    37.700802 
 5784000    279.25027    328.75932    344.50636   -17176.927    17177.521    -15.74704    37.674521 
 5788000     269.1291    300.19481    271.80117   -17186.858     17191.78    28.393642     37.65941 
 5792000    323.83321    411.46536    460.00706    -17213.22    17194.466   -48.541701    37.636967 
 5796000    288.00828    460.99416    247.95312    -17220.02    17213.406    213.04104    37.633805 
 5800000    300.47647    349.50657    411.01496   -17238.105    17234.301   -61.508392    37.655969 
 5804000    274.79881    353.08497    145.45263   -17257.355    17272.493    207.63234    37.668961 
 5808000    295.00926    305.72765    353.10053   -17286.643    17284.227   -47.372885    37.682797 
 5812000    260.63144    431.43102     303.7268   -17295.519    17327.236    127.70423    37.735031 
 5816000    293.61288    437.61907    347.10027   -17335.146    17313.296    90.518802    37.738412 
 5820000    297.34547    520.99378    318.13048    -17357.07    17337.757     202.8633    37.713671 
 5824000    280.76774    296.66662    338.17913   -17354.275    17372.426   -41.512518     37.70859 
 5828000    289.53123    489.84304     268.3987   -17364.532    17367.716    221.44434    37.759251 
 5832000     263.8814    213.47719    197.08375   -17357.298    17373.663    16.393438    37.741797 
 5836000    291.19922    422.98942    364.27577   -17384.454    17379.881    58.713642    37.763942 
 5840000     278.8136    402.93373     244.6999   -17398.675    17406.919    158.23383    37.755234 
 5844000    309.99271    355.72928    252.51972   -17423.922    17409.206    103.20956    37.755486 
 5848000    307.52523    417.27366    362.52602   -17441.823    17435.909    54.747638    37.765038 
 5852000    292.05287    224.70387     311.3475   -17460.229    17454.663   -86.643629    37.748735 
 5856000    286.56331    337.54138    326.76434   -17490.083    17493.064    10.777047    37.756257 
 5860000    278.12387    394.88599    375.39916   -17516.748    17505.319    19.486832    37.748571 
 5864000    286.31687    226.08719    392.89748   -17524.454    17531.165    -166.8103    37.749374 
 5868000    262.57726    365.59553    284.80499   -17524.461    17540.753    80.790542    37.726251 
 5872000    273.94448    220.08077    233.58696   -17536.456    17544.473   -13.506193     37.75924 
 5876000    283.11911     385.6956     142.2881   -17588.127     17566.58     243.4075    37.777811 
 5880000    292.12121    436.06534    309.22789   -17611.625    17593.212    126.83745    37.771584 
 5884000    288.55639    473.54091    323.85317   -17627.092    17627.577    149.68774    37.759039 
 5888000    276.14065    205.68247    185.87406    -17625.23    17628.122    19.808417    37.759072 
 5892000    287.83466    332.17748    352.31762   -17622.389    17628.446   -20.140135    37.747078 
 5896000    290.60841    502.40747    229.82839    -17644.15    17652.134    272.57908    37.779246 
 5900000    292.63732    434.29467     297.0853   -17664.326    17679.159    137.20937     37.79781 
 5904000    274.76305    338.86534    409.20526   -17682.564    17694.583    -70.33992    37.800017 
 5908000    270.79614    546.00992    295.25874   -17717.447    17703.721    250.75119    37.786321 
 5912000    284.81472    213.16038    262.23961    -17719.31    17722.464   -49.079229    37.770635 
 5916000    283.40941    296.34574    332.61778    -17749.62    17735.984   -36.272038    37.778232 
 5920000    301.71448    416.73707    411.48942   -17774.174    17765.791    5.2476545    37.786188 
 5924000    281.13754     454.2348    395.50957    -17764.07    17764.667    58.725235    37.798596 
 5928000    282.12345    309.45038    341.86744   -17773.044    17789.478   -32.417059    37.780918 
 5932000    279.90335    310.01361    355.41267    -17776.34    17780.813   -45.399057    37.782407 
 5936000    272.10532    362.65071    263.64991   -17812.604    17808.464    99.000796    37.781501 
 5940000    277.76452    292.31666     309.6743   -17856.013    17848.617   -17.357635    37.785543 
 5944000    265.02272    240.61939    219.29831   -17877.455     17883.34    21.321079    37.770839 
 5948000    280.95942    453.58811    468.20432   -17908.881    17920.916   -14.616212    37.751007 
 5952000    263.14694    383.31556    299.16407    -17922.96    17944.014    84.151487    37.743626 
 5956000    267.39764    318.50669    408.08407   -17936.244    17957.399   -89.577381    37.769053 
 5960000    279.99919    269.45367    286.47117   -17946.057    17949.079   -17.017508    37.746633 
 5964000    284.27857    434.37811    225.56466   -17970.426    17985.725    208.81345     37.72554 
 5968000    278.24385    285.33945    328.01593   -18003.086     18011.91   -42.676475    37.713487 
 5972000    291.23191    450.51915     388.3805   -18013.395    18022.802    62.138653    37.737691 
 5976000    308.06376    104.86296    342.58074   -18044.595      18026.7   -237.71778    37.705618 
 5980000    291.42816    457.61094    325.04817   -18081.706    18078.845    132.56278    37.706098 
 5984000    260.10354    394.66632    370.82537   -18079.211    18094.355     23.84095    37.722186 
 5988000    278.62434    510.66585    294.61354   -18086.592    18096.647    216.05231    37.686124 
 5992000    259.51351     279.2143    209.71595   -18101.201    18112.944    69.498354    37.675714 
 5996000    255.05465    257.45571    202.21365   -18116.353    18149.514    55.242058    37.639742 
 6000000    262.29687    442.73495    339.28362   -18142.884    18155.881    103.45133    37.617241 
 6004000    321.09013    608.15279    415.44058   -18170.796    18161.914    192.71221     37.62228 
 6008000    281.18046    224.34068    364.70656   -18181.867    18175.368   -140.36588    37.629584 
 6012000    257.27224    349.07474     276.4184   -18195.112    18223.264    72.656337    37.610275 
 6016000    299.72466    406.91429    326.34858   -18209.707    18215.815    80.565706    37.619082 
 6020000    273.21957    518.36908    398.46711   -18219.946     18238.78    119.90198    37.631029 
 6024000    255.81162    251.14628    267.74956   -18238.935    18257.758   -16.603273    37.613321 
 6028000    269.11421    547.18055    379.15183   -18269.395    18298.603    168.02872    37.645409 
 6032000    296.65134    250.41709    451.86799   -18294.967    18310.066    -201.4509    37.641694 
 6036000    295.55018    366.43528    425.16755   -18318.108    18327.223   -58.732269    37.636056 
 6040000    291.14286    234.55182    297.43656       -18359    18358.389   -62.884749    37.636454 
 6044000    286.97424    432.51669    187.15069    -18360.81    18350.913      245.366    37.657705 
 6048000    300.08381    325.74643    388.10063   -18401.117    18373.028     -62.3542    37.645281 
 6052000    284.99056     441.9584    202.98655    -18395.35    18372.614    238.97185    37.635038 
 6056000    283.71214    322.19164    169.52882    -18392.21    18397.204    152.66282    37.629257 
 6060000    281.72423    339.71431    222.46536    -18411.96    18406.971    117.24895    37.630964 
 6064000    296.06715    308.23571    408.08719   -18412.363    18413.504   -99.851471    37.632423 
 6068000    306.77529    267.07146    364.06869   -18450.244    18425.484   -96.997225    37.629792 
 6072000    265.05224    339.28248    668.37207   -18435.899    18440.486   -329.08959    37.641239 
 6076000    276.14445    344.40056    415.93581   -18456.055    18453.321   -71.535258    37.651437 
 6080000    271.85998    289.41655    254.53558   -18480.765    18464.405    34.880972    37.659382 
 6084000    297.23312    345.61003    233.48824   -18483.974     18473.74    112.12179    37.677623 
 6088000    267.78611    416.86786    425.86001   -18494.056    18506.209   -8.9921472    37.684896 
 6092000     293.1201    309.36868    168.34461   -18543.743    18525.109    141.02407    37.675472 
 6096000    278.74495    237.46444    559.20288   -18522.109    18538.993   -321.73844    37.670792 
 6100000    253.78505    276.97499    175.83432   -18533.784     18541.58    101.14067    37.684611 
 6104000    322.56381    358.13354      267.483   -18546.383    18509.979    90.650542    37.703633 
 6108000    302.34138    419.27614    428.35633   -18536.777    18518.233   -9.0801909    37.704817 
 6112000    308.43069    482.57415    381.01711    -18557.05    18554.886    101.55704    37.677791 
 6116000    266.56159    332.06756    240.23427   -18575.353    18571.563    91.833292    37.640088 
 6120000    291.57775    538.19892    149.12691    -18569.52    18559.241    389.07201    37.690256 
 6124000    310.66712    234.53858    382.47127   -18581.151    18562.593   -147.93269    37.673755 
 6128000    278.27325    216.73679    222.98215   -18604.341    18597.862   -6.2453622    37.689301 
 6132000    288.56045    438.13093    257.04016   -18640.007    18619.101    181.09077    37.661102 
 6136000    262.51623    180.74801    312.59317   -18658.575    18652.006   -131.84516     37.61866 
 6140000     309.4562    526.63979    428.14741   -18686.284    18658.755    98.492379    37.613353 
 6144000    254.08887    253.75633     278.2003   -18697.695    18704.472   -24.443969    37.622609 
 6148000    310.16223    403.36579    361.38506   -18724.513    18723.206    41.980733    37.615876 
 6152000    280.54315    346.28242    287.81445   -18730.888    18743.203    58.467964    37.604688 
 6156000    273.49705    171.80122    362.56846   -18761.324    18760.027   -190.76724    37.635608 
 6160000    282.21362    422.24737    230.76657    -18777.58    18786.672    191.48081    37.669159 
 6164000    267.91681    234.45447    563.73295    -18784.88    18797.111   -329.27847    37.680122 
 6168000    252.14449    284.02717    388.87861   -18797.692    18810.278   -104.85144    37.634678 
 6172000    265.82306    467.13505    278.04453   -18801.644    18832.458    189.09052    37.665037 
 6176000    277.64564    261.99573    380.93981   -18837.702    18836.644   -118.94408    37.665624 
 6180000    300.28222    404.49148    289.17543   -18864.742    18858.197    115.31605    37.653532 
 6184000    288.00689    330.11434    269.43923   -18863.458    18857.807    60.675106    37.661981 
 6188000    292.44911    167.36079     359.8182   -18875.487    18873.489   -192.45741    37.638181 
 6192000    268.73047    219.08933    394.75456   -18885.909    18893.686   -175.66523    37.668287 
 6196000    281.88176    322.42331    373.89261   -18933.518     18919.38   -51.469301     37.67365 
 6200000    278.24567    220.03609    308.33406   -18929.281    18938.005   -88.297971    37.667532 
 6204000    284.91122    192.23904    426.36034   -18936.133    18951.602    -234.1213    37.683486 
 6208000    312.51083    276.38649    285.18417   -18972.508    18953.371   -8.7976816    37.653105 
 6212000    312.44045    489.45711    231.24237   -18993.563    18973.762    258.21473    37.680193 
 6216000    316.10368    470.45097    373.49193   -18995.854    18985.149    96.959042    37.691655 
 6220000    284.46258    304.53081    260.41649   -19003.135    19003.094    44.114317    37.764601 
 6224000    290.23082    433.89897    249.89701   -19016.703    19019.806    184.00196     37.76592 
 6228000    267.37083      217.582    258.64224   -19020.345    19034.908   -41.060243     37.78622 
 6232000    312.70193    352.36444    510.35051   -19059.854    19038.578   -157.98607    37.817909 
 6236000    296.32793    208.91724     314.5062   -19068.942    19062.556   -105.58896     37.83019 
 6240000    284.81139    368.05604    358.33617   -19108.731    19091.371    9.7198767    37.857805 
 6244000    308.93859    260.57334    589.41524   -19134.209    19118.912    -328.8419    37.863247 
 6248000    278.30139    273.57301    341.00907   -19138.373    19157.582   -67.436054    37.827684 
 6252000    294.25333    561.14083    318.29655   -19146.979    19157.086    242.84428    37.835788 
 6256000    278.56266    380.51531    209.27406   -19179.365    19183.241    171.24125    37.807897 
 6260000     260.5109    389.59909     162.6192   -19167.931    19183.052     226.9799    37.838454 
 6264000    291.81497    530.52064    259.22821   -19195.277     19192.37    271.29243    37.825157 
 6268000    256.27334    451.92797    499.19578   -19185.681    19216.207   -47.267813    37.858776 
 6272000    292.14466    356.21277    297.39198   -19241.597     19245.93    58.820789    37.858747 
 6276000     273.2294    491.27174    227.42908   -19235.829    19247.044    263.84265    37.864682 
 6280000    298.37811    275.40409    352.69424   -19255.802    19248.515   -77.290152    37.899933 
 6284000    282.96182    272.30006     202.6629   -19244.514    19246.734    69.637154    37.882724 
 6288000    280.62954    285.47081    317.83594   -19242.373    19252.038   -32.365131    37.904035 
 6292000    301.32398    440.02886    284.73976   -19265.062    19259.332     155.2891     37.86168 
 6296000    300.13326    299.86219    294.07348   -19273.306    19274.618     5.788709    37.841579 
 6300000    295.57542    586.93148    224.22479   -19300.425    19281.899    362.70669    37.841934 
 6304000    299.40026    470.77867    274.89772   -19315.256    19293.912    195.88095    37.831178 
 6308000    288.89006    239.07628    399.41846   -19309.449    19310.178   -160.34218    37.813629 
 6312000     259.0228    342.50107     193.5247   -19327.645    19337.491    148.97637    37.848053 
 6316000    283.10642    304.78721    418.38376   -19344.425    19334.571   -113.59655     37.82203 
 6320000    273.00336    291.59354    173.90705   -19392.965    19384.906    117.68649    37.843767 
 6324000    285.44477    403.15811    345.47839   -19380.149    19391.031    57.679725    37.871751 
 6328000    303.22246    315.72667    392.46029   -19399.396    19401.016   -76.733622    37.863302 
 6332000    291.76217    284.89453    205.87543   -19423.098    19418.471    79.019096    37.839545 
 6336000    291.38285    345.04066    400.37359   -19437.093    19433.672   -55.332935    37.835187 
 6340000    269.89247    331.27631    263.19675    -19467.45    19463.752    68.079552    37.848111 
 6344000     274.6632    242.32593    221.95266   -19458.505    19480.063    20.373275    37.852852 
 6348000    320.61328    245.15525    279.63136   -19491.904    19484.863    -34.47611     37.86301 
 6352000    253.98038    377.13044    208.88695    -19496.39    19515.735    168.24348    37.875021 
 6356000    280.14422    351.24363    324.94081   -19535.453    19531.168    26.302824    37.885744 
 6360000    275.04933    350.30146    378.85726   -19557.603    19575.285   -28.555805    37.902407 
 6364000    285.28838    441.31976    481.00728    -19591.91    19596.651   -39.687518    37.890445 
 6368000    306.47875    461.81941    275.52656   -19631.038    19609.618    186.29285    37.884118 
 6372000     306.7841     453.3952    236.23776   -19648.794    19628.107    217.15743    37.876031 
 6376000    286.53816    420.08197    179.39716   -19655.941     19652.39    240.68481    37.888639 
 6380000    253.66959    218.59637    336.67467   -19636.074    19668.283    -118.0783    37.886599 
 6384000    249.68182    411.93788    366.30544   -19657.969    19686.445    45.632444    37.877159 
 6388000    269.68986    610.51807    164.48152   -19696.839    19709.487    446.03655    37.864026 
 6392000     312.6531    405.47136    337.54456    -19718.16    19699.853    67.926802    37.839681 
 6396000      279.967    472.48095    256.99192   -19715.404    19717.638    215.48902    37.851091 
 6400000    291.90819    282.82312    432.37811   -19729.188    19725.364     -149.555    37.890288 
 6404000    271.12737     348.4286    234.52477   -19724.387    19732.167    113.90383    37.899114 
 6408000    268.54376    252.11179    318.68664   -19737.939    19741.289   -66.574852    37.896235 
 6412000    248.30015    203.78728    374.15904   -19725.083    19749.409   -170.37176     37.86324 
 6416000    279.76746    211.74448    682.86583   -19733.436    19756.194   -471.12135    37.869842 
 6420000    274.91364     222.7656    287.65189   -19770.798    19779.873   -64.886292    37.878265 
 6424000    283.77677    180.56157    286.03293   -19784.227    19803.038   -105.47135    37.858987 
 6428000    283.88097    234.46753    351.51146   -19819.785    19803.215   -117.04393    37.837065 
 6432000    294.29483    427.83666    321.96334   -19840.489    19815.816    105.87332     37.84877 
 6436000    277.12604    333.78205     428.4623    -19862.64     19858.34   -94.680249    37.865141 
 6440000    281.18946    422.25493    249.56041    -19882.83    19878.174    172.69452    37.875734 
 6444000    252.23734    314.62916    226.94975   -19875.786    19890.654    87.679418    37.865759 
 6448000    291.97306    308.28543    340.20867   -19874.677    19882.615   -31.923245    37.849426 
 6452000    268.00824    328.35391    169.34634   -19881.305    19883.853    159.00757    37.835514 
 6456000    289.32503      297.842    219.45583   -19895.004    19919.773    78.386174    37.853583 
 6460000    260.61931    228.35109    275.73741   -19924.956    19941.597   -47.386318    37.834283 
 6464000    316.62054    633.74719     236.0696   -19958.236    19930.579    397.67759    37.848056 
 6468000    271.79355    339.22782    516.72133   -19947.659    19960.186   -177.49351    37.862187 
 6472000    317.86477    439.27647     523.9265   -19971.455    19968.605   -84.650038     37.87041 
 6476000    280.75133    415.01328    265.21052   -19986.354    19996.081    149.80276    37.848554 
 6480000    242.04755    263.47507    353.70005   -19976.382    20010.902   -90.224984    37.820687 
 6484000     275.5383    277.64176    323.14284   -20032.112    20021.059   -45.501075    37.818671 
 6488000    279.12449    579.39399    386.07352    -20030.24    20042.089    193.32046    37.827192 
 6492000     267.4951    390.90436    269.37325   -20058.973    20068.765    121.53111    37.846441 
 6496000    288.71934     389.3329    240.57558   -20070.886    20090.776    148.75732    37.837925 
 6500000    266.56331    462.58504    297.70909   -20087.068    20097.193    164.87594    37.873089 
 6504000    296.98886    377.89325    518.46451   -20111.827    20107.892   -140.57125    37.878264 
 6508000    263.41881    369.96296    326.85073   -20096.103    20127.081    43.112233    37.882416 
 6512000    275.15567     336.9283    342.33472    -20115.44    20126.363   -5.4064161    37.888197 
 6516000    288.14504    237.49112    388.73154   -20142.482    20154.893   -151.24042     37.91046 
 6520000    272.77038    235.59405    303.33262   -20153.219    20148.986   -67.738572     37.91246 
 6524000    320.08249    517.19707    320.15342   -20186.136    20172.538    197.04366    37.935861 
 6528000    287.93264    286.69892    202.26464   -20188.914    20171.372    84.434272    37.959906 
 6532000    271.11182    390.06566     338.3247   -20190.066    20192.661    51.740964    38.000848 
 6536000    268.64749    225.72061    424.35039   -20211.938     20211.55   -198.62977    38.014105 
 6540000    250.29754    253.19305    311.95945   -20227.527    20257.698   -58.766398     38.02555 
 6544000    277.01337    428.43276    346.93022   -20258.652     20278.96    81.502544    38.030302 
 6548000     296.9088    339.16124    709.11791   -20283.302    20278.477   -369.95667    38.021277 
 6552000    327.24758    464.42633    429.45447   -20309.785    20296.211    34.971856    38.028691 
 6556000    265.06658    244.64918    356.75211   -20321.614    20329.772   -112.10292    38.031304 
 6560000    268.63281    357.04943    354.95431   -20352.045    20367.393    2.0951239    38.019437 
 6564000    285.94145     223.6594    315.24101   -20365.331    20378.794    -91.58161    38.050935 
 6568000     283.0565    328.58878    248.57987   -20398.038    20394.552    80.008913    38.074976 
 6572000     297.2812    363.76178     316.0919   -20382.879    20382.338    47.669885     38.04565 
 6576000    273.52053    464.22275    215.06726   -20372.121     20393.88    249.15548    38.050834 
 6580000    288.99202    179.73766    327.46277   -20391.407     20405.78   -147.72511    38.054623 
 6584000    297.72259    359.02578    282.19453   -20392.381    20395.231    76.831252     38.03163 
 6588000    305.86845    397.52996    349.13612   -20447.708     20430.79    48.393843    38.027449 
 6592000    292.24581    320.81378    347.30686    -20428.87    20431.306   -26.493083    38.034318 
 6596000    260.89866    253.44075    268.49274   -20432.592    20451.536   -15.051989     38.05078 
 6600000    313.30714    350.12854    482.81883   -20472.536    20471.024   -132.69029    38.065446 
 6604000    273.08168    497.36128    150.55193    -20482.43    20491.949    346.80934    38.076765 
 6608000    282.39671    288.25228    226.09565   -20502.494    20508.524    62.156623    38.082965 
 6612000    291.69683    396.95431    381.00273   -20524.835    20507.713    15.951584    38.060113 
 6616000    307.59368     435.2798    343.37022   -20531.291    20531.088    91.909584    38.065698 
 6620000    281.20658    188.19858    345.07718   -20555.066    20561.297    -156.8786    38.058154 
 6624000     292.0385    263.14504    607.92659   -20574.772    20562.769   -344.78155    38.053102 
 6628000    275.71285    471.79655    270.35995   -20574.066    20591.781     201.4366    38.035384 
 6632000    264.29548    201.74276    306.18912   -20602.861    20618.883   -104.44636    38.023491 
 6636000    312.86506    207.74791     302.4163   -20619.933    20616.376   -94.668384     37.99561 
 6640000    277.04866    340.22791    292.86629   -20624.842    20623.415    47.361619    37.978777 
 6644000    297.91753    292.62921    441.07727    -20628.28    20630.456   -148.44805    37.974058 
 6648000    270.80726    461.41871     367.6922   -20648.426    20650.682    93.726504    37.980081 
 6652000    295.33642    192.69581    383.64923   -20666.937    20669.435   -190.95342    37.978118 
 6656000    298.74204    258.54642    293.03147   -20702.594    20689.155   -34.485055    37.996744 
 6660000    291.87087     447.0318    252.75464   -20732.575    20721.441    194.27717    38.025983 
 6664000    292.18628    239.16145    466.77483   -20733.668    20727.898   -227.61338     38.01628 
 6668000    291.30549    567.36693    343.38997   -20766.689    20766.298    223.97696    38.014207 
 6672000    292.69639    588.15081    239.83396   -20790.592     20795.08    348.31685    37.988199 
 6676000    296.66324    297.84372    320.89045   -20805.258    20804.887    -23.04673    38.007941 
 6680000    272.92093    358.52551    301.37778   -20814.923    20809.389    57.147725    38.024463 
 6684000    307.26098    293.44325    489.24289   -20835.055    20823.226   -195.79964    38.005336 
 6688000    274.13079    311.14047    170.03432   -20826.288    20829.692    141.10615    38.004872 
 6692000    282.63671    354.92607    188.28625    -20807.23    20813.574    166.63982    37.992699 
 6696000    299.35322    284.18373    490.67799   -20818.834    20825.017   -206.49426    38.002287 
 6700000     279.0778    277.69573    393.49708   -20814.964     20821.29   -115.80135    37.991655 
 6704000    285.47353    339.75251    318.45307   -20841.823    20843.344    21.299437    37.959209 
 6708000    284.97787    348.75405     367.5595    -20862.95    20874.164   -18.805449     37.97605 
 6712000    304.71624    533.16492    299.83518    -20898.86    20884.167    233.32975    37.998749 
 6716000    248.70348    333.55076    216.60326   -20894.847    20924.018    116.94751    38.004287 
 6720000    283.16968    322.46637    231.55916   -20939.256     20934.01    90.907212    38.027653 
 6724000    307.20167    417.51063    346.24237    -20963.27    20946.334    71.268258    38.027912 
 6728000    295.74793    465.70944    352.68416   -20974.865     20958.56    113.02527    38.043056 
 6732000     280.2472    482.49593    225.15994   -20965.843    20980.607    257.33599    38.055638 
 6736000     288.2859    416.96302    281.95271   -20981.268    20989.052     135.0103    38.073324 
 6740000    283.48596    604.02659    412.77928   -20977.103     20988.26    191.24731    38.072865 
 6744000    278.64488    316.23858    211.21336   -21001.612    20999.034    105.02522    38.059775 
 6748000    263.06276     465.9247    264.84226   -20999.724    21032.712    201.08244    38.065781 
 6752000    283.64059    362.05039    372.49377   -21032.309    21046.067   -10.443377    38.048348 
 6756000     286.7304     342.6375    222.06773   -21077.636    21076.455    120.56977    38.025957 
 6760000    336.64416    579.43325    342.52663   -21098.591    21077.287    236.90662    38.007099 
 6764000    287.97995    356.65377    184.44123   -21102.645    21101.107    172.21254     38.01384 
 6768000    273.71491    391.44362    342.95305   -21125.314     21130.65    48.490571     38.01873 
 6772000    277.78551    328.50964    402.37539   -21152.965    21154.997   -73.865754     38.02967 
 6776000    247.77311    248.96759    303.57029   -21170.358     21178.77   -54.602701    38.066911 
 6780000    293.62003    220.64418    237.43687   -21187.739    21192.864   -16.792696    38.023968 
 6784000    294.95806    419.07968    278.16607   -21213.646    21205.287    140.91362    38.060821 
 6788000    273.84785    297.15786    415.92604   -21227.456    21226.793   -118.76818    38.082012 
 6792000    272.03334    429.78282    400.73346   -21231.242    21231.532    29.049361    38.079273 
 6796000    279.71415    367.03177    348.21765    -21247.02    21235.278     18.81412    38.072425 
 6800000     280.6783    441.20486    427.96493   -21259.151    21267.472    13.239934    38.101418 
 6804000    273.98439     440.9574    178.30957   -21276.127    21288.174    262.64783    38.125498 
 6808000    283.82543    420.42817    319.87866   -21266.457    21286.159    100.54951    38.119274 
 6812000    273.37544    418.75339    378.85845   -21291.634    21317.908    39.894943    38.129842 
 6816000    286.73449    348.13524    356.99883   -21304.942    21295.147   -8.8635882    38.127454 
 6820000    271.25675    269.60052    295.56986   -21327.369    21317.931   -25.969343    38.107422 
 6824000    280.93818    347.64025    249.60945   -21338.622    21328.732    98.030796    38.103671 
 6828000    297.25476    211.55999    416.13252   -21348.067    21343.993   -204.57252    38.098585 
 6832000    280.85568    393.34879    245.26739   -21348.316    21350.872     148.0814    38.095128 
 6836000    255.75257    255.72517    198.24345   -21346.443    21375.913    57.481718    38.105373 
 6840000    275.62973    432.75609    306.63719   -21365.893    21367.037     126.1189    38.114326 
 6844000    280.73961    280.45529    111.53906   -21372.963     21374.92    168.91622    38.107287 
 6848000    283.07881    330.59512    443.64513   -21416.013    21417.805   -113.05002    38.124662 
 6852000    287.58486    469.17581    223.47989   -21435.149    21426.597    245.69592    38.110629 
 6856000    268.85469    341.63708    281.31907   -21441.798    21444.689     60.31801    38.122574 
 6860000    294.11533     424.0789    440.53937    -21437.33      21447.8   -16.460472    38.159025 
 6864000    249.48934    215.92875     282.6444   -21462.913    21487.113    -66.71565    38.152518 
 6868000    295.26606    311.01838    347.64163   -21495.053    21491.827    -36.62325    38.171382 
 6872000    304.44672    335.44747    176.69837   -21550.028    21529.249     158.7491    38.163648 
 6876000    290.65766    323.67515     246.2507   -21568.853    21577.144    77.424454    38.172589 
 6880000    271.34782    344.85084    163.84511   -21561.468    21577.823    181.00574     38.17061 
 6884000    279.06042    338.02134     338.9693   -21583.144    21594.402   -0.9479559    38.182969 
 6888000    272.41688    238.59793    527.82181   -21622.706     21602.26   -289.22388    38.185873 
 6892000      293.965    311.37353    385.42933   -21639.237    21632.232   -74.055805    38.168123 
 6896000     286.6174    227.36417    404.62374   -21672.324     21655.66   -177.25958    38.140628 
 6900000    279.01421    340.56469    297.01169   -21682.807    21712.755    43.553006    38.125727 
 6904000    293.23375     359.2448    390.86728   -21727.469    21705.307   -31.622479    38.113547 
 6908000    303.41676    267.28899    314.99995   -21750.931    21752.139   -47.710957    38.082907 
 6912000    265.75217    316.44343    267.88633   -21763.752    21776.812    48.557096    38.065915 
 6916000    288.75068    466.08814    467.09073   -21796.089    21796.273   -1.0025881    38.065253 
 6920000    295.76632     305.8695    206.07816   -21820.634    21819.452    99.791337     38.05031 
 6924000    270.39131    526.23426     304.5576     -21843.4    21847.128    221.67666     38.01301 
 6928000    267.91682    252.44214    491.76611   -21853.042    21848.517   -239.32397    38.027669 
 6932000    279.68545    334.35451     351.8945    -21844.67    21861.144   -17.539989    38.017247 
 6936000     267.9875    332.42914    378.69624   -21853.107     21863.22   -46.267099    37.987001 
 6940000    294.75801    354.04199    344.33654   -21881.236    21865.588    9.7054501    38.001895 
 6944000    266.03084    367.12628    230.43104   -21886.323    21892.802    136.69524    37.985972 
 6948000    275.09426    285.41908    266.88246   -21889.475    21895.947    18.536619    37.981678 
 6952000    288.28255    440.54446    209.70992   -21934.401    21927.602    230.83454    37.990432 
 6956000    279.68555    388.50172      369.228    -21936.11    21940.824    19.273724    38.008882 
 6960000    277.96718    435.72848    369.55177   -21962.348    21966.988    66.176716    38.009703 
 6964000    306.56719    623.89193    436.85439   -22004.936    21976.605    187.03754    38.012783 
 6968000    277.11112    270.53171    338.25142   -22012.238    22013.218   -67.719708    37.994494 
 6972000    282.05982    589.42566    239.12738   -22032.297    22040.096    350.29828    37.988571 
 6976000    271.89991    315.48938    346.77834   -22050.711    22043.732   -31.288964    38.016737 
 6980000    276.23253    301.88887    327.43455   -22051.702    22053.148   -25.545679    38.017533 
 6984000    281.27085    374.90274    430.26339   -22082.735    22090.843    -55.36065    38.029762 
 6988000    330.10227    411.33391    249.54702   -22114.166    22089.623     161.7869    38.055431 
 6992000     277.7424    369.75992    334.11344   -22106.182    22108.312    35.646484    38.039395 
 6996000    277.39334    294.35196    540.09417   -22098.263    22115.195   -245.74221    38.020688 
 7000000    276.46018    315.49533     414.2168    -22113.91    22141.972   -98.721468    38.020336 
 7004000    261.48391    354.07699    261.02401   -22133.611    22152.646    93.052973    37.986198 
 7008000    295.48417    617.70763    365.99797   -22154.383    22171.012    251.70966    38.031136 
 7012000     272.2894    355.14464    286.57629   -22191.615    22185.042    68.568352    38.024444 
 7016000    273.33454    409.83676    309.55209   -22190.938    22198.849    100.28467    38.015126 
 7020000    312.58852     311.3567    301.57009   -22222.394    22195.026    9.7866093    38.033747 
 7024000    305.25406    403.34144    481.71135   -22219.034     22212.22   -78.369906    38.016836 
 7028000    287.77888    346.61548    273.94445   -22223.797    22234.288    72.671034    38.036067 
 7032000    301.65991    269.64818    311.84826   -22259.698    22249.814   -42.200086    38.040883 
 7036000    284.84505    647.98632    263.42803   -22291.464    22271.163    384.55829    38.023346 
 7040000    290.48551    359.44737    420.44917   -22287.496    22292.542   -61.001799    38.023869 
 7044000    287.97923    156.81326    320.35338   -22309.472    22316.933   -163.54012    38.015407 
 7048000    292.75656    268.32725    346.25415   -22347.974    22335.263   -77.926901    37.994282 
 7052000    281.34903    454.55188    446.95251   -22352.813    22353.761    7.5993694     37.99336 
 7056000     298.1966    356.92748    379.46147   -22343.034    22338.953   -22.533989    37.988673 
 7060000    322.32556    455.32297    296.94687   -22375.115    22348.968    158.37611    37.998371 
 7064000    296.65409    290.44536    651.03208   -22395.398    22392.277   -360.58672    37.996904 
 7068000    288.20464    269.87477    299.63905    -22410.97    22399.182    -29.76428    37.997768 
 7072000    291.11904    322.81283    196.61941   -22405.316    22395.861    126.19341    37.996051 
 7076000    269.26443     292.5129    257.53955   -22429.032     22427.53    34.973353    37.977868 
 7080000    258.58074    461.50667    302.41105   -22437.689     22462.45    159.09563    37.997759 
 7084000    254.74691     293.2492    294.57481   -22452.319    22490.163   -1.3256073    38.013417 
 7088000    257.38543    410.27791    379.61369   -22482.773    22516.471    30.664225    38.002653 
 7092000    245.74102    297.46959    155.88677   -22503.356    22536.504    141.58282    38.026229 
 7096000    263.96121    336.98213    370.01008   -22530.908    22534.782    -33.02795    38.014663 
 7100000    285.37678    525.65844    306.20639   -22532.548    22526.913    219.45206    37.989633 
 7104000    321.88095    348.37575    319.03116   -22578.781    22555.866    29.344589    37.953013 
 7108000    311.89466    452.25132    362.94525   -22599.672    22593.841    89.306079    37.953566 
 7112000    304.62007    309.98273    306.83024   -22643.396    22625.779    3.1524924    37.915041 
 7116000    285.01134    495.07597    347.73072   -22661.357    22659.011    147.34526    37.909886 
 7120000    265.79242    457.44964    390.20892    -22666.09    22692.646    67.240721    37.935497 
 7124000     257.3627    373.85657    484.65979   -22650.623     22679.14   -110.80322    37.944469 
 7128000    268.66543    443.45154    339.11238   -22693.783    22692.954    104.33916    37.942692 
 7132000    269.09956    442.96475    453.72335   -22688.307     22725.97   -10.758601    37.922832 
 7136000     257.5723    455.33136    344.05769   -22695.612    22724.114    111.27367    37.946799 
 7140000    296.40915    352.52435    292.52047   -22706.623    22694.661     60.00388    37.917378 
 7144000    260.62903    325.41352    303.05624   -22715.424    22742.431    22.357284    37.913826 
 7148000    277.09204    452.43109    640.18468   -22735.075    22744.811   -187.75359    37.912935 
 7152000    268.83164    145.39947    415.06589   -22740.558    22756.589   -269.66641      37.8915 
 7156000    300.66338    329.42989    480.72488   -22754.439    22758.479   -151.29499    37.893222 
 7160000    268.23258    348.77853    187.05633   -22768.963    22783.507     161.7222    37.908786 
 7164000    277.64567    454.43982     424.7696   -22782.872    22789.842    29.670225    37.864998 
 7168000    265.43739    291.56395     308.4335   -22792.085    22806.372   -16.869552    37.879701 
 7172000    284.83571    505.86851    440.78986   -22810.089    22814.709    65.078647    37.881262 
 7176000    271.17505    324.67538    193.46808   -22826.695    22820.505    131.20731    37.898564 
 7180000    264.27733    331.67276    239.52017   -22825.274    22825.473    92.152591    37.901261 
 7184000    270.54621    293.62414    175.76176   -22818.717    22821.685    117.86239    37.905973 
 7188000    284.45044    377.69474    409.33785   -22842.268    22835.653    -31.64311    37.934723 
 7192000    311.68319    400.61573    268.51754   -22869.091    22845.306     132.0982    37.920358 
 7196000    299.42697    474.63492    413.70328   -22887.119    22880.797    60.931639    37.939947 
 7200000    275.96778    533.82362    374.61683   -22912.166    22917.672    159.20678    37.929503 
 7204000    274.74951    254.32885    289.33381   -22932.656     22949.29   -35.004956    37.942129 
 7208000    289.66644    436.83721    319.12344   -22950.089    22973.211    117.71377     37.96119 
 7212000    262.91748    226.86925    224.68361   -22977.648    22990.901     2.185645    37.944138 
 7216000     283.2461    450.41242     291.6353   -23013.664    23015.397    158.77712     37.94686 
 7220000     283.3183    131.36899     364.7179   -23046.066    23061.289   -233.34892    37.946999 
 7224000    303.21283    537.73316    447.34879   -23077.716    23072.824    90.384376    37.958934 
 7228000    286.67098    434.07275    401.69843   -23064.604    23072.989    32.374322    37.965524 
 7232000    282.83821    267.60132    241.71765   -23079.534     23088.36    25.883669    37.942534 
 7236000    288.54854    364.18384    342.45367   -23091.899    23102.685    21.730169    37.958789 
 7240000    290.33134    306.34843    374.70762   -23105.339    23115.601   -68.359182    37.967497 
 7244000     267.7389    419.34201    296.81585   -23116.597    23130.145    122.52616    37.953091 
 7248000    289.10956    335.65495    391.68253   -23133.558    23139.753    -56.02758     37.93487 
 7252000    276.86907    420.65041     396.5394   -23141.707    23151.152    24.111008    37.943697 
 7256000    299.64277    209.44531    277.18403   -23151.499    23159.464   -67.738723    37.927321 
 7260000      258.848    166.94618    309.58892   -23153.733    23178.418   -142.64274    37.930814 
 7264000    295.92441    283.28235    361.89225   -23188.008     23186.92   -78.609906     37.92547 
 7268000    285.46928    529.18327     355.4943   -23230.418    23212.996    173.68896    37.947346 
 7272000    296.82923    409.76759     347.7566   -23227.663    23238.796     62.01099    37.920292 
 7276000    269.23111    332.41122     305.5808   -23255.128    23263.903     26.83042    37.885265 
 7280000     262.8917    375.45542    304.09659   -23274.603    23293.304     71.35883    37.857474 
 7284000    316.02363    430.80592    227.54908   -23291.568     23287.29    203.25684    37.873606 
 7288000    290.60922    289.45541     204.5075   -23339.082    23337.264    84.947906    37.884295 
 7292000     284.7903    352.38562    324.78753   -23364.968     23368.01    27.598091    37.886466 
 7296000    281.97394    304.58046    354.08484   -23367.565    23368.569   -49.504379     37.89847 
 7300000    307.64345    434.39494    348.63218   -23380.794    23373.551    85.762757    37.894206 
 7304000    277.22517    506.98728    212.77949     -23379.9    23382.259    294.20779    37.886234 
 7308000    241.51757    201.88636     336.5868   -23379.075    23415.635   -134.70044    37.859123 
 7312000    253.72788    261.62695    487.11918   -23396.437    23432.304   -225.49223    37.834967 
 7316000    273.63555    321.47658    223.38043   -23432.941    23442.482    98.096153    37.850795 
 7320000    283.39686    348.88087    389.56023   -23433.261    23442.447   -40.679358    37.839375 
 7324000    264.55285    443.87772    149.67047   -23469.915     23465.39    294.20726    37.843849 
 7328000    283.37196    330.27095    221.57264   -23476.156        23480    108.69831    37.829514 
 7332000    267.90092    161.82312    568.76297   -23469.491    23487.508   -406.93985     37.82066 
 7336000    270.67294    143.47883    267.95623   -23471.749    23488.879    -124.4774    37.833024 
 7340000    273.76647    518.04857    424.33287   -23483.556    23495.506    93.715704    37.821306 
 7344000    281.54424    258.50143    399.39596   -23505.301    23500.537   -140.89454    37.814824 
 7348000    271.90417    173.38127    328.85337   -23497.764    23510.303    -155.4721    37.813332 
 7352000    293.96517    286.73249    269.36653   -23518.404    23516.536    17.365966    37.826701 
 7356000    290.14782    486.37961    533.40143   -23534.191    23533.571   -47.021813    37.817056 
 7360000    301.44494    331.00164    446.88021   -23540.386    23541.222   -115.87857    37.833639 
 7364000    269.62183      452.609    478.13179   -23558.748    23551.715   -25.522788    37.808361 
 7368000    255.13493    238.66879     379.7484   -23560.697    23570.824   -141.07961    37.822053 
 7372000    282.68803    375.30897    290.95097   -23569.459    23576.031    84.357999    37.806299 
 7376000    299.67771    430.54172    284.51312   -23596.932    23589.807     146.0286    37.815568 
 7380000    296.57897    440.24702    562.11978   -23627.885    23633.581   -121.87276    37.803747 
 7384000    273.38301     347.9123     193.6584   -23654.069    23664.607     154.2539    37.800187 
 7388000    307.12503    319.01796    169.10748   -23669.506    23663.031    149.91048    37.806934 
 7392000    297.65425    453.90008    310.15008   -23692.697    23699.803       143.75    37.815869 
 7396000    268.86563    291.74789    362.53622   -23691.236    23699.547    -70.78833    37.806542 
 7400000    290.45617    447.35227    196.47487   -23721.898    23722.572     250.8774    37.834694 
 7404000    264.31359    397.18464    381.33422   -23766.294    23756.112    15.850414    37.834997 
 7408000    249.00213    325.31685    280.72728   -23773.806    23802.326    44.589577    37.845759 
 7412000    264.52812    319.35719    218.78766   -23782.109    23809.118    100.56952    37.845884 
 7416000    306.07559    398.93472    425.32093   -23814.643    23815.595   -26.386214    37.848328 
 7420000    276.21355     411.2093    226.55963   -23829.939    23840.122    184.64967    37.848544 
 7424000    320.16759    652.48582    508.58641   -23864.909     23847.75    143.89941    37.834125 
 7428000    263.48236    252.55596     271.8342   -23842.929    23871.914   -19.278236    37.807797 
 7432000     284.1826    437.79085     315.1859   -23888.167    23886.522    122.60495    37.785731 
 7436000    266.34304    302.09448    225.41628   -23884.771    23912.872    76.678202    37.789359 
 7440000    309.59477    384.39074    354.77472   -23897.351    23912.976    29.616027    37.784616 
 7444000    280.80262    314.41949    356.79537   -23901.682     23924.92   -42.375872    37.784424 
 7448000    291.58778    470.82439    312.66479   -23926.669    23925.238     158.1596    37.792457 
 7452000    269.61098    227.79955    347.97734   -23928.756    23977.118   -120.17779    37.803749 
 7456000    254.93484    402.55655    290.43247   -23985.208    24020.924    112.12408    37.815751 
 7460000    283.00159    374.24372    218.82501    -24030.25    24027.162    155.41871    37.817523 
 7464000    244.59843    270.46646      389.449   -24040.963    24062.764   -118.98255    37.827582 
 7468000    293.48135    446.50589    237.04422   -24068.902    24086.731    209.46167    37.844361 
 7472000    294.51337    366.94551    416.83372   -24102.271    24105.523   -49.888208    37.846528 
 7476000    285.75557    555.32907    304.32182   -24100.454    24097.603    251.00725    37.850206 
 7480000    294.10106    306.39313    625.21286   -24103.586    24092.785   -318.81973    37.853509 
 7484000    313.45514    484.81121    417.40407   -24132.571    24131.939    67.407137    37.843473 
 7488000    271.89763    338.40151    313.64006   -24149.359    24168.316    24.761453    37.861342 
 7492000    282.82612    239.49776    249.23005   -24171.562     24174.45   -9.7322863    37.866541 
 7496000     309.9031    558.57589    333.25783   -24184.722    24171.446    225.31806    37.897094 
 7500000    293.68252    351.25866    332.21665   -24204.427    24190.014    19.042009    37.894758 
 7504000    271.81378    382.07479    196.89023   -24228.089    24239.744    185.18456    37.911676 
 7508000    269.82422    281.69459    319.74088   -24255.975    24254.509   -38.046289     37.92614 
 7512000    295.25101    228.05127    396.52063   -24270.882    24269.802   -168.46936    37.904349 
 7516000    303.68507    356.47069    447.57873   -24287.401    24290.962    -91.10804    37.926759 
 7520000    296.96116    527.66299    513.13116   -24313.703    24300.287    14.531827    37.936454 
 7524000    303.08464    510.57669    400.84029   -24332.994     24319.94     109.7364    37.947092 
 7528000    287.01624    418.84406    471.33563   -24337.584    24333.612   -52.491573     37.96652 
 7532000    288.29259    453.77933    286.97673   -24341.474    24341.245    166.80261    37.951873 
 7536000    257.41487    201.60243    298.93094    -24332.24    24360.605   -97.328505    37.950138 
 7540000    271.17193     526.4603    300.45368   -24331.419    24353.652    226.00662    37.916035 
 7544000    267.49433    298.04051    315.84567   -24336.365    24364.702   -17.805151    37.911549 
 7548000    284.11295    420.75124    308.83846    -24335.36    24349.271    111.91278    37.915907 
 7552000     267.9035    254.62728    306.70237   -24366.579    24355.897    -52.07509    37.933101 
 7556000    274.72367    303.05326    324.52683   -24384.224    24396.123   -21.473568     37.91432 
 7560000    296.74214     402.7018    411.80193   -24392.274    24390.253   -9.1001259    37.918074 
 7564000    258.59258    359.86038    262.48757    -24411.23    24418.794    97.372814    37.892241 
 7568000    283.64375    337.58541    352.87802   -24422.494    24416.974   -15.292605    37.912968 
 7572000     286.1376    386.38074     266.7134   -24410.897    24410.705    119.66734    37.918116 
 7576000    303.17454    239.82466    352.56129   -24442.903    24442.439   -112.73662    37.919023 
 7580000    278.50458     434.2254    274.94342   -24452.176     24462.72    159.28198    37.940243 
 7584000    270.99129    326.58071    211.91115    -24472.12    24500.513    114.66956    37.948013 
 7588000      270.715    389.71011    243.17525   -24476.822    24498.633    146.53486    37.964917 
 7592000    307.56151    388.80067    296.88127   -24496.849    24500.049    91.919396    37.951526 
 7596000    286.01307    242.54669    286.66338   -24520.983    24524.931   -44.116684    37.950586 
 7600000    278.44867    360.07544    404.29898   -24506.991    24513.721    -44.22354     37.96872 
 7604000    291.09002    389.68981    363.04033   -24540.213    24548.329    26.649488    37.951556 
 7608000    282.03758    232.19688    325.11995   -24541.791    24537.741   -92.923074    37.937222 
 7612000    261.31203    327.58375     270.3913   -24557.828    24557.632     57.19245    37.944303 
 7616000     283.4399    415.42067    337.82735   -24582.808    24576.228    77.593318    37.963595 
 7620000    294.96317     441.4373    367.36879   -24605.945    24604.856    74.068514    37.949258 
 7624000    285.24404    335.83316    277.90253   -24632.908    24627.282    57.930631    37.946041 
 7628000    243.01248    365.11216    375.53317   -24614.649      24628.8   -10.421011     37.94252 
 7632000    306.47495    429.86873    254.29115   -24678.212    24648.964    175.57759     37.93424 
 7636000     286.7187    562.26349    237.80601   -24664.743    24676.447    324.45748    37.927949 
 7640000    271.12427    268.31254    258.27361   -24658.247    24669.946    10.038932    37.917294 
 7644000    291.06042    330.08533     379.0126   -24675.117    24672.465   -48.927272    37.938283 
 7648000    280.25787    280.64477    372.96876   -24695.008    24684.542   -92.323988    37.925908 
 7652000    288.81199    424.74593    245.38642   -24719.998    24719.964    179.35951    37.912395 
 7656000    275.01865    172.31844    308.79428   -24726.129    24732.506   -136.47584    37.906248 
 7660000    277.68031    458.00011    375.62533   -24744.687    24782.657    82.374783    37.933604 
 7664000    281.96697    187.57659    270.13696    -24768.51    24772.769   -82.560374    37.962535 
 7668000    321.13719    416.55811    366.35511   -24812.977    24793.851    50.203005    37.976605 
 7672000    289.82515    414.82162    241.96226   -24833.713    24837.828    172.85935    37.965141 
 7676000     271.6355    207.24092     321.9012   -24815.574    24844.649   -114.66028     37.94833 
 7680000    261.85069     337.9289    325.54602   -24838.014    24856.503    12.382883    37.937072 
 7684000    276.15307    495.04394    214.07716    -24839.28    24850.403    280.96678    37.917598 
 7688000     259.2405    302.16679    303.14921    -24855.53    24862.714  -0.98241823    37.935503 
 7692000    283.21197    296.38746    380.39592   -24839.831    24843.982    -84.00846    37.936866 
 7696000    261.26484    641.49131    264.96128    -24831.95    24851.708    376.53002    37.940866 
 7700000    276.63751     541.6365     475.7739   -24853.432    24869.043    65.862601    37.956477 
 7704000     260.8935    341.72573    273.47775   -24875.371    24899.715    68.247979    37.936668 
 7708000     313.2822    537.99474    352.67405   -24916.777    24896.975    185.32069    37.961304 
 7712000    292.30781    236.15005    233.77598   -24926.088     24928.52    2.3740715     37.96021 
 7716000    274.70406    530.59785    552.51758   -24948.273    24954.284   -21.919727    37.922223 
 7720000    269.23788    290.66594    183.08244   -24986.999    24996.066     107.5835    37.922327 
 7724000    297.41035    275.58641    272.48792   -25007.193    25023.865    3.0984876    37.919157 
 7728000    280.82781    286.50356    409.80586   -25032.356    25039.859    -123.3023     37.91241 
 7732000    310.64087    419.72719    235.54005   -25060.737    25049.707    184.18714     37.90945 
 7736000    299.05039    388.75325    624.42462   -25058.691    25054.994   -235.67137    37.886134 
 7740000    261.24083    285.99594    370.66165   -25058.744    25081.568   -84.665706    37.878723 
 7744000    304.91206     351.2006    282.62857   -25091.109    25086.841    68.572032    37.882645 
 7748000    312.02333    440.33993    294.51425   -25124.861    25113.874    145.82567    37.848334 
 7752000    283.84102    514.88171    391.99278   -25138.818     25148.88    122.88893    37.834351 
 7756000    263.60581    403.73334    327.55412   -25142.587    25153.606    76.179218    37.830052 
 7760000    269.58298    201.26964    290.11618   -25155.537    25164.629    -88.84654     37.77567 
 7764000    267.95813    385.81535    345.85591   -25168.125    25196.328     39.95944    37.796548 
 7768000    286.31792    633.26707    385.45843   -25161.505    25171.971    247.80864    37.788714 
 7772000    304.48176    248.25236    514.92517   -25193.279    25197.613   -266.67282    37.771133 
 7776000    281.14005    374.17465    351.67654   -25201.564    25224.246    22.498119    37.772226 
 7780000    298.63238    570.58713    383.93848   -25223.597    25221.688    186.64865    37.767014 
 7784000    271.55247    238.49748    261.33901   -25245.971    25249.027   -22.841529    37.757999 
 7788000    281.34629     212.5783    479.03711   -25249.667    25253.884   -266.45881    37.756169 
 7792000    262.65631    429.17171     259.8422   -25263.624    25286.682    169.32952    37.752558 
 7796000    274.84973    220.97807    457.76763   -25283.904    25296.233   -236.78956    37.751309 
 7800000    271.68717    255.03116    374.12198   -25299.375     25316.11   -119.09082    37.761287 
 7804000    271.31061    448.27405    285.44072   -25331.068    25337.752    162.83333    37.763892 
 7808000    278.70508    560.21728    314.47821   -25339.754    25364.222    245.73907    37.775639 
 7812000     260.7695    424.40084    245.73319   -25349.293    25365.515    178.66765     37.78071 
 7816000    276.48891     476.5123    216.94239   -25383.729    25402.587     259.5699    37.796336 
 7820000    273.02452    295.27456    327.37518   -25379.378    25397.823    -32.10062    37.777047 
 7824000    259.65921    259.41324    366.43291   -25394.197    25413.346   -107.01967    37.789736 
 7828000     265.8981    450.81629    302.60284   -25411.008    25442.004    148.21345    37.772515 
 7832000    284.98352    299.68677    167.10349   -25444.423    25454.068    132.58328    37.786126 
 7836000    288.97675    219.92314    254.14342   -25471.899     25473.94   -34.220275    37.794804 
 7840000    277.26961    491.84705    455.52524   -25483.874    25512.689    36.321807    37.819527 
 7844000    279.70579    214.01622     202.6699   -25478.212    25500.597    11.346324    37.831647 
 7848000    282.96871    279.15408    353.01025   -25514.406    25531.964   -73.856171    37.825502 
 7852000    250.83472    357.08871    294.78563   -25516.019    25562.692    62.303078    37.818687 
 7856000    272.18822    290.68909    333.78316   -25529.692     25548.21    -43.09407    37.816149 
 7860000    274.88234    431.77322    250.32375   -25550.584    25556.703    181.44948    37.813335 
 7864000    281.77879    495.91232    323.96078   -25560.502      25579.9    171.95154    37.807145 
 7868000    253.09917    278.92009    338.30307   -25585.286    25603.435   -59.382978    37.809254 
 7872000    255.32251    257.36014    355.77545   -25598.758     25613.84   -98.415314    37.814652 
 7876000    235.54112    207.41617    307.68058   -25596.398    25639.463   -100.26442    37.816666 
 7880000    302.51948     483.9905    388.18364   -25627.003    25615.704    95.806857    37.829988 
 7884000    285.74306    195.98471    193.38823   -25638.408    25641.284    2.5964835    37.838264 
 7888000    271.69854     278.0032    558.64658   -25623.462    25638.346   -280.64338    37.819143 
 7892000    268.53969    280.82997    241.93058   -25646.246    25657.014    38.899393    37.822146 
 7896000    282.47984    388.67281    225.96696   -25663.535    25676.057    162.70585    37.832962 
 7900000    253.73389    140.86245    353.10704   -25692.601     25703.61   -212.24459    37.866479 
 7904000    280.85902    366.09309    252.17048   -25728.955    25733.779    113.92262    37.874297 
 7908000    279.09494     163.4021    277.94888    -25723.69    25720.604   -114.54678    37.862391 
 7912000    278.64526    292.98212    475.43752   -25771.493    25766.257    -182.4554     37.84904 
 7916000    269.76969    363.72146    374.88824    -25795.25    25806.056   -11.166779    37.829387 
 7920000    277.54558    268.03964    178.48832   -25813.133    25817.501    89.551312    37.813001 
 7924000    267.38272    301.17655     382.9249   -25796.147    25814.451    -81.74835    37.823655 
 7928000    284.91521    275.53682    379.89338   -25816.098    25824.427   -104.35657    37.814258 
 7932000    296.71223     461.0472    220.60307    -25828.97    25820.321    240.44413    37.810279 
 7936000    279.09191    369.99659    232.94105   -25840.551     25848.74    137.05553    37.806021 
 7940000    270.30471    416.07749    201.49492   -25850.672    25864.838    214.58257    37.805424 
 7944000    278.85517    356.78296    382.93128   -25854.065    25866.083   -26.148316    37.793514 
 7948000    288.89845    392.74552     269.1095   -25856.088    25861.108    123.63602    37.785295 
 7952000    301.01691    359.15251    323.11611   -25876.613    25872.473      36.0364    37.747727 
 7956000    265.13576    375.01191    315.62082   -25903.158    25920.831    59.391092    37.715812 
 7960000    284.40636    348.55247    358.17154   -25917.464    25917.708   -9.6190692    37.714204 
 7964000    312.08712    450.22067    280.19312   -25930.763    25918.464    170.02756    37.719754 
 7968000    270.33926    376.71576    327.69434   -25932.518    25961.285    49.021418    37.726723 
 7972000    294.72431    286.29828    232.50524   -25959.133    25974.412    53.793041    37.731297 
 7976000    272.04389    315.50902    253.63752   -25967.321    25978.313    61.871507    37.743118 
 7980000    306.65962    477.05866    348.42668   -25969.354    25963.662    128.63197    37.764859 
 7984000      275.001    228.55059    200.12381   -26007.215    26026.128    28.426774    37.758417 
 7988000    273.29078    445.36687    264.20307    -26010.73    26019.839    181.16379    37.741896 
 7992000    283.95678    330.76907    229.08929   -26038.293    26035.434    101.67979    37.784756 
 7996000     256.2968    416.11942     318.4181   -26024.118    26056.544    97.701318    37.796677 
 8000000    270.19938    339.44343    298.06892   -26039.133    26062.299     41.37451    37.805569 
 8004000    313.30587    519.99903     504.3519   -26076.386    26069.492    15.647129    37.836872 
 8008000    283.12354    273.90853    550.19609   -26106.881    26105.821   -276.28756    37.818925 
 8012000    307.93217    271.58117    328.86823   -26145.035    26137.494   -57.287063    37.807218 
 8016000    293.31879    359.21615    345.63271   -26159.089    26162.076    13.583442    37.814044 
 8020000    269.89583    367.01786    343.73172   -26150.714    26171.898    23.286135    37.807747 
 8024000    281.74942    280.66858    263.63214   -26174.448     26191.96    17.036439    37.793369 
 8028000     312.1336    321.41189    367.01099   -26205.315     26197.25   -45.599097    37.809225 
 8032000    284.47218    402.54632    301.30665   -26226.182    26220.107    101.23966    37.810019 
 8036000    256.94926     329.5398    202.83743   -26231.186    26244.287    126.70237     37.81341 
 8040000    260.35434    361.27344    285.59476   -26250.142    26263.333     75.67868    37.807195 
 8044000    261.66423    460.46548    319.27929   -26268.447    26291.388    141.18619    37.797071 
 8048000    276.11967    303.03311    244.17424   -26309.675    26310.108    58.858876    37.793233 
 8052000     260.2918    367.99679    323.96181   -26311.022    26324.973    44.034975    37.802416 
 8056000     275.0394     303.5129    285.94248   -26306.757    26329.265    17.570423    37.815828 
 8060000    247.30244    335.60479    342.29115   -26314.265    26330.903   -6.6863593    37.834135 
 8064000    289.73593    245.19839    275.34506   -26341.618     26351.93   -30.146668    37.824627 
 8068000    306.29516    410.82559     310.0416   -26365.524     26380.25    100.78399     37.80703 
 8072000    276.81075     255.3941     488.0649   -26413.148    26421.852   -232.67081    37.802656 
 8076000    272.75192    235.34439    309.11768   -26439.429     26459.02   -73.773283    37.813331 
 8080000     279.7352    266.77012    276.48398   -26453.711    26463.266   -9.7138657    37.830585 
 8084000    277.18858    393.05609    367.56962   -26477.009    26495.716    25.486468    37.824989 
 8088000    249.82806    248.36598    179.95916   -26503.372    26532.727    68.406815    37.856181 
 8092000    291.51191    459.83775    324.66362   -26515.461    26517.907    135.17413    37.841935 
 8096000    258.67011     255.3127    209.80033   -26527.299    26527.368    45.512368     37.84912 
 8100000    295.39651      403.589    388.07776   -26538.907    26540.085    15.511237     37.88663 
 8104000    294.31246    372.61074    211.10336   -26565.115    26571.065    161.50738    37.872511 
 8108000    293.55291    316.21646    292.16649   -26566.486    26560.212     24.04997    37.871235 
 8112000    298.79816    361.81801    323.24013   -26569.156    26562.006    38.577883    37.847172 
 8116000    279.01442    484.97646     339.8101   -26605.463    26606.867    145.16636    37.867663 
 8120000    284.79317    282.92459    340.51456   -26629.236    26619.832   -57.589965     37.84461 
 8124000    286.89121    390.67581    301.24049   -26650.938    26644.267    89.435322    37.843139 
 8128000    276.40099    257.15681    261.62725   -26661.966    26663.354   -4.4704456    37.850828 
 8132000     294.8974    442.51559    366.70885   -26690.617    26697.668    75.806739    37.869423 
 8136000    298.53162    334.74572    434.78437    -26726.81    26716.806   -100.03866    37.877262 
 8140000    269.32223     564.0165     270.5794   -26719.839    26736.437     293.4371    37.855488 
 8144000    258.67972    304.28425    280.73213   -26734.114    26749.948    23.552122    37.838606 
 8148000    281.90042    403.96944    317.21153   -26767.168    26772.731    86.757913    37.845552 
 8152000    316.24047    310.39341    444.02767   -26813.862    26793.275   -133.63426    37.851761 
 8156000    301.30887    229.51965    382.34713   -26829.957    26818.376   -152.82748    37.836061 
 8160000    254.34412     463.3397    233.51422   -26813.667     26829.36    229.82548    37.830577 
 8164000    265.63534    330.83471    252.04441   -26802.654    26842.282    78.790295    37.836634 
 8168000    308.29911    467.27398     541.5699   -26845.679     26833.12   -74.295919    37.846515 
 8172000    287.05963    443.17992    269.64183   -26850.727    26867.428     173.5381    37.869149 
 8176000    265.90509    408.05295    262.47042   -26853.396    26883.204    145.58253    37.895685 
 8180000    243.07161    370.35639    342.83404   -26883.884    26898.519    27.522348    37.878174 
 8184000    283.47425    364.36125    334.01066   -26895.235    26902.669    30.350586    37.891535 
 8188000    311.30756    199.82934     459.7479   -26939.057    26921.235   -259.91856    37.888123 
 8192000     291.6414    463.14562    185.13059   -26955.211    26939.224    278.01503    37.862618 
 8196000    278.55068    303.25373    180.21633    -26953.21    26970.757     123.0374    37.862703 
 8200000    297.36612    364.38201    257.47036    -26983.02    26970.919    106.91165    37.889702 
 8204000    284.07074    419.36135    403.36238   -27001.079    26997.773    15.998961    37.900724 
 8208000    306.61455    388.89491    421.18629   -27016.139    27022.728   -32.291383    37.911138 
 8212000    284.83767    292.64781    465.52145   -27034.585    27041.853   -172.87365    37.920811 
 8216000    273.01883    348.90992    296.25539   -27038.206    27050.833    52.654531    37.937964 
 8220000    270.25875    311.21711    295.72814   -27066.921     27084.92    15.488971    37.947974 
 8224000    292.78014    357.01327    271.97048   -27088.616    27086.148     85.04279    37.967249 
 8228000    297.56682    448.08941    277.63874   -27106.228    27114.229    170.45067    37.956225 
 8232000     287.6505    370.09554    300.38732   -27095.281    27095.872    69.708217    37.964058 
 8236000     289.1798    298.82176    215.10186    -27116.79    27124.361    83.719899    37.983743 
 8240000    285.85311    336.96983    499.54993   -27135.284     27131.54   -162.58009    37.971079 
 8244000    293.39372    317.86346    278.13786   -27129.391    27134.454    39.725602    37.969924 
 8248000    281.30068    236.93204     226.0708   -27121.685    27136.527    10.861245    37.962844 
 8252000    251.99377    285.96946    197.41549   -27128.842    27167.743    88.553969    37.974882 
 8256000    274.49706    349.84322    483.29884    -27167.19    27162.518   -133.45563    37.973359 
 8260000    312.65256    400.52601    367.36171   -27200.971    27180.234    33.164293     37.97229 
 8264000    274.64217     398.0682    280.93309   -27221.873    27226.036    117.13511    37.970136 
 8268000     282.9811    517.10801    196.25328   -27244.946    27250.358    320.85473    38.002332 
 8272000    284.41505    396.64008    373.47671   -27254.334    27248.909    23.163369    38.009989 
 8276000    305.05715    516.72801    175.80018    -27279.43    27278.499    340.92783    38.030182 
 8280000    291.29412    372.35853    257.74204   -27313.244     27308.71    114.61649    38.038144 
 8284000    302.45835    442.13994    537.16379   -27331.313    27312.558   -95.023849    38.042285 
 8288000    296.19049    377.90477    377.10282   -27338.566     27333.67   0.80195206    38.040818 
 8292000    289.42285    230.70214    286.10057   -27350.618    27357.211   -55.398429     38.03487 
 8296000    249.40058    285.15905    445.33556   -27358.668    27388.353   -160.17652    38.017799 
 8300000    290.16329    326.32439     351.0873   -27381.285    27391.352   -24.762911    38.021408 
 8304000    289.97681    445.29869    280.22164   -27402.193    27398.822    165.07705    38.020846 
 8308000    296.56114     435.8266    188.89506   -27400.576    27409.012    246.93154    38.033842 
 8312000    295.92486    368.78017    583.25161   -27431.887    27424.365   -214.47144    38.038305 
 8316000    296.07558    343.24175    334.71194   -27417.569    27442.371    8.5298177    38.017954 
 8320000    310.29699    448.18386     165.0119   -27435.586    27446.473    283.17196    38.024067 
 8324000    296.55743    359.24346     368.3115    -27456.54      27461.4   -9.0680384     38.02495 
 8328000    295.59382    349.48735    376.41928   -27470.928    27447.782   -26.931928    38.041782 
 8332000    298.30904    389.53367    515.97489   -27483.248    27472.575   -126.44122    38.045748 
 8336000    301.00054    342.94798    225.32191   -27535.571    27519.149    117.62606    38.026465 
 8340000    293.59041    535.83249     356.6949    -27540.62    27546.133    179.13758    38.016784 
 8344000    300.23546    412.99511     273.8611   -27546.296    27546.245    139.13402    38.014601 
 8348000    310.82976    243.51789    511.71898   -27548.816    27526.432   -268.20109    38.019882 
 8352000    271.42398    225.04849    259.41976   -27562.719    27580.881   -34.371267    38.025087 
 8356000    287.62507    329.40318    264.03138   -27588.666    27608.847    65.371798    38.038247 
 8360000    296.98913    261.98364    385.43626   -27608.004    27610.555   -123.45262    38.041233 
 8364000    308.76228    481.47615    327.63453   -27632.332    27623.456    153.84162    38.028931 
 8368000    291.28514    516.28916    279.27815   -27662.245    27638.212    237.01101    38.041377 
 8372000    280.04383    294.98971    574.84905   -27679.771    27673.356   -279.85934    38.054257 
 8376000    274.42132    362.96275    343.25718   -27693.659    27703.018    19.705573    38.050254 
 8380000    298.23145     351.5719    394.51861   -27719.014    27712.864   -42.946707    38.054073 
 8384000    294.02426    263.72793    395.70905   -27738.073    27745.401   -131.98112    38.058363 
 8388000    254.45467    255.65597    230.94792   -27753.642    27788.466    24.708054    38.053355 
 8392000    278.23568    296.94695    782.02993   -27756.234    27786.064   -485.08299    38.051115 
 8396000     272.6751     260.1692    373.29795   -27758.823    27785.588   -113.12875    38.046129 
 8400000    270.71893    283.97873    211.74999   -27773.873    27789.866    72.228737    38.047737 
 8404000    284.11692    356.71208     254.0381   -27795.976    27810.025    102.67398    38.075448 
 8408000    298.36008    308.48724    352.55551   -27817.118    27817.713    -44.06827    38.067101 
 8412000     304.6579    328.77261    377.58466   -27819.024    27822.604   -48.812059    38.083778 
 8416000    288.89482       246.24    470.92858   -27824.694    27827.929   -224.68858    38.065865 
 8420000    276.22425    474.87892    275.34214   -27845.807     27855.22    199.53677    38.059874 
 8424000    310.14176    378.97933    190.72169   -27897.433    27896.164    188.25764    38.074436 
 8428000    254.36401    343.14886    338.25259   -27908.372    27938.292    4.8962692    38.073124 
 8432000    268.87674    392.51087    319.45384   -27936.956     27954.71    73.057032    38.060495 
 8436000    277.94752    184.51932    331.51906   -27972.124    27970.823   -146.99974    38.045804 
 8440000    286.81412    240.59944    340.44374   -27977.606    27980.166   -99.844294    38.040129 
 8444000    266.00726    321.95052    397.03793   -27990.852    28002.837   -75.087413     38.04543 
 8448000    280.48603     437.7906    396.10996   -28003.309    28004.913    41.680638    38.053644 
 8452000    288.24101    380.38554    268.06874   -28031.463     28019.46     112.3168    38.061026 
 8456000    298.73458    377.89072    368.59633   -28017.173    28016.109    9.2943831     38.06314 
 8460000    269.13024    448.53857     293.0812   -28044.515    28032.752    155.45736    38.036216 
 8464000     287.1741    234.05072    344.73957   -28031.115     28056.15   -110.68885    38.036468 
 8468000    273.92109    418.23056    261.63404   -28075.719    28078.121    156.59652    38.047316 
 8472000    293.72338     479.6862    307.89228   -28088.689    28112.022    171.79393     38.05584 
 8476000    294.35441      500.647    239.78711   -28114.437    28114.666     260.8599    38.078845 
 8480000    259.66798    448.93635    304.19646   -28134.005    28153.469    144.73989    38.085064 
 8484000    292.91575    218.21076    453.65171   -28166.129    28169.969   -235.44095    38.084411 
 8488000    269.60542    389.52168    215.38504   -28186.809     28189.79    174.13665    38.087469 
 8492000    288.68108    376.19217    239.65726   -28198.712    28201.016    136.53491    38.081363 
 8496000    287.55364    271.43648    251.75414   -28204.285    28216.041    19.682344    38.095838 
 8500000    265.02991    474.79203    174.08863   -28224.427    28245.103     300.7034    38.104004 
 8504000     277.1605    254.54323     284.4062   -28255.407    28264.808   -29.862976    38.083405 
 8508000    240.47988    225.27814    373.26543   -28266.383    28305.886    -147.9873    38.084023 
 8512000    283.37637     316.6502    342.80574   -28294.041    28299.279   -26.155546    38.050528 
 8516000    265.33935    449.64272    392.87732   -28298.181     28325.12      56.7654    38.046091 
 8520000    275.30222    496.68773    379.98636   -28332.341    28352.097    116.70137     38.02649 
 8524000    248.26142    263.96802    330.22715   -28356.243    28382.619   -66.259126    38.018681 
 8528000    263.54726    516.70366    316.04571    -28371.86    28394.409    200.65795    38.010889 
 8532000    290.90666    473.64056    313.30777   -28412.268    28380.949    160.33279    38.007803 
 8536000    309.44588    361.27137    436.46937    -28426.36    28389.767   -75.197999    38.004443 
 8540000    309.51534    305.21418    274.25074   -28438.098     28419.97    30.963434    37.999298 
 8544000    305.58451    374.67357    255.29892   -28452.557    28434.576    119.37465    38.006255 
 8548000    278.85594    431.54426    294.31392   -28457.677    28470.932    137.23034    38.003712 
 8552000    284.26093    374.82371    363.23176    -28486.79        28501    11.591953    38.009359 
 8556000    277.06026    339.12608    391.80793   -28530.581    28526.208   -52.681848    38.024371 
 8560000    292.30058    350.57903    299.93604   -28556.112     28547.94    50.642988    38.003981 
 8564000     293.1726    204.18934    362.52881   -28542.573    28563.443   -158.33947    38.005567 
 8568000    276.26223    491.71791    399.58409    -28570.41    28564.278    92.133818    37.990614 
 8572000     258.5823    219.22872    331.28224   -28590.118    28600.603   -112.05352    37.964364 
 8576000    236.94727    310.44166    216.76816    -28595.98    28636.294    93.673496    37.959536 
 8580000    250.99604    256.03118    186.53857   -28607.824    28641.921     69.49261    37.953946 
 8584000    276.94736    535.59629    497.04446   -28619.987    28634.105    38.551828    37.952493 
 8588000    274.34251    385.75104    437.34354   -28627.675    28627.062   -51.592502     37.93156 
 8592000    278.50824    508.03309    275.26002   -28650.681    28659.377    232.77307    37.919041 
 8596000    279.29312    312.84908    270.87074   -28668.759     28682.74    41.978347    37.914165 
 8600000    306.13641    483.19013    225.16634   -28695.677     28683.48    258.02379    37.904115 
 8604000    289.92898    172.80678    254.32254   -28676.673    28689.137   -81.515754    37.904566 
 8608000    262.52942    326.60275    458.68529   -28682.509    28692.134   -132.08254    37.914328 
 8612000    292.14337    220.40161    420.02345   -28689.139    28686.338   -199.62183    37.900068 
 8616000    294.53378    388.89837    391.31945   -28698.469    28696.702   -2.4210726    37.903675 
 8620000    277.44983     278.6126    292.98687    -28718.29    28727.032   -14.374276    37.886973 
 8624000    280.04561     450.1098    413.32661   -28718.158    28747.302    36.783181    37.899324 
 8628000    268.13295    311.68995    274.54971     -28754.9     28764.31    37.140247    37.900112 
 8632000     293.4924    595.49923    276.61735   -28771.731    28768.921    318.88188    37.917881 
 8636000    282.37864    429.44684    390.64374   -28788.016    28787.566    38.803101    37.919505 
 8640000    275.61899    210.77036    373.46412   -28798.227    28810.965   -162.69376    37.933288 
 8644000    290.96173    334.42257    341.72372   -28815.651    28830.272    -7.301144    37.927863 
 8648000    290.36583    256.43159    186.18026   -28851.439    28856.303    70.251329    37.890299 
 8652000    274.43974    328.40521    295.84222   -28877.781    28890.194    32.562987    37.894285 
 8656000     290.5679    386.20299    394.80783   -28885.249    28887.987   -8.6048401    37.890668 
 8660000     279.0047    269.28054    291.40855   -28906.945     28910.92   -22.128008    37.874472 
 8664000    290.70868    584.81978    103.60711   -28925.075    28917.157    481.21267    37.877474 
 8668000    304.41494    259.25757    277.27236   -28921.654    28914.959   -18.014789    37.891077 
 8672000    314.00398    414.32063    284.78766   -28932.104    28914.593    129.53297    37.891967 
 8676000    273.75667    241.10464    507.76979   -28929.207    28950.128   -266.66515    37.885492 
 8680000    246.40424    269.59767    305.76094   -28944.342    28986.059   -36.163277    37.898806 
 8684000    291.88763     258.1337    431.16903   -28982.519    28990.476   -173.03533    37.917274 
 8688000    273.95324    244.37747    318.91464   -28997.973    29003.786   -74.537172    37.917503 
 8692000    260.39703    330.01662     479.7507   -29015.974    29040.408   -149.73408    37.888588 
 8696000    279.65648    349.46716    207.56284   -29047.126    29051.308    141.90432    37.890907 
 8700000    263.74726    341.36293    352.32883   -29061.927    29065.961   -10.965901    37.909895 
 8704000    303.09114    393.81673    119.07872   -29069.392    29071.495    274.73801    37.917265 
 8708000     257.9716    295.93196    271.47137   -29055.021    29089.871    24.460583    37.928184 
 8712000    285.99334     425.1435     296.1887   -29101.503     29115.54     128.9548    37.942268 
 8716000    289.55104    326.81848    231.59845   -29107.915     29126.83    95.220032    37.953642 
 8720000    291.92722    332.21679    328.53392   -29132.049    29141.836    3.6828663     37.97214 
 8724000    282.63975    540.81573    272.38334   -29145.541    29146.875    268.43239    37.978602 
 8728000    273.36102    364.31026    301.73285   -29155.078    29170.987    62.577409    37.966527 
 8732000     311.1709    410.55912    670.31029   -29187.178    29169.593   -259.75116    37.967929 
 8736000    296.90307    357.58016    504.58901   -29199.974    29195.736   -147.00885     37.94041 
 8740000    303.10748    390.21305    188.52888    -29208.93    29205.521    201.68417    37.944678 
 8744000    274.30936    304.98571    347.75499   -29230.713    29228.735   -42.769273    37.946052 
 8748000     246.2128    334.96007    148.06767   -29238.464    29252.443     186.8924    37.930738 
 8752000    272.65067     450.0557    303.64482   -29245.772    29270.905    146.41088    37.922783 
 8756000    279.56048    238.73568    415.52764   -29254.266    29270.175   -176.79196    37.945753 
 8760000    276.83192    577.89428    197.41754   -29275.091    29278.217    380.47674    37.948806 
 8764000    272.13816    355.65015    349.30948   -29278.398    29292.174    6.3406703    37.931635 
 8768000    262.60118    395.37046    330.86085   -29265.638    29296.971    64.509604    37.939245 
 8772000    295.91586    325.46085    344.29971   -29285.767    29290.021   -18.838859    37.911945 
 8776000    280.40124    458.07264    236.75277   -29283.336    29295.071    221.31987    37.926167 
 8780000    272.93439    217.08039    322.48166   -29307.365    29321.264   -105.40127    37.929541 
 8784000     286.8831     685.7611    350.15267   -29327.304    29344.026    335.60843    37.920806 
 8788000    269.89204    305.18698    243.02829   -29315.463    29337.116    62.158689    37.896572 
 8792000    288.41347    309.37015    502.92617   -29340.482    29334.722   -193.55601    37.912067 
 8796000    290.56859    539.16169    210.22209   -29345.643     29352.29     328.9396    37.908211 
 8800000     302.2924    446.78434    519.81984   -29363.676    29356.612   -73.035504    37.911476 
 8804000    301.55784    315.17406    492.47829   -29390.723    29391.451   -177.30423    37.920576 
 8808000    306.36988    478.45144     235.2459   -29404.552    29415.695    243.20554    37.928343 
 8812000    278.08502      228.435    254.32724    -29390.26    29406.488    -25.89224    37.906765 
 8816000    296.50237    311.55439    439.52531   -29434.085    29422.311   -127.97092    37.904414 
 8820000    275.30286    400.49798    345.82627   -29431.911    29443.074    54.671704    37.887883 
 8824000     297.7116    299.58049    355.09915   -29440.092    29436.837   -55.518663    37.880568 
 8828000     292.5154    176.17822    402.99214    -29426.31     29427.46   -226.81391    37.876132 
 8832000    260.73261    367.04495    256.71052   -29404.401    29429.003    110.33443    37.882318 
 8836000    264.18044     245.9344    237.13467   -29407.515    29432.296    8.7997302    37.893292 
 8840000    293.80569    435.02436    236.60222   -29411.394    29425.594    198.42214     37.88719 
 8844000    297.16579    325.72608    278.11746   -29421.921    29413.945    47.608625    37.886252 
 8848000    288.46127    419.12617    312.07061     -29427.1    29435.023    107.05556    37.875949 
 8852000    275.73507    353.66353    380.07196   -29449.876    29456.843   -26.408428    37.882244 
 8856000    271.67517     286.5024    192.85478   -29464.825    29483.861    93.647627    37.902333 
 8860000    274.09188    388.85011     197.5876   -29469.573    29497.126    191.26252     37.90739 
 8864000    268.04093    275.74425     346.2831   -29496.525    29519.315   -70.538852    37.900379 
 8868000    288.98014    555.93288    191.58873   -29531.528    29551.215    364.34415    37.915672 
 8872000    290.09106    412.81926    305.08972   -29554.497    29539.567    107.72954    37.931191 
 8876000    279.03819     309.1708    121.39241   -29551.916    29574.752     187.7784    37.940966 
 8880000    296.13821    289.81078    365.59354   -29584.459    29588.532   -75.782768    37.963938 
 8884000    290.79279    407.84482    281.18156   -29610.853    29612.209    126.66326    37.954555 
 8888000    283.07411    453.42395       287.97   -29608.954    29622.104    165.45395    37.941138 
 8892000    296.06551    378.40818    286.30055   -29624.673    29629.506    92.107627    37.945094 
 8896000    280.39536    267.16389    302.30599   -29638.666    29652.954   -35.142099    37.961672 
 8900000    297.42301    310.93568    256.14136   -29654.577    29664.883    54.794317    37.970019 
 8904000    260.52981    546.71823    233.09508   -29659.244     29671.29    313.62316    37.944004 
 8908000    288.88074    374.41032    156.36942   -29668.358    29656.065     218.0409    37.958437 
 8912000    292.43823    269.64218    347.40991   -29691.742    29698.436   -77.767726    37.973057 
 8916000    261.41219    441.89944    467.51928   -29708.444    29724.493   -25.619835    37.968425 
 8920000    277.89429    470.47648    435.34947   -29716.119    29754.061    35.127017    37.961428 
 8924000    282.60295    276.41156    288.94876   -29735.417    29758.304   -12.537205    37.946519 
 8928000     282.7675    503.68627    262.96294    -29747.65     29755.94    240.72333    37.935607 
 8932000    266.42232    273.05357    427.61582    -29762.47    29786.937   -154.56225    37.919536 
 8936000    286.26085    323.18542    290.81884    -29813.31    29798.254    32.366575     37.91194 
 8940000    300.50005    435.77041    444.28802   -29805.837    29814.432    -8.517613    37.915883 
 8944000    305.79358    375.71876     388.5711   -29834.505    29839.709   -12.852332    37.928916 
 8948000    293.58472    320.90282    478.10912   -29856.846     29857.06   -157.20631    37.948937 
 8952000    306.49334    388.57245    256.73131   -29895.098    29906.763    131.84114    37.968615 
 8956000    298.80102    289.56767    300.77291   -29914.651    29906.826   -11.205248    37.977912 
 8960000    312.40585    359.77533    425.37062   -29947.558    29926.704   -65.595293    37.974716 
 8964000    283.40994    230.59071    201.94347   -29963.607    29962.316    28.647237    37.955713 
 8968000    273.51616    190.66096    231.38802   -29974.002    29971.213   -40.727063    37.965834 
 8972000    280.69684    554.57477    252.51485   -29983.078    29982.319    302.05992    37.976904 
 8976000    280.64408    191.88169    220.50304   -30020.517    30015.173   -28.621346    37.977197 
 8980000     309.4325     669.9183    328.16509   -30050.927    30042.212    341.75321    37.985228 
 8984000    282.32952    274.99327    368.77423   -30051.325    30048.207   -93.780969    37.992278 
 8988000    297.74221    351.05198    437.60723    -30075.84    30057.635   -86.555251    37.993976 
 8992000    281.09269    267.76182    273.18838   -30091.984    30089.804    -5.426564    37.997879 
 8996000    276.77022     341.4274    312.28551   -30107.973    30124.889    29.141889    38.011298 
 9000000    281.80248    435.40117    381.61954   -30112.706    30115.976    53.781629    38.001485 
 9004000    269.14323    285.57186    328.28402   -30111.154    30108.748   -42.712155    37.997804 
 9008000     284.8932    187.67808    334.22584   -30113.704    30121.343   -146.54775    37.992474 
 9012000     272.4442    419.50392    340.60088   -30118.178    30154.834    78.903043    37.970826 
 9016000    252.64402    199.82211      240.747   -30125.672    30147.205   -40.924898    37.967656 
 9020000    266.87497    319.34217    368.00595   -30139.043    30136.681   -48.663788    37.964091 
 9024000    269.39839     490.3547    315.26208   -30149.979     30154.44    175.09262     37.96545 
 9028000    302.99714    464.50094    446.51454   -30153.595    30156.231    17.986399    37.972516 
 9032000    263.48492    297.42753    283.44035   -30159.935     30192.75    13.987172    37.973916 
 9036000    339.49718    195.87427    322.62209   -30211.715    30188.785   -126.74782    37.990082 
 9040000    268.82433    371.47026    375.18597   -30199.087    30230.231   -3.7157065    37.980659 
 9044000    258.37397    410.67766     231.9434   -30204.962    30229.793    178.73426    37.957064 
 9048000    258.92537    486.73088    306.58022   -30217.959    30249.899    180.15067    37.959867 
 9052000    271.84757    313.67269    218.76325   -30255.997     30270.99    94.909434    37.963009 
 9056000    288.65337    603.50551    262.36283   -30268.948    30272.701    341.14268    37.971257 
 9060000    323.27521    261.61922    626.69373   -30306.174    30281.226   -365.07451    37.947627 
 9064000    282.72772    447.50985    211.26051   -30290.705    30301.831    236.24935    37.953887 
 9068000    314.51741    618.80678    427.20732   -30319.684    30332.557    191.59946    37.946075 
 9072000    252.85519    504.64384    374.00217   -30322.825    30346.867    130.64167     37.93534 
 9076000    289.22853    302.19753    194.78994   -30368.041    30371.043    107.40758    37.927652 
 9080000    295.38446    437.40234    345.11712   -30400.037    30396.639    92.285219    37.931245 
 9084000    278.85042    426.51871    243.96381   -30388.632    30389.067     182.5549    37.914104 
 9088000    289.67682    348.14395    159.70521   -30415.204    30422.515    188.43873    37.933236 
 9092000    303.00849    405.26546    214.30737   -30461.845    30440.994    190.95809    37.915909 
 9096000     262.4654    382.07614    183.28429   -30466.057    30456.092    198.79184     37.90455 
 9100000    291.80787    370.43608    234.84251   -30475.853    30487.686    135.59356    37.921697 
 9104000    258.14514    238.47128    354.23432   -30482.296    30498.513   -115.76305     37.90756 
 9108000     289.3111    410.54418    295.66447   -30522.122    30529.617    114.87971    37.914096 
 9112000    274.59092    340.37425    444.11333   -30518.047    30537.815   -103.73908    37.931083 
 9116000    288.11678     296.8743     367.0647    -30554.99    30566.288   -70.190399    37.941131 
 9120000     286.9421    376.57053    215.14083   -30586.772    30589.631     161.4297    37.935144 
 9124000    292.19184    326.07556    351.39213   -30612.509    30619.567   -25.316565     37.95067 
 9128000    296.07901    437.60377    202.91424   -30637.711    30649.492    234.68953    37.931436 
 9132000    287.28016    431.71033    189.94073    -30662.59    30656.239     241.7696    37.941954 
 9136000     258.8234    386.80604    204.36439   -30689.122    30709.881    182.44165    37.945096 
 9140000    296.54174    335.50475    352.87706   -30734.245    30710.646   -17.372312    37.934727 
 9144000    314.15676    423.55897      295.001   -30770.859    30753.723    128.55797     37.91917 
 9148000    312.77677    283.14431    464.64624   -30782.115    30777.683   -181.50194    37.931011 
 9152000    277.80458    318.55333     400.4184   -30795.447    30807.236   -81.865077    37.929543 
 9156000    265.62168    360.21974    317.51676   -30809.012    30831.823    42.702976    37.917456 
 9160000    339.15446    258.17795    519.15082   -30811.428    30810.254   -260.97287    37.899892 
 9164000    300.27613    243.42654    273.36616   -30807.127    30811.267   -29.939619    37.901883 
 9168000    282.10006    572.19172    234.03291   -30831.906    30829.111    338.15881    37.927505 
 9172000    267.38603    306.73868    217.86624   -30828.947    30861.174    88.872432    37.928452 
 9176000    287.98443    404.88597    252.67786   -30865.588    30879.503    152.20811     37.92684 
 9180000    267.06121    263.25232    284.41474   -30866.957    30889.111   -21.162417    37.910107 
 9184000      276.895     433.0128    238.87246    -30903.46     30917.62    194.14035    37.904246 
 9188000    281.70414    495.29238    357.41705   -30921.618    30943.587    137.87534    37.938913 
 9192000    311.28174    399.61026    286.40204   -30964.407    30951.881    113.20822    37.942133 
 9196000    300.03595    477.35226    312.24845   -30973.287    30975.571     165.1038    37.946757 
 9200000     251.6171    310.29054    173.63855    -30972.81     30989.77    136.65199    37.922779 
 9204000    265.80926    219.66448    576.79483   -30994.577    31018.565   -357.13035    37.906232 
 9208000    274.31455    467.00919    366.77982   -31021.675    31038.214    100.22937     37.89623 
 9212000    294.79598    562.11821    268.25961   -31035.814    31041.969     293.8586    37.897599 
 9216000    273.56552    452.78312    248.20543   -31040.518    31053.932    204.57768     37.91546 
 9220000     293.0687    438.04444    289.08754   -31062.311    31071.132     148.9569    37.920609 
 9224000    299.43271    508.00926     233.4097   -31063.889    31077.689    274.59956    37.922484 
 9228000    282.14051    326.84684    339.89202   -31073.194    31081.519   -13.045174    37.918833 
 9232000     274.1761    329.07522    307.67055   -31062.425    31084.287     21.40467    37.922783 
 9236000    305.04144     367.6843    445.62973   -31093.145    31092.623   -77.945428    37.909492 
 9240000    312.39494    404.46856    313.40468   -31115.462    31105.165    91.063881     37.88044 
 9244000    308.26908    487.81889    241.28312   -31129.775    31119.972    246.53577    37.870373 
 9248000    305.08951     337.4078    332.77887   -31146.389    31134.277    4.6289307    37.859462 
 9252000    276.88919    138.48275    404.68346   -31162.431    31169.699   -266.20071    37.839277 
 9256000    271.46969    466.87507    313.90655   -31168.585    31189.347    152.96851     37.84073 
 9260000    267.63951    400.74448    406.53507   -31170.821    31222.002   -5.7905838    37.833383 
 9264000     289.7294    380.29392    240.66622   -31216.667    31225.098     139.6277    37.828389 
 9268000    259.77483     426.2867    201.51241   -31240.891    31254.959    224.77429    37.840642 
 9272000    273.34675    443.51373    338.57741   -31269.256    31289.099    104.93632    37.825811 
 9276000    310.91775    381.07078    276.29306   -31298.895     31287.89    104.77772    37.841352 
 9280000    259.07062     360.7559    388.96095   -31335.366    31328.407   -28.205055    37.846694 
 9284000    274.38928    520.02351    251.12433     -31312.6     31336.83    268.89918    37.832773 
 9288000    275.58686    358.98218    283.87075   -31338.029    31347.634    75.111429    37.843556 
 9292000    281.07957    579.23516    280.46419   -31334.098    31336.371    298.77097    37.846278 
 9296000    263.60686    294.22339    193.62059   -31353.799    31358.076    100.60281    37.853526 
 9300000    251.73696    210.04463    396.74322   -31382.513    31392.551   -186.69859    37.844007 
 9304000    288.68361    390.93072     325.1273   -31403.898    31414.017    65.803418    37.859216 
 9308000    273.58496    244.88451    321.67135   -31394.939    31418.741    -76.78684    37.867487 
 9312000    270.43055    289.97023    386.35755   -31408.458    31428.951   -96.387321    37.855673 
 9316000    302.22225    388.60957    432.32049   -31430.739    31420.967   -43.710923    37.847581 
 9320000      261.139    218.99082    236.30057   -31419.262    31435.014   -17.309753    37.858556 
 9324000    258.18736    411.02341    352.82715   -31426.281    31457.238    58.196258    37.862462 
 9328000    262.55481    299.17693    513.12083   -31442.487    31451.448    -213.9439    37.847929 
 9332000    300.10447    470.56793    305.77885   -31461.989    31459.473    164.78907    37.835403 
 9336000    304.41155    632.08984     458.3349    -31469.42    31466.328    173.75494    37.828579 
 9340000    302.66811    265.48816    263.08735   -31472.881     31493.25    2.4008093    37.825065 
 9344000    277.86438     289.0114    324.38878   -31478.885    31494.607   -35.377381    37.835946 
 9348000    273.43798    484.86902    359.89246   -31497.177    31497.383    124.97656    37.830173 
 9352000    311.50092    249.92454    393.09865   -31522.767    31515.748    -143.1741    37.833734 
 9356000    267.33222    289.63664    222.86099   -31527.355    31542.827    66.775654    37.837415 
 9360000    309.51444    555.74007    330.25281   -31562.224    31544.024    225.48726    37.856703 
 9364000    304.04846    366.51972    303.60905   -31553.524    31541.089    62.910676    37.844586 
 9368000    331.46613    263.51031    445.38017    -31555.51     31541.13   -181.86986    37.828905 
 9372000    302.42374     308.5989    303.34218    -31556.54    31544.378    5.2567168    37.823332 
 9376000    263.49424    212.49345    252.17339   -31564.465    31571.142   -39.679935    37.825721 
 9380000    299.60741    395.51592    422.63973   -31582.994    31578.531   -27.123811    37.825048 
 9384000    312.27826    524.71431    346.59708   -31587.533    31575.452    178.11723    37.840731 
 9388000    310.68299    319.87441    448.67909   -31630.291    31598.963   -128.80467    37.830951 
 9392000    278.27784    385.09834    377.02228   -31636.981    31647.726    8.0760637    37.803147 
 9396000    285.46894    557.33425    514.01402   -31630.846    31651.619    43.320235    37.797905 
 9400000    267.80165    342.46719    291.21293   -31640.736    31669.748    51.254256    37.804591 
 9404000    285.38143     337.7654    156.43813   -31663.672    31670.595    181.32727    37.798056 
 9408000    293.70815    521.67131    352.66996   -31688.412    31697.414    169.00135    37.802244 
 9412000    284.72412    581.89984    288.69172   -31696.713    31715.146    293.20812    37.795741 
 9416000    295.38459    376.33758    409.13878   -31709.758    31713.836     -32.8012    37.769152 
 9420000    306.41594     325.9167    326.13039   -31710.478    31707.907  -0.21369088      37.7899 
 9424000    290.22418    407.73966    245.91653   -31689.288    31717.207    161.82313     37.80071 
 9428000    280.88248    511.41698    420.91057   -31708.194    31718.229     90.50641    37.804321 
 9432000     291.0474    414.75244    349.30489    -31737.99    31727.096    65.447552    37.811033 
 9436000    285.95181    310.00233    417.74757   -31760.504    31766.703   -107.74524    37.818359 
 9440000    286.29407    417.49972    236.65374   -31780.485     31767.44    180.84598    37.817598 
 9444000    315.06084    545.02947    174.88066   -31782.694    31778.004    370.14881    37.824722 
 9448000    292.19409    507.08973    344.59563    -31784.29    31782.432    162.49411    37.842541 
 9452000    293.55471    329.81207    322.71586   -31834.171    31814.672    7.0962089    37.858299 
 9456000    280.56092    353.68365    288.04084   -31810.773    31828.423    65.642813    37.856323 
 9460000    264.98983    379.09746    236.47299   -31809.128    31838.289    142.62447    37.870476 
 9464000     316.5511     377.8234     490.1018   -31840.233    31830.086    -112.2784    37.857804 
 9468000    286.89418    491.61673    257.94529   -31855.004    31866.409    233.67144    37.869322 
 9472000    270.05724    337.27613    408.21529   -31836.582    31867.364   -70.939156    37.863102 
 9476000    306.15963    232.65795    216.47753   -31899.294    31877.494    16.180417     37.87062 
 9480000    308.81598    461.12007    329.21577   -31944.336    31924.732     131.9043    37.870941 
 9484000    288.26792    343.99851    289.75978   -31948.215    31941.176    54.238727    37.874556 
 9488000    298.55102    498.06383    323.61783   -31956.373    31944.234      174.446    37.862413 
 9492000    262.09324    457.39157    300.62596    -31951.93    31953.342     156.7656    37.874602 
 9496000    306.08331    376.62753    415.61234   -31982.826    31995.079   -38.984812    37.869558 
 9500000    294.32557    382.33894     315.1326   -32015.444    32001.373    67.206349    37.871146 
 9504000    290.62907    461.65342    367.23334   -32005.988    32005.679    94.420077    37.879844 
 9508000    274.84336    309.86421    312.88492   -32018.864    32036.553   -3.0207174    37.869062 
 9512000    313.01244    373.31937    378.68569   -32041.228    32038.399   -5.3663276    37.869542 
 9516000     292.7111    412.08516    353.16276   -32071.139    32060.451    58.922399    37.859947 
 9520000    289.22405    438.28723    385.54905   -32060.337    32068.027    52.738187     37.86678 
 9524000    270.16944    352.85005    446.71859   -32067.178    32085.007   -93.868544    37.867565 
 9528000    314.30749    331.17261    267.12598   -32087.573    32079.825    64.046631    37.879128 
 9532000    296.28779    447.98007    419.53398   -32095.258    32087.382    28.446089    37.876941 
 9536000    332.63809    507.37451    232.23961   -32156.058     32100.95     275.1349    37.888078 
 9540000    318.63153     469.8845    328.67658   -32150.546    32142.434    141.20792    37.883341 
 9544000    306.90767    250.59117    432.25284   -32198.974    32176.424   -181.66166    37.889634 
 9548000    263.22245    320.03918    271.65371   -32195.324    32199.085    48.385474     37.88426 
 9552000    313.73881     657.0659    382.30359   -32218.303    32210.829    274.76231    37.898172 
 9556000    281.43903    380.48041    402.65864   -32237.257    32239.472   -22.178229    37.894257 
 9560000    315.77061    439.25132    413.52307   -32261.226    32253.853    25.728247    37.899783 
 9564000    303.81806    323.43791    288.96898   -32280.525    32286.115    34.468931     37.89172 
 9568000    252.52165    230.02231    165.65652   -32279.117     32304.55    64.365784    37.859295 
 9572000     289.5179     467.7085    186.92433   -32328.707    32336.313    280.78417    37.851306 
 9576000    302.15759    340.05294    296.87074   -32336.262    32337.749    43.182196    37.858936 
 9580000    281.20834    429.35782    152.28806   -32348.935    32374.569    277.06977    37.860472 
 9584000    283.95104    324.43256    295.81717   -32362.042    32376.848    28.615387    37.868504 
 9588000    253.53636    257.07331    323.99321   -32383.768    32414.228     -66.9199      37.8656 
 9592000    285.95912    427.78017    212.52818   -32411.157    32421.427    215.25199    37.875044 
 9596000    260.45839    332.44264    290.10955   -32439.528    32456.636     42.33309    37.858728 
 9600000    298.50673    266.40792    388.42135   -32458.613    32458.606   -122.01343    37.849562 
 9604000    274.54491    416.39733    238.21176   -32456.205    32468.394    178.18558    37.858445 
 9608000    288.53033    206.57594    489.62604   -32463.063    32472.457    -283.0501    37.870491 
 9612000    282.15793    339.94962    207.07526   -32457.589    32452.178    132.87436    37.875115 
 9616000    308.96519    590.86284    346.79283   -32467.367    32461.301       244.07     37.88625 
 9620000    281.04878    319.53332    224.82736   -32484.321     32487.53    94.705957    37.880358 
 9624000    285.25537    367.39192    360.67578   -32499.027    32499.393    6.7161385    37.899013 
 9628000    265.92394    235.72713    297.98906   -32494.337    32495.647   -62.261925    37.894016 
 9632000    272.94415    351.57445    334.39942   -32479.871    32497.721    17.175033    37.881028 
 9636000    280.70148    364.02255    208.09786   -32501.909    32517.728    155.92469    37.865119 
 9640000    281.51383    449.22129    301.57007   -32515.791    32525.099    147.65123    37.875107 
 9644000    293.28673    435.60085    134.46891    -32536.88    32535.474    301.13194    37.880202 
 9648000    266.65529    245.70653    127.95116    -32541.83     32557.76    117.75537    37.901958 
 9652000    288.32551    295.92419    449.75614   -32579.403    32584.762   -153.83195    37.910347 
 9656000    287.38149    487.36854    222.05787   -32618.457    32617.142    265.31067    37.912882 
 9660000     303.7223    407.81993    227.32252   -32632.258      32615.7    180.49741    37.909679 
 9664000    297.58292    332.95896    212.05027   -32649.915    32651.717    120.90869    37.919029 
 9668000     282.1242    400.19099    274.05688   -32661.617    32673.222    126.13411    37.924532 
 9672000    282.70841    539.71939    446.45881   -32704.878    32698.335    93.260583    37.920022 
 9676000    280.24124    299.62837    461.93944   -32695.437    32707.833   -162.31107    37.922891 
 9680000    272.18375    125.88311    387.73543   -32722.661    32728.677   -261.85232    37.922015 
 9684000    270.99295    153.58891    341.43532   -32720.784    32741.734    -187.8464    37.922237 
 9688000    295.73536    392.53696    288.54824   -32725.399    32746.081    103.98872    37.935074 
 9692000    280.11569    321.98329    327.13966   -32767.303    32777.122   -5.1563687    37.937956 
 9696000    282.80758    289.48192    303.55476   -32789.045     32804.83   -14.072839    37.928476 
 9700000     273.9306    237.77249    255.20135   -32796.408     32807.93   -17.428862    37.945078 
 9704000    279.70755     296.2329    201.82324   -32808.714    32825.416    94.409662    37.942433 
 9708000     281.6974     659.8519    199.37399    -32816.08    32830.895    460.47792    37.949622 
 9712000    286.02709    404.93859    182.57618   -32823.234    32838.118    222.36241    37.956608 
 9716000    304.26836    208.57041    566.08687    -32838.17     32844.39   -357.51646    37.942888 
 9720000    266.26039    337.53919    403.69581    -32857.47    32879.102   -66.156626    37.922698 
 9724000    263.66286    359.49704    294.28531   -32900.847    32914.349    65.211731    37.932029 
 9728000    254.63398    323.87334    310.34111    -32927.96    32954.063    13.532225    37.931579 
 9732000    287.16122    266.82392    483.38119   -32963.585    32951.155   -216.55727    37.921193 
 9736000    299.66559    538.24837    341.80057    -32958.61    32958.266    196.44779    37.926519 
 9740000    282.95336    432.24964    349.57345   -32955.498      32972.2    82.676188    37.916684 
 9744000    292.52031    425.42447    305.15397   -32968.901    32967.322     120.2705    37.921724 
 9748000    282.35967    310.46811    288.42122   -32964.902    32978.719     22.04689    37.923858 
 9752000    319.48865    439.66918    246.74952   -32997.552    32989.125    192.91965    37.944695 
 9756000    288.44576     278.7388    296.59859   -33013.118    32998.386   -17.859795    37.962634 
 9760000    312.88283     291.9943     331.0228   -33023.136    32994.119     -39.0285    37.968148 
 9764000    297.43615    567.11339    204.60258   -33023.182    33012.234     362.5108    37.979913 
 9768000    295.32976    357.41773    384.32546   -33065.886    33060.645    -26.90773     37.98699 
 9772000    300.35807    447.85641    474.45983   -33110.257    33114.298   -26.603422    37.972275 
 9776000    322.24391     423.6492    469.69863   -33143.569    33128.284   -46.049424    37.988879 
 9780000    253.49342    322.00405      275.084   -33150.848    33174.802    46.920056    37.983451 
 9784000    279.42792    406.72595    225.12213   -33155.837    33168.258    181.60382    37.994653 
 9788000    283.51519    296.96635    324.98424   -33195.295    33190.519   -28.017894     37.98784 
 9792000      274.737    309.54945    350.87833   -33230.313    33231.141   -41.328882    38.007704 
 9796000     277.3157    574.37651    346.93454   -33241.689    33253.502    227.44197    38.010141 
 9800000    266.85685    248.79267    188.27604   -33258.258     33274.73    60.516637    38.009136 
 9804000    264.56122    350.17813    246.27291   -33257.872    33281.856    103.90522     38.02562 
 9808000    274.76545    445.37599      184.083   -33281.187    33296.351    261.29299    38.044555 
 9812000    248.89004    273.88723    178.93221     -33290.4    33309.046    94.955019     38.05876 
 9816000    267.08886    360.95549    170.43731   -33301.335    33333.352    190.51819    38.060285 
 9820000    296.26882    601.08285    209.98482    -33331.41    33335.265    391.09802    38.071952 
 9824000    262.32866    365.48177     218.2628   -33328.919    33346.523    147.21897    38.090472 
 9828000    271.57315    284.98381    345.52616   -33336.006    33344.642   -60.542355     38.06618 
 9832000     279.2467    364.79088    165.50942   -33333.608    33341.374    199.28147    38.065624 
 9836000    299.00002    353.47488    597.30672    -33363.67    33354.876   -243.83184    38.076963 
 9840000     292.4525    387.68351    345.06819   -33376.773    33399.528    42.615328    38.055889 
 9844000     286.6746    284.95646    354.20506   -33379.108    33392.299   -69.248593    38.038807 
 9848000     278.1193    310.93782     395.6673   -33386.444    33391.703    -84.72948    38.026439 
 9852000    289.53027    237.87704    454.07278   -33413.049    33422.836   -216.19574    38.027915 
 9856000    272.04201    369.75889    425.94849   -33458.377    33472.155   -56.189605     38.05087 
 9860000     247.0155     212.2433    151.99598   -33464.495     33506.14    60.247324    38.054412 
 9864000    307.93547    552.73107    425.68822   -33496.647    33500.268    127.04284    38.054208 
 9868000    319.93302    318.45599    348.65635   -33527.682     33498.61   -30.200366    38.055935 
 9872000    297.23948    482.10101    256.43108    -33541.26    33510.455    225.66992    38.051291 
 9876000    285.77559    255.03874    336.08088   -33543.948     33552.31   -81.042149    38.054296 
 9880000    302.51851    396.60196    334.43751   -33580.926    33561.786    62.164441    38.070344 
 9884000    278.06034    358.50682    225.47896   -33590.535     33595.34    133.02786    38.066198 
 9888000     245.8656    284.62108    282.32912   -33576.899    33605.694    2.2919639    38.067207 
 9892000    286.95551    288.18977    309.56044   -33609.294    33623.155   -21.370672    38.069461 
 9896000    281.80275    283.18189    372.17814   -33640.945    33639.622   -88.996252    38.067193 
 9900000     319.4732    513.07533    438.95426   -33642.995    33636.543     74.12107    38.082244 
 9904000    280.19941    354.91246    301.08343   -33622.836    33624.901    53.829023    38.076323 
 9908000      288.846    261.76274    363.25147   -33620.806    33633.902   -101.48873    38.072005 
 9912000    280.93645    528.28021    201.84299   -33645.669    33636.486    326.43722    38.072015 
 9916000     294.7364    523.20657    278.68271   -33650.694    33653.788    244.52386    38.085687 
 9920000    291.89438     388.6802    276.97212   -33701.711    33680.141    111.70809    38.101153 
 9924000    280.82698    421.21832    199.45203   -33712.038    33694.554     221.7663    38.103103 
 9928000    300.13516    355.07444    296.55433   -33711.462    33704.941    58.520107    38.102965 
 9932000    276.68024    335.28158    212.64952   -33695.151    33722.852    122.63206    38.112043 
 9936000    255.06988    252.86353    210.98879   -33715.094    33733.267    41.874739    38.106454 
 9940000    266.87267    337.76682    349.37862   -33738.466    33755.288     -11.6118    38.108675 
 9944000    269.91053    270.39597    422.59466   -33762.111    33767.426   -152.19869    38.097476 
 9948000     270.0736    251.00899    330.89017   -33773.265    33799.046   -79.881182    38.096272 
 9952000    293.54897    371.07188     290.1441   -33804.669    33808.541    80.927784    38.091225 
 9956000    303.18316    509.30361    271.31535   -33835.021    33847.425    237.98826    38.095329 
 9960000    266.03655    410.28983    208.28704   -33818.682    33843.892    202.00279    38.092039 
 9964000     311.2682    428.65107    219.52783    -33856.87    33843.001    209.12324    38.098786 
 9968000    280.59374    389.99549    186.84177   -33852.645    33855.073    203.15372    38.098867 
 9972000    275.19656    359.04122    350.40027   -33849.998    33871.468    8.6409433    38.111605 
 9976000    286.03906    239.36058    218.68489   -33868.307    33872.101    20.675687    38.103078 
 9980000    289.28484    274.40101    166.61057   -33886.431    33884.612    107.79044     38.11157 
 9984000    247.35386    223.99329    313.06903   -33868.104    33871.732   -89.075744     38.10611 
 9988000    301.09689    334.62979    279.92418   -33906.064    33904.607    54.705613    38.126802 
 9992000    299.83585    335.89463    301.66367   -33912.499     33914.75    34.230962    38.130159 
 9996000    270.35124    271.15287    324.86865   -33900.361    33914.784   -53.715782    38.126631 
10000000    301.92573    315.57804    280.87477   -33917.928    33912.827    34.703269    38.129342 
10004000    285.96828    479.31243    193.38607   -33906.906    33902.907    285.92636    38.149232 
10008000    257.47389    332.90326     300.5143   -33908.855    33933.259    32.388961    38.147915 
10012000    298.01932    510.50603     262.3833   -33905.437    33912.764    248.12272    38.134727 
10016000     304.5299    337.27054    371.42239   -33919.815    33921.097   -34.151851    38.134235 
10020000    279.75291    447.07869    349.23144   -33930.794    33952.827    97.847257      38.1309 
10024000    278.43405    367.52942    267.61447   -33946.239    33955.841    99.914951    38.140367 
10028000    287.94533    367.75035    227.21023   -33949.009    33961.792    140.54013    38.133573 
10032000    243.23236    238.28314    160.61613   -33950.486     33975.54    77.667006    38.134128 
10036000    277.48152    343.06782     405.6952   -33967.708    33950.698   -62.627375    38.121456 
10040000    299.09609    496.14557    507.06473   -33950.748    33967.975   -10.919155    38.128726 
10044000    283.89057    237.47139    394.71263   -33994.626    33992.016   -157.24124    38.116184 
10048000    273.12901    271.07729    239.53974   -34000.067    34030.244    31.537543    38.124352 
10052000     257.4233    697.42136    330.51552   -34021.247    34045.916    366.90584    38.120269 
10056000    273.84808    374.51022    322.05383   -34048.804     34073.96    52.456392    38.122879 
10060000    305.09575    321.64566    243.56059   -34093.906    34087.372    78.085064    38.124655 
10064000    325.98219    246.55648    450.71277   -34131.978    34105.337   -204.15629    38.130651 
10068000    297.04904    325.00654     276.7305   -34157.615    34142.636    48.276042    38.128497 
10072000    295.84936     395.8173     354.3565   -34168.478    34170.685    41.460798    38.134839 
10076000    294.99685    639.55819    423.07153   -34197.947    34206.381    216.48666    38.145729 
10080000    283.29767    313.82748    421.25099   -34213.417    34224.241   -107.42351    38.136036 
10084000    301.80686    399.92615    284.25233   -34225.161    34233.235    115.67382    38.151778 
10088000    273.28901    347.22639    371.55125   -34236.303    34246.934   -24.324856    38.149833 
10092000    298.58482    385.72671    253.70268   -34248.215     34252.33    132.02403    38.123702 
10096000    275.45547    265.78595    300.59957   -34267.315    34286.613   -34.813619    38.145608 
10100000    279.69527    247.53411    284.97847   -34256.941    34280.382   -37.444366    38.147027 
10104000    280.35147    347.05156    494.62727   -34292.642    34299.703   -147.57571    38.150192 
10108000    280.12068     450.6857    286.38645   -34309.006    34317.996    164.29925     38.14415 
10112000    264.56592    342.00041     215.6366   -34316.257    34338.743    126.36381    38.153881 
10116000    256.84449     363.8956    287.02291    -34343.11    34356.421     76.87269    38.157997 
10120000    296.64048    570.40231    360.69878   -34379.031    34375.314    209.70352    38.161044 
10124000    263.29246    266.26363    242.95941   -34396.509    34408.161    23.304226    38.147373 
10128000    290.84729    339.28165    417.48577   -34408.428    34424.888   -78.204113    38.150123 
10132000    282.48903    305.33547    391.83063   -34450.192    34463.921   -86.495161    38.136768 
10136000    281.20749    406.37153    410.19353   -34480.463    34485.656   -3.8219978    38.150635 
10140000    282.64476    312.51392    263.40015   -34481.745    34496.372    49.113768    38.145905 
10144000    283.38134    457.58167    296.94085   -34476.541    34493.132    160.64081    38.142824 
10148000    293.50164    237.52456    325.29183   -34496.636    34503.055   -87.767265    38.135967 
10152000    292.28847    370.90839    177.94966   -34525.764    34533.051    192.95873    38.150622 
10156000    279.84469    289.34108    170.54077   -34554.078    34571.788    118.80031    38.156762 
10160000    245.82352    229.77872    205.50512   -34566.402    34599.671    24.273605    38.160053 
10164000    279.06992    326.81715    258.58269   -34604.603    34617.222    68.234459    38.159431 
10168000    256.25454    388.50343    381.75794   -34606.433    34646.552    6.7454889    38.142009 
10172000    286.49215    233.97824    355.13493    -34645.19    34652.999   -121.15669    38.125595 
10176000    273.32644    443.67498      433.838   -34656.852    34682.604    9.8369802    38.122327 
10180000    260.96663    481.75869    342.77206   -34701.193    34727.444    138.98663    38.121639 
10184000    283.28883    566.85779    341.02906   -34705.997    34728.755    225.82873    38.126897 
10188000    256.45843    394.62902    332.29905   -34706.901    34726.872    62.329976    38.144565 
10192000    238.01214    246.64531     271.4719   -34699.526    34738.372   -24.826589    38.148488 
10196000    249.04538    236.02548    476.85135   -34697.184    34722.753   -240.82587    38.158964 
10200000    273.46551    272.69372    284.93561   -34712.701    34729.412   -12.241882    38.158814 
10204000    265.84441    432.47718    304.56799   -34733.827    34755.057    127.90919    38.157551 
10208000    313.60857    158.97863    429.59443   -34778.581    34762.467    -270.6158    38.150993 
10212000    304.76471    380.67726    569.76562   -34762.177    34766.229   -189.08835     38.15947 
10216000    314.57674     277.6111    387.83634   -34777.704     34788.45   -110.22524    38.171143 
10220000     264.5323    287.55617    256.05601   -34797.019    34813.993    31.500165     38.18092 
10224000    294.79229    443.66628    332.58299   -34858.859     34861.52    111.08329    38.175352 
10228000    276.09347    223.92284    492.88657   -34869.266    34876.229   -268.96373    38.158564 
10232000    283.48524    427.96102    371.98626   -34911.164    34904.856    55.974763    38.163599 
10236000    278.81562     354.3512    339.70581   -34949.574     34942.58    14.645389     38.15571 
10240000    269.23689    286.19499    270.26427   -34964.106     34965.44    15.930722    38.169773 
10244000    283.66022    425.67651     220.3341   -34979.176    34993.095    205.34241    38.175881 
10248000    300.72394    379.14595    352.04536   -35013.239    35017.156    27.100595    38.164924 
10252000    307.58169    489.61373    330.56617   -35033.672    35019.765    159.04756    38.170243 
10256000    265.45121     388.0844    456.52019   -35048.384    35047.582    -68.43579    38.159426 
10260000    266.47757    284.78889    326.54964   -35063.324    35087.259   -41.760748    38.157671 
10264000    276.21624    320.69781    382.76433   -35073.758    35099.287   -62.066518    38.159918 
10268000    286.34192    533.05586    318.69165   -35112.448    35131.733    214.36421    38.141885 
10272000    265.77932    235.16738    201.77504   -35139.674    35151.819    33.392342    38.129359 
10276000    314.46687    206.01882    355.71987   -35177.528    35166.952   -149.70105    38.135484 
10280000    280.40767    187.12653    262.04404   -35175.427    35177.293   -74.917511    38.142806 
10284000    281.11166    481.98987    387.51191   -35211.522    35215.654    94.477966    38.144658 
10288000    282.87477    456.17989    238.37113   -35216.635    35241.667    217.80876    38.135998 
10292000    285.80794    420.28726    274.00988   -35252.371    35245.866    146.27738    38.145305 
10296000    274.76543    430.61158    326.90718   -35270.529    35263.422     103.7044    38.146468 
10300000    298.64269     400.9526    396.97931   -35277.214    35288.515    3.9732902    38.148069 
10304000    308.08631    461.44243    338.01498   -35308.137     35299.53    123.42745    38.153597 
10308000     306.0903    398.58928    487.60333   -35303.421    35301.394   -89.014047    38.155954 
10312000    265.23357    237.60716     582.1619   -35312.526    35339.569   -344.55474    38.156178 
10316000    261.26403    244.30186    268.04378   -35327.736    35341.019   -23.741914    38.151627 
10320000    274.04201    189.23558    430.47748   -35359.085     35385.31   -241.24191    38.144304 
10324000    257.91769    327.73465    297.73145   -35374.315    35409.472    30.003199    38.143052 
10328000    274.33184    614.78206    448.16681   -35401.241    35425.403    166.61526    38.150358 
10332000    256.89059    336.06795    359.53024   -35431.934    35462.413   -23.462296    38.153961 
10336000    291.63955    398.95592    558.85841   -35466.667    35476.979   -159.90249    38.152819 
10340000    311.45516    315.05184    234.66779   -35488.231    35486.334    80.384043    38.172516 
10344000     295.9564     345.9889    358.41119    -35510.35    35505.658   -12.422295    38.178402 
10348000    286.85305    254.61842    462.17116   -35522.815    35524.126   -207.55274    38.198768 
10352000    291.19015    349.99228    269.44267   -35541.939    35541.234     80.54961     38.19779 
10356000    272.27588    278.20898    275.88637   -35558.943    35557.192    2.3226056    38.198978 
10360000    257.85755    322.99694    382.06611   -35561.776     35570.08   -59.069174    38.220305 
10364000    279.35014     477.3749    425.54397   -35568.272    35584.927    51.830926    38.208214 
10368000    303.99019    339.77839    548.89523   -35601.701    35597.947   -209.11684    38.208029 
10372000    263.68295    429.22771    237.64799     -35619.5    35647.933    191.57972    38.226395 
10376000    272.28358    301.80386    263.64511   -35646.533    35665.476    38.158755    38.232509 
10380000    282.29256    251.33146    286.76216   -35645.908    35662.708   -35.430704    38.226549 
10384000    270.55423    319.84735    347.50378   -35655.653    35666.051   -27.656422    38.233296 
10388000    289.62745    366.84663    435.31856   -35666.037    35672.127   -68.471924    38.238166 
10392000    304.30314    592.69074    304.56726   -35696.387    35678.316    288.12348    38.239814 
10396000    302.90347    466.68863      592.021   -35709.503    35693.489   -125.33237    38.251284 
10400000    283.87508    360.69741    483.49665   -35715.372    35718.368   -122.79924    38.249591 
10404000    258.96277    236.21212    173.26285   -35720.006    35742.622    62.949276     38.24571 
10408000     265.8222    265.16041     394.4567   -35736.989    35761.055    -129.2963    38.268553 
10412000    285.41678    321.42557    232.15992   -35754.226    35752.884    89.265647     38.28342 
10416000    289.96595    295.31124     484.1323   -35788.398    35776.195   -188.82107    38.282357 
10420000    267.62861    466.43291    240.31917   -35781.592    35787.874    226.11374      38.2661 
10424000    266.34058    297.95299    357.51012   -35778.182    35795.351   -59.557131    38.272003 
10428000    260.46699    369.90662    166.23805   -35791.049    35800.389    203.66856    38.255012 
10432000    294.06421    503.22145    396.53584   -35814.947    35802.112    106.68561    38.260995 
10436000    265.40195    377.65755    214.76943   -35814.973    35814.725    162.88812    38.250068 
10440000    278.37444    473.21614    300.91894   -35826.406    35847.962     172.2972    38.248958 
10444000    281.09744    246.09216    316.73876   -35851.232    35861.106   -70.646606    38.254973 
10448000    298.70871    619.62203    544.79619   -35912.435     35908.89    74.825836    38.250093 
10452000    277.42103    281.58829    385.83303   -35920.089    35944.887   -104.24474     38.23749 
10456000    270.43567    271.22106    356.21555   -35937.317     35963.78   -84.994493    38.225101 
10460000    281.92701    401.37117    249.38123   -35953.448    35974.971    151.98993     38.22311 
10464000    291.99293    259.12813    322.91834   -35973.136    35986.467   -63.790204    38.234773 
10468000    286.75299    300.31416    291.28411    -35980.45    35976.319    9.0300506    38.237552 
10472000    277.78961    413.76467    310.15782   -35975.033    35997.202    103.60685    38.241301 
10476000     291.0034    261.71967    367.84921   -35996.826    36015.225   -106.12953    38.236534 
10480000    273.37921    206.10962    270.83247   -36000.077    36035.497   -64.722856     38.23517 
10484000    254.91182    433.88606    226.77652   -36037.245    36052.288    207.10954    38.245612 
10488000    274.41887    341.91503    243.87446   -36053.916    36083.868    98.040571    38.226766 
10492000    293.14671    332.86744     184.0426   -36095.698    36094.129    148.82484    38.240746 
10496000    280.99127    356.48933    354.12828   -36132.923    36145.443    2.3610576    38.240575 
10500000    310.83351    407.32718    425.45669   -36151.719    36151.443   -18.129511    38.243575 
10504000    277.89584    196.87739    434.58271   -36156.366     36174.56   -237.70532    38.249581 
10508000     271.2559    397.03815    205.88009   -36185.221    36176.551    191.15806    38.243829 
10512000    274.22899    291.97756    396.37967   -36166.432     36200.82   -104.40211    38.238417 
10516000    312.94564    337.11403    349.67606   -36191.438    36171.927   -12.562028    38.238632 
10520000    286.04915    297.17092    205.56399   -36186.495    36206.931    91.606923    38.220705 
10524000     267.2146    450.75437    363.77281   -36209.754    36218.374    86.981563    38.248794 
10528000    294.10933    356.46959    235.70362    -36225.06    36225.405    120.76598    38.243311 
10532000    300.95962    229.85899    489.74183   -36244.325    36244.973   -259.88283    38.234552 
10536000    277.70409    411.64099    363.97793   -36251.222    36270.404    47.663059    38.246063 
10540000    256.74812    357.23552    224.85357   -36288.453    36296.517    132.38195    38.227833 
10544000    261.78065    386.24601    202.96286   -36297.186    36303.982    183.28315    38.233371 
10548000    290.42122    341.11062    286.29829    -36297.06    36313.429    54.812329    38.229801 
10552000    293.08593    365.15413    221.20653   -36313.711    36322.011     143.9476    38.252568 
10556000    304.52546    240.30115    635.28156   -36334.579    36324.889   -394.98041    38.247643 
10560000    283.84281    256.96347    259.09633   -36333.806    36338.603   -2.1328548    38.239269 
10564000     299.4567    556.42584    249.75873   -36340.789    36348.851     306.6671    38.241834 
10568000    259.02273     219.2005     427.3041   -36333.348    36359.341    -208.1036    38.246296 
10572000     243.4593    134.04563    402.46436   -36355.594    36377.407   -268.41873     38.24053 
10576000     295.9515    477.86917    364.31208   -36397.929    36389.966    113.55709    38.259366 
10580000    274.51256    262.16959    275.42462   -36414.822    36429.751   -13.255034    38.260094 
10584000    301.09809    228.38631    214.63081   -36432.484    36438.774      13.7555    38.264857 
10588000    291.21619    257.24072    374.21327   -36461.374    36462.954   -116.97255    38.246167 
10592000      290.501    482.95805    370.75497   -36497.603    36507.942    112.20307    38.253768 
10596000    281.57105    332.23413    359.34025   -36494.029    36511.004   -27.106116    38.250321 
10600000    304.15664    380.23656    288.96109     -36509.5    36513.287    91.275473    38.250258 
10604000    282.54604    365.49108    334.84364    -36534.33    36544.676    30.647436    38.238983 
10608000    253.59321    344.61494    238.80806   -36543.501    36570.131    105.80688    38.235856 
10612000    296.63566    344.14251    421.56375   -36603.787    36591.496   -77.421242    38.236576 
10616000    303.55332    289.33097    431.81302   -36645.083    36615.501   -142.48205    38.236355 
10620000       281.27    390.35891    240.45247    -36652.85    36655.194    149.90644    38.249146 
10624000     273.9226    334.95954    401.73714   -36645.279    36665.798   -66.777593    38.246601 
10628000    273.27753     437.4501    172.26516   -36709.398    36702.456    265.18494    38.224163 
10632000    308.26912    525.24024    232.72775   -36718.329    36713.583    292.51249    38.228244 
10636000    294.93698    492.40469     281.9877   -36738.336    36723.409    210.41699    38.228228 
10640000     297.1374    338.18953     433.4944   -36725.655    36722.622   -95.304865    38.200132 
10644000    274.76146    286.71618    175.39069   -36747.545     36750.09     111.3255    38.214308 
10648000     298.3285    248.08267    407.63032    -36764.45    36775.067   -159.54765    38.216965 
10652000    290.73692    325.10313    380.97645    -36764.63    36779.779   -55.873315    38.207167 
10656000    301.34154    431.72712    318.81715   -36793.574    36783.174    112.90996    38.200412 
10660000     305.8325    347.59135    333.61781   -36808.116    36797.206    13.973538     38.19725 
10664000    273.40168    222.87755    227.05868   -36798.707    36809.404   -4.1811286    38.209751 
10668000    293.70181    448.48868    346.52758   -36820.977    36830.378     101.9611    38.217046 
10672000      311.278    582.21912    348.61395   -36851.202     36836.23    233.60518    38.210879 
10676000    294.97517    344.84772    277.69255   -36851.689    36841.379    67.155179    38.219293 
10680000    304.76802    382.72516    329.17894   -36872.672     36867.05    53.546217    38.211885 
10684000    275.50561    392.70397    466.80097   -36895.176    36891.352   -74.097005    38.215074 
10688000    294.62131    391.72847    453.72573   -36911.325    36916.406   -61.997261    38.209524 
10692000    277.01218    267.61967    429.21631   -36918.606    36926.717   -161.59664    38.196915 
10696000      261.381    413.84331    343.96102   -36935.475    36958.193    69.882288    38.202735 
10700000    282.66072    458.40833    295.18181   -36950.078    36963.749    163.22652    38.213359 
10704000     269.8362    312.40567    340.40764   -36950.126    36988.994   -28.001975    38.209673 
10708000    276.53541    296.46602    564.89124   -36984.474     36973.19   -268.42522     38.21473 
10712000     295.8051    386.19187    537.11274   -37005.055    37002.571   -150.92088     38.20106 
10716000    272.84702    307.40894    385.48672   -37012.029    37026.337   -78.077779    38.202256 
10720000    298.55289    335.95242    268.34892   -37043.959    37037.079      67.6035    38.219351 
10724000    267.99777    266.69984    377.47688   -37036.626     37052.66   -110.77704    38.221568 
10728000    279.63677    449.61874    290.66909   -37058.467    37063.446    158.94965    38.205933 
10732000    246.71953    293.29132    327.52703   -37067.731    37081.325   -34.235708    38.207782 
10736000    259.11147    263.61367    276.19658   -37088.817    37108.829   -12.582909    38.211193 
10740000    265.39785    249.35458    408.34662   -37084.843    37109.437   -158.99204    38.204751 
10744000    298.69617    448.62108    485.46885   -37102.904    37101.946   -36.847769    38.205798 
10748000    306.10467    373.30391    195.93414   -37109.693    37103.693    177.36977    38.217152 
10752000    284.73725    340.20181    343.64925   -37115.111    37113.446   -3.4474474    38.202967 
10756000    263.27928    194.42388    362.23547   -37126.521    37140.113   -167.81159    38.184735 
10760000    298.86938    356.84197    551.23214   -37162.672    37155.577   -194.39017    38.181013 
10764000    288.44905    319.27867    270.43671   -37172.844    37184.557    48.841968    38.166891 
10768000    244.00539    422.74184    380.99583   -37156.933    37174.627    41.746011    38.176925 
10772000    283.67143    260.14198    539.16413   -37199.635    37199.844   -279.02215    38.173178 
10776000    298.68287    278.06136    351.13016   -37210.146    37226.765   -73.068802    38.168882 
10780000    286.99504    359.98384    243.09005   -37248.053    37260.381    116.89379    38.151868 
10784000    311.61217    275.52598    428.60324   -37258.078    37251.052   -153.07726    38.147273 
10788000    314.17836    366.87446    244.98861   -37291.155    37273.565    121.88585    38.125595 
10792000    301.09343    366.40667    271.48435   -37300.728    37300.988    94.922324    38.123797 
10796000    264.88385    311.63698    251.76225   -37346.004    37326.854    59.874731    38.113793 
10800000    260.60429    396.96461    327.52178   -37331.657     37355.52     69.44283    38.123292 
10804000    275.60007    334.05925    183.60202   -37355.989     37378.39    150.45723    38.130788 
10808000    301.87969    496.79202    446.56625   -37367.876     37382.11     50.22577     38.13138 
10812000    280.42292    238.79611    194.65033   -37386.575    37386.838    44.145777    38.127761 
10816000     292.5404    176.88341    225.64156   -37400.052    37393.598   -48.758148    38.118464 
10820000    269.25873    315.26068    226.15173   -37403.677    37416.368    89.108952    38.121752 
10824000    290.08657    342.59469    496.98876   -37436.369    37454.679   -154.39406    38.122572 
10828000    283.96775    201.92656     345.2755   -37456.064    37457.146   -143.34893    38.142686 
10832000    277.33988    256.96281    264.89818    -37470.65    37492.377   -7.9353689    38.151646 
10836000     276.9436     285.1731    310.41751   -37486.457    37494.031   -25.244407    38.164005 
10840000    292.82428    526.02207    306.52083   -37530.034    37520.298    219.50124    38.143628 
10844000    267.28189    371.41919    410.61734   -37545.265    37547.871   -39.198151    38.133825 
10848000    277.79231    450.19345    243.65998   -37564.755    37567.719    206.53346    38.137225 
10852000    311.14036    517.34921    352.35138    -37567.69    37575.854    164.99783    38.126173 
10856000    289.35756    303.11264    551.43132   -37585.661    37584.399   -248.31868    38.111378 
10860000    292.28485    298.14203    528.93691   -37604.912    37595.654   -230.79488    38.115366 
10864000    280.05624    403.68765    379.45308   -37623.748    37629.028    24.234572    38.101736 
10868000    285.09139    511.17282    507.04619   -37654.262    37667.973    4.1266344    38.106236 
10872000    301.80896    712.96798    258.00577   -37676.876    37681.573    454.96221    38.110559 
10876000    272.76507     225.5294    517.85831   -37686.825    37705.302   -292.32891    38.110285 
10880000    276.00427     342.2989    291.90702   -37714.022    37717.735    50.391875    38.119566 
10884000    339.35939    563.87306    356.53266   -37737.966    37729.901     207.3404    38.128442 
10888000    305.40673     502.7351     274.1285   -37774.991    37760.528     228.6066    38.125572 
10892000    276.16591    390.93463    277.94904   -37790.509     37815.74     112.9856    38.124085 
10896000     257.7837    328.45694    262.93318   -37809.314    37845.394    65.523759    38.142827 
10900000    291.17713    345.27928    334.33376   -37839.396    37854.227    10.945526    38.126993 
10904000    292.52515    422.65667    279.09706   -37870.604    37866.846    143.55961     38.13608 
10908000    296.28873    288.98387    453.43167   -37874.962    37870.381    -164.4478    38.137517 
10912000    273.40535    383.24699    184.65286   -37861.052    37873.181    198.59413    38.139761 
10916000    292.36893    458.93697    213.46189   -37882.008     37864.96    245.47509    38.141991 
10920000    325.82809    517.44801    336.25419    -37904.78    37888.922    181.19382    38.140516 
10924000    273.72133    174.64306    332.26201   -37890.053    37915.498   -157.61896    38.145913 
10928000    277.22403     261.6472    287.32244   -37913.709    37932.611    -25.67524    38.154124 
10932000    332.30337    552.87504    339.40708   -37949.558    37933.864    213.46796    38.164641 
10936000    269.93454    195.65131    256.09184   -37946.756    37953.682   -60.440522    38.170599 
10940000     309.1285    451.48249    170.36756   -37974.555    37972.599    281.11493    38.161671 
10944000    318.80751    218.27866    413.02862   -37984.267    37971.125   -194.74996    38.166915 
10948000    280.24686    231.30554    372.75654   -37993.277    38013.728     -141.451      38.1542 
10952000    276.16663     415.8203    281.33862   -37999.862    38017.082    134.48168    38.148327 
10956000    279.46603    303.22513     404.7403   -38039.374    38049.833   -101.51517    38.136115 
10960000    287.70662    298.21571    444.85658   -38081.662    38082.595   -146.64087    38.124025 
10964000    284.24962    394.54708     245.7878    -38088.13    38116.414    148.75928    38.131681 
10968000     254.7727    256.50816    174.09706   -38086.157    38109.927    82.411093    38.121215 
10972000    279.10261    505.65188    411.67496   -38083.048    38110.692    93.976925    38.115711 
10976000    269.02226    425.76297    282.04996   -38119.039    38149.095    143.71301    38.104106 
10980000    247.08866    393.99726    225.63119   -38135.734    38172.955    168.36607    38.107466 
10984000     252.6653    381.57524    200.27737   -38167.066    38204.621    181.29787    38.124379 
10988000    291.64559    518.29337    369.84209     -38216.7    38211.656    148.45128    38.112571 
10992000    262.78647    408.36927    497.33742   -38216.805    38232.772   -88.968149    38.103843 
10996000     274.5855    387.68604    273.84743   -38233.957    38255.069    113.83861    38.106871 
11000000    265.84397    430.86195    218.69048   -38259.669     38277.87    212.17147    38.105209 
11004000    268.72154     410.3851    445.42306   -38248.454    38268.007   -35.037961    38.102609 
11008000    299.08554     479.1938    425.52917   -38302.577    38297.353    53.664625    38.107988 
11012000    289.73765    309.79472    565.43538   -38286.614    38290.391   -255.64065    38.093405 
11016000    302.52624    404.28906    293.62501   -38315.433    38311.005    110.66405      38.0967 
11020000    276.41795    444.00409    321.28889   -38348.392    38346.535     122.7152    38.094711 
11024000    294.36092    262.87252    467.67341   -38371.656    38380.531   -204.80089     38.08872 
11028000    281.91455     271.0507    365.31561   -38376.891    38396.028   -94.264915    38.101874 
11032000    297.86969      379.447    181.04316   -38390.127    38400.372    198.40383    38.099873 
11036000    282.77065    278.83665    549.57488   -38403.449    38389.635   -270.73824    38.092554 
11040000    289.35072    240.81631    263.92947   -38395.812     38404.64   -23.113157    38.087997 
11044000    303.26854    320.01587    320.86755   -38411.279    38418.614  -0.85167393    38.077509 
11048000    255.36753     424.6544    273.28172   -38406.232    38428.393    151.37268    38.083342 
11052000    286.92778     338.9398    312.40732   -38431.652     38441.98    26.532475    38.077999 
11056000    312.34749    277.67933    532.89576   -38454.684    38439.481   -255.21643    38.093058 
11060000    287.20723    449.86137     373.5836   -38457.687    38486.401    76.277767    38.100273 
11064000    259.65488    401.30912    454.26276   -38482.229    38505.753   -52.953641    38.091698 
11068000    285.41791    490.00227    206.00311   -38499.217    38502.885    283.99916    38.099158 
11072000     288.0938    418.72752    360.04682   -38501.674    38502.975    58.680699    38.085626 
11076000    265.97195    277.38948    238.96228   -38494.924    38503.041    38.427198    38.083373 
11080000    301.69283    474.70747     313.5958   -38506.404    38510.504    161.11168    38.065489 
11084000    283.72505    522.15583    281.84088   -38522.514    38523.997    240.31495    38.058992 
11088000    253.70247    371.43963    291.03112   -38531.338    38545.133    80.408509    38.060638 
11092000    336.16501    549.83526    444.02628   -38557.435    38536.555    105.80898    38.060991 
11096000    297.83972    424.73248    387.79701   -38570.053    38563.229    36.935466    38.044075 
11100000    309.00073    321.85539    279.64806   -38597.486    38584.779    42.207325    38.045983 
11104000     283.8323     436.9954    216.14328   -38601.176    38615.432    220.85212    38.055156 
11108000    282.84531    703.18011    385.70922   -38613.998    38619.159    317.47088    38.058743 
11112000    280.32726    474.88167    333.75367   -38638.971    38644.875      141.128    38.055757 
11116000    277.23543    313.46744    206.95596   -38655.253    38663.403    106.51149      38.0459 
11120000    309.16006    698.96951    299.06335   -38670.677    38683.816    399.90616    38.042324 
11124000    279.48007    256.30797    301.24453   -38713.324    38719.958   -44.936553    38.046399 
11128000    293.90426    438.30612    262.27303    -38749.37    38756.524    176.03309    38.053123 
11132000    291.69747    375.04354    250.82525    -38775.43    38767.433     124.2183    38.053962 
11136000    295.48661    272.25382    236.69984   -38759.224    38757.153    35.553977    38.054713 
11140000    291.42251    521.34595    369.17697   -38758.169    38760.898    152.16898    38.061227 
11144000    282.86811    271.30041    318.16767   -38733.555    38744.064   -46.867266    38.058358 
11148000    255.64305    245.71861    519.30086   -38736.297    38766.819   -273.58225    38.067562 
11152000    274.61296    190.16726    518.38043   -38754.833    38782.986   -328.21317    38.049592 
11156000    269.67636    490.57718    279.74549   -38782.597    38800.234    210.83169    38.046731 
11160000    281.22024    386.74274    409.35269   -38777.871    38802.422   -22.609951    38.044998 
11164000    254.74782     226.9718    330.70153   -38784.358    38812.722   -103.72973    38.038453 
11168000    270.66162    529.81331    207.89057   -38810.414    38824.239    321.92274    38.050526 
11172000     281.9087    363.61397    326.26103   -38826.424    38844.687     37.35294    38.050859 
11176000    291.93121    205.73204      180.387   -38850.806    38855.957    25.345046    38.052517 
11180000    278.92833    292.37165    249.17232   -38850.816    38853.461     43.19933    38.047813 
11184000    268.62284    256.52073    354.77774   -38851.377    38870.526   -98.257006    38.027507 
11188000    293.04486    374.43414    303.97124    -38868.02    38841.906    70.462899    38.028976 
11192000    306.44383    410.60658    316.43911   -38857.824    38847.421    94.167468    38.028355 
11196000    278.58884    249.74263    413.93455    -38870.77    38870.221   -164.19192    38.021668 
11200000    290.69354    384.93539    575.51601   -38873.059     38894.44   -190.58062    38.019203 
11204000    282.32914    582.10493    364.52962   -38891.124    38925.389     217.5753    38.018784 
11208000    311.84397    217.30988    346.27501   -38901.416    38905.122   -128.96513    38.020242 
11212000    286.04835    417.41765    337.89127   -38924.673    38926.307    79.526377    38.019665 
11216000    279.81506    436.15856    407.29843   -38927.997    38951.753    28.860121    38.009623 
11220000     264.0357    447.01306    244.26133   -38952.566    38967.704    202.75172    38.027663 
11224000    274.39621    519.11109    279.10736   -38972.542    38980.966    240.00373    38.037583 
11228000    252.20321    422.19277    333.21204   -38988.189    38984.175    88.980735    38.029174 
11232000    298.33611    514.72394    328.10123   -38980.492    38991.903    186.62271    38.029803 
11236000    289.17838    283.09087    267.44935   -39002.537    38970.605     15.64152    38.023472 
11240000    276.45675    441.86197    320.30868   -39005.134    39032.505    121.55328    38.016014 
11244000    295.97385    321.03459    326.06464   -39039.271    39038.832   -5.0300454    38.020726 
11248000    270.90993    313.74098    473.32756   -39045.688     39054.29   -159.58657    38.015586 
11252000    260.23076     326.8479     186.3491   -39057.524    39077.785    140.49879    38.022553 
11256000     288.2234    518.15871    250.66004   -39060.022    39080.143    267.49867    38.036616 
11260000    288.73898    307.82065    297.46518   -39079.343     39101.53    10.355466    38.036474 
11264000    288.05672    376.72522    236.82233    -39106.77    39121.163    139.90289    38.035316 
11268000    265.66038    336.87845    453.36119   -39120.951     39148.89   -116.48274    38.038084 
11272000    292.37313    249.97503    428.64485   -39145.543    39154.466   -178.66982     38.03162 
11276000    287.23346    502.10321     476.1436   -39175.664    39177.575    25.959606    38.047375 
11280000    281.29189     455.0914    577.57626   -39175.833    39167.184   -122.48486    38.034718 
11284000    283.50904    380.25486    265.90616   -39187.538    39197.135     114.3487    38.026557 
11288000    296.21731    596.32569    408.85992   -39204.586     39201.66    187.46577    38.032045 
11292000    281.31513     395.7011    230.77295   -39205.006    39216.282    164.92815    38.025987 
11296000    271.82296    409.75894    420.92717   -39215.449    39225.086    -11.16823    38.026138 
11300000    303.39329    528.70752    520.84541    -39233.37    39228.533    7.8621069    38.017728 
11304000     267.3453    293.86707    310.73087   -39227.923    39242.246   -16.863798    38.007284 
11308000    268.60224    287.67542    466.60929   -39264.832    39281.891   -178.93388    37.998641 
11312000    295.02506    411.83445    320.54122   -39289.301    39293.187    91.293233    37.991024 
11316000    299.17049    327.39482    525.37921   -39287.343     39294.12   -197.98439    38.003993 
11320000    286.48281    410.25384    283.10101   -39302.406    39309.277    127.15283     38.01596 
11324000    290.21268    374.39774    478.40261   -39294.774    39304.342   -104.00487    38.006451 
11328000    288.99116    375.61818    391.77399   -39299.087    39306.754   -16.155807    37.994355 
11332000    284.18401    466.00197    189.76973   -39313.319    39317.278    276.23224    37.990345 
11336000    271.64331    369.72212    344.73863   -39327.114      39332.3    24.983493    37.992541 
11340000    284.64268    346.54587    191.97126    -39321.48    39320.851     154.5746    37.997633 
11344000    282.44553    218.05471    375.65886    -39339.95    39338.036   -157.60415    37.993001 
11348000    252.95784     419.5866    302.82558   -39341.612     39364.42    116.76102    37.998572 
11352000     290.7731    279.40209    261.69061   -39374.812    39389.084    17.711482    38.002729 
11356000    278.99409     404.1292    324.77186   -39389.094    39402.891     79.35734    37.996952 
11360000    264.79867    257.06723    373.89348   -39393.894    39410.083   -116.82625    37.996144 
11364000    284.93116    275.87439     352.5267   -39392.988    39404.297   -76.652319    37.996143 
11368000    274.85535    693.38573    374.71848   -39416.145    39419.322    318.66725    38.017893 
11372000    271.69351    361.68846    297.39807    -39406.38     39418.33    64.290397    38.021573 
11376000    295.79753    468.03206    218.04425    -39435.13    39438.816     249.9878    38.041191 
11380000    294.88553    488.03798    423.61724   -39449.928    39465.205     64.42074    38.037929 
11384000    284.01273    423.48287    392.44624   -39469.092    39480.504    31.036637    38.047034 
11388000    277.70517    261.12411     284.1135   -39473.009    39484.591   -22.989391    38.050602 
11392000     270.3315    262.80993    247.27486    -39469.42    39488.856    15.535076    38.054454 
11396000    303.38727    313.57664    339.20679   -39499.727    39487.888   -25.630159    38.047539 
11400000    299.54865    321.50727    210.24685   -39514.522    39511.601    111.26042    38.039591 
11404000    307.35113    618.95321    232.61134   -39528.966    39517.022    386.34186    38.033628 
11408000    292.65934    321.70262    373.77624   -39538.949    39529.481   -52.073616    38.030036 
11412000    267.17662      286.097    232.67238   -39544.023    39543.678    53.424613    38.036163 
11416000    284.69167    307.73426    173.66011   -39581.963    39585.108    134.07415    38.035982 
11420000    271.70283     260.2311    265.45187   -39581.398    39603.063   -5.2207643    38.027944 
11424000    251.09764    275.65845    229.88643    -39599.78    39613.549    45.772017    38.028727 
11428000    279.55123    385.99092    314.83747   -39600.038     39629.02    71.153452     38.03095 
11432000    255.26628     375.4194    325.26432   -39603.275    39635.819    50.155077    38.028052 
11436000    261.83603    335.00801     312.8684   -39634.951    39653.813    22.139615    38.029311 
11440000    279.21621    313.24723    260.21722   -39658.579    39659.583    53.030011    38.028377 
11444000     270.8329    257.31364    161.57716    -39697.48    39702.104    95.736476    38.035008 
11448000    305.41944    349.05263    401.26508   -39730.759    39721.231   -52.212442    38.021405 
11452000    273.64704    284.37598    268.48209    -39727.43    39754.702     15.89389    38.025795 
11456000    275.24417    291.10102    275.33679   -39742.427     39766.62    15.764227    38.013712 
11460000    274.82293    419.86843     322.5658   -39779.211    39785.318    97.302621    38.005688 
11464000    276.52559    557.70723    317.66749   -39798.774    39818.325    240.03975    38.005504 
11468000    283.83481    230.99323    396.71276     -39810.1    39834.746   -165.71952    38.015071 
11472000    301.02697    289.87828    342.31069    -39853.22    39859.723   -52.432415    38.012792 
11476000    270.59213    249.47061    191.39669   -39881.083    39895.379    58.073911    38.008604 
11480000    302.19008    467.43528    344.98103   -39920.799    39915.631    122.45424    38.011331 
11484000    290.37572     326.2741    522.33433   -39944.745    39952.168   -196.06023    38.012391 
11488000    285.95366    277.18563    192.40611   -39959.562    39979.252    84.779517    38.019919 
11492000    286.72689     396.9518    471.53694   -39984.446    39999.877   -74.585136     38.02643 
11496000    311.79512    411.97186    519.39098    -40004.19    40000.252   -107.41911    38.025601 
11500000    309.31751    489.48508    412.36259    -40033.46    40036.619    77.122491    38.024002 
11504000    276.60318    304.35603    202.43181   -40050.313    40057.025    101.92423    38.026466 
11508000    266.25514    463.81176    394.12154    -40036.87    40072.333    69.690221    38.017513 
11512000    273.36367    324.14185    338.25761   -40071.721    40077.315   -14.115759     38.02427 
11516000    320.00648      418.198    392.44125   -40104.787    40095.686    25.756752     38.00929 
11520000    259.91313    312.43767    301.18074   -40101.381    40129.821    11.256931    38.009292 
11524000    274.74653    262.95867    215.77403   -40127.405    40141.321    47.184638    38.009599 
11528000    251.34829    312.21978    183.29249   -40140.924    40170.002    128.92729    38.010704 
11532000    261.44489    391.17038    181.15397   -40143.853    40168.203    210.01641    37.999443 
11536000    255.31275    256.79713    333.86758   -40149.657    40180.317    -77.07045    38.003182 
11540000    266.11865    255.28893    203.38061   -40186.421    40202.497     51.90832     38.01323 
11544000    265.77554    304.10164    420.10494   -40197.995    40213.186    -116.0033    38.024494 
11548000     252.3413    636.30318    314.05546   -40220.484    40253.658    322.24772    38.022542 
11552000     262.2908    509.48125    423.86968     -40238.4    40263.815    85.611571    38.025667 
11556000    261.38101    198.91799    301.70606    -40245.65    40281.125   -102.78807    38.014953 
11560000    252.47123    446.13544     185.8353    -40275.15     40307.21    260.30014    38.025381 
11564000    297.87438    358.81657    299.09422   -40317.591     40329.54    59.722351     38.02214 
11568000    261.47522    284.57018    273.85062   -40331.956    40345.577    10.719559    38.016937 
11572000    253.29222    374.48929    227.18116   -40348.846    40375.511    147.30813    38.033611 
11576000    272.94679     224.5067    324.40184   -40368.666    40378.892   -99.895133    38.035771 
11580000    265.86267    285.20983     287.8515    -40383.85     40395.82   -2.6416704    38.041301 
11584000    297.11766    723.00358    247.37572   -40398.678    40418.385    475.62786    38.062563 
11588000    276.41586    239.71661     248.2317   -40420.502    40436.518   -8.5150917    38.052295 
11592000    295.86635    300.85361    365.51933   -40449.394    40471.177   -64.665725    38.039596 
11596000    286.43519    430.24061    314.79689   -40480.315    40496.068    115.44371    38.066726 
11600000    292.13394    385.32475    416.37897   -40499.155     40513.22    -31.05422    38.067413 
11604000    259.51369    322.92554    191.82014   -40519.945     40528.37    131.10541     38.07713 
11608000    254.78723    275.32538     318.2544   -40500.779    40518.566   -42.929017    38.077649 
11612000    297.96264    332.72862    511.28478   -40526.431    40530.086   -178.55616    38.084404 
11616000     280.9223    220.80181    439.34442   -40534.031    40549.283   -218.54261    38.085673 
11620000    261.03457    254.34047    213.98153   -40550.158    40572.563    40.358938    38.086895 
11624000    269.78297    269.71641    352.99963    -40569.86    40583.506   -83.283224    38.103666 
11628000    279.02809    459.92979    287.85014   -40593.089    40598.172    172.07965    38.098707 
11632000    294.09224    484.13442    232.35962   -40607.054    40603.044    251.77481    38.095252 
11636000    288.37712    490.19322    270.17211   -40603.037    40603.424    220.02111    38.105366 
11640000    314.00695     353.2604    316.60703   -40643.096    40620.916    36.653377    38.114992 
11644000    285.30242    388.58024    119.18106   -40654.988    40657.718    269.39918    38.120886 
11648000    266.28675    416.98326    290.03515   -40667.592      40682.9    126.94811    38.121176 
11652000    273.17648    414.25836    330.99772   -40692.366    40711.641    83.260644    38.108167 
11656000    288.11304     420.6259    477.21281    -40727.25    40736.011   -56.586905    38.103555 
11660000    260.85686    447.45798     157.7234   -40724.251    40758.788    289.73458    38.118812 
11664000    252.90418    479.23617    298.49816   -40756.461    40783.999      180.738    38.117019 
11668000    277.21689    168.37365    258.85411   -40752.207    40779.704   -90.480465     38.12076 
11672000    272.40799    207.74568    253.51607   -40775.115    40796.516    -45.77039    38.127797 
11676000    290.05975    378.60063    275.85769   -40816.454    40802.434    102.74294    38.109522 
11680000     285.3194    341.19223    321.86697   -40801.267    40816.546    19.325262    38.117812 
11684000    277.03674    491.92705    239.90993   -40814.955    40845.149    252.01711    38.112037 
11688000    279.80465    450.84581    347.35213   -40856.136    40873.363    103.49367    38.112751 
11692000    265.98506    229.87519    241.33642   -40874.405    40881.042    -11.46123    38.094183 
11696000    260.13069    292.83192    374.81032   -40888.172      40904.8   -81.978403    38.104228 
11700000     286.4404    283.63646    283.89047   -40911.296     40904.53  -0.25401543    38.111501 
11704000    319.22028    358.98418    439.82024   -40925.885    40901.614   -80.836063    38.107715 
11708000    289.01768     291.0246    359.08465   -40933.855    40941.801   -68.060047    38.115118 
11712000    309.25112    287.15181    433.60818   -40935.413    40924.851   -146.45637    38.122718 
11716000    270.74537    280.92226    278.96302   -40922.192    40953.049    1.9592423    38.110725 
11720000    276.62348    366.03145    307.73458   -40938.957    40963.397    58.296868    38.097605 
11724000    287.78852    369.50429    409.05349   -40961.867    40982.311   -39.549201    38.093887 
11728000    280.58872    477.11712    356.50205   -40969.441    40980.434    120.61506    38.112814 
11732000    289.35985    302.70023    342.59233   -40978.608    40978.065   -39.892093    38.097306 
11736000    298.40573    441.96469     356.0791   -41002.523    40998.549    85.885582    38.087353 
11740000    272.73955    353.12801    231.83942   -41006.963     41030.77    121.28859    38.072071 
11744000    269.49109     285.4854    409.25879   -41046.874      41073.2   -123.77339    38.086036 
11748000    283.59294     416.9244    320.82671   -41055.374     41073.12    96.097691    38.085786 
11752000    271.70843     690.6997    322.39116    -41089.76    41105.895    368.30855     38.08625 
11756000    264.10476    338.11604    314.26364   -41095.309     41115.24    23.852408    38.078459 
11760000    283.11501    344.79797    301.82627    -41107.38    41115.191    42.971696    38.086325 
11764000    259.50848    377.85722    345.59416   -41114.929    41138.014    32.263057    38.078823 
11768000    300.89873    404.77793    280.54583   -41140.503    41141.907     124.2321     38.08462 
11772000    303.98225    452.35895    250.68071   -41165.048    41164.936    201.67824    38.090602 
11776000    284.49601    323.20016    289.37827   -41172.243    41186.878    33.821888    38.080646 
11780000    274.04928     290.3845     281.6136   -41186.553    41203.964    8.7708987    38.067367 
11784000    286.74866    428.18024     221.1382    -41199.85    41229.302    207.04204    38.060784 
11788000    254.07098    310.12803    377.42705   -41203.769    41231.448   -67.299027    38.064267 
11792000    265.47493    357.38779    326.82311   -41212.225    41237.953    30.564676    38.064991 
11796000    318.87897    402.61815    383.02084   -41221.244    41233.517    19.597313    38.070349 
11800000    267.94557    455.51428    214.98598   -41224.058    41252.929    240.52829    38.077101 
11804000    281.01798    354.06941    391.33962   -41272.609    41270.517   -37.270214    38.058329 
11808000    243.73675      416.607    210.83073    -41265.36    41298.114    205.77627    38.074535 
11812000    280.85405    381.58557    308.56973   -41280.142    41293.524    73.015841    38.080725 
11816000    305.87057    306.62005     413.6527   -41307.434    41316.549   -107.03266    38.075156 
11820000    306.26542    286.86931      207.743   -41321.095    41325.438    79.126304    38.060434 
11824000    295.16913    222.02314    352.68509   -41334.381    41328.031   -130.66195    38.050375 
11828000     288.2023    404.37962    354.52853   -41354.736    41350.446    49.851098     38.06483 
11832000    260.51219      381.061    176.82964   -41352.913    41370.016    204.23136    38.077277 
11836000    287.08186    375.60948    359.51744   -41376.951    41373.707    16.092047    38.072419 
11840000    281.92265    301.84933    282.27661   -41375.541    41388.193    19.572715    38.074852 
11844000    287.27986    250.36596    262.22327   -41374.203    41375.952   -11.857314    38.066938 
11848000    253.16108    343.98407    294.06457   -41372.442    41404.318    49.919496    38.054541 
11852000    296.68798    469.87706    360.02466   -41409.367    41416.803     109.8524    38.052163 
11856000    283.03807     293.0482    360.59073   -41428.316    41440.577   -67.542532    38.060429 
11860000    304.90448    431.55939    467.21539   -41456.068    41441.839   -35.656003    38.062577 
11864000    250.51534    353.70363    338.48252   -41455.481    41471.094    15.221108    38.066979 
11868000    274.15027    380.54703    412.46641   -41462.656    41487.896   -31.919382     38.07297 
11872000    278.02109    441.87592    247.68974   -41517.271    41516.972    194.18618    38.089956 
11876000    285.89895    424.20964    237.20167   -41517.465    41533.912    187.00796    38.086442 
11880000    278.63126    211.37636    383.94397   -41531.211    41541.627   -172.56761    38.097321 
11884000    282.35084    369.36976    420.52862   -41557.972    41577.251   -51.158851    38.092158 
11888000    261.15405    486.33326    318.15805   -41589.557    41602.262    168.17521    38.092686 
11892000    291.82313    521.24954    429.50674   -41598.525    41594.322    91.742801    38.092139 
11896000    320.17536    351.81765    406.78018   -41649.656    41631.925   -54.962529    38.093591 
11900000    296.53621      345.684    461.70128   -41678.501    41662.948   -116.01729     38.10568 
11904000    293.01171    441.19104    342.82622   -41703.923     41692.41    98.364821    38.104068 
11908000    304.88241    297.44627    165.30431   -41717.065    41700.574    132.14196    38.095567 
11912000    301.83585    352.33293    410.71051   -41747.632    41738.315   -58.377582    38.095831 
11916000    270.85914    138.22964    281.84365   -41741.935    41756.249     -143.614    38.102469 
11920000     296.0546    513.41307    374.14979     -41769.8    41780.053    139.26328    38.102192 
11924000    238.10741    346.60378    291.66098   -41764.126     41795.97    54.942806    38.085111 
11928000     311.7016    291.59949    443.03621   -41791.389    41782.678   -151.43672    38.078236 
11932000    285.30985    213.92723     491.7444   -41815.338    41815.249   -277.81717    38.079305 
11936000    282.44069     445.5704    250.31952   -41836.796    41852.969    195.25088     38.08447 
11940000    283.32939    416.22395    229.48829   -41852.413    41863.915    186.73566    38.092376 
11944000    306.21547    381.39023    466.55096   -41881.415    41867.294   -85.160738    38.094331 
11948000    307.41058    441.08393    256.81709   -41904.542    41921.139    184.26684    38.101005 
11952000    275.03602    291.77735    278.02182   -41945.422    41953.094    13.755537    38.110005 
11956000    282.89239    363.85655    254.10641   -41960.131    41973.076    109.75013    38.102641 
11960000    318.87218    466.08371    228.27579    -41999.04    41981.992    237.80792    38.103355 
11964000    293.72396    441.63308    287.60352   -42007.721    42018.649    154.02956    38.097281 
11968000    277.91871    254.21194    428.91865   -42036.549    42026.117   -174.70671     38.09072 
11972000    273.30124    276.33605    262.76731   -42020.041    42030.448    13.568733    38.109914 
11976000    273.08596    495.82153    304.45256   -42056.377    42067.679    191.36897    38.107122 
11980000    281.45699    396.88466    201.47401   -42051.558    42073.502    195.41065    38.101963 
11984000     287.2269    337.47825    270.66132   -42073.239    42079.523    66.816928    38.112444 
11988000    257.60463    373.38719    415.13594   -42078.045    42109.076   -41.748757     38.11194 
11992000    263.17258    352.89391    206.67995   -42084.045     42116.66    146.21396    38.109464 
11996000    264.01589    642.64716    335.69177   -42107.461    42129.865    306.95539     38.11588 
12000000    274.54981    209.01299     221.0708   -42133.129    42158.413   -12.057809    38.102422 
12004000    282.01641    476.60521    318.95172   -42164.391    42178.972    157.65349    38.121844 
12008000    268.08933    249.98996    227.84038   -42169.247    42180.106     22.14958    38.114759 
12012000    307.75639    447.62019    250.29491   -42197.101    42180.701    197.32528    38.122601 
12016000    313.55364    368.85172    289.12071   -42187.656    42170.051    79.731014    38.128163 
12020000    291.48008    497.51422    191.28686   -42182.993    42167.242    306.22736    38.115623 
12024000    290.69608    491.51533    444.91062    -42180.64    42185.586     46.60471     38.12181 
12028000    261.14045    323.98349    231.57028   -42191.663    42212.409    92.413212    38.124949 
12032000     299.7106    557.38292     411.6589   -42221.897    42241.316    145.72402    38.150149 
12036000    304.00856    500.23697    269.79443   -42232.695    42229.543    230.44255    38.163621 
12040000    288.85862    157.16735    208.08917   -42240.593    42246.488   -50.921818    38.167351 
12044000    304.61074    249.75036    244.50387   -42276.192    42261.386    5.2464907    38.170035 
12048000    270.50648    228.39544     252.6854   -42266.733    42297.989   -24.289961     38.18261 
12052000    272.76189    404.83994    480.72943   -42284.544    42294.818   -75.889489    38.170773 
12056000    271.05776    323.32612    433.45547   -42295.718    42302.652   -110.12935    38.168674 
12060000    282.64158    293.58635    277.36235   -42295.016    42314.646    16.223995     38.16814 
12064000    285.83436    417.85772    289.51897   -42333.606    42361.187    128.33875    38.178963 
12068000     265.7332    274.89868     311.4986   -42347.852    42369.014   -36.599924    38.170341 
12072000    255.54845    314.18194    150.29168   -42369.087    42393.843    163.89026    38.169953 
12076000    277.35322    270.70332    194.36746   -42365.797    42404.718    76.335855    38.169798 
12080000    313.20117    449.99096    188.10013   -42410.803    42401.018    261.89083    38.165967 
12084000    302.57253    448.19407    376.83921   -42429.746    42442.481     71.35486    38.163871 
12088000    272.08856    310.42438    319.40038   -42448.008    42474.542   -8.9760065    38.153096 
12092000    311.30694    439.02654    230.49258   -42492.666    42478.835    208.53396    38.166226 
12096000    306.94479    342.49192    257.68445   -42504.337    42487.968    84.807475    38.178977 
12100000    264.48404     181.1141    345.49142   -42514.442    42525.849   -164.37732    38.163233 
12104000    290.96737    382.15969    346.48525   -42537.529    42537.459    35.674439    38.176492 
12108000    271.79663    280.80035    430.45052   -42534.513    42563.339   -149.65017    38.176086 
12112000    267.84775    289.88125    175.34434   -42568.607    42584.088    114.53691    38.180128 
12116000    278.01746    423.80583    321.55517   -42596.316    42605.931    102.25066    38.179915 
12120000    302.02649    167.05038    462.17363   -42629.569    42605.206   -295.12325    38.172097 
12124000    309.94342    401.11869    316.39269   -42659.223    42667.104    84.726002    38.177527 
12128000    321.29312      351.575    409.85916   -42679.041    42664.402   -58.284157     38.17855 
12132000    306.94238    149.28312    575.25764   -42696.384    42690.464   -425.97452    38.179275 
12136000    277.98757    451.76797    324.24445   -42704.107     42715.98    127.52352    38.189137 
12140000    257.59111    234.99563    282.18896   -42734.878     42753.04   -47.193324    38.204016 
12144000    281.34183    365.28152    448.25867   -42760.237    42777.081   -82.977151    38.205108 
12148000    251.52467    322.03856    213.72974   -42765.577    42790.812    108.30882    38.203232 
12152000    304.67887    340.69953    310.21874   -42793.069    42799.442    30.480793    38.198809 
12156000    288.63286    599.42686    314.29346   -42810.418    42816.156    285.13341    38.206006 
12160000    286.71769    439.44841    205.74169   -42831.747    42827.772    233.70673    38.225338 
12164000    287.44966    313.69562    467.95006   -42856.306    42874.629   -154.25444    38.217267 
12168000    284.98627     357.4999    287.70633   -42882.857    42886.916    69.793565    38.215885 
12172000    251.35217    237.49096     208.3205   -42892.508     42901.99     29.17046    38.216804 
12176000    284.14338    366.52027    457.11132    -42916.58    42913.724   -90.591045    38.225315 
12180000    300.11419    383.49654    342.11599   -42906.683    42912.305    41.380553    38.221821 
12184000    289.34424    375.66341    420.37668   -42909.285    42916.494   -44.713263    38.211481 
12188000    283.11509     221.0679    421.58392   -42931.719    42923.553   -200.51602    38.214583 
12192000    288.34807    275.69785    215.29666   -42922.221    42926.832    60.401195     38.22276 
12196000    297.93768    292.17127     289.1669   -42917.413    42912.113    3.0043706    38.217228 
12200000    301.40405    404.76726    544.38245   -42902.381    42916.989    -139.6152    38.209738 
12204000    277.80853    379.09795    226.54209   -42912.246    42931.112    152.55586    38.200309 
12208000     276.3204    344.32584    204.00305     -42946.3    42944.114    140.32279    38.206851 
12212000    280.99235    293.03555    325.07632   -42953.534     42971.82   -32.040777    38.197159 
12216000    289.31807    345.24224    274.04043   -42979.481    42977.598    71.201811    38.205962 
12220000    321.43835    229.24796    299.37659   -43004.959    43000.503   -70.128627    38.221559 
12224000    297.40161      481.467     422.1127   -43043.802    43015.398    59.354304    38.240571 
12228000    244.35907    377.94548    295.12249   -43033.462    43059.835    82.822991    38.245504 
12232000    279.93032    259.19936    314.09054   -43057.452      43062.1   -54.891183    38.238042 
12236000    271.75115    278.03402    225.99871   -43066.982    43078.846    52.035312    38.222695 
12240000     286.2488    374.95217    333.10252    -43078.93    43106.857    41.849643    38.223001 
12244000    281.09081    456.20744    300.59619   -43123.406    43130.072    155.61125    38.239806 
12248000    248.45227    654.69744    223.71398   -43130.159    43156.856    430.98346    38.243893 
12252000    282.27639    335.35561    328.80114   -43176.026    43189.691    6.5544649    38.245861 
12256000    265.83487    361.89457    391.76269   -43202.655    43221.794   -29.868126    38.254962 
12260000    290.01397    366.57534    398.76704   -43244.292    43239.259   -32.191698    38.243115 
12264000    313.59759    323.01213    542.25592   -43249.459    43231.776   -219.24379    38.240976 
12268000    276.32264    345.41124    272.85259   -43265.526    43268.335    72.558649    38.243914 
12272000    267.18262    201.37508    325.86986   -43285.769    43301.228   -124.49479    38.252937 
12276000    261.92338    261.89636    240.25028   -43305.411    43311.671    21.646088    38.260196 
12280000    287.80229    301.67829    227.35858   -43320.376    43312.568    74.319702    38.248931 
12284000    288.06559    427.24768    306.10853   -43349.541    43344.007    121.13915    38.233809 
12288000    270.06501     368.2324    229.16445   -43361.973    43375.628    139.06795    38.232515 
12292000    314.22931    535.92221    382.27562   -43384.221    43389.962    153.64658    38.237838 
12296000    291.69041    463.15497    503.70448   -43404.989     43419.31   -40.549508    38.234667 
12300000    294.97495    279.22513    426.51922   -43421.437    43419.519   -147.29409    38.245745 
12304000    288.44489    333.29136    475.40798    -43422.82    43427.666   -142.11662    38.255401 
12308000    302.78044    572.22261    288.33454    -43452.71    43466.095    283.88807    38.256697 
12312000    285.35937    440.46293    401.00549   -43459.521    43474.941    39.457445    38.260509 
12316000     261.6004    251.37195    242.91866   -43481.111    43495.948    8.4532836     38.25099 
12320000    285.42671    335.96972    400.22823   -43477.942    43486.078   -64.258509    38.268314 
12324000    294.24236     353.2308    306.98233   -43487.487    43481.042    46.248463    38.274879 
12328000    301.46319    382.28186    220.22308   -43503.414    43489.587    162.05878    38.280431 
12332000    304.45965    236.51629    377.23934   -43520.354    43528.531   -140.72306    38.267948 
12336000    251.15968    307.22614    364.37373    -43534.31    43564.919   -57.147582    38.261622 
12340000    277.76056    342.71942    184.94081   -43548.661    43572.548    157.77861    38.255092 
12344000    293.64409    414.12866    195.22926   -43571.957    43582.453     218.8994    38.245748 
12348000    265.07015    263.51923    469.98942   -43572.376    43576.593   -206.47019    38.240883 
12352000    256.69858    349.57435    394.19751   -43575.255    43612.438   -44.623159     38.23605 
12356000     267.8274    325.95278    340.92993   -43589.572    43611.973    -14.97715    38.242976 
12360000    259.48243    394.96816    347.65366   -43602.833    43642.284    47.314492    38.241252 
12364000    291.20307    367.73684    412.72306   -43634.446    43645.515   -44.986216    38.243069 
12368000    295.27481    337.38244    466.95096   -43633.641    43639.494   -129.56851    38.251695 
12372000    282.26876    328.38913    206.45459   -43627.958    43654.108    121.93454    38.263058 
12376000    288.89942    335.10929     302.1815   -43656.856    43670.608    32.927791    38.272683 
12380000    263.72765    390.70976    231.53019   -43678.412    43697.005    159.17956    38.257946 
12384000    276.35348    473.76565    367.59808   -43680.436    43721.678    106.16758    38.251093 
12388000    270.31734    314.06575    292.25636   -43715.797    43758.595    21.809393    38.262514 
12392000    278.06664    406.71015    387.09559   -43747.564    43765.656    19.614561    38.252846 
12396000    267.92869    273.26682    227.73524   -43777.935    43797.998    45.531585    38.255071 
12400000    295.36221    274.03975    392.73958   -43810.622    43798.711   -118.69983    38.260103 
12404000    281.86841    341.07414    293.89602   -43826.118    43824.503     47.17812    38.259875 
12408000    293.33867    352.84905    202.76322   -43839.517    43836.946    150.08584    38.271619 
12412000    296.62368    309.63139     250.1974   -43857.232    43850.916    59.433996    38.274711 
12416000    287.61175    301.11274    186.76887   -43868.103    43877.176    114.34387    38.267317 
12420000    283.19664    212.03498    361.73692   -43866.296    43886.084   -149.70194    38.256846 
12424000    266.87612    391.44311    157.21903   -43889.321    43915.504    234.22409    38.250684 
12428000    253.71417    274.81314    457.76529   -43901.304    43935.255   -182.95215    38.253329 
12432000    274.85329    242.06217    308.42871   -43938.882    43938.981   -66.366533    38.246161 
12436000    291.19632     324.5741    241.34276    -43941.89    43942.644    83.231337    38.248703 
12440000    313.95365    555.95056    431.26654   -43963.231    43948.982    124.68402    38.253204 
12444000    299.21121    360.47028    292.66474   -43983.676    43981.545    67.805541    38.246536 
12448000    299.53561    346.65168    212.50408   -44006.216    44011.297     134.1476     38.26607 
12452000    286.99899    437.29782    297.15837    -44028.49     44020.15    140.13945    38.257447 
12456000    284.92954    328.70795    316.68318   -44028.651     44051.45    12.024774    38.255072 
12460000    278.42056    165.23785    545.91695   -44056.081    44062.284    -380.6791    38.242257 
12464000     303.2379    414.04644    344.58125   -44082.201    44085.305    69.465188     38.25631 
12468000    295.42507    219.63718    364.76328   -44063.309    44076.698    -145.1261    38.255718 
12472000    265.95991    279.96804    187.63279   -44074.137    44093.368    92.335258    38.252406 
12476000    267.21944    301.21345    372.14913   -44088.773    44092.505   -70.935681     38.24226 
12480000    294.47923    495.29433    191.18763   -44116.766    44103.756    304.10669    38.251525 
12484000    292.95614    519.63311    260.33402   -44111.146    44132.581    259.29909     38.25313 
12488000    264.94678    315.67708    409.25786     -44108.4    44141.189   -93.580779      38.2569 
12492000    308.20089    423.00909    486.35697    -44153.24    44146.732   -63.347883     38.25726 
12496000    308.23179    478.68082    247.99576   -44190.105    44196.104    230.68506    38.266447 
12500000    270.98429    228.76528    507.66669   -44210.296    44232.031    -278.9014    38.248312 
12504000    270.03886    362.76202    321.82746   -44223.927    44240.631    40.934565    38.251213 
12508000    233.79256    328.62682    317.21875   -44210.178    44240.109    11.408069    38.244736 
12512000    257.15789    407.54943    214.63832   -44218.872    44256.675     192.9111    38.252431 
12516000    301.54227    294.70811    335.05343   -44246.732    44259.471   -40.345327    38.266353 
12520000    305.81078    342.33826    326.52737   -44277.632    44286.355    15.810885    38.270821 
12524000     274.0014    244.30775    331.15681   -44314.588    44321.874   -86.849063    38.258288 
12528000    286.56103     266.7496    322.10452   -44323.204    44316.184   -55.354929    38.253169 
12532000    292.58126     296.3655    305.25087   -44339.547    44341.289   -8.8853712    38.255029 
12536000    285.31686    563.24086    314.47425   -44369.278    44373.323    248.76661    38.261426 
12540000    277.70909    477.10427    373.04061   -44374.071    44401.301    104.06367    38.275998 
12544000    301.59717    445.52451    275.87043   -44407.999    44408.765    169.65408    38.270051 
12548000    280.84841    321.68693    344.97804   -44389.524     44420.15   -23.291112    38.272945 
12552000    295.89658    423.96389    214.36477   -44422.592    44433.895    209.59912    38.275012 
12556000    307.35534    490.92179    262.55622    -44470.26    44464.615    228.36558    38.270074 
12560000     302.0713    375.97781    503.33505   -44474.048    44467.775   -127.35724       38.267 
12564000    274.51117    259.99167    279.07151   -44474.077    44490.753   -19.079839    38.256133 
12568000    300.08886    351.20965    198.75626   -44495.153    44473.567    152.45338    38.259691 
12572000    310.05403    354.19003     332.9591   -44512.484    44498.593    21.230927    38.262479 
12576000    306.08048    447.76017    335.33845   -44520.711    44507.132    112.42173    38.257787 
12580000     287.7483    248.15189    468.92597   -44528.816    44530.448   -220.77409    38.260013 
12584000    274.94212     335.9945     217.7861   -44545.619    44559.562     118.2084    38.261855 
12588000    280.26005    262.96433    228.45421   -44554.906    44572.965    34.510124    38.259711 
12592000    277.91723    367.11646    319.74177   -44555.415    44574.666    47.374685    38.254496 
12596000    284.47525    276.75871    240.97117    -44592.13    44601.717    35.787541    38.258231 
12600000    291.33148    298.92376    395.81262   -44612.632    44620.912   -96.888861    38.258003 
12604000     266.8848    321.73298    258.46445   -44639.563    44666.707    63.268534    38.254453 
12608000    286.93075    415.41732    361.07755   -44675.931    44692.819    54.339774     38.27382 
12612000    268.87783    409.76242    354.89096    -44696.52    44725.968     54.87146    38.278047 
12616000    278.08666    221.45161    349.36658   -44728.504    44743.371   -127.91497    38.269488 
12620000    253.75266    421.53736    327.18334   -44773.103    44803.426    94.354012     38.26296 
12624000     270.7318    377.06802    151.91324   -44783.253    44809.803    225.15477    38.271496 
12628000    284.26378    590.90582    450.24558   -44800.487    44811.394    140.66024    38.273321 
12632000    266.83536    453.06106    204.16681   -44838.796    44830.872    248.89425    38.283388 
12636000    292.26825    510.17827    347.21706   -44884.015    44889.967     162.9612     38.26302 
12640000    279.23203    206.77937    387.37981   -44895.321    44908.837   -180.60045    38.263555 
12644000    274.33242    358.96461    272.46566   -44926.574    44942.207    86.498958    38.248435 
12648000    280.41127    229.47618    325.02825   -44957.034    44983.425   -95.552065    38.263613 
12652000    277.51214    442.32018    412.52208   -44990.959    44996.666    29.798101    38.264225 
12656000    253.09248     269.2637    255.48905   -44995.487    45012.474    13.774646     38.26318 
12660000    296.85002    538.84312    260.01973   -45027.069    45017.853    278.82338    38.276326 
12664000    278.12995    272.84652    293.25948   -45033.112    45049.348   -20.412968    38.271276 
12668000    300.79293    429.96533    133.12208   -45068.484    45059.361    296.84326    38.284432 
12672000     274.6937    377.02778    247.31954   -45088.308    45112.569    129.70824    38.292713 
12676000    281.37394    360.64157     254.8916   -45111.397    45120.487    105.74997    38.295217 
12680000    263.51029    409.59914    437.49007   -45110.686     45150.45   -27.890932    38.302795 
12684000    276.72716    291.01655    369.56224   -45166.032    45174.136   -78.545695    38.307487 
12688000    286.32802    380.64838    205.74692   -45198.393    45211.349    174.90146    38.315662 
12692000    269.86981    240.19894    224.84622   -45218.271    45228.708    15.352717     38.30959 
12696000    302.55895    383.84453    282.80876   -45236.807        45233    101.03576    38.309875 
12700000    292.34422    246.62681    508.24458   -45235.347     45251.79   -261.61777    38.315603 
12704000    301.29912    414.68282    249.95591    -45272.53    45252.383    164.72691    38.328667 
12708000    308.31054    323.67256    258.04109   -45289.564     45285.85    65.631474    38.323047 
12712000    260.65837    463.34544    282.28548   -45291.999    45318.061    181.05996    38.317944 
12716000    267.26329    318.46519    223.90347   -45318.512    45324.628    94.561724    38.326225 
12720000    256.99402    455.31712    289.99325   -45318.907    45339.071    165.32387    38.338489 
12724000     264.2816    376.78952    382.26697   -45325.652    45346.596   -5.4774486    38.349132 
12728000      268.367    413.53329    227.04544   -45328.897    45357.021    186.48785    38.346983 
12732000    269.48659    371.46536    335.20085   -45370.048    45379.683    36.264519     38.35213 
12736000    278.84572    315.72154    140.23685   -45379.009    45392.709    175.48468    38.348539 
12740000    304.10807     296.1015    198.28975   -45407.952    45413.495    97.811753     38.34435 
12744000    285.75127    374.93836    267.65882     -45442.1    45444.322    107.27954    38.361493 
12748000    297.52401    518.25603    288.99654   -45474.816    45460.873    229.25949    38.358101 
12752000    274.77083    329.52673    375.34549   -45452.753    45465.024   -45.818766    38.369924 
12756000    314.25096    350.52593    586.37493   -45492.604    45484.161     -235.849    38.370414 
12760000     307.1242     274.2938    243.59111    -45514.52    45507.862    30.702695    38.360877 
12764000    304.95725    534.75562    291.40128   -45527.602    45522.302    243.35434    38.358118 
12768000    294.72662     250.2906    423.82908   -45527.392    45536.817   -173.53848    38.349607 
12772000    289.06957    473.14058    268.33917   -45558.231    45566.684     204.8014    38.349678 
12776000    283.06212    277.37239    262.83891   -45565.568    45573.523    14.533476    38.348293 
12780000    273.64998     207.3218    264.13566   -45562.736    45585.861   -56.813854    38.357779 
12784000    243.56539    577.18765    384.57091   -45571.371    45621.567    192.61674     38.36035 
12788000    311.17849    646.80061    317.52883   -45613.717    45602.904    329.27178    38.369028 
12792000    267.87917    360.59169    367.68542   -45610.967    45633.576   -7.0937228    38.363169 
12796000    264.05063    335.22864    393.80081   -45613.567     45642.78   -58.572178    38.367592 
12800000    256.19853    300.08199    186.39917   -45638.017    45659.161    113.68282    38.359633 
12804000     291.1997    363.77042    296.09892   -45651.812    45664.408    67.671505    38.370006 
12808000    281.46651    307.52289    445.29747   -45671.272    45694.601   -137.77458    38.379338 
12812000    308.63698    398.67762    391.41705    -45707.95    45714.067    7.2605738     38.38329 
12816000    301.61312    372.99752    336.17491   -45722.631    45720.613    36.822611    38.379685 
12820000    279.87855    286.94502    448.41553   -45715.594    45733.003   -161.47051     38.37356 
12824000    265.89573    375.06449    401.48294   -45734.843    45751.273   -26.418455    38.373925 
12828000    280.74304    508.16565    271.75761   -45768.833    45790.282    236.40804    38.370274 
12832000    281.33236    316.70013    408.92172   -45788.034     45801.26   -92.221594    38.354202 
12836000    265.20574    302.84177    291.29397   -45812.236    45836.035    11.547798    38.361936 
12840000    282.13395    474.66499     421.4496   -45833.289    45842.367    53.215397    38.358614 
12844000    307.84443    247.61483    484.12987   -45886.814    45870.483   -236.51504     38.35446 
12848000    293.69196    329.84972    272.00803   -45892.545    45884.699    57.841694    38.350746 
12852000    311.13886    391.29857    346.47117   -45920.627    45910.669    44.827401    38.375978 
12856000    287.15364     341.1573    275.52216   -45925.974    45933.446    65.635145    38.370595 
12860000    263.04231    339.85516    199.65218    -45912.72    45920.818    140.20297    38.386983 
12864000    299.04023    362.98055    208.07936   -45929.822    45932.072    154.90119    38.368547 
12868000     257.2612    344.38831    222.25735   -45912.967    45947.471    122.13096    38.369454 
12872000    284.13573    439.96342    165.46013   -45943.204    45941.215    274.50328    38.364824 
12876000    279.27789    545.41154    442.37771   -45952.879    45943.356    103.03383    38.363778 
12880000    285.09317    325.23141    324.94356   -45955.941    45977.625   0.28784887    38.367516 
12884000    272.97629    396.34533    346.56556   -45978.619    45997.631    49.779766    38.360127 
12888000    271.79908    223.14954    241.34144   -46017.433     46031.91   -18.191894    38.349014 
12892000    265.82574     521.3093    253.37015   -46038.767    46066.987    267.93915     38.35152 
12896000    275.89992    292.84026    324.18246    -46062.15    46086.015     -31.3422    38.352266 
12900000    256.11274     382.1329    462.64441   -46077.445    46108.162   -80.511517    38.340415 
12904000    277.14013    346.53083    388.78894   -46092.338    46120.799   -42.258114     38.34029 
12908000    281.30296    375.77499    393.65817   -46118.241    46123.575   -17.883186    38.335355 
12912000    294.60573    352.88842    352.70507   -46141.355    46144.483   0.18334492    38.341859 
12916000    296.04603    304.93671    429.09123   -46147.664    46151.897   -124.15452    38.350325 
12920000    291.08606    245.39597    407.08657   -46169.191     46165.93    -161.6906    38.340802 
12924000     296.0938    352.73435    318.62252   -46184.958    46193.375    34.111836     38.35415 
12928000    310.18221    430.58605    350.45884   -46203.347    46184.903    80.127205     38.35571 
12932000    280.97874     253.5707    405.80402   -46193.723     46198.62   -152.23332       38.365 
12936000    300.96978    400.29037    240.78542   -46183.382    46197.884    159.50495    38.361663 
12940000    272.99348    327.63337    171.85874    -46196.97    46210.884    155.77463    38.357654 
12944000    288.19373    290.46822    188.59147   -46224.952    46237.821    101.87675    38.359096 
12948000    275.46829    479.31477    199.32534   -46252.538    46254.408    279.98943    38.367248 
12952000    288.93787    377.46053    237.00018   -46258.322    46246.867    140.46035    38.370252 
12956000    267.30812    331.20294    325.31144   -46269.512    46284.164    5.8915017    38.374866 
12960000    303.41224    393.35329     334.1191   -46280.615    46284.984    59.234186    38.386793 
12964000    303.66971     232.8934    468.17596   -46323.928    46292.508   -235.28255    38.396534 
12968000    300.33588    243.46494    266.64591   -46340.566    46340.392   -23.180975    38.389436 
12972000    274.58588    252.63105    353.28997   -46336.362    46362.835   -100.65893    38.386083 
12976000    273.97661     230.7905     190.9995   -46353.278    46370.037    39.790994    38.397727 
12980000    296.08614    444.46466    250.60859   -46365.811    46375.916    193.85607    38.400815 
12984000     277.5962    294.33642    336.63219   -46401.068    46408.255   -42.295773    38.408587 
12988000    303.41238    472.51935    408.18295   -46423.032    46425.011    64.336399    38.409329 
12992000    298.72142    471.95824    341.75769   -46459.939     46464.03    130.20056    38.424906 
12996000    287.19492    412.94106    514.52209   -46497.361    46502.381   -101.58103    38.418034 
13000000    251.54418    130.53139    299.30386   -46485.649    46527.094   -168.77248    38.418548 
13004000    263.09816    202.00165    205.29497   -46520.608    46527.436    -3.293317    38.421639 
13008000    294.26087    279.84871    411.21506   -46552.577    46552.841   -131.36635    38.411805 
13012000     280.3964    262.50179    345.37364   -46580.316     46576.48   -82.871856    38.412689 
13016000    293.17581    284.22101    269.26087   -46611.157    46602.299    14.960138    38.413836 
13020000    289.07603     285.0275      261.547   -46621.831    46623.532    23.480502    38.404443 
13024000    283.47223    285.45032     683.8151   -46634.697    46648.781   -398.36477     38.39904 
13028000    298.74158    386.08233    400.97829   -46656.285    46653.424   -14.895957    38.403042 
13032000    269.26985    315.33385    352.25552    -46658.35    46693.284   -36.921673    38.401213 
13036000    246.40995    389.10723    267.75144   -46656.159    46713.444     121.3558    38.399364 
13040000    284.60297    452.36303    323.22581   -46673.442    46694.229    129.13722     38.40566 
13044000    272.54957    281.84486    399.19156   -46689.201    46704.358    -117.3467    38.393012 
13048000    254.05579    376.40122     307.8467   -46707.794     46739.44    68.554518    38.387907 
13052000    297.69379    437.42719    366.50607   -46750.318    46748.924    70.921121    38.371532 
13056000    269.20442    243.13397    292.94125   -46764.802    46780.726   -49.807286    38.377861 
13060000    266.03031    460.53984    279.17721   -46765.731    46775.683    181.36263    38.382976 
13064000    269.35476    433.70065    262.69586   -46780.672    46796.702    171.00479    38.391832 
13068000    283.14855    279.22361    329.52545    -46818.36     46820.18   -50.301848    38.395672 
13072000    287.24401    263.79334    562.64502    -46807.55    46829.514   -298.85168    38.393231 
13076000    301.10785    464.43065    277.71333   -46830.998    46824.224    186.71732    38.401446 
13080000    310.66571    375.72402    482.48875    -46851.09    46842.172   -106.76473     38.39196 
13084000    289.38638    379.85083    414.53543   -46884.085    46887.247   -34.684606     38.37971 
13088000    304.16819    298.00144    516.68957   -46899.051    46881.688   -218.68813    38.376131 
13092000    282.81728    562.13853    415.23545   -46913.566    46924.177    146.90308    38.390766 
13096000     256.6341    375.99714    256.76481   -46921.864    46960.094    119.23233    38.388886 
13100000    306.07664    609.99892    248.19179   -46987.284    46986.183    361.80713    38.384442 
13104000    293.86979    255.84583     185.4605   -47002.388    46991.219    70.385335    38.386343 
13108000    290.28755    322.68781    345.12532    -47028.39    47024.354   -22.437506    38.384504 
13112000    268.18517    303.98092    227.39163   -47044.469    47057.107    76.589293    38.388496 
13116000    297.57341    474.01443    292.29883   -47061.148    47061.718     181.7156    38.377283 
13120000    298.30724    556.24328    356.30343   -47090.756    47089.388    199.93986    38.374536 
13124000    297.47591    309.82667    223.23893     -47117.5    47108.954    86.587744    38.383151 
13128000    241.09961    211.68721    146.21607   -47110.705    47141.156    65.471146    38.379069 
13132000    271.13954    324.04547     159.1881   -47136.945    47154.754    164.85737    38.387545 
13136000     245.6475      266.604    220.61291   -47143.051    47174.844    45.991096    38.382084 
13140000    284.24564    409.03134    220.41908   -47159.539     47175.64    188.61226    38.381296 
13144000    284.01293    428.68933    383.05806   -47182.982    47198.849    45.631266    38.376967 
13148000    286.73917    460.97363    342.89592   -47202.347     47209.26    118.07771    38.377908 
13152000    298.83001    345.09991    185.45811   -47250.356    47231.978     159.6418    38.371402 
13156000    283.60352    318.61932    309.09829   -47266.369     47267.51    9.5210294    38.372644 
13160000    266.95811    371.85773    262.22812   -47277.305    47286.648     109.6296    38.389482 
13164000    289.04578    660.24402    419.40987   -47287.432    47280.555    240.83415    38.397815 
13168000    285.36218    369.16589    351.76986   -47300.332    47306.964     17.39603    38.397968 
13172000    311.77921    367.06557    177.82426   -47325.708    47318.923    189.24131    38.386596 
13176000    280.63546    245.01305    197.72362   -47331.677    47332.721    47.289432    38.379176 
13180000     278.4814     319.8058    246.11205   -47318.284    47336.612    73.693744    38.388892 
13184000    324.73727    283.19543    305.14845   -47346.304    47327.527    -21.95302    38.389843 
13188000    295.31968    200.23575    413.23191   -47326.197    47343.317   -212.99616    38.390374 
13192000    259.89548    143.02455    170.96058   -47334.711     47349.62   -27.936033    38.390894 
13196000    268.70574    346.71739    321.89299   -47341.079    47339.706    24.824405    38.385531 
13200000    320.35846    357.60136    479.31585   -47375.631    47357.556    -121.7145    38.384973 
13204000    285.23887    338.27849     358.8422   -47371.944    47388.978   -20.563711    38.376866 
13208000    282.29433    262.93614    355.91138   -47391.276    47396.017   -92.975238     38.37625 
13212000    304.57392    281.98666    298.22601   -47405.297    47417.187   -16.239348    38.382448 
13216000    280.27823    270.95645    268.90902   -47429.547    47438.094    2.0474268    38.378674 
13220000    297.95101    587.55882     423.5313    -47476.46    47461.804    164.02751    38.385261 
13224000    281.47173    292.05775    338.74318   -47467.523    47483.599   -46.685431    38.387046 
13228000    271.57963    503.50036    196.23755   -47483.595    47483.638     307.2628    38.390464 
13232000    301.43537    218.58209    375.56362   -47486.784    47481.522   -156.98153    38.398735 
13236000    282.33995    351.83298    249.73592   -47514.068    47526.637    102.09706    38.407978 
13240000    281.03318    286.39646    347.34418   -47534.419    47539.494   -60.947719    38.401537 
13244000    267.40422    380.67387    224.18973   -47538.901    47557.782    156.48413    38.411976 
13248000     305.2429    352.76993    224.81362   -47587.079    47578.596    127.95631    38.404456 
13252000    260.30367    432.11633    237.06666   -47586.013    47606.263    195.04967    38.399637 
13256000    256.79521    303.66239    213.08793    -47576.75    47615.032    90.574459    38.401429 
13260000    293.86371      509.282    324.30476   -47599.915    47609.358    184.97724    38.396971 
13264000    294.00969    391.48829    268.37139   -47611.159    47614.955     123.1169    38.402101 
13268000    284.51177    444.22497    385.75089   -47639.945    47652.763    58.474081    38.398071 
13272000    271.09454    297.99485     151.2022   -47674.616    47682.967    146.79265    38.403845 
13276000    271.05999    510.93487    366.85988   -47675.788     47702.62    144.07499    38.409629 
13280000    284.31472     253.2826    455.78948   -47690.154    47699.977   -202.50688    38.403833 
13284000    281.43052    302.15312    272.97925   -47722.663    47715.454    29.173875    38.415343 
13288000    297.76583    463.32221     143.6159   -47739.033    47741.834    319.70631    38.408878 
13292000    299.61497    267.52656    364.97976   -47769.385    47758.751     -97.4532    38.405992 
13296000    281.58449    347.02421    272.40239   -47778.434    47786.071    74.621829    38.396074 
13300000     320.4986    302.86133    250.52689   -47809.906    47808.635     52.33444    38.400263 
13304000    268.71294    452.16905    311.17927   -47808.384    47830.406    140.98978    38.405052 
13308000    278.20671     190.7043    282.83963   -47812.623    47824.173   -92.135338    38.397702 
13312000    296.34221    602.54969     204.3982   -47854.761    47848.274    398.15149    38.399892 
13316000    276.89547    453.40991    248.51411   -47863.216     47879.44    204.89581    38.411131 
13320000    272.53169    650.32684    274.90285   -47868.511    47881.706    375.42398    38.417823 
13324000    288.00841    422.74532    312.12038   -47870.593    47880.568    110.62494    38.410787 
13328000    258.86165    313.86754    374.11742   -47897.409    47920.385   -60.249886    38.411588 
13332000    258.83573     422.8123    318.24818   -47910.133     47933.79    104.56412    38.432925 
13336000    284.29627    435.99807    241.66245   -47948.002     47957.62    194.33561    38.430979 
13340000    326.08969    499.01475    327.25788   -47982.643    47967.929    171.75687    38.428565 
13344000    296.67704    487.05671    266.21391    -48002.13    47996.325     220.8428    38.420563 
13348000     327.1695    662.49966    306.42831   -48040.424    48007.851    356.07135    38.414568 
13352000    296.10808    281.96814     223.8919   -48010.245     48022.14     58.07624    38.405839 
13356000    297.79775    338.29343    276.86028   -48028.257    48026.833    61.433154    38.404461 
13360000    305.16414    537.77417    244.46966   -48060.168    48051.786    293.30451    38.405997 
13364000    293.38043    431.54023    253.25931   -48059.814    48071.935    178.28092    38.397329 
13368000    291.09367    519.22172    220.43163    -48077.67    48090.572    298.79009    38.381432 
13372000    296.28712    132.67664    543.58542   -48081.236    48091.065   -410.90878    38.373004 
13376000    284.29051    250.59221     377.6793   -48096.254    48112.437   -127.08709    38.367839 
13380000    302.36313    253.22953    324.46005    -48120.51    48124.339   -71.230513    38.365194 
13384000    282.96185    340.39364    262.60178   -48146.528    48156.765    77.791859    38.362805 
13388000    264.30847    346.45161    303.51545    -48154.96     48182.36     42.93616    38.358509 
13392000    235.28902    243.54868    182.07624   -48168.691    48179.863    61.472443    38.352392 
13396000    309.37525    297.41227    187.76215   -48180.772    48191.201    109.65011    38.360544 
13400000    295.71674    303.41006    280.53369   -48201.345    48203.013    22.876373    38.347063 
13404000    281.49172    285.72185    240.29751   -48224.382    48218.969    45.424333    38.342089 
13408000    281.31377    466.44776    508.35767   -48247.965    48259.637   -41.909906    38.337612 
13412000    253.80691    346.21285    217.70389   -48263.691    48290.077    128.50896      38.3533 
13416000    290.47661    452.59463    408.81615   -48282.503    48283.431    43.778478    38.362886 
13420000    297.79104    403.73359    337.24847    -48299.43    48300.349    66.485121    38.357016 
13424000    295.26172    701.53491    229.20207   -48329.315    48338.437    472.33284    38.361425 
13428000     256.6906    348.64017    365.47949   -48335.042    48338.165   -16.839313    38.364288 
13432000      298.858    263.75914    295.88426   -48350.214    48366.436   -32.125117    38.358773 
13436000    292.48288    267.67744    254.02771    -48382.84    48396.866    13.649728    38.346403 
13440000    296.35854    387.13164    466.60896   -48394.995    48391.218   -79.477319    38.350554 
13444000    340.70375    395.85177    234.80443   -48427.627    48403.346    161.04734    38.346038 
13448000    293.14642    511.86837    274.88292   -48437.291    48444.521    236.98545     38.35235 
13452000    272.73279    356.22813    481.97022   -48447.283    48462.123   -125.74209    38.359719 
13456000    284.08935    191.08916    336.01649    -48472.59     48477.27   -144.92733    38.359272 
13460000    286.87012    352.07527    435.06708   -48487.764    48480.616   -82.991808    38.366734 
13464000    323.63107    380.72247    315.38045   -48518.323    48495.934     65.34202     38.38021 
13468000    300.31266    451.23488    230.88547   -48538.278    48545.071    220.34941    38.374067 
13472000    303.52161    298.97634    417.52544   -48579.233    48575.495   -118.54909    38.379914 
13476000    293.65628    316.06777    476.02147   -48604.261    48586.453    -159.9537    38.391642 
13480000    300.88243    475.70169    172.01201   -48605.867    48603.432    303.68968    38.392607 
13484000    289.37377    484.32028    332.47767    -48615.99    48609.568    151.84261     38.40053 
13488000    285.68336    323.31264    262.10602   -48620.803     48645.29    61.206623    38.399329 
13492000    254.63195    295.05914    430.66441   -48629.088    48653.476   -135.60527    38.400695 
13496000    274.43394    260.25304    192.74695   -48641.554    48648.919    67.506096    38.382458 
13500000    265.33021    305.08963    239.50061    -48663.18    48684.109    65.589022    38.392602 
13504000    281.74987     198.3872    373.68299   -48687.143    48702.949   -175.29578    38.386629 
13508000      298.308     540.0504    544.50622   -48752.046     48725.66   -4.4558165    38.395023 
13512000    300.73361    300.73698    314.27885    -48763.32    48761.523   -13.541867    38.394098 
13516000    302.79531    259.32952    353.70733   -48764.459    48777.885    -94.37781    38.388837 
13520000    269.26671    494.13984     355.3061   -48781.757    48786.472    138.83374    38.372723 
13524000    245.50708    319.24593    252.08479   -48790.465    48809.689    67.161148    38.379806 
13528000    279.95077     422.1419    318.28281   -48826.024    48842.402    103.85909    38.386882 
13532000    287.25891    534.59771    308.97887   -48865.603    48884.737    225.61884    38.385934 
13536000    277.24128    357.07476    271.98947   -48878.302    48900.211    85.085286    38.393032 
13540000    281.03805    304.49562    246.18469   -48908.475    48905.252    58.310936    38.394771 
13544000    269.46044    200.95082    390.31302   -48905.849    48928.505    -189.3622    38.388568 
13548000    290.61283    285.17667    362.71836   -48919.925    48942.321   -77.541691    38.387322 
13552000    286.47653    319.77193    232.88359   -48950.608    48961.036    86.888333     38.39607 
13556000    261.15552    314.13799    261.43394    -48969.19     49011.03     52.70405    38.388591 
13560000    279.69241    276.11448    415.20197   -49018.413    49017.038   -139.08749    38.377907 
13564000    292.45663    280.83325    259.09071   -49036.153     49028.45    21.742533    38.384425 
13568000    270.05659    440.48312    288.19983   -49043.585    49055.945    152.28329    38.392147 
13572000     257.5219     341.1634    231.63571   -49046.495    49064.794    109.52769    38.408248 
13576000    263.24825     475.5718    221.64591   -49038.001    49080.459    253.92589     38.40738 
13580000    290.63359    274.14048    360.87717   -49070.443    49096.859   -86.736684    38.408368 
13584000     272.8819    388.59493     467.2009   -49121.076    49127.745   -78.605971    38.402759 
13588000    239.81781    331.55363    207.55832   -49138.239    49161.086     123.9953    38.402616 
13592000    266.09578    386.07367    182.75357   -49166.931    49184.186     203.3201    38.400389 
13596000    308.50356    417.90512    255.04953   -49166.802    49177.395    162.85559    38.407449 
13600000    268.78723     215.5031    240.58871    -49184.06     49205.26   -25.085611    38.419986 
13604000    286.10962    402.69479    437.62124   -49206.657    49220.483   -34.926449    38.422049 
13608000    278.40287    474.45371    215.57525   -49213.499    49233.941    258.87845    38.419985 
13612000    295.30337    622.20944     387.5173   -49231.791    49243.838    234.69215    38.435771 
13616000    292.30165    327.46851    172.22744   -49224.936     49243.41    155.24107    38.431417 
13620000    276.93253    284.48712    350.84031   -49237.687    49272.484   -66.353191     38.43325 
13624000    292.65919    245.44289     436.6127   -49269.608    49291.483   -191.16981    38.432971 
13628000    263.38898    307.57764    189.23443   -49286.324    49305.291    118.34321    38.438469 
13632000    270.85745    639.75325    380.09798   -49303.373    49323.239    259.65527    38.432562 
13636000    316.32918    443.82158    218.87629     -49334.5    49330.877    224.94528    38.443834 
13640000    277.74097    250.10224    320.21255    -49319.62    49333.984    -70.11031     38.44128 
13644000    271.22796    444.71308    273.42775   -49328.152    49348.635    171.28533    38.447004 
13648000     267.6575    369.66586    273.54361   -49348.822    49380.446    96.122245      38.4509 
13652000    289.88651    307.12062    160.68395    -49382.82    49395.349    146.43667    38.456098 
13656000    283.88929    248.67888    255.84196    -49429.15    49434.323   -7.1630847    38.463025 
13660000    279.96983    458.56044     443.3411   -49435.825    49449.388     15.21934    38.463225 
13664000    255.90612    268.99041    271.43989   -49432.308    49450.362   -2.4494786    38.460004 
13668000    314.22651    540.45882    367.98944   -49469.517     49463.75    172.46938    38.466809 
13672000    274.49176    321.94336    186.57125   -49495.009    49493.677    135.37212       38.462 
13676000    276.88892    313.05761    400.83136   -49512.781    49523.551   -87.773747     38.46608 
13680000    273.88767    248.15828    287.61666   -49522.819    49541.704   -39.458379    38.461708 
13684000    314.94181     390.4372    354.81679   -49557.967    49545.954    35.620411    38.461285 
13688000    277.03418    435.96358    291.90203   -49561.281    49577.189    144.06154    38.460944 
13692000    292.81749    308.27329    255.69031   -49591.474    49586.121    52.582984    38.468279 
13696000    267.98487    380.07203    412.47501   -49587.465    49619.466   -32.402988    38.467879 
13700000    290.29317    373.78163    124.89325   -49627.293    49636.309    248.88838     38.47593 
13704000    304.20455     213.2734    345.81399   -49627.735    49627.137   -132.54058    38.465093 
13708000    311.82424    310.05582    347.88913   -49644.594    49651.768   -37.833306     38.46554 
13712000    282.88276    329.20724    140.68026   -49658.747    49675.519    188.52698     38.46002 
13716000    302.50014    369.45988    352.37397   -49698.526    49690.336    17.085914    38.450159 
13720000    273.55769    234.97633     196.0725   -49709.693    49721.525    38.903822    38.445164 
13724000    291.55992    386.76632    276.99281   -49746.797    49751.232    109.77351    38.447763 
13728000    249.00294    380.73657    215.59258   -49771.722    49789.269      165.144    38.439497 
13732000    347.56756    611.42047    617.58069   -49821.481    49804.157    -6.160214    38.440493 
13736000    309.39357     263.1611    314.02712   -49841.767    49835.419   -50.866018    38.440168 
13740000    313.84583    288.39668     294.0379   -49857.071    49851.932   -5.6412214    38.437257 
13744000    275.63048    402.88538    178.58024   -49865.112    49882.134    224.30514    38.436427 
13748000    283.84014     346.1157    460.62787   -49875.113    49889.999   -114.51218    38.426121 
13752000    276.61366    359.28654    244.71807    -49896.84    49907.242    114.56847    38.420567 
13756000    261.29454    374.31417    214.07544   -49919.908    49942.813    160.23873    38.424377 
13760000    287.15598    265.27024    288.41283   -49937.431    49942.804   -23.142591    38.432498 
13764000    253.48257    309.55228     228.6199    -49956.84    49995.784    80.932379    38.424412 
13768000    259.65001    446.92145     337.6182   -49982.286    50007.435    109.30325    38.423582 
13772000    251.06021    369.05812    240.91496   -49999.511    50021.435    128.14316    38.414417 
13776000    250.82267    317.35881    349.04377    -50007.06    50044.505   -31.684968    38.415917 
13780000    293.16578     331.2749    288.70124   -50034.518    50053.938    42.573668    38.422786 
13784000    278.71965    234.97493    225.76456   -50067.704    50075.383    9.2103659    38.412542 
13788000    289.44514    263.99676    524.34476    -50083.25    50094.844     -260.348    38.402834 
13792000    283.05434    329.16698    244.02975   -50135.562    50147.409    85.137227    38.404262 
13796000    282.66325    524.22759    349.54341   -50154.566    50173.439    174.68418    38.399839 
13800000     277.4845    362.99781    244.90665   -50171.767    50186.449    118.09116    38.402808 
13804000    277.76282    299.62743    396.17293   -50191.056    50218.688   -96.545494    38.401811 
13808000    281.30616     454.9794    393.79177   -50216.506    50223.959    61.187625     38.38265 
13812000    271.27704    422.22256    321.97363   -50226.755    50240.787    100.24893    38.392733 
13816000    256.88858    355.33448    250.62468   -50225.958    50256.968     104.7098    38.393239 
13820000    285.61974    438.45038    405.66179   -50238.229    50255.706    32.788589    38.392047 
13824000    275.71609    305.13122    309.08212   -50252.486    50288.883   -3.9508959    38.387134 
13828000     298.0647    350.84022    302.96769   -50287.806    50295.836    47.872539    38.382417 
13832000    274.64832    302.46638    300.16086   -50290.712    50304.292    2.3055145    38.383677 
13836000    280.77575     134.0789    341.99133   -50296.834    50309.551   -207.91243    38.388858 
13840000    269.61902    218.89729    252.16189   -50304.229    50325.328   -33.264607    38.385157 
13844000    305.08471    460.12742     255.9324   -50338.989     50348.44    204.19502    38.379512 
13848000    285.58227    266.61227    484.57639    -50343.76    50347.815   -217.96412    38.372118 
13852000    309.78845    298.43003    278.94835   -50377.303    50355.635    19.481679    38.369586 
13856000    293.88897    312.88522     284.2733   -50406.879    50403.129    28.611919    38.372521 
13860000    272.75055    275.37974    306.42683   -50405.024    50411.693   -31.047089    38.366231 
13864000    255.32469    363.86944    207.23025   -50426.728    50461.391    156.63919    38.357331 
13868000    301.54905    430.85966    261.84736   -50470.291    50466.026     169.0123    38.366927 
13872000    297.60135    268.86473    351.88182   -50469.984    50466.732   -83.017091    38.369284 
13876000    256.28673    424.79984    166.17196   -50474.199    50494.955    258.62788    38.376925 
13880000    283.31288    499.91445    522.81902   -50506.927    50506.562   -22.904567    38.379799 
13884000     302.6146     548.6454    296.32528   -50528.426    50526.507    252.32013    38.375785 
13888000    307.90052    402.73444    419.67191   -50536.326    50556.137   -16.937468    38.375747 
13892000     244.3653    230.83828    360.77955   -50535.485    50569.714   -129.94126    38.374867 
13896000    312.54128     367.3575    285.20573   -50569.405    50570.928    82.151763    38.373627 
13900000    288.51114    373.83259    303.12202   -50592.217    50610.169    70.710573    38.377867 
13904000    294.18991    218.55442    273.46092   -50609.912    50619.297   -54.906493    38.384541 
13908000     298.5198    192.91638    292.82836   -50640.937    50633.154   -99.911983    38.384418 
13912000    280.41511    258.58383    544.29124   -50681.487    50682.633   -285.70741    38.395109 
13916000    272.75681    392.92713    287.58101   -50713.777    50720.625    105.34612    38.396614 
13920000    281.15319    420.05868    543.53012   -50732.163    50758.695   -123.47144    38.404178 
13924000    277.91907    247.53792    360.89986   -50752.489    50764.723   -113.36194    38.400132 
13928000    301.86948    525.01542    458.90155   -50782.846    50790.898    66.113872    38.402939 
13932000     290.7978    373.26624    453.95719   -50799.217    50816.945   -80.690942    38.396202 
13936000    290.63665    337.88795    354.39975   -50827.851    50841.234   -16.511798     38.40188 
13940000    264.96439     271.3424    287.68931   -50820.282    50847.057   -16.346911    38.404057 
13944000    298.65052    492.72264     342.6633   -50831.952     50846.52    150.05934    38.403889 
13948000    296.27292    478.04246    359.50484   -50833.406    50851.506    118.53762    38.400655 
13952000    318.06169    183.59945    189.17308   -50858.258    50830.414   -5.5736275    38.402122 
13956000    287.45552    262.49296    542.65554   -50865.441    50855.834   -280.16258     38.40839 
13960000    282.07245      239.301    279.08166   -50878.973      50891.1   -39.780656    38.418115 
13964000    255.55067    339.08306    337.65682   -50914.284    50944.876    1.4262373    38.403719 
13968000    261.14476    326.98962    434.26955   -50934.886    50958.526   -107.27993    38.390225 
13972000     295.5905    403.76839     371.2851   -50962.809    50963.986    32.483289    38.403862 
13976000    275.14446    283.15637    378.08173   -50959.952     50965.61   -94.925364    38.396941 
13980000    276.16312    292.94241     229.2745    -50963.97    50984.942    63.667914    38.401041 
13984000     290.8354    376.96621    360.89913   -50967.998     50986.65    16.067074    38.389347 
13988000    284.01875    345.49712     369.3639   -50995.174    50994.106   -23.866775    38.380114 
13992000    299.66361    319.80008    250.74821   -51003.325    51008.512    69.051865     38.37784 
13996000    292.96239      258.579    263.78803   -51013.263    51026.382   -5.2090349    38.369995 
14000000    287.96306    501.46184    353.22158   -51033.702     51038.39    148.24026    38.377674 
14004000    260.74996    347.25455    427.36209   -51042.578    51057.317    -80.10754    38.387414 
14008000    287.64296    272.51687     358.7055    -51050.34    51056.027   -86.188628    38.386124 
14012000    299.56429    389.53038    406.60261   -51077.662    51084.523    -17.07223    38.379624 
14016000    285.60529    330.68862    291.77884   -51096.723    51113.658    38.909779     38.38113 
14020000    258.18323    407.83259    249.08261   -51096.413    51115.434    158.74998    38.388932 
14024000    281.47611    279.00435    290.88504   -51108.091    51126.769   -11.880691    38.391665 
14028000    278.75999    504.27649    447.56111   -51117.124    51152.108    56.715385    38.378468 
14032000    277.38306    356.69997    358.38223   -51147.592    51171.468   -1.6822635    38.379344 
14036000    286.37625    452.52203    378.33658   -51164.669    51159.473    74.185448    38.373269 
14040000    280.69854     251.5187    274.82445   -51179.818    51203.622   -23.305753    38.374488 
14044000    295.21324    263.04041    338.01818   -51218.326    51205.695   -74.977771    38.383985 
14048000    306.65202    535.77366    265.93163   -51240.644    51249.603    269.84203    38.385604 
14052000    282.72383    560.21122    218.62492   -51252.939     51268.09     341.5863    38.389958 
14056000    317.93434    298.61722    462.89103   -51288.356      51267.9   -164.27381    38.381706 
14060000    280.01054    376.36932    313.64014   -51280.815    51287.175    62.729178    38.382533 
14064000    301.72424    361.71854     303.2542   -51305.075    51298.992    58.464338    38.376473 
14068000    289.66013    362.53243    384.81355   -51300.837    51321.396   -22.281114    38.375809 
14072000    269.88169     479.9534    411.94108   -51317.936    51334.227    68.012321    38.385816 
14076000     288.8665    610.46459    425.70342   -51356.284    51357.325    184.76117    38.377819 
14080000     273.8462     424.8701    247.53137   -51361.138    51382.103    177.33873    38.382648 
14084000    301.46728    393.39847    245.61751   -51386.246    51407.702    147.78096    38.395286 
14088000    262.09366    261.74396    276.02237   -51402.817    51424.062    -14.27841    38.382072 
14092000    287.44451    279.60508    436.23501   -51420.458    51430.974   -156.62993    38.370695 
14096000    274.11885    348.71599    255.02153   -51428.322    51455.725    93.694463    38.370352 
14100000    270.56708    405.53343    348.76392   -51431.288    51455.301    56.769507     38.36103 
14104000    295.49962    354.19475    264.93369   -51472.332    51468.306    89.261068    38.369015 
14108000    292.24463    306.69931    311.94388   -51491.382    51491.743   -5.2445649     38.37414 
14112000    267.56289    490.52097    287.30967   -51516.405    51521.527    203.21129    38.379261 
14116000    313.24989    343.48478    416.68596   -51546.538    51560.532   -73.201186    38.393329 
14120000    279.88644    378.23971    254.30335   -51588.748    51602.249    123.93636    38.391383 
14124000    286.92324    202.47261    331.93031    -51595.55    51608.213    -129.4577    38.392533 
14128000    282.33518    356.44467    393.57721   -51619.342    51650.795   -37.132545     38.41038 
14132000    294.79277    312.16641    556.49238   -51655.296    51657.181   -244.32597    38.418331 
14136000    267.82842    263.82215    271.74479     -51669.5    51684.958   -7.9226474    38.414835 
14140000    295.72188    539.01127    213.84685   -51712.565    51713.877    325.16442    38.416421 
14144000     272.9179    357.05413    361.98962   -51723.812    51732.977   -4.9354818    38.426127 
14148000    297.15339    639.28493    285.27457    -51732.68    51737.241    354.01036    38.432137 
14152000    280.34811    279.20153     320.9549   -51762.303     51773.54   -41.753366    38.437418 
14156000    277.85315    281.85928    360.43573   -51772.219    51784.595   -78.576453    38.429936 
14160000    302.73084    453.73169    420.33123   -51790.934     51791.94    33.400455     38.42764 
14164000     306.3181    353.84817    490.81407   -51807.749    51808.101    -136.9659    38.439682 
14168000     291.0533    413.84289    303.88906   -51826.017    51828.299    109.95383    38.439678 
14172000    279.14865     299.4404    395.06911   -51833.814    51855.381   -95.628711    38.444615 
14176000    269.40221    418.10651    207.74671   -51849.351    51875.665    210.35981    38.444386 
14180000    282.97737    249.40564    158.78376   -51870.445    51900.524    90.621878    38.450678 
14184000    292.47742    350.83212    412.17058    -51890.54    51898.838   -61.338463    38.452561 
14188000    295.47906      389.181    412.18166   -51889.929    51898.313   -23.000659    38.449675 
14192000    268.75994    347.53427    462.64759   -51895.157    51915.431   -115.11332    38.443936 
14196000    296.21768    198.62107    283.00863   -51929.683    51945.065   -84.387564    38.441321 
14200000    285.50302    481.94153    321.38519   -51967.054    51972.514    160.55634    38.446525 
14204000    272.69968    308.03413    374.15394   -51980.524    51989.257   -66.119817    38.443896 
14208000    270.04051    350.30842    214.69535   -52010.561    52027.294    135.61307    38.447193 
14212000    267.52318    470.29283    225.08397   -52000.959    52030.318    245.20886    38.457305 
14216000    271.29318    440.61673    375.81917   -52023.837     52052.46    64.797559    38.455757 
14220000    292.55785    452.02905    403.21249    -52035.74    52066.332    48.816561    38.468965 
14224000    285.08276    220.80655    254.11087   -52051.661     52073.22    -33.30432    38.467006 
14228000    290.01307    437.57741    396.92563   -52058.222    52071.186    40.651782    38.469202 
14232000    278.43298    328.38135     405.7585   -52093.858    52101.182   -77.377144    38.476258 
14236000    290.62454    375.86322    199.67486   -52149.313    52147.478    176.18837    38.480976 
14240000    270.65866    246.63479     324.4584   -52148.721     52175.77   -77.823604    38.481056 
14244000    297.36246    301.62865    360.91365   -52183.961    52191.213   -59.284995     38.47834 
14248000    246.98048    324.37393    324.78177   -52169.668    52201.167  -0.40784224    38.481673 
14252000    270.11313    198.95642    306.99855   -52177.892     52197.65   -108.04214    38.484291 
14256000    316.98484    315.78381    347.84504   -52213.688    52200.048   -32.061232      38.4866 
14260000    292.78972    385.06056    347.26623   -52222.771    52222.688    37.794331    38.484019 
14264000    264.83471    307.58743    167.30524     -52235.6    52243.673    140.28219    38.474754 
14268000    300.22583     354.0074    306.03104   -52237.845    52251.299    47.976362    38.482219 
14272000     284.2844    344.09661     342.0955   -52241.647    52240.169    2.0011125    38.482129 
14276000    285.41015    377.46684     498.2346   -52245.046    52263.103   -120.76776    38.474747 
14280000    309.35892    356.90171    265.25447   -52278.737    52283.291    91.647241    38.457014 
14284000    314.78531    286.99961    299.07162   -52299.951     52313.36   -12.072011    38.442986 
14288000    304.76217    569.63367    310.02522   -52319.877    52316.683    259.60845    38.433237 
14292000    300.62476     634.5075    281.56186   -52355.018    52352.284    352.94564     38.43673 
14296000    277.35468    434.77766    258.54916   -52386.542    52389.101    176.22851    38.426284 
14300000     284.5216    301.93059    319.36008   -52405.404    52425.766   -17.429493    38.431671 
14304000    278.20362    311.54061    189.64458   -52431.384     52430.08    121.89603    38.428463 
14308000    264.26373    390.19533     183.0124   -52422.111    52451.735    207.18293    38.430344 
14312000    281.13227    517.47125    419.14883   -52432.803    52437.924    98.322428    38.430662 
14316000    269.89697    350.04231    481.14268   -52430.029     52459.86   -131.10037    38.434278 
14320000    300.95646     404.9072    235.73552   -52458.185    52478.929    169.17168    38.443766 
14324000     281.7778     360.6666    388.40255   -52464.732    52464.791   -27.735945     38.44666 
14328000    270.05768    348.84748    199.50156   -52468.931    52489.881    149.34592    38.460592 
14332000     294.7586    344.69753    536.53153   -52487.407    52498.573   -191.83399    38.451937 
14336000    266.35533    477.77545    178.44487   -52496.963     52531.79    299.33058    38.458867 
14340000    267.15127    491.39194    234.23419   -52511.282    52541.129    257.15775    38.478406 
14344000    303.95877    448.88719    552.86666   -52534.096    52536.529   -103.97947    38.491966 
14348000    289.96395     354.2524     317.8687   -52544.505    52549.987      36.3837    38.484833 
14352000    317.32248    377.24627    389.99765   -52563.978    52564.752   -12.751386    38.482861 
14356000    292.98958    199.14829    254.15505   -52564.639    52580.457   -55.006767    38.482709 
14360000    314.07077    282.03788    466.69563   -52563.657    52572.572   -184.65775    38.476309 
14364000    303.82818    448.75132    275.77988   -52582.702    52588.503    172.97144    38.482986 
14368000    273.35421    303.18682    416.57223   -52610.109    52626.162   -113.38541    38.481724 
14372000      290.152    272.05827    338.05419   -52627.665    52640.089   -65.995922    38.481092 
14376000    313.37033    531.70013    364.30952   -52670.636     52665.28    167.39061     38.48578 
14380000    262.29303     257.1212    385.04813   -52669.233    52696.083   -127.92693    38.492244 
14384000    304.61727    165.67571    331.96575   -52681.044    52681.685   -166.29004    38.479203 
14388000    304.72523     284.4408    328.46373    -52704.11    52689.255   -44.022927    38.485385 
14392000       272.07    362.05017    352.21621   -52687.053    52709.677    9.8339669    38.491385 
14396000    307.72902    378.41598    356.59418   -52705.312    52709.247    21.821804    38.487489 
14400000     296.3208    265.07549    304.29094   -52734.314    52750.112   -39.215452    38.483654 
14404000    313.00728    346.51673    438.69644   -52753.004    52760.683    -92.17971    38.486539 
14408000    289.41163       490.34    313.97472   -52783.614    52799.078    176.36528    38.492787 
14412000    286.94441    269.59559    387.14823    -52818.34    52835.967   -117.55264    38.499852 
14416000    263.85186    470.98397    163.20795   -52827.371    52861.801    307.77602    38.504345 
14420000    266.99149     274.3043     233.8081   -52838.753    52882.892    40.496204    38.506949 
14424000    274.74825    414.09119     387.0235   -52863.045    52883.664    27.067682     38.49961 
14428000    284.78333    358.84146    435.87531   -52900.416    52904.143   -77.033847    38.497431 
14432000    283.24349    292.31045    354.72363   -52908.217    52910.932   -62.413178    38.492618 
14436000    279.09615    446.75221    518.23499   -52899.958    52932.496   -71.482774    38.486672 
14440000    294.47306    435.20448    183.77891   -52921.947     52938.64    251.42557    38.492276 
14444000    269.00178    401.27048    385.33696   -52947.745    52957.077    15.933519    38.493624 
14448000    270.13413    363.28207    383.15533   -52974.469     52975.79   -19.873258      38.4879 
14452000    278.51028    386.56984    392.87014   -52999.825    53013.386   -6.3003089    38.483178 
14456000     285.8099    597.30162    397.41494    -53004.84    53016.794    199.88668    38.484957 
14460000    287.47117    417.50824    309.69975   -53009.967    53021.596    107.80849    38.470505 
14464000    295.71501    653.93226    400.22019   -53024.346     53030.06    253.71207    38.477353 
14468000    316.07498    455.96095    337.19378   -53058.313    53065.478    118.76717    38.483165 
14472000    277.16564    404.70133    412.97037   -53045.281    53058.019   -8.2690434    38.476245 
14476000    269.93366    291.64938     436.9774   -53044.038    53058.536   -145.32802    38.467434 
14480000    307.49193    481.84078    308.12269   -53060.817    53053.675    173.71809    38.462545 
14484000    278.01563    615.33089    328.19378   -53080.743    53096.669    287.13711    38.453172 
14488000    271.93775    253.49931    346.43806   -53102.481    53116.698    -92.93875     38.46213 
14492000    270.65221    452.62367    311.27845   -53145.978    53167.761    141.34522    38.471713 
14496000    272.18437    520.15922    411.93052   -53147.117    53182.624     108.2287    38.476717 
14500000    292.61333    468.97847    222.96707   -53151.957     53161.18    246.01141    38.484697 
14504000    289.18096    291.70411    196.57484   -53166.359    53168.097    95.129272    38.494324 
14508000    286.57557    366.76874    401.54858   -53195.508    53200.424   -34.779839    38.498198 
14512000    299.59162    419.80267    253.49557   -53205.642    53205.113     166.3071    38.495601 
14516000     285.2389    343.54368    329.09149   -53241.317    53253.881    14.452196    38.496759 
14520000    300.40293    613.36522     372.6134   -53277.671    53279.607    240.75182    38.497377 
14524000    284.30184    402.84906    349.44873   -53295.189     53302.61    53.400337     38.49657 
14528000    309.02601    364.57828    319.25203   -53320.125    53320.371     45.32625    38.494236 
14532000    281.77834    506.63076    378.31014   -53326.203    53332.315    128.32062    38.502572 
14536000    260.31645    271.57078    266.03847   -53327.081    53360.137    5.5323123    38.504256 
14540000    267.28023    261.23894    225.52859   -53332.538    53352.444    35.710352    38.501133 
14544000    282.00294    214.43054    170.83545    -53337.62    53364.981    43.595091    38.497057 
14548000    261.59919    466.08983    245.11843   -53371.938     53393.84    220.97141    38.496841 
14552000    259.19917    352.17332    270.05301   -53381.576    53411.434    82.120312    38.503873 
14556000    267.34292    392.91555    217.19092   -53384.502     53403.28    175.72462    38.504494 
14560000    287.31874    433.48325    268.10234   -53409.498    53423.448    165.38091    38.500586 
14564000    265.69293    296.36752    200.88715   -53411.417    53443.328    95.480362    38.498132 
14568000    282.46989    498.15874    207.46428   -53431.651    53448.354    290.69446    38.504286 
14572000    323.58511    376.59215    469.39848   -53459.266    53459.164   -92.806321    38.500323 
14576000      258.205     404.2481    313.41141   -53472.527    53496.754    90.836686    38.506045 
14580000     259.3324    279.36646     325.2246   -53485.073    53510.923   -45.858138    38.500515 
14584000    264.48364    360.53572    321.25849   -53492.618     53542.65    39.277235    38.496561 
14588000    276.92145    288.14602    181.83245   -53528.495     53564.18    106.31358    38.499212 
14592000    276.52172    482.01272    151.34027   -53561.135    53584.857    330.67246    38.500191 
14596000      283.427    496.27227    416.23998   -53588.309    53585.287     80.03229    38.507145 
14600000    297.71716    289.34479    445.01137   -53607.342    53602.976   -155.66658    38.505106 
14604000    304.07188    293.04778     224.0046   -53624.111    53609.162    69.043178    38.494099 
14608000    283.76405    328.49249    228.98121   -53636.503     53640.39    99.511285    38.496638 
14612000    289.30073    476.40681    233.91644   -53653.128    53650.313    242.49037    38.489603 
14616000    272.10695    320.76778    568.65827   -53663.917    53673.866    -247.8905    38.483999 
14620000     234.2846    494.86561      181.637    -53691.35     53713.25    313.22861    38.496818 
14624000     266.6547    362.71812    258.10654   -53712.674    53737.098    104.61158    38.504795 
14628000    280.18722    498.83353    468.10409   -53747.457     53756.92    30.729438    38.495044 
14632000    290.31026    588.89365    252.94034   -53740.897    53771.501    335.95331    38.497035 
14636000    290.89275    293.66162    582.91475   -53769.687    53788.071   -289.25313     38.49941 
14640000    292.64353     358.2295    350.81477   -53810.513    53813.789    7.4147306    38.493287 
14644000    297.45264    320.02958    415.76022   -53810.076    53798.082   -95.730638    38.479864 
14648000    286.22911    327.05109     177.5655   -53818.045     53842.22    149.48558    38.482191 
14652000    300.83324    345.33128    368.62338   -53851.077    53853.595   -23.292102    38.470576 
14656000    281.87637     352.0164    516.01554   -53880.357    53891.266   -163.99913    38.456661 
14660000    257.82766    266.31759    361.60299   -53895.484    53921.215   -95.285403    38.442063 
14664000    273.00516    406.50865    466.78518   -53883.893    53906.114   -60.276529    38.443632 
14668000    290.44859     216.1536    515.16517   -53908.117    53928.727   -299.01157    38.441346 
14672000    284.88389    476.89762     260.5554   -53915.553    53918.849    216.34221    38.440322 
14676000    288.44645    340.11005      225.853   -53906.552     53921.84    114.25705    38.459619 
14680000    299.23039    322.21626    173.59786   -53951.368    53941.304     148.6184    38.468597 
14684000    265.72864    352.74885    374.10835   -53928.151    53951.837   -21.359497    38.467797 
14688000    261.83693    386.72503    224.52464   -53935.409    53966.284    162.20038    38.473606 
14692000    273.44566     347.0442    454.87998   -53939.358    53953.015   -107.83578    38.473258 
14696000    278.46291    470.15932    586.06497   -53961.157    53978.919   -115.90565    38.476457 
14700000    280.23827    353.93251    286.13654    -54000.85    54003.702    67.795971    38.467646 
14704000    283.87504    596.20359    261.15558   -54008.494    54028.877    335.04801    38.464302 
14708000    297.90411    384.77556    342.83306   -54022.288    54035.153    41.942499    38.467062 
14712000    284.60545    456.99777    204.19724   -54034.162    54043.918    252.80053    38.470412 
14716000    272.12437    271.55807    345.89396   -54058.572    54075.904   -74.335892    38.478582 
14720000    295.12769    359.16715    390.63767    -54071.41      54077.2   -31.470522    38.490881 
14724000    263.74128    298.39076    314.24624    -54076.63    54108.243   -15.855478    38.488029 
14728000    295.44867    306.74333     402.1174   -54100.147    54114.517   -95.374066    38.485044 
14732000    286.60725    362.98649    298.79525   -54127.775    54147.319    64.191236    38.491121 
14736000    302.61777    346.20212    737.14479   -54137.115    54144.134   -390.94267    38.498592 
14740000    264.66054    302.64558    228.07797   -54129.201    54170.656    74.567612    38.485864 
14744000    253.95717    326.53633    199.58048   -54170.145     54207.18    126.95585    38.483455 
14748000    304.66818    541.87583    452.25169   -54219.935    54220.679     89.62414    38.477547 
14752000    307.56445    404.53546    487.73955   -54238.855    54233.521   -83.204094    38.468456 
14756000    302.67157    485.95072     288.3917   -54260.171    54269.088    197.55902    38.463489 
14760000      287.815    523.39659    433.83882    -54286.48    54303.732    89.557773    38.449344 
14764000    245.05678    297.02594    307.52776   -54290.989    54333.247   -10.501816    38.447084 
14768000    269.32967    213.46719    431.68621   -54282.532    54317.992   -218.21902    38.447907 
14772000    285.84532    524.88947    154.67295   -54329.541    54343.961    370.21653    38.450663 
14776000    300.50871    464.37122    250.82305   -54360.021    54353.059    213.54817    38.459316 
14780000    302.23837    520.72186    196.42047   -54360.168    54382.711    324.30138    38.463267 
14784000    298.09791    362.73823    272.47626    -54383.84    54385.126    90.261975    38.464938 
14788000    294.97027    441.42629    301.66336   -54392.852    54400.637    139.76293    38.459362 
14792000     303.2481    395.17561    220.46753   -54396.611    54409.782    174.70808    38.451456 
14796000    306.20078    416.04941    337.33326   -54404.969    54413.428    78.716151    38.452439 
14800000    263.56962    454.21267    281.18057   -54402.915    54427.648    173.03211    38.446824 
14804000    283.80009    274.82585    258.00622   -54413.825    54437.797    16.819635    38.446282 
14808000    281.52584    455.48626    382.73194   -54440.475    54443.252    72.754322    38.463435 
14812000    274.28614    210.49839    357.63876   -54422.349    54432.702   -147.14036    38.460328 
14816000      280.934    389.78667    509.32408   -54444.397    54458.717   -119.53741    38.458102 
14820000    272.34682    146.69864    368.14393   -54448.578    54479.973   -221.44529    38.453604 
14824000    265.99873    251.55851    244.00275   -54468.497    54487.662    7.5557648    38.451049 
14828000    273.67499    433.25566    430.48822   -54491.608     54511.92    2.7674433    38.441212 
14832000     301.2654    276.61422    219.62543   -54509.194    54537.744    56.988789    38.445871 
14836000    256.82717    291.77532    285.17278   -54539.652    54566.356    6.6025397    38.446009 
14840000    263.78385    259.79182    243.23302   -54571.858    54600.782    16.558793    38.452042 
14844000    303.29291    305.59253    265.52645   -54583.819    54602.805    40.066072    38.444498 
14848000    304.49754    346.25719    430.11446   -54591.312    54601.394    -83.85727     38.44252 
14852000     254.5371    279.84933    274.93007   -54597.954    54626.411    4.9192642    38.436912 
14856000     297.3553    365.16554    334.14569   -54625.824    54629.043    31.019856    38.440854 
14860000    270.29633    232.05361    274.13338   -54644.581    54670.937   -42.079772     38.43687 
14864000    298.92684     359.9807    233.80777   -54662.725     54662.72    126.17293    38.438192 
14868000    276.37232    544.11967    249.98135   -54670.501    54680.959    294.13832    38.437739 
14872000    272.25113    448.27594    305.11247   -54660.176    54687.286    143.16348    38.433581 
14876000    278.87005    452.75568    254.69389   -54694.735    54723.339    198.06178    38.424888 
14880000    290.47871    357.93338    251.43324   -54708.891    54725.005    106.50014    38.424016 
14884000    282.36971    278.50951    212.43728   -54722.086    54725.133    66.072235    38.418871 
14888000    300.32105    657.74466    215.94176   -54747.561    54752.987    441.80291    38.413082 
14892000    277.49795    249.81644    352.66271   -54753.598    54767.887   -102.84627    38.406112 
14896000    301.92041    346.74841    497.09408   -54777.561    54788.796   -150.34567    38.402996 
14900000    289.78732    421.95373    524.38177   -54794.394    54799.003   -102.42804    38.413096 
14904000    274.93668    457.47571    240.00512   -54820.954    54830.468    217.47059    38.421989 
14908000    282.26801    318.29996    205.47913   -54828.354    54851.721    112.82083     38.41636 
14912000    270.78286    282.89486    405.79829   -54859.612    54880.726   -122.90344    38.403695 
14916000    260.35445    238.03061    135.74208   -54856.822    54890.727    102.28853    38.400899 
14920000     282.6242    612.07446    409.81905    -54874.31    54892.291    202.25541     38.39214 
14924000    293.23195    271.42951    201.97021   -54893.371    54881.811    69.459298    38.397659 
14928000    312.15739    348.48795    262.51395   -54884.512    54876.051    85.973993    38.394943 
14932000    284.75648    273.19851    261.23556   -54879.973    54894.582    11.962951    38.394302 
14936000    283.19531    237.47518    427.79208   -54921.863    54927.183    -190.3169    38.396816 
14940000    288.91002    458.94506    227.62989   -54948.643      54944.4    231.31517     38.39615 
14944000     288.7678    194.39265    445.83266   -54950.618    54968.836   -251.44001    38.402877 
14948000    295.94009    356.54195    231.05246    -54974.29    54979.943    125.48949    38.403103 
14952000    261.55054    348.38337     357.7713   -54981.884    54999.471   -9.3879263    38.402322 
14956000    288.88835    537.20872    313.19488   -55012.327    55018.064    224.01383    38.404367 
14960000    282.46266    399.84789    371.95835   -55025.801    55039.609    27.889539    38.410857 
14964000    273.10414    392.51767    288.90339   -55023.822    55046.716    103.61428    38.413576 
14968000    263.00283    222.61402    256.11457   -55027.017    55058.307   -33.500551    38.404867 
14972000    294.21097    454.83362    341.66987   -55048.622    55069.627    113.16375    38.406436 
14976000    290.35653    359.40092    301.87895    -55067.82    55078.542    57.521971    38.415514 
14980000    258.51725    346.77631    266.66129   -55090.166    55113.711    80.115019    38.417126 
14984000     282.4265    439.97935    251.42452   -55104.165    55130.372    188.55483    38.409687 
14988000    284.27588    292.43785    286.77895   -55122.778    55133.619    5.6589052      38.4108 
14992000    290.27363    437.79808    417.23184   -55141.561    55161.668    20.566243     38.41297 
14996000    285.43419    250.42695    403.30682   -55162.343     55184.93   -152.87986    38.410504 
15000000     277.1249    389.41265    206.07382   -55173.641    55184.915    183.33882    38.421536 
15004000     281.9357    278.06655    457.68913   -55178.624    55199.512   -179.62258    38.426291 
15008000    280.76712    339.60308    189.15151    -55195.87    55218.556    150.45157    38.436881 
15012000    266.50565    447.73768    307.76854   -55213.649    55254.383    139.96915      38.4394 
15016000    287.61681    361.76913    224.46445   -55231.837    55249.114    137.30468    38.440657 
15020000    269.00497    290.77292    332.96411    -55239.09    55270.032   -42.191194    38.439118 
15024000    314.01237    342.95849    269.74722    -55274.02    55261.171    73.211269    38.432775 
15028000    304.39301    353.06512    340.40341   -55285.395    55275.181    12.661706    38.423075 
15032000    266.35073    404.67601    356.34459   -55253.912    55276.126    48.331417    38.415967 
15036000    266.37155    503.86062    284.06912   -55271.773    55303.498    219.79151    38.413618 
15040000    254.53832    416.92861     136.7294   -55298.574    55322.547    280.19921    38.412691 
15044000    271.48261    376.40024    240.11346    -55317.12     55338.01    136.28678     38.41339 
15048000    295.46166    455.40391    461.26203   -55329.591    55346.457   -5.8581167    38.411695 
15052000    304.00177    533.63545    190.20177   -55374.531    55356.462    343.43368    38.410628 
15056000    306.31512    548.10519    275.49537     -55371.3    55384.427    272.60982    38.424531 
15060000    283.71183    456.87255    418.64245   -55397.123    55406.222    38.230103    38.428265 
15064000    291.57513    331.91138    256.86075   -55415.441    55418.067    75.050629    38.421749 
15068000    309.98351    391.85599    349.58762    -55445.28    55430.524    42.268372    38.416656 
15072000    284.47262    402.43773    320.74719   -55440.596    55466.005    81.690546    38.406061 
15076000    268.97214    264.49421    384.88827   -55463.343    55470.918   -120.39406    38.397338 
15080000    287.95577    261.12782    339.64733   -55476.423    55490.109   -78.519509    38.393864 
15084000    299.74468    439.45354    270.63534   -55488.883    55506.062     168.8182    38.389337 
15088000    254.46695    324.91091     177.3309   -55494.847    55524.784    147.58001     38.39941 
15092000    308.99744    317.69516    232.84845   -55527.474    55534.488    84.846716    38.397271 
15096000    278.55996      288.502    439.08185   -55547.719     55545.79   -150.57985    38.402231 
15100000    306.40211    355.49691    175.09471   -55572.936    55568.942     180.4022    38.404987 
15104000     281.2141    361.65437     286.1929   -55583.104    55583.813     75.46147    38.398585 
15108000    275.03551    362.31146    314.39066   -55572.648    55595.636    47.920796    38.405541 
15112000    270.25799    253.93497     261.0765   -55611.089    55614.358   -7.1415245    38.409953 
15116000    282.69213    371.48197    406.41922    -55631.54     55638.68   -34.937254    38.414483 
15120000    289.68685     281.7539    496.61006    -55647.29    55656.603   -214.85617    38.421093 
15124000    299.63255    686.18759    254.14949   -55633.664    55642.888     432.0381    38.422634 
15128000    290.20371    495.79487    300.75891    -55655.42    55658.237    195.03596     38.43369 
15132000    295.80681    291.47246    328.19752   -55674.793    55693.349   -36.725057    38.440608 
15136000    301.80875    559.67135    189.49972   -55688.285     55706.48    370.17163    38.433101 
15140000    267.48741    307.64476    287.78717   -55696.014    55729.999    19.857592    38.429184 
15144000     280.2352    196.25914    269.97125   -55713.449    55732.569   -73.712104    38.431995 
15148000    276.00068    299.76394    213.72435   -55724.463    55744.995    86.039589    38.439078 
15152000    296.39241    279.40483     416.1381   -55740.922    55757.884   -136.73327    38.441948 
15156000    298.60321    388.70481    259.69062    -55756.68    55762.582    129.01419    38.434568 
15160000    266.92737    307.22885    157.73512   -55768.557    55800.455    149.49373    38.437024 
15164000     263.8834    328.52783    210.99539   -55800.376    55822.587    117.53243    38.438345 
15168000    280.88168    301.19379    264.72786   -55830.542    55824.887    36.465931    38.450296 
15172000     268.6556    320.29652    217.41721   -55859.282    55871.329    102.87932    38.451953 
15176000    289.28936    309.07614    416.70479   -55892.285    55910.786   -107.62865    38.449884 
15180000     243.6783    348.19487    259.81739    -55901.18    55935.182     88.37748    38.450946 
15184000     274.1555    250.08478    345.06933   -55921.122    55930.661   -94.984541    38.447673 
15188000    280.36241    410.59737    287.69818   -55947.524    55959.814    122.89919    38.436557 
15192000    300.56039    432.49318    339.39196   -55948.828    55966.102    93.101216    38.426589 
15196000    258.61912    199.95845    423.57807   -55943.064    55977.781   -223.61962      38.4219 
15200000    295.19282    184.23341    348.15164   -55973.312    55982.922   -163.91822    38.413643 
15204000    261.30446    216.41717    308.07454   -56003.539    56017.505   -91.657371    38.411428 
15208000    292.58744    241.94293    338.72407   -56015.412    56029.946   -96.781141    38.409895 
15212000      263.696    357.09895    356.26037   -56011.641    56038.357   0.83857229    38.401965 
15216000    292.28338    268.98045    335.62197   -56042.558    56051.328   -66.641511     38.39585 
15220000     325.7309    518.94586    358.44718   -56085.832      56051.9    160.49867    38.394814 
15224000    289.25861    399.16264    238.22222   -56074.895    56074.562    160.94042    38.394804 
15228000    252.25645    499.97313    366.43783   -56066.716    56097.925     133.5353    38.400727 
15232000    284.77143    502.79735    239.74872   -56068.223    56088.197    263.04863    38.401462 
15236000    289.33177      543.544     165.6839   -56101.182    56115.473     377.8601    38.411297 
15240000    284.56658    314.59695    318.14632   -56107.987     56114.51   -3.5493721    38.406971 
15244000    304.77303    282.05536    393.41659   -56121.606    56130.786   -111.36123    38.401294 
15248000    269.07805    226.12064    350.50167   -56136.651    56164.275   -124.38103    38.406604 
15252000    270.46881    338.58158    293.97562   -56146.794    56175.466    44.605964    38.409348 
15256000     283.7833    309.30649     376.1894    -56171.09    56193.254   -66.882912    38.412567 
15260000    273.60499    232.88761    346.05471   -56191.447    56214.857   -113.16711    38.416385 
15264000    274.12018    455.83544    739.96903   -56198.683    56219.577   -284.13359    38.415625 
15268000    257.46662     263.4561     292.5425   -56210.812    56244.637   -29.086392    38.423248 
15272000    269.57946    375.91682    300.16749    -56227.97    56252.794    75.749327    38.418891 
15276000    275.18233    325.29125    277.96419   -56250.164    56266.385    47.327065    38.423459 
15280000     293.1679    358.13806    337.08009   -56254.134     56266.73    21.057969     38.42038 
15284000    276.27379    556.64426    218.77857   -56290.584    56309.874     337.8657    38.418349 
15288000    326.20433    329.96048    418.48238   -56305.413    56288.132   -88.521901    38.406743 
15292000    311.79355    475.39698    341.53333   -56300.454    56298.079    133.86365    38.406199 
15296000    295.16937    407.93504    233.22531   -56307.704    56306.047    174.70973    38.404188 
15300000    298.73314    336.16436    346.60094   -56319.347    56320.191   -10.436584    38.410766 
15304000    303.16597     501.8324    266.68064   -56326.589    56332.079    235.15177    38.408679 
15308000    275.05783    369.70259    237.41426   -56346.368    56354.956    132.28834    38.408233 
15312000    285.76303    232.93206    364.11836   -56355.303    56384.599   -131.18629    38.401328 
15316000    317.26734    234.76207    295.81089   -56382.284    56371.914   -61.048822    38.412492 
15320000    265.27972    460.00633    298.21309   -56393.627    56404.754    161.79324     38.40769 
15324000    297.62125    191.93989     347.9943   -56396.314    56400.668   -156.05442    38.411629 
15328000    283.86176    387.17645    275.56193   -56432.933    56440.769    111.61452    38.409773 
15332000    321.39122     350.8971    210.19593   -56464.865    56449.472    140.70117     38.40863 
15336000    294.44439    258.08876    517.00049    -56455.79    56466.936   -258.91173    38.403049 
15340000    304.67596     321.0246    416.09864   -56485.069    56498.125   -95.074038    38.406386 
15344000    266.34794    342.22021    395.66619   -56483.769    56503.457   -53.445979    38.399108 
15348000    285.36182    243.17304    346.48623   -56489.143    56523.589   -103.31319    38.400369 
15352000    295.12198    406.84306    274.27803   -56523.617    56534.664    132.56503    38.410621 
15356000    302.54118    278.74816    150.94718    -56531.64    56532.795    127.80098    38.406551 
15360000    268.50429    410.38098    381.40864   -56526.354    56549.767    28.972338    38.410716 
15364000    298.39821    384.71086    242.00745   -56565.821    56554.244    142.70341    38.395065 
15368000     266.1233    435.66931    424.17304   -56554.108    56594.509    11.496263     38.38736 
15372000    281.80875    251.14474    350.16044   -56575.383    56587.958   -99.015702    38.381625 
15376000    298.67176       283.55    391.16022   -56592.199    56589.227   -107.61022    38.378499 
15380000    291.43307    244.31499    378.67056     -56614.9    56601.523   -134.35557    38.376765 
15384000     303.9776    230.01643    329.44161   -56616.978    56613.449   -99.425175    38.370073 
15388000    289.31335    414.37368    397.31566   -56647.379    56642.066    17.058017    38.364528 
15392000    251.47788    199.18792    237.49417   -56645.396    56675.306   -38.306257    38.374308 
15396000    270.05994    230.18223    353.59371   -56664.622    56688.008   -123.41148    38.372401 
15400000    259.53762    306.46184    324.90355   -56660.689    56706.369   -18.441704    38.369942 
15404000    273.47369    479.06941    319.09808   -56705.759    56716.152    159.97133    38.361477 
15408000    259.91955    314.54085    184.90042   -56695.301     56723.93    129.64043    38.341938 
15412000    281.50907    368.01449    318.11728   -56719.511     56740.62    49.897212    38.345731 
15416000    319.41227    296.88052    405.33594   -56746.047    56744.418   -108.45541    38.344771 
15420000    300.67596    354.74077    558.16545   -56752.276    56750.383   -203.42468    38.339539 
15424000    283.26368    253.64762    296.73723   -56753.374    56784.867   -43.089606    38.325819 
15428000    282.72777    499.23774     134.1585   -56775.364    56794.994    365.07924    38.324541 
15432000    287.60007     344.4064    405.67087    -56755.46    56768.393   -61.264472    38.321954 
15436000    270.54518    386.93589     311.5929   -56765.962    56789.601     75.34299    38.325236 
15440000    292.71292    374.00213    421.09218   -56778.663    56791.716   -47.090048    38.328657 
15444000    292.18698    425.37428    355.72219   -56801.844    56807.933    69.652097    38.326081 
15448000    291.78269     239.0723    372.58671   -56814.034    56834.912   -133.51441    38.336845 
15452000    292.09664    330.20546    298.36014   -56850.505    56856.166    31.845313    38.346051 
15456000    287.61693    420.80247    278.27859   -56866.241    56892.271    142.52388    38.349588 
15460000    262.70763    390.20422    294.92271   -56880.542    56911.498    95.281507    38.357685 
15464000    294.80674    375.89534    278.90583   -56905.049    56920.787    96.989511    38.354878 
15468000    320.55706    368.10316    517.42202   -56944.176    56931.541   -149.31886    38.353898 
15472000    265.26988    222.05699    275.70185   -56961.972    56977.691   -53.644863    38.339245 
15476000    263.82693    377.89061    186.79369   -56986.722    57013.995    191.09692    38.343706 
15480000    293.72445    367.80447    369.28454    -57025.63     57017.76    -1.480072    38.347689 
15484000    307.55322     525.1417    311.50921   -57037.073    57017.181     213.6325    38.339612 
15488000    286.26033     227.9953    358.31554   -57051.257    57055.797   -130.32025    38.332683 
15492000    277.68906    314.13017    288.53431   -57067.903     57079.49    25.595862    38.331172 
15496000    288.37761    300.63769    464.25976   -57084.148    57077.422   -163.62207    38.330821 
15500000    298.22625    352.76196    269.96936     -57098.6    57084.478    82.792601    38.330981 
15504000    287.46922    325.33539    357.24096   -57113.168    57112.498   -31.905566    38.324396 
15508000    329.22517    301.41552     381.8082   -57127.388     57107.07   -80.392676    38.331261 
15512000    289.44093    354.91154       469.14    -57131.47     57136.58   -114.22846    38.341328 
15516000    305.46976    385.40837    367.08747   -57145.907    57132.171    18.320904     38.34293 
15520000    319.78614    254.89896    288.27866   -57160.047    57154.096     -33.3797    38.350528 
15524000    287.96984    295.39841    397.03517   -57158.139    57189.758   -101.63676     38.34922 
15528000     278.3834    292.65871    486.55353   -57170.656     57173.06   -193.89482     38.34875 
15532000    275.50492    362.87168    412.00807   -57168.346    57182.668   -49.136388    38.348291 
15536000    296.37567    282.68302    320.19808   -57186.085    57183.446   -37.515051    38.350433 
15540000    303.16177    534.19331    549.47745   -57213.933    57210.263   -15.284144    38.344094 
15544000    299.53656    356.17995    301.62161   -57235.311    57217.739    54.558336    38.333812 
15548000     294.4258    371.93711    253.37508   -57249.229    57265.625    118.56203    38.340347 
15552000    262.02885    275.78058    323.47911   -57262.017    57280.566    -47.69853    38.347531 
15556000    301.23658    369.45185    408.76699   -57298.654    57311.447   -39.315146    38.350432 
15560000    311.44737    555.11567    468.32103   -57311.133    57310.106     86.79464    38.348561 
15564000    286.86805    146.35256     306.8041   -57329.184    57345.171   -160.45154    38.358346 
15568000    297.59257    230.44475     261.0193   -57357.362    57365.451   -30.574553    38.357104 
15572000    295.66355    220.98695     386.3793   -57378.902    57377.349   -165.39235    38.367407 
15576000    288.99285    349.99197    274.55731   -57372.104    57377.157    75.434657    38.370213 
15580000    271.52883    543.02067    309.11759   -57370.946    57384.926    233.90308    38.377414 
15584000    274.86887    337.60701    256.90706   -57396.582    57415.831    80.699951    38.382674 
15588000    285.27687    134.81581    274.01906   -57383.591    57417.675   -139.20325    38.376105 
15592000    269.97809    520.75431    277.26644   -57403.632     57431.11    243.48786    38.375222 
15596000    297.07319    374.81181     320.3054   -57440.109     57437.24     54.50641    38.372445 
15600000    270.52176    246.26348    198.99315    -57437.62    57476.933    47.270328    38.376931 
15604000    284.58479    450.79071    237.34999   -57457.789    57481.067    213.44072    38.381144 
15608000    275.68678    281.82502    200.39018    -57475.02    57498.542    81.434841    38.375764 
15612000    304.72619    389.69754    475.72702   -57514.556    57504.645   -86.029475    38.369657 
15616000    281.03503    334.38316    570.18496   -57488.485    57505.193    -235.8018    38.359596 
15620000    264.90029    348.97176    241.91586   -57509.114     57536.36     107.0559    38.360499 
15624000    251.17566    186.45852    377.53244   -57512.398    57550.018   -191.07392    38.351142 
15628000    270.70479    343.21316    224.96887   -57531.627    57570.819    118.24429    38.353352 
15632000      276.834    584.79988    189.43203   -57552.004    57564.922    395.36785     38.35256 
15636000    278.59504    243.41962    325.61513   -57542.458    57550.129   -82.195501    38.352349 
15640000    247.94497    263.55223    306.04264   -57536.401    57556.936   -42.490409    38.338686 
15644000    290.78187    459.14805    443.22177   -57587.228    57601.696    15.926277    38.331155 
15648000    288.04404    424.41637    282.87711   -57620.796    57629.363    141.53926    38.327853 
15652000    277.45128    230.87192    200.88521   -57637.024     57658.53    29.986712    38.329927 
15656000    250.33602    206.61718    297.10134    -57655.39     57685.74    -90.48416    38.320821 
15660000    267.95465    212.14791    100.74089   -57679.158    57681.955    111.40703      38.3137 
15664000    290.35915    297.56221    274.15347   -57676.415    57701.341    23.408742    38.311792 
15668000    280.63336    232.71469    410.12964   -57666.589    57686.551   -177.41495    38.301913 
15672000    281.69551    423.11939    376.17468   -57688.052    57704.318    46.944713    38.304724 
15676000     291.1004    573.79109    508.66398    -57699.95     57714.74    65.127112       38.301 
15680000    284.83161    298.96678    221.61648   -57717.194    57743.325    77.350292    38.301666 
15684000    300.43257    411.60075    224.02385   -57760.645    57749.078     187.5769    38.293478 
15688000    255.29987    286.99064    306.92684   -57754.546    57783.167   -19.936196     38.29572 
15692000    280.35438    382.65493    389.10166   -57791.237    57798.264   -6.4467391    38.290931 
15696000    289.11245    279.95499    546.80967   -57781.402    57796.054   -266.85467    38.286868 
15700000    274.23625    377.46902    300.23601   -57798.845    57815.224    77.233006    38.279851 
15704000    293.72361    418.54041    169.76916   -57819.869    57828.697    248.77124    38.272022 
15708000    276.44285    385.33835    388.51765   -57819.043    57827.404   -3.1792979    38.270532 
15712000    319.52149    334.59346    302.70712     -57849.9    57843.847    31.886342    38.275102 
15716000    281.90433    332.11221    225.58079   -57847.868    57871.171    106.53142    38.279365 
15720000    279.89512      578.195    318.21955   -57860.176    57883.221    259.97545    38.284434 
15724000     289.7102    345.84492    218.19997   -57875.804    57912.782    127.64496    38.293787 
15728000    264.96754    458.80253    297.22732   -57904.738    57925.877    161.57521    38.307251 
15732000    302.19691    405.22958    277.90904   -57929.362    57936.645    127.32054    38.305511 
15736000    275.94859    507.34095    353.24977   -57953.252    57962.023    154.09117    38.316314 
15740000    281.94113    307.54862    305.79868   -57963.609    57986.194    1.7499385    38.309051 
15744000    255.95189    199.61445    292.13432   -57970.824    58002.585   -92.519876    38.302171 
15748000    286.92336    272.58178    307.33636   -57995.119     57994.25    -34.75458    38.303176 
15752000    286.14932    470.85694    265.81581   -58018.117    58033.787    205.04113    38.308842 
15756000    277.98592    341.99563    352.10475   -58029.465    58059.416   -10.109116    38.307717 
15760000    296.23521    344.52877    256.53212   -58060.235     58072.65    87.996653    38.306941 
15764000    306.92021    420.24705    455.41437   -58070.905    58076.855   -35.167318    38.316175 
15768000    263.62087    267.87251    286.32584   -58087.405    58098.366   -18.453332    38.313977 
15772000    306.37882    381.60504    356.54181   -58104.387    58098.071    25.063223    38.325322 
15776000    301.29604     323.6663    266.22882   -58113.905    58098.933    57.437472    38.320992 
15780000     274.0939    278.24203     340.4234   -58130.453    58128.665    -62.18137    38.314964 
15784000    274.42956    252.88702    376.79585   -58142.474    58154.772   -123.90884    38.324512 
15788000    283.90875    406.04984    416.64898   -58159.303    58173.464   -10.599143    38.323168 
15792000    299.28424    189.29969    267.87112   -58188.809    58197.632   -78.571424    38.318211 
15796000    316.26557    322.45113    486.63459    -58193.51     58194.53   -164.18346    38.308762 
15800000     285.4608    434.97842     446.0016   -58199.579    58212.074   -11.023171    38.312393 
15804000    314.88341    380.84763    360.23563    -58212.36    58206.522    20.612002    38.306363 
15808000    294.50216    473.31988    517.32671   -58218.662    58233.633   -44.006826    38.303638 
15812000    273.63548    356.13935    187.27675    -58238.47    58254.214    168.86261    38.307381 
15816000    268.64198    324.30703    307.97252   -58252.319    58252.383    16.334517    38.311755 
15820000    282.77065    351.70317     273.5297   -58252.181    58277.861    78.173471    38.308466 
15824000    252.02869    147.28876    376.05265   -58250.849    58280.539    -228.7639    38.309366 
15828000    295.31625    741.37664    178.51997   -58302.236     58306.47    562.85667    38.315395 
15832000    276.37463     308.9924    209.31815   -58282.979    58300.124     99.67425    38.321412 
15836000    288.71297    289.05806    397.70885   -58317.082    58331.946   -108.65079    38.313698 
15840000    299.37886    392.25556    382.90303   -58334.577    58342.294    9.3525237    38.306431 
15844000    302.33489    361.50359    326.73193   -58349.321    58346.278    34.771658    38.303934 
15848000    286.69058    314.45771    391.44523   -58351.922     58366.73   -76.987524    38.308659 
15852000    261.28905    470.37786    386.38961   -58357.774    58386.063    83.988252    38.311863 
15856000    329.80662    435.72109    209.10248   -58412.597    58385.631     226.6186    38.315218 
15860000    307.33077    349.28859    374.95946   -58403.737    58414.392   -25.670862    38.316529 
15864000    271.27766    449.77782    257.50952   -58413.457    58433.333     192.2683    38.310801 
15868000    271.69032    435.86461    213.63368   -58431.355    58441.668    222.23092    38.316517 
15872000    240.37857    271.88459    221.73818   -58437.532     58458.28    50.146407    38.309436 
15876000    282.31944    513.65325    289.15818   -58430.543    58447.019    224.49507    38.308986 
15880000    261.36147    386.60096    274.91868   -58441.535    58462.235    111.68227    38.309518 
15884000    270.14609    549.18296    252.58914   -58492.006    58507.549    296.59382    38.307518 
15888000    257.15463    285.30647    238.87711   -58480.968    58530.004    46.429362    38.303528 
15892000    304.07421      424.022    440.16015    -58538.68    58530.171   -16.138149    38.310267 
15896000    295.62653    504.12439    294.35272   -58545.863    58555.285    209.77167    38.318775 
15900000    292.76229    428.58811    188.06433   -58556.961    58561.776    240.52379    38.319448 
15904000    284.42219    429.92645    265.93357   -58571.177    58582.845    163.99289    38.334935 
15908000    309.76141    544.92076    354.81233   -58596.577    58593.272    190.10843    38.346646 
15912000    289.79587    397.58086    228.89398   -58602.324    58613.269    168.68688    38.352291 
15916000    243.85975    412.10703     253.2764   -58609.033    58647.841    158.83063    38.335066 
15920000    280.06217     449.8936    242.42413   -58629.952    58637.056    207.46947    38.332241 
15924000    306.58682     361.5676    346.41331   -58654.343    58657.846    15.154291    38.336686 
15928000    302.55969    275.30863    369.63162   -58697.536    58684.527   -94.322997    38.327694 
15932000    291.22492    368.16282    321.69477   -58717.571    58733.869    46.468044    38.328613 
15936000    305.80503    315.21189    404.02672    -58744.76    58749.672   -88.814834    38.323111 
15940000    290.33702    224.51817    459.83548   -58763.325    58749.973   -235.31731    38.327637 
15944000    261.29358    353.62123    284.88555   -58767.564    58792.493    68.735687    38.327972 
15948000    278.68744    317.50537    401.21068   -58766.554    58783.325   -83.705312    38.324102 
15952000    296.05478    466.11057    567.83368   -58774.421    58787.067   -101.72311    38.336668 
15956000    290.99859    337.38543    471.59423   -58800.547    58810.443   -134.20879     38.33599 
15960000    275.72797    368.03367    444.84904   -58788.852      58810.9   -76.815366    38.340621 
15964000    298.15811    215.44567     393.0041   -58819.637    58838.322   -177.55844    38.331788 
15968000    302.51928    537.47883    396.53887   -58844.921    58845.263    140.93996    38.333903 
15972000    269.86343    262.11396    298.94188   -58834.486    58864.973   -36.827919    38.342469 
15976000     249.6448    328.94789    263.45098   -58857.434    58890.451    65.496915    38.346781 
15980000    268.70041     189.5697    158.38332   -58882.613    58913.633    31.186382    38.334772 
15984000    274.22133     430.1655    289.83786   -58916.115    58939.892    140.32764    38.338989 
15988000    267.11551    380.97572    278.86665   -58950.548     58969.87    102.10906    38.340643 
15992000     285.1925    317.89994    411.97248   -58978.083    58995.751   -94.072539     38.35006 
15996000    268.40885    280.45147    273.89126   -59002.069    59033.114    6.5602096    38.348704 
16000000    289.77128    468.44564     231.6702   -59028.672     59038.89    236.77543    38.337625 
16004000    295.93977    531.68797    162.69938   -59031.103    59046.717    368.98859    38.342679 
16008000      286.801    295.47745    340.37397   -59062.819    59070.126   -44.896523    38.346901 
16012000    300.39122    321.94796    277.53154   -59077.989    59089.631    44.416421    38.344569 
16016000    277.47497    251.80842     390.8973   -59114.594    59122.529   -139.08889    38.346526 
16020000    301.39392    430.36977    186.10176   -59140.062    59146.831    244.26802    38.344223 
16024000    277.28026    550.89453    204.24019   -59142.293    59168.151    346.65434    38.343414 
16028000    286.80171    492.54539      337.505   -59175.431     59195.98    155.04039    38.346184 
16032000    283.82498    327.80983    342.73635   -59176.946    59205.306   -14.926516    38.356597 
16036000    299.62545    262.05991    281.66135   -59215.683    59226.651   -19.601435    38.356903 
16040000     306.8752    271.34539    299.94199   -59242.391    59232.886   -28.596598    38.350704 
16044000    276.12864     366.9701      269.271   -59245.674    59268.213    97.699102     38.35251 
16048000    285.71219    459.36319    447.38089    -59287.73    59299.392    11.982293     38.33813 
16052000    295.79182    267.16834    268.28044   -59304.406    59313.057    -1.112106    38.327546 
16056000    276.36544    427.69557    376.77831   -59324.741    59349.022    50.917264    38.332972 
16060000    302.96367    409.71267    337.86851   -59322.036    59348.278    71.844161    38.330594 
16064000    278.93747    375.25862     325.6112   -59356.094     59366.61    49.647421    38.323194 
16068000    273.16454    470.37802    447.03227    -59358.87    59386.905    23.345749    38.321336 
16072000    289.10581    545.49354     179.5108   -59392.462    59394.287    365.98274    38.338421 
16076000    284.83846    350.53329    145.25244   -59421.622    59425.413    205.28085    38.332274 
16080000    303.47735    233.51765    224.41743   -59436.579    59430.923    9.1002197    38.334066 
16084000    257.49556    131.52179    423.99114   -59458.021    59481.761   -292.46936    38.329924 
16088000    273.92683    389.76981    184.56724   -59489.319    59504.351    205.20257     38.32609 
16092000    293.69374    390.95599    368.00169   -59540.922    59538.454    22.954301    38.324199 
16096000    294.02937    280.14407     319.4977   -59567.601    59576.732   -39.353625    38.326052 
16100000    296.63632     310.8182    376.33086   -59567.081    59578.835   -65.512652    38.332485 
16104000    300.03982    201.70745     304.6352   -59607.914    59613.802   -102.92774    38.329099 
16108000    283.10561    365.76977    334.56309    -59623.81    59633.129     31.20668    38.328626 
16112000    309.83799    269.75664    316.34564    -59646.39     59641.26   -46.589004      38.3248 
16116000    272.93663    268.56445    243.26533   -59654.411     59663.51    25.299124    38.318751 
16120000    320.39416    498.59542    495.56852   -59672.102    59667.443     3.026903    38.313982 
16124000    299.03973    388.89034    301.23441   -59676.147    59677.051     87.65593    38.306761 
16128000     247.2414    252.95714    276.20529   -59661.894    59681.675   -23.248151    38.299501 
16132000    258.66304    323.08726    259.96323   -59695.606     59706.69    63.124029    38.288567 
16136000    274.07213    410.58173    245.37506   -59711.838    59722.074    165.20667    38.286115 
16140000    298.60916    284.06698    276.95709   -59720.572    59731.401    7.1098889    38.295482 
16144000    298.89362    333.98606    319.61259   -59716.992    59730.909    14.373468    38.293521 
16148000    250.99657    345.69321    207.81143    -59719.64    59750.032    137.88178    38.305489 
16152000    270.40077    371.92187    248.44059   -59730.875     59758.35    123.48128    38.306587 
16156000    310.73526    248.97663    469.43898   -59766.821    59762.913   -220.46235    38.302309 
16160000    291.55292    442.70636    354.13643   -59792.063    59789.141     88.56993    38.302566 
16164000    274.73476    452.48649    296.67756   -59804.849    59817.912    155.80893    38.306007 
16168000     269.7562    497.21361    199.29337   -59824.825    59841.589    297.92024    38.314282 
16172000    287.65022    509.17492     253.5412    -59843.22    59839.804    255.63372    38.308464 
16176000    288.66047    268.87945    295.62052   -59868.788    59888.888   -26.741074    38.307276 
16180000     265.6563    481.86813    253.12116   -59882.642    59891.459    228.74696    38.305302 
16184000    281.55728     481.3655    237.54503   -59878.338    59893.881    243.82047    38.299065 
16188000    308.32218    384.01185    301.63589   -59907.525    59899.685    82.375963    38.302257 
16192000    305.10669    326.88781    379.28085   -59915.114    59919.134   -52.393048    38.307642 
16196000    308.10021    317.82942    323.36222   -59945.639    59944.307      -5.5328    38.301259 
16200000    264.49478    462.50506    361.32143   -59967.839    59979.621    101.18363    38.300605 
16204000    279.16037     339.4563    260.58517   -59990.521    59988.849    78.871129    38.296323 
16208000    276.13461    194.00735    299.11432   -60001.432    60012.111   -105.10697    38.303622 
16212000    270.71044    406.93606    214.59734   -60018.836    60031.977    192.33872     38.30125 
16216000    281.15304      421.918    232.56118   -60039.632    60064.588    189.35682     38.30107 
16220000    260.46535    174.59732     217.9313   -60059.934    60079.448   -43.333977    38.305961 
16224000    302.70981    448.86562    246.99335    -60112.89    60103.134    201.87227     38.31588 
16228000    308.67707    254.69883    327.85689   -60124.374    60119.539   -73.158065    38.309991 
16232000    271.62894    339.15486    204.17655   -60113.764    60121.556    134.97831    38.309649 
16236000    260.44804    538.72232    520.02105   -60120.245    60142.249    18.701266    38.306756 
16240000    293.27809     307.7856    257.80252   -60139.869    60154.584    49.983083    38.310376 
16244000    289.73175    324.85809    256.70338   -60162.913    60163.712    68.154714    38.305955 
16248000    272.37581    510.57335    307.28494   -60172.782    60183.774    203.28841     38.30181 
16252000    281.15344    472.88832    160.96428   -60194.393    60204.055    311.92404    38.290839 
16256000     263.6822    551.70643    250.81497   -60194.036    60222.457    300.89146    38.287341 
16260000    290.83385    680.25944    462.19577   -60229.012    60244.267    218.06368    38.286696 
16264000    288.18833    502.89597    218.05835   -60250.201    60247.083    284.83762    38.285084 
16268000    253.58765    369.95725    289.77241     -60265.9    60288.451    80.184845     38.29229 
16272000    304.93977    310.96745    254.03131    -60323.12    60307.418    56.936146    38.293616 
16276000    298.68308    331.82459    524.64868   -60314.517    60323.855   -192.82409    38.293149 
16280000    277.23138    339.33895    238.57319   -60321.332     60338.62    100.76576    38.304024 
16284000    287.69017    444.45809    375.74323   -60329.268    60347.512     68.71486    38.304078 
16288000    312.02943     300.8539    344.64745   -60353.311    60358.606   -43.793545    38.308991 
16292000    274.62344    272.01923    382.11033   -60361.815    60370.181   -110.09109    38.308331 
16296000    285.88742     267.1706    348.80484   -60377.384    60368.031   -81.634238    38.310558 
16300000    271.40542    338.69844    304.71141   -60378.154    60387.729    33.987034    38.309125 
16304000    309.98623    275.44922    274.62685   -60415.943    60408.358   0.82236382    38.301858 
16308000    289.28142    233.14332    336.83062   -60411.553    60414.579    -103.6873     38.30429 
16312000    299.54086    435.94438    278.69926   -60415.586    60427.872    157.24512    38.299919 
16316000    283.89662    308.79494    472.21589   -60429.918    60456.093   -163.42094    38.302383 
16320000    272.59453    196.92216    332.84787    -60444.07    60471.448   -135.92571    38.292067 
16324000    302.75278    361.90438    223.79192   -60454.018    60472.052    138.11247    38.293869 
16328000    273.96019    218.29272    415.12369   -60474.432    60500.086   -196.83097     38.30082 
16332000    267.74025    416.98672    457.60745   -60489.868    60511.846   -40.620726    38.299704 
16336000    267.98067    236.33869    317.45588   -60499.473    60520.115    -81.11719      38.2927 
16340000    302.04965    301.61936    511.36553   -60508.992    60512.824   -209.74617     38.28743 
16344000    282.14385    380.85417     459.4029   -60525.353    60551.236   -78.548729    38.293813 
16348000    296.34753    260.23738    432.92071   -60551.698    60572.239   -172.68333    38.291709 
16352000    297.00823    296.61517     497.7062     -60549.4    60552.152   -201.09103    38.297224 
16356000    291.01855    253.12894    490.73197    -60564.54    60567.041   -237.60304    38.291337 
16360000    293.42091    294.48515    186.59465   -60575.657    60581.779    107.89049    38.307502 
16364000    294.35045    395.12937    374.95482   -60595.075    60610.887     20.17455    38.307153 
16368000    267.91175    295.15952    331.86269   -60605.533    60626.281   -36.703169    38.301469 
16372000    302.29814    319.82462    513.32301   -60620.017     60630.32   -193.49839    38.292127 
16376000     258.3353    345.00904    357.40779   -60632.823    60669.677   -12.398749    38.291021 
16380000    312.97066    411.83191    304.42707   -60673.036      60662.8    107.40484    38.295318 
16384000    278.82509    323.95998    296.86662   -60665.121     60671.21     27.09336     38.29991 
16388000    280.00156    302.55991    331.76529   -60685.471    60694.312    -29.20538     38.30101 
16392000     270.0998    268.41452    267.79455   -60682.383    60708.474   0.61997053    38.307065 
16396000    266.69706    418.53615    252.03706   -60716.168    60743.006    166.49909    38.300986 
16400000    267.08181     223.0556     237.6184   -60718.733    60748.366   -14.562803    38.309847 
16404000    272.56837    374.51904    292.20999   -60718.993    60732.856    82.309051    38.314352 
16408000    274.55767    291.52952    275.84315   -60724.818    60746.599    15.686366    38.305664 
16412000    257.97518    415.95654    342.41022   -60744.198    60758.192    73.546323    38.305192 
16416000    264.20219    357.03632    346.72153   -60739.092     60766.94    10.314782    38.289787 
16420000    255.77264     347.0352    257.98647   -60748.271    60772.155    89.048731    38.279287 
16424000    301.29379    312.97202    169.91395   -60777.273    60785.069    143.05807    38.276982 
16428000    302.21808    361.83802    219.41788   -60801.405    60794.789    142.42015    38.279629 
16432000    299.72473    402.82558    205.18457    -60846.92    60823.807    197.64101    38.282817 
16436000     292.0235    359.29481    353.50956   -60820.439    60834.301    5.7852483    38.288728 
16440000    307.43415     300.0344    247.22137   -60815.553    60810.123    52.813032    38.292586 
16444000    279.96258    681.02368    234.51352   -60808.835    60821.345    446.51016    38.287975 
16448000    278.19009    194.90361     340.2478   -60802.505    60812.867   -145.34419    38.285058 
16452000    258.30769    359.98464    309.86759   -60811.722    60809.895    50.117046    38.281369 
16456000    260.56544    497.58709     304.1962   -60836.965    60855.778    193.39089    38.282504 
16460000    273.56607    216.53598    292.15231   -60830.858    60851.243   -75.616326    38.284762 
16464000    258.05635    263.13083    389.48552   -60844.702    60860.574    -126.3547    38.276753 
16468000    296.03076    471.96216    281.75395   -60869.046    60873.178    190.20821    38.285555 
16472000    291.86178    483.01307    251.33414   -60863.514    60880.837    231.67893    38.282283 
16476000    283.28019    273.49456    250.43998   -60879.654    60893.962    23.054577    38.277552 
16480000    293.18943    233.78841    206.64116   -60898.172    60922.581    27.147249    38.276295 
16484000    268.82992    419.83765    248.86973    -60925.39    60933.911    170.96793    38.261386 
16488000    298.79256    505.26488    316.22046   -60936.324    60922.653    189.04442    38.256158 
16492000    293.97453    292.17851    148.57188   -60939.317    60938.089    143.60663    38.263332 
16496000     288.4015    300.03126    372.34732   -60955.951    60965.834    -72.31606    38.256776 
16500000    317.90548    345.10805    331.22989   -60988.187    60983.517    13.878153    38.252978 
16504000     273.3181    317.68636    219.91026   -60995.034    61026.132    97.776102    38.241597 
16508000    292.78758    259.83956    420.28747    -61012.11    61026.964   -160.44791    38.244364 
16512000    263.38471    309.85996    352.08782   -61027.041        61037    -42.22786    38.245003 
16516000    272.32324     434.5802    275.62439   -61025.896    61046.646    158.95581    38.246106 
16520000    269.59303    209.44518    365.81859    -61054.67    61061.136   -156.37341    38.245289 
16524000    291.73006    198.41508    427.60145   -61067.401    61074.342   -229.18637    38.238836 
16528000    274.89754    221.48436    289.36458   -61101.607    61119.835   -67.880215    38.238646 
16532000    305.31295    530.57851    309.86124   -61137.088    61140.779    220.71726    38.243754 
16536000    272.61741    209.60352    294.59304   -61157.441    61176.959   -84.989523    38.235915 
16540000    269.51935    347.86948    288.62941   -61150.796    61172.552    59.240067    38.240264 
16544000     248.5085    338.77279    335.29021   -61157.152    61186.562     3.482583    38.242539 
16548000    270.98719    300.16011    337.85687   -61185.402    61201.245   -37.696758    38.241557 
16552000    292.49315    336.67251    280.70252    -61207.72    61212.373    55.969993    38.226525 
16556000    296.37498    318.11064    271.72461   -61222.847    61225.299    46.386035      38.2285 
16560000     266.0719    250.48661    237.72015   -61260.451    61254.618    12.766463    38.229343 
16564000    267.78621     524.6901    348.61792    -61282.36    61314.238    176.07218    38.236053 
16568000    252.23594    225.75931    279.64648    -61300.81    61323.778   -53.887167    38.240635 
16572000    261.59841    327.82078    299.42683   -61304.791    61335.692     28.39395    38.236987 
16576000    296.09031    226.10607    361.03465   -61331.261    61346.726   -134.92858    38.237339 
16580000    267.60642    219.26859    376.37576   -61330.106    61348.075   -157.10718    38.239718 
16584000    280.22412     312.3523    436.77747   -61345.986    61361.565   -124.42517    38.236702 
16588000    267.26825    321.19638    280.25612   -61374.774     61405.24    40.940265    38.245797 
16592000    292.42062    321.85008    336.90632   -61402.132    61406.566   -15.056243    38.253003 
16596000    292.37261    253.53019    400.85659   -61425.017    61427.663    -147.3264     38.26088 
16600000    307.32309    312.25061    299.19121    -61455.59    61449.598    13.059401    38.271993 
16604000    297.05645    685.04612    205.62601     -61462.9    61459.936    479.42011    38.265943 
16608000    297.46684     281.3285    283.05614   -61467.519    61470.946    -1.727643    38.262563 
16612000    260.68994    320.90493    268.17106   -61466.476    61495.833    52.733868    38.271736 
16616000    273.29833    351.56185    260.42307   -61491.767    61522.279    91.138778    38.271369 
16620000    255.75074     116.9957    362.51542   -61506.857    61532.437   -245.51971    38.269968 
16624000    292.00334     503.3323    331.92149   -61527.816    61532.501    171.41081     38.27249 
16628000    280.13013    512.33924    361.78861   -61544.128    61573.164    150.55063    38.274065 
16632000    257.93215    396.59533    302.28602   -61548.717    61578.032    94.309315    38.272159 
16636000    256.30289    300.82197    397.72022   -61587.014    61592.496   -96.898254    38.267286 
16640000    274.78285    276.66105    428.06443   -61628.204     61648.62   -151.40338      38.2704 
16644000    291.89154    339.76394    319.10566   -61629.816    61636.696    20.658282    38.271354 
16648000    303.61656    337.09112      314.528   -61637.992    61641.083    22.563115     38.27008 
16652000    269.08217    333.20304    244.57685   -61661.847    61671.087    88.626184    38.261027 
16656000    269.92971    337.57895    341.86034   -61670.937    61695.099   -4.2813994    38.256394 
16660000    264.81865    246.13559    195.29842   -61684.902    61738.255    50.837171    38.246694 
16664000    280.39617    276.27648    334.28098   -61708.977     61730.85   -58.004496    38.254445 
16668000    261.82318     212.2246    295.82536   -61706.539    61750.182    -83.60076    38.258957 
16672000    281.44994    323.27653    447.25371   -61739.924    61755.491   -123.97718     38.25517 
16676000    244.49766    282.62263    291.83101   -61762.935    61795.783   -9.2083795     38.25814 
16680000    289.84471    530.48321     251.1292   -61802.576    61819.784    279.35401    38.258696 
16684000    244.99849    254.92622    353.68571    -61803.78    61853.735   -98.759492    38.255359 
16688000    294.57172    369.16757    325.65243   -61834.843    61853.236     43.51514    38.253682 
16692000    267.84257    330.66378     227.2581   -61859.822    61884.943    103.40568    38.252774 
16696000    279.26689    282.19012    325.21123   -61887.192    61893.878   -43.021109    38.256475 
16700000    309.70647    402.94955    516.61995     -61895.1    61901.284    -113.6704    38.256814 
16704000     277.9139    367.90101    240.28408   -61880.712    61899.334    127.61692    38.257368 
16708000    254.51239    212.32176    360.83383   -61888.018     61926.12   -148.51207    38.258135 
16712000    285.09439    365.38981    156.64148   -61923.403    61948.892    208.74833    38.256454 
16716000    282.04117    218.90974    428.60266   -61921.234    61953.606   -209.69292    38.250779 
16720000    277.77248    298.07855     256.6298   -61949.418    61985.637    41.448754    38.248151 
16724000    267.24129    392.16735     362.4658   -61975.473    61999.136     29.70155    38.260811 
16728000    253.75847    334.37285    473.56506   -61971.427    62009.402   -139.19222    38.249869 
16732000    271.81924     542.4041    321.31597   -62011.128    62034.908    221.08814    38.248623 
16736000     254.6612    344.85331    474.60233   -62055.736    62080.537   -129.74902     38.25296 
16740000    289.00508    394.29932    386.30734    -62079.02    62084.651    7.9919784     38.25143 
16744000    286.54666    491.28719    201.43912   -62099.973    62131.698    289.84807    38.253442 
16748000    292.85593    263.98538    368.93278   -62123.895    62149.777    -104.9474    38.246758 
16752000    270.54708    536.33508    159.71629   -62137.999    62155.133    376.61879    38.252258 
16756000    275.29234     276.0672    543.86803   -62156.032    62180.157   -267.80083    38.254951 
16760000    270.39258    310.24535    245.32799    -62150.89    62186.074    64.917365    38.253576 
16764000    273.72967    341.95907    373.53202   -62145.849    62183.734   -31.572954    38.253302 
16768000    285.84874    363.20639    388.66916   -62179.445    62195.907   -25.462762    38.251267 
16772000    318.96052    516.66916    412.90244   -62231.908    62210.524    103.76672    38.252388 
16776000    282.56521    349.69278    278.45338   -62242.978    62239.646    71.239407    38.241458 
16780000    284.81726    267.29305    362.32265   -62252.766    62247.989     -95.0296    38.233295 
16784000     284.6441    283.86846    415.28707   -62258.881    62272.633   -131.41861    38.225164 
16788000    274.37772    267.85682    378.20813   -62265.076    62293.829   -110.35131    38.220646 
16792000    272.20632    421.64836    396.44558   -62289.223     62308.42    25.202775    38.212737 
16796000    299.75369    361.36124    430.76665   -62304.474    62311.051   -69.405412    38.209666 
16800000    288.71782    233.98179    386.53706   -62310.233    62310.795   -152.55527    38.215592 
16804000    272.76993    377.78827    370.45394   -62323.455    62344.749    7.3343256    38.217027 
16808000    283.64882    270.64478    280.80765   -62325.071    62336.351   -10.162872    38.210835 
16812000    279.80667    356.95022    255.08425   -62328.524    62354.848    101.86596    38.213546 
16816000    286.27698    325.20539    259.91875   -62378.194    62395.793    65.286645    38.204338 
16820000    278.24884    475.86715    367.83933   -62400.333    62416.741    108.02782    38.203552 
16824000    268.98108    322.10877    316.00166   -62439.371    62451.695    6.1071076    38.200839 
16828000    295.67521    312.66808    337.29275   -62455.545    62467.959   -24.624665    38.201696 
16832000    297.92593    275.07125     317.5587   -62505.555    62509.403   -42.487448    38.214509 
16836000     260.4965    330.70469    272.84261   -62513.113    62535.702    57.862075    38.213471 
16840000      263.231    358.59349    333.91395   -62548.429    62557.495    24.679541    38.218852 
16844000    287.45419    385.53759    292.30142   -62553.183    62567.044    93.236168    38.219551 
16848000    303.54337    420.70825      186.136   -62559.962    62577.375    234.57225    38.223325 
16852000    272.43299    437.29676    262.01927   -62589.388    62606.493    175.27749    38.227722 
16856000    282.59056    406.66848    196.81873   -62592.797    62612.638    209.84974    38.221432 
16860000    324.65298    472.42048    241.24972   -62611.127    62625.227    231.17076    38.221929 
16864000    293.20081    389.83526    481.14783   -62617.611    62637.581   -91.312568    38.211759 
16868000      272.487     308.9269    216.08517    -62636.47    62652.809    92.841731    38.215216 
16872000    291.79048     394.2377    288.06172   -62656.656    62660.199    106.17598    38.213095 
16876000    273.10323    478.88378    359.55291   -62683.601    62697.755    119.33087    38.216473 
16880000     246.2715    201.17861    304.09354   -62696.211     62747.05   -102.91494    38.212077 
16884000    258.96324    303.97641    316.93799   -62735.019    62781.907   -12.961573    38.209884 
16888000    255.59812    480.00382    222.65297   -62745.827    62788.704    257.35085    38.215942 
16892000     271.2893    412.46225    340.45652   -62774.445    62802.123    72.005728    38.226669 
16896000    299.24122    419.25325    313.21057   -62789.553    62801.227    106.04268    38.231198 
16900000    282.79669    305.79357    404.56837   -62814.688    62826.266   -98.774802    38.229551 
16904000    259.86934    267.38845    247.91327   -62815.418    62839.012    19.475176    38.227158 
16908000    290.06247    219.90042    254.76293   -62842.834    62853.596   -34.862503    38.223634 
16912000    288.02338    310.97694    351.68586   -62855.193    62864.937   -40.708922    38.223765 
16916000    305.89835    595.44874    266.53497   -62888.579    62877.411    328.91376    38.234339 
16920000    278.56484    225.36889    304.52607   -62869.054    62917.253   -79.157171    38.236842 
16924000    302.14762    468.69386    343.51557   -62933.786    62911.405    125.17829    38.247325 
16928000    291.27398    288.50117    365.49254   -62935.265    62944.845   -76.991372    38.235051 
16932000    283.90673    218.44223     275.6828   -62950.121    62952.739   -57.240566      38.2405 
16936000     293.4841    259.45472     550.5403   -62936.163    62965.913   -291.08558    38.250074 
16940000    275.31483    356.59364    445.60435   -62975.844    62995.864   -89.010715    38.250457 
16944000    258.84491    275.84501    374.99003   -62985.308    63022.429   -99.145026    38.249705 
16948000    313.09772    377.48927    180.12849   -63017.686     63002.98    197.36078    38.252367 
16952000    272.77363    307.51934    242.63957   -63032.798    63042.472    64.879766    38.251609 
16956000    292.24057    332.96414    249.51249   -63060.445    63062.054    83.451651     38.24499 
16960000    298.66586    314.89073    409.35917    -63081.32    63063.818   -94.468442    38.241558 
16964000    272.89644    367.95001    271.97601   -63090.525    63083.831    95.974006    38.240407 
16968000    296.85951    391.61198    322.80744   -63114.873     63107.31    68.804535    38.241839 
16972000    297.00241    360.05096    389.55837    -63127.03    63133.302   -29.507418    38.241137 
16976000      257.165    430.21881    446.48802   -63109.392    63150.932   -16.269211    38.248076 
16980000    272.39121    176.10641    379.96935   -63131.027    63140.955   -203.86294    38.250403 
16984000    280.26136    251.10077    398.17274   -63141.386    63174.315   -147.07197    38.241859 
16988000    274.43608    342.36128    388.28507   -63169.094    63196.961   -45.923784    38.233338 
16992000    265.64696    241.42545    368.46271   -63196.119    63223.528   -127.03726     38.22614 
16996000     272.9213    628.12798    234.86347   -63200.226    63226.134    393.26451     38.23342 
17000000    299.81869    456.07315    283.05286   -63244.543    63229.177    173.02029    38.244727 
17004000    300.22314     373.9675    251.70878   -63264.316    63277.241    122.25872     38.23983 
17008000    291.48411    230.61833    237.65253   -63300.442    63317.627   -7.0342047    38.239887 
17012000    260.77153    472.95679    218.96529   -63300.813    63349.054     253.9915     38.25162 
17016000    292.66453    316.61063    187.06923   -63338.116     63342.01     129.5414    38.249763 
17020000    289.42958    344.58773    124.50117   -63337.681    63351.862    220.08656    38.253635 
17024000    298.56977    401.01891    295.98103    -63368.09    63364.921    105.03788    38.246394 
17028000    272.74461    190.20985    352.72759   -63378.632    63405.201   -162.51774    38.246489 
17032000    278.97382    296.38941    319.57856    -63383.02    63399.457   -23.189146    38.252192 
17036000    283.61084    299.90439    549.64799   -63402.546    63411.685    -249.7436    38.256128 
17040000     289.9055    531.60796    567.96813   -63413.702    63409.506   -36.360173    38.265998 
17044000    269.50485    287.19706    176.07625   -63409.004    63447.253     111.1208    38.265187 
17048000    306.20076    338.90648    448.59948   -63452.917    63447.043     -109.693    38.264276 
17052000    321.83912    417.69425    513.91298   -63439.445    63453.721    -96.21873    38.260455 
17056000    302.85975    302.49534    332.32973   -63456.301    63462.195   -29.834393    38.264554 
17060000    272.95734    353.87924    253.70478   -63452.471    63481.853    100.17447    38.268694 
17064000    294.15289     350.9283    218.14532   -63474.696    63504.168    132.78299    38.270542 
17068000     268.1959    315.21308    422.52656   -63484.953    63515.014   -107.31348    38.269874 
17072000      257.242    382.19086    280.13673   -63484.162     63507.24    102.05413    38.268508 
17076000    254.97972    322.88963    227.85513   -63486.496    63519.934    95.034506    38.269049 
17080000    288.01779    379.83209    548.51427   -63506.366    63527.721   -168.68218    38.265128 
17084000     288.9069    237.96813     343.1296    -63526.99    63533.235   -105.16147    38.263393 
17088000    293.39235    629.50489    288.86662   -63535.363    63549.017    340.63827    38.262589 
17092000    286.96096    524.47906    440.27884   -63539.826    63557.738    84.200221    38.264773 
17096000    269.24145    455.51044    422.96604   -63566.159    63578.901      32.5444     38.26141 
17100000    265.82898    516.41166    432.93885    -63574.31     63592.27    83.472807    38.253745 
17104000    265.67065    259.72293    253.82416   -63587.995    63627.199    5.8987665    38.246022 
17108000    277.05998    253.11962    370.31318   -63617.367    63637.418   -117.19355    38.248807 
17112000    275.62807    371.66411    327.74787   -63658.492    63675.783    43.916246    38.259764 
17116000    284.79049    167.67864    370.18945   -63657.408    63683.855   -202.51081    38.255954 
17120000    288.27044     316.0975    467.21393   -63667.928    63685.327   -151.11643    38.258747 
17124000    310.06766    454.38959    407.31672   -63683.121    63700.374    47.072875    38.266432 
17128000    294.89148    386.59121    465.78249   -63694.126    63713.906   -79.191277     38.26093 
17132000    301.42598    444.12594    374.61429    -63717.79    63732.864    69.511645    38.268214 
17136000    275.23159    461.67807    270.35766   -63726.639    63761.985    191.32041    38.266312 
17140000    268.23534    326.71998    210.30348   -63768.347    63786.239     116.4165    38.276214 
17144000    261.02835    340.35261    248.41328    -63775.84    63796.408    91.939325    38.267443 
17148000    279.46526    378.99493    263.24728   -63795.512    63803.061    115.74765     38.26062 
17152000    318.09109    686.60508    320.15056   -63812.318    63807.173    366.45451    38.253901 
17156000    296.72606     457.2937    211.22603   -63823.009    63828.968    246.06767    38.269862 
17160000    287.17839    497.95671    497.44156   -63804.763    63831.432    0.5151546     38.27298 
17164000    280.20761    399.73939    468.17039   -63818.507    63847.746   -68.430998    38.276192 
17168000    255.13009    331.14964    285.18469   -63830.151    63890.101    45.964946     38.27988 
17172000    265.29599    308.84161     368.9004   -63849.004    63899.041   -60.058787    38.281272 
17176000    278.54869    384.82732    505.33482   -63870.835    63896.864    -120.5075    38.283045 
17180000    286.74503      535.962    196.77111   -63900.482     63919.59    339.19089    38.283358 
17184000    248.86093    417.12205    197.72958   -63896.815    63938.978    219.39247    38.282209 
17188000    283.29843    408.68756     198.8839   -63942.579    63966.952    209.80367    38.282025 
17192000     273.9135     384.1499    235.26164   -63958.237     63981.36    148.88826    38.282998 
17196000    301.28608    515.49929    446.13835   -63971.637    63975.603    69.360937    38.280425 
17200000    272.40063    359.92985    352.30373    -63943.91    63989.691    7.6261194    38.288154 
17204000    267.02406    267.02838    420.31785   -63996.654    64015.245   -153.28947    38.292934 
17208000    277.89171    252.88447    385.86865   -63989.987    64014.549   -132.98418    38.292584 
17212000    282.45732    439.13624     273.4399   -64005.339    64023.007    165.69634    38.296524 
17216000    281.95986    318.70249    365.45689   -64014.624    64034.307   -46.754394    38.290111 
17220000    249.79435    337.12909    412.84362   -64043.297     64091.05   -75.714522    38.285449 
17224000    261.80951    280.52396    247.20346   -64089.542    64116.003      33.3205    38.292548 
17228000    266.15537    367.35071    565.32444   -64105.274     64136.25   -197.97373    38.289859 
17232000    295.12109    499.72119    327.32128   -64129.856    64148.902    172.39991    38.291513 
17236000    264.04271    388.34258    324.61677   -64143.265    64175.211    63.725808    38.292228 
17240000    260.91647    385.08395     252.8114    -64172.47    64201.191    132.27255    38.300881 
17244000    288.85876    304.85269    215.32067   -64215.959    64222.296    89.532024    38.309072 
17248000    302.26291     460.4607    226.36559   -64211.145    64225.303    234.09511    38.313888 
17252000       286.77    426.46869    336.79149       -64219    64237.407    89.677203    38.314721 
17256000    249.69526    379.20307    188.10846   -64207.528    64236.851    191.09461    38.313054 
17260000    241.05348    341.79001    311.31352   -64199.731    64253.527    30.476493    38.312674 
17264000    312.43038    444.44429    270.61016   -64241.664    64236.077    173.83413    38.318293 
17268000    275.10812    419.06238    246.39799   -64270.631    64273.273    172.66439    38.313002 
17272000    293.65511    179.82094     379.8979   -64283.622    64282.843   -200.07695    38.316095 
17276000    278.80517    336.84407     437.4253   -64292.321    64287.183   -100.58123    38.320148 
17280000    291.89913    387.04905    348.45294   -64289.991    64300.149    38.596102    38.327239 
17284000    253.45726    330.30387    259.90299   -64296.534    64337.086    70.400882    38.322935 
17288000    283.24964    236.55988    368.60715   -64318.958    64325.223   -132.04727     38.31511 
17292000    273.33343     315.7778    306.97166   -64309.276    64336.673    8.8061405    38.313847 
17296000     287.0524    262.83519    285.10596   -64345.008    64348.733   -22.270764    38.305854 
17300000    290.23702    548.57314    356.25897   -64369.162    64391.991    192.31417    38.309292 
17304000    276.87628    410.88475    325.38477   -64368.306     64401.28    85.499983    38.311652 
17308000    262.61246    349.62443    255.48736   -64362.924    64402.596    94.137071    38.307266 
17312000    279.34221    388.46528    247.27243   -64401.448    64421.679    141.19286    38.309688 
17316000    278.91141    256.56441    519.01698   -64426.131    64443.287   -262.45257    38.307916 
17320000     269.7898    351.29493    367.12937   -64432.138     64448.39   -15.834435    38.315354 
17324000    251.66756    304.53351    355.22919   -64452.112    64485.619   -50.695678    38.311968 
17328000    314.80609    678.07254    274.95062   -64462.488    64479.369    403.12192    38.315357 
17332000    315.83855    518.74013    442.06465   -64484.681    64485.525    76.675482    38.303976 
17336000    249.34671    429.74931    252.80337   -64492.387    64530.378    176.94594     38.30272 
17340000     280.3709     395.2349    429.36388    -64503.53    64519.551   -34.128979    38.309022 
17344000    262.38811    302.11984     379.7736   -64503.081    64531.448   -77.653756     38.30921 
17348000    279.74716    324.05957    231.78012   -64524.491    64539.457    92.279454    38.316064 
17352000    303.68032    341.68429    318.83246   -64552.049    64551.599    22.851824    38.317009 
17356000    274.91878    196.46665    254.42394   -64566.136    64601.251   -57.957299    38.311017 
17360000    276.12366    384.07391     268.4407   -64613.495    64629.717     115.6332    38.313322 
17364000    272.09392    342.25352    345.70247   -64611.361    64636.325   -3.4489513    38.311308 
17368000    274.04771    455.86942     342.0284   -64645.177    64652.136    113.84102    38.305712 
17372000    282.11377    565.36512    181.26566   -64662.882    64690.276    384.09947    38.299802 
17376000    250.68811    285.40791     268.1068   -64676.142    64715.753    17.301113    38.303903 
17380000    269.97623    509.66163    415.95291   -64703.592    64724.755    93.708727    38.300867 
17384000    301.74749    316.12252     330.3243   -64734.483    64736.862   -14.201776    38.304102 
17388000     272.8708    210.57888    321.08086   -64733.687    64758.476   -110.50199    38.302268 
17392000    281.06927    491.89461    331.53613   -64778.109    64792.561    160.35847    38.303101 
17396000    255.68649    294.84522      213.798   -64786.464    64827.075    81.047221    38.303922 
17400000    272.16722     361.8436    291.47731   -64808.971    64842.669    70.366285    38.313775 
17404000    270.42296    365.67135    302.60858   -64847.489     64868.67    63.062771    38.318956 
17408000    281.95206    627.80047    206.78903   -64881.505    64899.366    421.01144    38.325308 
17412000    272.71702    366.94104    284.89455   -64894.658    64923.004    82.046496    38.317509 
17416000     283.7209    234.94947    431.06376    -64905.81    64915.479   -196.11429    38.321205 
17420000    264.52927    325.54934    228.95951   -64915.967      64949.8    96.589839     38.32262 
17424000    267.06862    266.31539    327.45082   -64932.642    64958.637   -61.135436    38.314461 
17428000    259.72209    374.08491    257.77951   -64969.862     64988.87     116.3054    38.299806 
17432000    269.83832    379.19427    176.50076   -64955.553     64969.47    202.69351    38.296026 
17436000    303.17433    375.44001    283.87184   -64982.108    64971.097     91.56817    38.293528 
17440000    268.47287    316.18592    298.75953    -64992.67    64991.693    17.426392    38.288913 
17444000    288.10506    348.34338     189.1747   -65002.857    65013.348    159.16868    38.286141 
17448000    291.54663    450.57842    380.80409   -65019.895    65041.434    69.774327    38.286526 
17452000    281.70524    268.02123     372.3985   -65029.932    65053.944   -104.37727    38.276224 
17456000    255.23471    234.70511    275.05617   -65029.829    65075.485   -40.351054    38.277578 
17460000    310.09797    486.05237    409.22457   -65090.851    65096.868    76.827801    38.278686 
17464000    287.32797    318.29448    368.77339   -65085.097    65110.221   -50.478916    38.286223 
17468000    261.11608    213.02066    221.55824   -65080.818    65123.685   -8.5375799     38.28906 
17472000     251.1837    319.75596    395.25927   -65086.634     65122.84   -75.503318    38.285665 
17476000    274.08379    418.97354     315.5332   -65124.245    65151.435    103.44034    38.291474 
17480000    274.70331    501.20602    354.51587   -65151.661    65166.962    146.69015    38.300816 
17484000     292.7069    498.59217    298.36577   -65166.658     65174.58     200.2264    38.303521 
17488000    283.43428    482.81672    334.07133   -65193.884    65208.259    148.74539    38.302985 
17492000    289.63777    357.40442    376.47062   -65195.786    65199.704   -19.066198    38.298448 
17496000    273.00578    376.15129    199.09532   -65159.635    65187.108    177.05597     38.28569 
17500000    263.68027    431.03463    271.81194   -65160.202     65200.17    159.22269    38.293425 
17504000    311.31574    478.71461    412.65719   -65179.898    65193.625    66.057421    38.297402 
17508000    267.75129    407.86222    275.93479   -65177.975     65224.63    131.92743    38.289895 
17512000    253.75926    260.81234    226.36236   -65150.646    65200.203    34.449982    38.295894 
17516000    276.74728    328.88587     352.2043   -65199.134    65213.551    -23.31843    38.297526 
17520000    266.60772    318.91198     333.7255   -65224.867    65250.379   -14.813512    38.291418 
17524000    285.20789    216.27636    327.85235   -65228.773    65247.155   -111.57599     38.28655 
17528000    307.57298     299.1336     325.3916   -65254.709    65250.862   -26.258004    38.289087 
17532000    276.68429    355.26855     436.2459   -65257.734    65272.975   -80.977358    38.289935 
17536000    291.44969    486.87444    238.28026   -65286.182    65296.966    248.59418     38.28706 
17540000    265.44004    444.07184    181.30137    -65300.32     65326.49    262.77047    38.293202 
17544000    259.91159    385.21959    313.15459   -65311.686    65354.397       72.065    38.297468 
17548000    295.79642    405.15857    289.22324   -65325.857    65326.034    115.93532    38.295329 
17552000    246.29381    266.19838    209.09384    -65316.61    65353.525    57.104539    38.294422 
17556000    267.65215    402.42857    323.79792   -65343.401    65369.551    78.630648    38.291244 
17560000    279.32009     338.7094    243.18496   -65358.374    65383.533     95.52444    38.288618 
17564000    260.89474    418.87528    253.53064   -65385.087    65408.688    165.34464    38.277939 
17568000     293.4725    409.84432    548.51252   -65411.078    65411.753   -138.66821    38.272434 
17572000    271.88324    305.52106    397.68009   -65408.801    65450.801   -92.159027    38.267029 
17576000    294.51265    277.97343    321.26503   -65440.356    65459.092   -43.291595    38.261139 
17580000     263.5338    271.56741    344.16494   -65464.201    65504.903   -72.597527      38.2557 
17584000    356.32886    484.88171    668.56773   -65497.725    65482.095   -183.68602    38.242432 
17588000    302.18962    754.07726    290.03867   -65515.568    65510.892    464.03859    38.245373 
17592000    308.90988    619.36367    406.20153   -65514.307    65528.939    213.16214    38.246552 
17596000    294.59587    311.29492    410.80908   -65524.673    65553.229   -99.514163    38.242563 
17600000    295.28155    386.01388    257.77024   -65543.022    65549.397    128.24363    38.252075 
17604000    290.50657    404.32581    226.74275   -65560.834    65568.758    177.58307    38.253464 
17608000    285.63244    270.41268    320.63981   -65580.901    65588.086   -50.227135    38.254088 
17612000    281.04339     319.8852    327.18773   -65585.454    65617.716   -7.3025314    38.245883 
17616000    301.80471    181.36193    446.62969   -65609.938    65630.813   -265.26777    38.246721 
17620000    261.26954    255.18555    259.65019   -65641.554    65667.579   -4.4646402    38.240978 
17624000    289.06405    353.18861    228.13577    -65662.02    65690.391    125.05285    38.237775 
17628000    242.70664     223.1028    170.30807   -65697.887    65742.844     52.79473    38.233139 
17632000     279.0841     268.7099    430.83227   -65701.043    65725.556   -162.12236    38.229965 
17636000     319.4093    315.26721     248.6647   -65747.062    65740.318    66.602507    38.229422 
17640000    299.01602    379.91871    295.85489   -65766.984     65778.37    84.063829    38.241984 
17644000    261.87501    301.26758    535.35029   -65750.491    65784.064   -234.08271    38.241556 
17648000    264.32118     420.4774     360.2395   -65798.172    65823.553      60.2379    38.241079 
17652000     296.4975    557.44039    256.28115   -65843.142    65835.734    301.15923    38.235657 
17656000    257.68653    151.87332    282.74133   -65844.259    65861.471   -130.86801    38.237052 
17660000    301.23713    362.10209    452.67367   -65860.661    65862.067   -90.571574    38.234088 
17664000    301.00432    261.48757    394.26379   -65849.079    65866.128   -132.77622    38.225961 
17668000    292.74046    377.79612    329.31346   -65866.684     65887.17    48.482656     38.22797 
17672000    304.21087     430.7231    266.44527   -65899.424    65895.913    164.27782    38.232658 
17676000    286.32323    419.15997    311.78149   -65897.225    65904.453    107.37848     38.22733 
17680000    273.55375    433.09779    202.35245   -65896.827    65919.333    230.74534    38.221716 
17684000    254.16517    254.88442    282.06437   -65902.456    65948.854   -27.179948     38.21027 
17688000    344.59991    406.03196    291.29286   -65943.827    65935.856    114.73909    38.204882 
17692000    285.30089    460.15627    325.26669   -65949.451    65959.597    134.88957    38.203937 
17696000    283.66382    424.01397    433.25299    -65973.54    65985.794   -9.2390268    38.200527 
17700000    302.14779    237.48776    354.59597   -66019.903    66018.615   -117.10821     38.20237 
17704000    264.19672    424.28058    358.62671    -66020.35    66038.774    65.653868    38.199004 
17708000    298.36164    417.62031    321.83051   -66046.547    66056.117    95.789803    38.200604 
17712000    277.18218    390.86016    173.68318    -66066.21    66090.619    217.17698     38.19697 
17716000    297.60988     350.5747     248.7658   -66074.485    66086.186     101.8089    38.205779 
17720000    280.50963    439.30699    212.62842   -66085.159    66093.411    226.67857     38.21192 
17724000    293.35744    749.93442    297.08442   -66112.114    66095.233       452.85    38.216956 
17728000    285.99409    465.45514    305.08789   -66139.912    66155.291    160.36725    38.219195 
17732000    331.61379    383.61086    323.47458   -66178.395    66167.346    60.136285    38.224638 
17736000     277.6171    243.57866    343.73727   -66194.658    66203.019   -100.15861    38.219928 
17740000    282.20649    474.57454    277.56873   -66206.214    66231.972    197.00582    38.213866 
17744000    283.91604    299.01459    435.61655   -66241.841    66248.157   -136.60196    38.214524 
17748000    288.80759    205.44168    416.58953   -66270.083    66275.704   -211.14785    38.205397 
17752000    271.60984    598.87971    400.90427    -66270.04    66297.577    197.97544    38.201963 
17756000    316.59702    404.58722    324.28498   -66312.346    66320.335    80.302245    38.201661 
17760000    281.29057    594.85764    247.35008   -66330.923     66354.14    347.50756    38.202795 
17764000    282.28873    381.47352    277.25833   -66346.977     66369.23    104.21519    38.201428 
17768000     312.6318    429.86715    362.42643   -66359.263    66373.129    67.440727    38.201282 
17772000    271.68162    341.42924    391.22892   -66348.494    66373.722   -49.799678    38.203821 
17776000     284.5692    341.51938    340.76837   -66348.402    66361.879   0.75101822    38.195605 
17780000    321.63888    313.32945     353.7091   -66361.955    66358.124   -40.379652     38.19411 
17784000     259.3015    294.93644    227.24128   -66375.119     66381.09    67.695156    38.193529 
17788000    301.82997    294.28783    452.12459   -66401.598     66408.19   -157.83676     38.19629 
17792000    253.77693    231.60908    322.78546   -66391.068    66424.918   -91.176387    38.202895 
17796000    318.02492    366.84341    367.04371   -66446.826    66441.105  -0.20030157    38.202874 
17800000     277.8218    285.06714    324.45992   -66449.799    66453.105   -39.392785    38.200999 
17804000    280.63315    358.45494    316.65961   -66464.813    66479.796    41.795333    38.205224 
17808000    280.89389    285.83138    367.90547   -66464.347    66482.951   -82.074083    38.211088 
17812000    300.71949     372.2747     292.6916   -66475.428     66477.79    79.583095    38.207012 
17816000    278.77968     337.4382    346.94572   -66460.952    66479.883   -9.5075163    38.207878 
17820000     298.3674    497.80481    291.47099   -66472.998    66488.306    206.33382    38.213504 
17824000     309.4027    495.38472    285.09706   -66485.339     66486.35    210.28766    38.208859 
17828000    283.62272    238.67885    355.05028   -66477.161    66495.164   -116.37143     38.19394 
17832000    273.71519    414.16537    363.25828   -66479.954    66519.287    50.907096    38.192939 
17836000    240.94728    353.69645    268.26214   -66489.464     66540.13     85.43431    38.198168 
17840000    282.21821    418.97536    170.37748   -66512.151    66547.248    248.59788    38.200036 
17844000    276.99008    434.40332    209.98953   -66531.847    66552.152    224.41379     38.19534 
17848000    286.13534    292.60003    473.33596   -66551.455    66578.894   -180.73592    38.191838 
17852000    274.80414    378.50634    264.79567   -66574.459      66607.6    113.71067    38.200891 
17856000    265.74704    385.19148    246.11826   -66575.454    66601.981    139.07322    38.201077 
17860000    277.34524    350.04009    343.62299   -66594.181    66607.633       6.4171    38.212254 
17864000    294.55588    321.12962    298.21671   -66616.358    66632.173     22.91291    38.211926 
17868000    274.78258    283.36424    260.57679   -66621.616    66654.674    22.787446    38.204289 
17872000    274.08535    437.89368    186.80734   -66643.366    66660.783    251.08634    38.199946 
17876000    275.67379    413.11998    165.07751   -66665.566    66697.067    248.04247    38.204792 
17880000    311.54845    293.56358    253.66022   -66698.134    66703.202    39.903367    38.208174 
17884000    278.77378    233.21602    281.38079   -66690.301    66727.546   -48.164768    38.218067 
17888000    293.94947    293.47181     445.9703   -66719.944    66728.565   -152.49849    38.215109 
17892000    280.37534    237.69271    480.11828    -66745.44    66761.066   -242.42556    38.206471 
17896000    244.39382    381.68623    293.91467   -66728.841    66772.485    87.771562    38.196714 
17900000    272.05583    206.14916    293.25429   -66742.871    66763.965   -87.105132    38.195192 
17904000     264.2567    320.64414    254.06372   -66770.818    66794.331    66.580421    38.185647 
17908000    278.09517    241.01286    224.31233   -66788.792    66795.641    16.700524    38.189654 
17912000    272.57054    223.43667    360.19294   -66785.294    66801.916   -136.75627    38.194761 
17916000    297.34309    271.68858    261.32344   -66816.939    66833.171    10.365144    38.201906 
17920000    278.15131    269.25972    198.70503   -66838.924     66865.79    70.554688    38.198287 
17924000    286.72465    339.56797    352.24324   -66889.349    66909.114   -12.675267    38.201218 
17928000    303.40772    497.48994    379.42133   -66925.873    66922.657     118.0686    38.200225 
17932000    246.54071    261.47127     287.2842   -66903.416    66942.536   -25.812933    38.199894 
17936000    290.67512    416.35115     443.7827   -66924.751    66939.991   -27.431549    38.198226 
17940000    280.59969    367.95609    264.89964   -66941.853    66943.899    103.05644    38.203295 
17944000     285.0156    535.36523     316.4609   -66959.354    66976.207    218.90433    38.205318 
17948000    280.21515    279.06165    349.01974   -66980.439    67008.193   -69.958089    38.206462 
17952000    274.34743    161.83837    301.21604    -67004.89    67030.249   -139.37767    38.208859 
17956000    261.14097    315.91351    340.34454    -67023.01    67047.341   -24.431036    38.205272 
17960000    298.45938    257.91642    277.65218    -67034.23    67061.042    -19.73576    38.206927 
17964000    270.76441    424.67741    423.11645   -67070.576    67089.817    1.5609634    38.200972 
17968000    263.99393    293.89271    317.98395   -67054.291    67097.822   -24.091249    38.201884 
17972000    266.14273    204.84848    223.13001   -67077.326    67100.742   -18.281534     38.20331 
17976000    299.94119    432.69028     346.3235   -67104.273    67113.555    86.366786    38.201855 
17980000    277.88104    490.67874    271.58951   -67116.563    67144.012    219.08923    38.199031 
17984000    280.02802    359.47842    221.26765   -67126.906    67149.537    138.21077    38.195126 
17988000    259.48491    251.29541       223.29   -67137.518    67166.609    28.005405    38.189189 
17992000    290.80023    308.04095    331.76124   -67159.016    67174.593   -23.720298     38.17585 
17996000     297.6246    343.01443    385.48595    -67165.64    67191.531   -42.471516    38.184688 
18000000    249.81285    275.98711    198.76334   -67183.457    67234.202    77.223775    38.192978 
18004000    286.10329    423.42049    312.98351   -67210.416    67232.102    110.43698    38.202021 
18008000    279.49126    320.28221    505.84964   -67224.116    67240.367   -185.56743    38.193195 
18012000    258.17482    327.19915    214.26798   -67222.226    67257.153    112.93118    38.188182 
18016000    310.00476    437.52496    451.68072   -67241.501    67257.467   -14.155756    38.195221 
18020000    288.73063    247.52083    267.32897   -67270.265     67282.16   -19.808132    38.196532 
18024000    264.73274    377.52993    215.41396   -67266.656    67281.903    162.11597    38.196154 
18028000    293.00265    558.65976    376.52725   -67288.262    67301.225    182.13251    38.198226 
18032000    282.28389    403.33605    466.16961   -67289.743    67327.512    -62.83356    38.189528 
18036000    290.64039    340.95493     542.7756   -67329.369    67344.462   -201.82067    38.189371 
18040000    265.67906     182.2826    274.00045   -67345.283    67352.946   -91.717847    38.181582 
18044000    284.51385    261.10458    404.65731   -67370.247    67378.146   -143.55274    38.179249 
18048000     302.2108    373.16518    331.57102   -67403.037     67396.05    41.594161    38.179171 
18052000    280.28345    392.21184    248.84013   -67425.734    67434.566    143.37171    38.179132 
18056000    299.18137    291.13306    538.00486   -67452.847    67457.388    -246.8718    38.181705 
18060000    250.58536    237.69879    218.25439   -67462.557    67473.584    19.444396    38.180005 
18064000    282.34091    454.71977    349.39273   -67483.264    67506.705    105.32703    38.182855 
18068000    265.88661    414.86809    328.23307   -67512.884     67543.52    86.635023    38.180726 
18072000    274.77199    390.19573    332.45569   -67543.065    67544.908    57.740037    38.183035 
18076000    263.22252    566.03189    214.42608   -67567.476    67594.324    351.60581    38.180496 
18080000    280.80648    251.74137    334.64006   -67558.823    67598.817   -82.898697    38.182369 
18084000    255.12545    278.12364    336.82939    -67578.51    67610.195   -58.705752     38.18538 
18088000    254.44786    395.64036    297.50484   -67602.204    67641.572    98.135516    38.184841 
18092000    263.35628    385.00254    333.63254   -67631.106    67645.721    51.370003     38.18621 
18096000    263.60934    344.52661     319.5686   -67644.832    67670.379    24.958008    38.188012 
18100000    312.76939    463.47943    281.85906    -67688.45    67681.383    181.62037    38.180164 
18104000    280.86133    400.20042    299.76481   -67686.516    67718.246    100.43561    38.177647 
18108000    283.73323    521.70221    299.20092   -67686.422    67721.187    222.50129    38.173385 
18112000    303.82927    247.88447    499.96487   -67702.426    67698.916   -252.08039    38.171339 
18116000    311.14374    424.11301    375.62862   -67715.179    67731.859    48.484394    38.164489 
18120000    301.41389    587.02761    312.29732   -67755.153    67755.101     274.7303       38.166 
18124000     272.3356    274.60649    325.76149   -67746.082     67767.59   -51.154999    38.169127 
18128000     291.1077    344.59827    420.40138   -67756.118    67755.509   -75.803116    38.159871 
18132000    318.91748      284.804    189.86975   -67785.022    67785.332    94.934242    38.167695 
18136000    279.11635     254.1328    123.68795   -67776.809    67790.609    130.44485    38.171146 
18140000     292.6803    277.29135     436.9057   -67788.695    67798.242   -159.61436    38.173839 
18144000    318.60188    405.50577    276.33929   -67803.478    67806.981    129.16647    38.161764 
18148000    281.54238    255.76291    349.63492   -67813.069    67807.513   -93.872008    38.164623 
18152000    292.13976    537.23958    274.05454   -67810.492    67820.906    263.18504     38.16179 
18156000     305.9296    607.36199    303.07039   -67843.256    67840.875     304.2916    38.165173 
18160000     263.8519    418.22699     361.1132   -67821.283    67842.785    57.113792    38.167606 
18164000    273.18644    517.22304    242.35855   -67828.868    67859.643    274.86448    38.165307 
18168000    268.75415    303.23201    208.16174   -67822.575    67851.822    95.070265      38.1554 
18172000    305.11255    367.04728    271.05345   -67861.639    67860.992    95.993832    38.149163 
18176000    250.77796    359.66255     157.2111   -67847.554    67872.403    202.45145    38.152204 
18180000    281.26651    343.44023    446.60711   -67843.506    67868.176   -103.16688    38.155385 
18184000    283.60384    344.47315    213.49362   -67883.923    67901.995    130.97953    38.142294 
18188000    329.89206    438.90607    282.89816   -67913.746    67910.745    156.00791    38.146026 
18192000    301.85413    428.09709     313.9642   -67923.655    67938.905    114.13289    38.140977 
18196000    273.34519    303.90222    279.61908   -67939.628    67963.981    24.283138    38.135801 
18200000    307.51268     360.1479    373.74301   -67981.924    67992.639   -13.595112    38.138001 
18204000    265.59755    347.06606     187.1254   -67999.045    68031.385    159.94065    38.142488 
18208000    287.74285    529.79972    333.35717   -68023.387    68046.929    196.44255    38.142639 
18212000    280.53626    409.99201    145.13401   -68060.042    68081.847      264.858    38.142901 
18216000    279.29611    258.49994    410.90223   -68085.832    68103.173   -152.40229    38.143881 
18220000    282.20277     250.0087    303.51972   -68095.837    68105.779   -53.511021    38.149492 
18224000    283.14788    374.88036    363.92014   -68096.351    68113.896    10.960221    38.154161 
18228000    274.44489    361.54876    273.72091   -68123.821    68128.728    87.827853    38.155415 
18232000     261.9932     286.7605    338.50656   -68135.088     68147.83   -51.746059    38.148053 
18236000    294.99346    222.46722    320.77622   -68138.354    68141.159   -98.309006    38.148276 
18240000    262.87615    239.07213    323.45415   -68142.271    68169.587   -84.382026    38.156855 
18244000    280.89175    492.58834    238.13833    -68168.97     68182.38    254.45001    38.167539 
18248000    284.66657    398.20246    312.29261   -68175.194    68203.763    85.909854    38.163525 
18252000    277.96824    327.83623    384.25692   -68163.914    68195.582   -56.420693    38.172801 
18256000    266.98512    436.87745     175.6875   -68197.374    68226.433    261.18996    38.178559 
18260000    288.71874    282.58957    355.99532   -68223.429    68230.064   -73.405751    38.172546 
18264000    269.27939    443.54049    318.09015   -68237.011    68270.119    125.45034    38.166122 
18268000    277.22188    471.79031    462.56324    -68251.47    68280.406    9.2270688    38.169409 
18272000    302.67551    358.51422    368.32992   -68272.522    68277.286   -9.8156992     38.16482 
18276000    292.88491    528.07055    244.96277   -68274.932    68284.257    283.10778     38.17353 
18280000    284.82716    376.35586    200.71799   -68269.155    68284.605    175.63787    38.185199 
18284000     292.6096    472.92872    530.81737   -68265.341    68272.977   -57.888654    38.173524 
18288000    269.49087    205.51922    327.26981    -68250.45    68290.663   -121.75059    38.164728 
18292000    277.00486    347.67894    344.12626   -68304.705    68317.828    3.5526765    38.168736 
18296000    260.31495    305.56974    277.97073   -68335.859    68372.664    27.599009    38.169221 
18300000    314.38996    468.72786    330.65207   -68373.606    68379.294    138.07578    38.163344 
18304000    288.57227    510.20213    237.64136   -68383.059    68388.477    272.56076    38.162466 
18308000    252.21674    333.94772    302.22991   -68390.562    68420.901    31.717808    38.165343 
18312000    289.01299    340.41269    366.36531   -68428.236    68446.869   -25.952621    38.160868 
18316000    302.32226    284.55488    525.44438   -68430.735    68432.655    -240.8895    38.162308 
18320000    299.30864    368.24566    328.34516   -68442.529    68450.287    39.900498    38.167019 
18324000     294.0364    364.84414    404.51835   -68454.698    68474.003   -39.674208    38.171567 
18328000     280.4909    231.89382    375.48592   -68479.068    68501.455    -143.5921    38.168584 
18332000    304.98281    469.15407     258.4998   -68512.211     68539.68    210.65426      38.1619 
18336000    283.78241    238.10845    240.23923   -68527.086    68551.619   -2.1307814    38.157998 
18340000    262.73346    271.41553    208.92997   -68547.522    68571.652    62.485568    38.160968 
18344000    291.71866    426.23095    164.45591   -68584.187     68604.72    261.77504    38.166781 
18348000    263.09002    515.75327    310.38477   -68590.406    68626.498     205.3685    38.165733 
18352000    271.51418    413.24044      393.068   -68609.218    68644.635    20.172436    38.162679 
18356000    277.97742     367.5835    411.56803   -68643.174    68677.015   -43.984532     38.16191 
18360000     270.3807    592.90972    351.93604   -68676.095    68711.346    240.97368    38.167755 
18364000    238.04505    438.42832    280.50852   -68690.508    68738.778    157.91979    38.166195 
18368000     288.3992    305.15124    270.16202   -68723.274    68725.405     34.98922    38.172519 
18372000    277.26159    393.49382     229.7558   -68712.905    68734.468    163.73801    38.179693 
18376000    261.77076    110.47843    224.13296   -68719.268    68758.089   -113.65454    38.176665 
18380000    322.05663    736.15439    383.80474    -68772.81    68777.918    352.34965     38.17936 
18384000     278.2497    472.93647    263.85375   -68777.291    68800.305    209.08272    38.175196 
18388000    269.77179    313.95465    266.47727   -68777.625    68812.756    47.477375    38.171949 
18392000    285.22778    326.28611    287.46353   -68802.138    68818.421    38.822572    38.170405 
18396000    273.73951    461.25411    199.07621   -68808.608    68822.424     262.1779    38.178048 
18400000    298.12903    327.84157    290.60309   -68834.848    68844.886    37.238481    38.184463 
18404000    257.18513    366.11686    200.12182   -68823.899    68864.677    165.99504    38.181187 
18408000    283.11976    419.04237    326.18436   -68849.968    68875.054    92.858009    38.183357 
18412000    255.32571    288.83375    137.14461   -68850.172    68881.732    151.68914    38.174936 
18416000    266.25616     669.4849    194.00476   -68869.899    68908.695    475.48013    38.183066 
18420000    253.97883    509.84964    178.92803   -68907.127    68946.534    330.92161    38.181911 
18424000    288.48722    326.44682    216.52206   -68932.702    68942.138    109.92476    38.175889 
18428000    259.31424    449.02451    226.20065    -68930.09    68956.461    222.82387    38.175972 
18432000    290.79041    465.85275    263.24117   -68971.368    68971.095    202.61157    38.174473 
18436000    295.44599     550.6972    327.79193   -68980.916    68984.632    222.90527    38.176077 
18440000    282.12046    251.87449    431.96163   -68994.032    69015.295   -180.08713    38.168073 
18444000    280.64631    327.85155     167.8487   -69034.851    69044.139    160.00285    38.171941 
18448000    277.61084    430.03712     529.1334   -69051.594    69056.882   -99.096279    38.176992 
18452000    275.12373    273.39378    351.42854   -69055.066    69081.731   -78.034757    38.188632 
18456000    299.59437    205.99588    741.72799   -69100.613    69086.898   -535.73211    38.192833 
18460000     264.9025    254.69172    359.01759   -69099.935    69137.914   -104.32587    38.197405 
18464000    289.94995    322.80868    204.80697   -69126.627    69137.171    118.00171     38.19912 
18468000    271.65512    563.88161    253.61667   -69137.302    69158.906    310.26494    38.191692 
18472000    283.75458    436.28924    277.55876   -69172.457    69179.677    158.73047    38.192235 
18476000    296.71405    279.45097    480.28423   -69200.434    69214.105   -200.83326    38.185174 
18480000    264.05166    289.28415     263.6225   -69225.688    69251.081    25.661651    38.184698 
18484000    297.40959    442.62333    396.82582   -69243.763    69260.321    45.797511    38.189535 
18488000    278.40559    501.09717    253.08577   -69287.443    69281.789    248.01141    38.193149 
18492000     259.6025     224.1001    279.62549    -69291.14    69324.151   -55.525391    38.189911 
18496000    261.49214    349.57372    289.48813   -69318.159     69349.56    60.085587    38.193769 
18500000    274.66969    244.42166    341.85083   -69347.669    69355.026   -97.429164    38.187522 
18504000    290.47338    181.44731    401.18574   -69362.635    69380.319   -219.73843    38.184064 
18508000    304.99552    227.94116    370.20075   -69391.023    69391.808   -142.25959       38.188 
18512000    269.82196    449.50879    286.17611   -69374.283    69399.574    163.33267    38.187009 
18516000    261.96737     553.0594    246.96097    -69398.04    69410.051    306.09843     38.18971 
18520000    303.07256    376.31241    356.65333   -69417.459    69423.522    19.659084    38.203422 
18524000    281.37659    217.57634    289.49975   -69435.516     69438.92   -71.923413    38.199248 
18528000    292.90803    334.24065     249.4768   -69445.998    69461.107    84.763851    38.195124 
18532000     266.8074    386.63857    344.80203   -69458.569    69490.015    41.836532    38.189972 
18536000    293.89075    319.56503    259.19983   -69470.426    69493.369    60.365202    38.191566 
18540000    263.41928    308.26296    196.71428    -69468.34    69517.879    111.54868    38.193043 
18544000    286.09961    391.84727    257.42318   -69496.285    69522.223    134.42409    38.196145 
18548000    292.24395    408.02151    346.00047   -69516.063    69535.671    62.021038    38.198003 
18552000     244.1761     378.7216    263.65489   -69496.969    69553.114    115.06671    38.201854 
18556000    276.58985     224.1312    360.14726   -69540.407    69544.486   -136.01606    38.201619 
18560000    300.90585    454.54588    406.03818   -69556.579     69562.02    48.507697    38.196946 
18564000    295.78446      480.941     598.7707   -69562.546    69575.867    -117.8297    38.196515 
18568000    310.43756    440.59112    586.04827   -69602.875    69597.932   -145.45715    38.198388 
18572000    293.94883    268.42465    359.04659   -69613.038    69619.676   -90.621939    38.196267 
18576000      269.251    442.40661     235.9791   -69641.476    69664.643    206.42751    38.189141 
18580000    293.26021    182.26691    382.25964   -69677.149    69677.322   -199.99273    38.188011 
18584000    301.29519    429.83987    467.18667   -69700.513    69708.402   -37.346797    38.188169 
18588000    301.36206    480.45881     268.6133   -69716.267    69713.357    211.84551    38.193409 
18592000     264.1428    339.10316    306.35503   -69705.708    69734.233    32.748126    38.189404 
18596000    272.15356    398.29253    243.71947   -69713.036    69745.546    154.57306    38.194311 
18600000    314.16646    688.28728    476.99651    -69751.31    69755.688    211.29078    38.202973 
18604000    263.99424    246.48929    341.47571   -69750.682    69785.857    -94.98642    38.207329 
18608000    292.39172     369.0094     391.5707   -69764.412    69779.988   -22.561294    38.205459 
18612000    255.74112    320.43377    379.46171   -69794.181    69820.437   -59.027933    38.201719 
18616000    275.75662    301.19109    222.35231   -69825.693    69845.145    78.838779    38.206882 
18620000    278.72989    342.48575    282.13844   -69841.386    69878.239    60.347303    38.201092 
18624000    308.93134    530.65048     412.4067   -69884.017    69889.558    118.24379    38.195321 
18628000    305.16548    162.62004    291.16343   -69869.616    69877.823    -128.5434    38.197893 
18632000    288.29898    544.53871    466.90981   -69869.219    69866.718    77.628897    38.194758 
18636000    292.78651    365.61618    223.11037    -69877.83    69882.179    142.50581    38.191627 
18640000    320.49995    391.97965    295.39638   -69906.648    69899.401    96.583277    38.199074 
18644000    308.05641    424.37822     191.4216    -69895.09    69911.773    232.95662    38.193473 
18648000     287.1371    523.49739    241.02965   -69921.899    69933.247    282.46775    38.199358 
18652000    285.56594    419.57945    343.15047   -69944.691    69948.804    76.428979    38.197658 
18656000    285.64094    243.83735    298.89723   -69956.359    69969.722   -55.059884    38.195386 
18660000    269.98337    216.70416    294.24486   -69969.603    70003.249   -77.540709    38.196533 
18664000    286.55692    650.53723    251.47924   -70000.511    70011.411    399.05799    38.196576 
18668000    310.50851    442.84201    202.90505   -70009.693    70027.656    239.93696    38.198262 
18672000    290.01381    278.26097    301.72314   -70031.697    70042.508   -23.462167     38.20657 
18676000    294.17979    587.65906    571.49064   -70072.962    70078.582     16.16842    38.204702 
18680000    278.28914    440.83124    347.62336   -70083.487      70113.6    93.207879    38.197346 
18684000    258.94599     177.8155    309.12009   -70077.044     70113.72    -131.3046    38.190188 
18688000    270.63183    264.35911    224.08909   -70109.608    70131.372    40.270025    38.181638 
18692000    292.29655    298.97135    403.24383   -70133.967    70141.657   -104.27248    38.192178 
18696000    265.23814    264.52154    350.19601   -70133.665     70163.21   -85.674473    38.187912 
18700000    284.20418    376.62191     219.9667   -70168.449    70184.125    156.65521    38.185017 
18704000    293.96553     387.6942    411.49104   -70203.499    70212.192   -23.796839    38.194592 
18708000     284.6176    266.60238    286.63937   -70208.176    70223.015   -20.036989    38.184842 
18712000    269.93418    324.04384    272.75608   -70216.359    70240.792    51.287764      38.1841 
18716000    252.67569    302.57863    303.68058   -70229.177    70262.038    -1.101951     38.19106 
18720000    287.77693    387.08163    440.10852   -70249.346    70275.567   -53.026891    38.195537 
18724000    274.27223    312.39342    392.13871   -70265.848     70279.87   -79.745286    38.186148 
18728000     287.4312    493.52259    291.04661   -70289.069    70321.732    202.47598    38.185464 
18732000    271.73828    218.23432    308.10612     -70308.8    70322.876   -89.871798    38.187064 
18736000    297.45987    459.72117    370.94316   -70360.549    70351.471    88.778005    38.189369 
18740000     287.1645    338.31104    459.07982   -70347.936    70353.763   -120.76878    38.182049 
18744000    260.16038    424.43473    374.47679   -70361.601    70381.773    49.957938    38.201536 
18748000    291.10963    639.18035    211.21311   -70403.672    70403.763    427.96723    38.205782 
18752000     272.5884    454.62648    191.43528   -70405.097     70423.91     263.1912     38.20933 
18756000    302.57813    498.80333    443.98834   -70415.499    70433.823    54.814982    38.205506 
18760000    283.94814    362.12186    173.81688   -70436.656    70465.593    188.30498    38.213098 
18764000    287.33985    202.76657    352.01812   -70453.621      70453.9   -149.25156    38.207359 
18768000    304.60361    283.33606    315.08174   -70459.549    70473.595   -31.745673    38.212388 
18772000    284.26536    427.11679    227.23903    -70484.72    70485.793    199.87776    38.212569 
18776000    317.01695    335.14674    298.85126   -70511.357     70501.76     36.29548    38.206721 
18780000     307.3675    424.41609    305.88343   -70512.579    70518.536    118.53266    38.221079 
18784000    260.89813    382.40131    224.01549   -70505.238    70540.916    158.38582    38.223576 
18788000    283.47314    303.27506    309.87185   -70520.497    70540.983    -6.596798    38.221251 
18792000    247.33555    269.26838    283.43243   -70521.306    70555.526   -14.164047    38.222731 
18796000    263.08162    358.48129    233.43751   -70526.161    70567.476    125.04378    38.230681 
18800000    267.91173    432.70041    259.83581    -70556.24     70577.32     172.8646    38.229584 
18804000    288.42455    315.14043    349.06895   -70564.315    70581.883   -33.928515    38.239008 
18808000    303.33691    268.98001    380.14259    -70575.85    70588.402   -111.16258    38.235014 
18812000    285.35454    414.16479     322.1273   -70582.147    70604.391    92.037489    38.238323 
18816000    305.66405    420.46841    283.99428   -70600.484    70581.664    136.47413     38.23083 
18820000    263.68566    323.36749    374.56568   -70592.047    70619.077   -51.198194    38.223564 
18824000    301.24797    549.24817    428.09477   -70625.746    70628.886     121.1534    38.223744 
18828000    280.14619    274.45313    382.30758   -70638.696     70662.97   -107.85445    38.222947 
18832000    286.00823    343.10813    342.66825   -70654.674    70677.371    0.4398849    38.225697 
18836000     287.3107    259.04061    400.64551   -70681.419    70688.491   -141.60491    38.229347 
18840000    253.51186    279.68219    258.94597   -70672.972    70700.983    20.736215    38.231153 
18844000    294.17938    223.44484    278.26698   -70695.785    70711.178   -54.822141    38.234781 
18848000    298.66645    568.42025    241.98492   -70703.592    70710.751    326.43533    38.242122 
18852000    289.15645    455.28489    285.48183   -70695.682    70709.354    169.80306    38.245782 
18856000     277.7956    216.11381    383.21819   -70685.433    70709.966   -167.10439    38.243288 
18860000    306.20901    350.87026    362.38109   -70700.232    70705.748   -11.510829    38.244342 
18864000    278.81103     428.4442    261.06539   -70725.794    70749.191    167.37881    38.250795 
18868000     277.7518    678.67114    348.60386   -70721.344    70749.785    330.06728    38.253157 
18872000    282.40117    451.19427    364.26254   -70724.795    70744.173    86.931724    38.247232 
18876000    274.72666    291.95506    496.23018   -70765.633    70779.235   -204.27513    38.253059 
18880000    298.61129    494.98684      247.309   -70791.981    70786.981    247.67784    38.248115 
18884000    282.22175    306.96425    343.96012   -70803.771    70826.447   -36.995874    38.250264 
18888000    254.71606    357.71872     216.2187   -70803.656     70842.98    141.50001    38.253919 
18892000    267.55488    273.60154    348.69311   -70840.113     70863.64   -75.091561    38.250782 
18896000    274.11736    482.08151     297.4258   -70853.331    70875.449    184.65571    38.249597 
18900000    274.19541    279.36581    211.94561   -70870.437    70880.662    67.420198    38.248992 
18904000    278.06803    282.36457    316.17277   -70868.833    70890.706   -33.808204    38.247265 
18908000    283.16985    343.94512    363.95988   -70879.626    70903.301   -20.014762    38.249963 
18912000    259.85108    390.91223    404.38373   -70879.918    70923.081   -13.471497     38.25312 
18916000    292.08675    319.14946    199.81631   -70922.608    70933.919    119.33315    38.250234 
18920000    255.02179    442.45679    249.12805   -70918.638    70953.624    193.32874     38.25625 
18924000    265.51665    323.48516    325.41006    -70950.91    70958.912   -1.9248961    38.238702 
18928000    265.10834    418.59392    238.43508   -70954.377    70982.298    180.15884    38.241687 
18932000    283.52347    350.93408    375.95467   -70952.199    70973.833   -25.020596    38.235709 
18936000     254.5638    593.94221    135.66661   -70950.408    70989.173     458.2756     38.23394 
18940000    257.49515    323.53693    213.92816   -70972.916     71007.55    109.60877    38.236798 
18944000    264.48747     355.0589    477.62269   -70975.962    71025.842   -122.56379    38.226247 
18948000    263.68426     279.8351    358.63311   -71005.035    71032.438   -78.798011    38.225921 
18952000    266.71751    484.92951    237.11134   -71016.849    71058.684    247.81817    38.223092 
18956000    282.21707    172.78649    229.44897   -71049.703    71067.976   -56.662481    38.226332 
18960000    291.48154    398.98374    307.94978   -71099.094    71106.171    91.033964    38.221599 
18964000    276.11902    342.59575     116.0894    -71122.12    71134.633    226.50635    38.224529 
18968000    315.95863    410.69992     323.8536   -71157.401    71150.719    86.846315    38.219236 
18972000    276.39286    457.57032    166.60143   -71155.834    71168.727    290.96889    38.226895 
18976000     277.6318    374.86769    417.84223   -71178.374    71191.682   -42.974539    38.226768 
18980000    299.62811     483.0369    206.26212   -71194.229    71197.794    276.77478    38.228618 
18984000    289.88717    210.83084    309.74441   -71192.897    71206.691    -98.91357    38.227766 
18988000    322.55566    595.85433     327.9483   -71221.744    71213.193    267.90603    38.229187 
18992000    253.93284    343.28096    214.34471   -71217.041    71233.437    128.93625    38.225809 
18996000    294.97476    329.67077    140.60709   -71245.704    71256.625    189.06368    38.222735 
19000000    287.40912    395.57728    434.13398   -71264.206    71284.299   -38.556698    38.222966 
19004000      282.185    291.83739    198.74352   -71282.371    71301.997    93.093875    38.221334 
19008000    277.31055     618.4644    348.24516   -71308.802    71299.606    270.21924    38.224028 
19012000     290.1945    469.34697    260.00301    -71307.25    71318.987    209.34396    38.222649 
19016000    292.53278    263.39247    203.16183   -71330.642    71337.538     60.23064    38.227021 
19020000    283.23147    332.48747    450.52607   -71347.278    71368.612    -118.0386    38.230191 
19024000    253.47791     417.9092    255.22737   -71372.302    71399.888    162.68183    38.228024 
19028000    270.34677    330.00602    243.63654   -71383.703    71415.015     86.36948    38.224697 
19032000     277.2294    518.36804    209.58306   -71397.725    71422.782    308.78498    38.232078 
19036000    301.48253    446.04389    412.26373   -71433.234    71447.311    33.780157    38.233173 
19040000    277.74771    500.28416    302.22048   -71437.359    71450.481    198.06368    38.237756 
19044000    259.04642    326.94606    244.20656   -71443.872    71458.113    82.739504    38.232531 
19048000    294.73696    428.87952    292.54008   -71463.937    71468.651    136.33944    38.234127 
19052000    264.34268    357.71574    208.51772   -71494.584    71485.954    149.19802    38.240512 
19056000     285.8808    319.88509    341.04906   -71483.848    71513.068   -21.163969     38.23917 
19060000    280.00778    294.85437    292.70619   -71510.697    71530.241    2.1481807    38.247586 
19064000    286.53656    313.93683    266.47599    -71532.32    71538.167    47.460834    38.243571 
19068000    277.24608    370.62611    297.98312     -71553.5    71562.263    72.642993    38.236316 
19072000    286.44589    432.96499    217.72896   -71570.743    71586.156    215.23603      38.2415 
19076000    289.21629    483.31795    443.90877   -71573.557    71589.076    39.409179    38.241429 
19080000    279.80176      321.347    248.70663   -71575.753    71597.504    72.640369    38.243947 
19084000     315.9544    323.33876    233.40215   -71609.234    71585.516    89.936615    38.247864 
19088000    289.33868    272.56856    315.90462   -71597.975    71604.901   -43.336054    38.246422 
19092000    294.79445     253.2381    326.76649    -71626.52    71638.056   -73.528386    38.243204 
19096000     303.0155    389.36739    252.22045   -71657.709    71665.141    137.14693     38.24684 
19100000    289.05624    261.83868    220.29863   -71666.949    71666.949    41.540043    38.241485 
19104000    299.40626    399.20835    214.03567   -71691.288    71697.692    185.17269    38.254225 
19108000    278.22453    393.80154    291.80636   -71695.475    71700.876    101.99519    38.259963 
19112000     281.1886    275.49725    300.04208   -71698.227    71729.985   -24.544823    38.265971 
19116000    297.49153     233.3084    236.02579   -71728.365    71719.228   -2.7173826    38.276382 
19120000    304.90014    290.48622    320.27611   -71714.614    71727.044   -29.789897    38.280722 
19124000    279.41721    376.14155    268.36145   -71707.529    71728.454    107.78009      38.2773 
19128000    265.09205    202.26957     252.3436   -71718.037    71726.066   -50.074031    38.277551 
19132000    277.10172    385.10719    404.47607   -71725.049    71730.678   -19.368885      38.2798 
19136000    251.14558    269.22362    462.81602   -71711.059    71744.294   -193.59239    38.273079 
19140000    242.83958    231.04285    223.14606   -71726.666    71784.525    7.8967934    38.267588 
19144000    250.93191    136.02598     247.8918     -71762.8    71808.081   -111.86582    38.271935 
19148000    321.13802    418.76614    309.27202   -71820.575    71812.625    109.49412    38.267081 
19152000    286.93286    385.55794    215.52033   -71815.836    71830.394    170.03761    38.264498 
19156000    284.17667    290.60914    209.95094   -71819.376    71837.147    80.658204    38.261149 
19160000    274.17522    530.80587    335.77105   -71839.334    71868.113    195.03481    38.260478 
19164000    297.02359     317.2477    398.40424   -71831.842    71843.276   -81.156547    38.257015 
19168000    292.20286    423.04872    285.51403   -71842.631    71873.296    137.53469    38.260091 
19172000    273.78932    333.95529     561.2026   -71848.331    71878.302   -227.24731    38.261427 
19176000    293.12146    341.45629    347.60286   -71892.206    71895.504   -6.1465707    38.268121 
19180000     287.8198    310.48458    399.38295    -71911.93    71917.542   -88.898376    38.266238 
19184000    272.36942    342.62838    315.73018   -71923.888    71950.569    26.898201    38.261472 
19188000    288.73527    178.77818     432.3455   -71953.491    71959.365   -253.56732    38.259939 
19192000    278.31233     280.0967    385.97651   -71978.757    72007.852   -105.87981    38.262372 
19196000    290.06434    298.36552    315.50792   -71991.953    72021.195   -17.142393    38.269173 
19200000    304.10873    260.38159    429.56791   -72033.509    72026.842   -169.18632     38.27201 
19204000    279.38939    437.58418      577.116   -72039.339     72053.81   -139.53182    38.264306 
19208000    320.85014    433.63145    297.27461   -72076.014    72074.936    136.35684    38.261862 
19212000    313.44121    488.59819    423.76307   -72095.889    72107.051    64.835118    38.260977 
19216000    271.66048    467.84252    224.55748   -72111.157    72134.064    243.28504    38.263989 
19220000      287.175    313.04389    176.23373   -72129.474    72156.958    136.81015    38.267574 
19224000    275.21741    535.34043    326.20033   -72155.562    72166.443    209.14011    38.273608 
19228000    274.44141    387.33128    526.24568   -72159.282    72166.684    -138.9144    38.277397 
19232000     296.9572    529.36512    245.13726   -72197.912    72208.148    284.22786    38.278516 
19236000    266.79723    401.83831    393.70452   -72191.671    72219.308    8.1337885    38.291579 
19240000    254.43689     372.7822    313.75838   -72209.703    72240.817    59.023823    38.289474 
19244000    281.07981    276.46557    464.26988   -72236.224    72258.162   -187.80431    38.288161 
19248000    279.38984    226.54093    301.60009   -72251.794    72255.942   -75.059157    38.289884 
19252000    289.68955    263.63338    344.62976    -72265.38    72285.607    -80.99638    38.289792 
19256000    282.65661    485.75101    299.10998   -72305.528    72321.482    186.64103    38.292465 
19260000    289.88351    291.57216    245.42609    -72324.72    72333.405    46.146065    38.297069 
19264000    302.16426    346.95584    573.03612   -72339.479    72347.122   -226.08028    38.289113 
19268000    286.07003    474.74187    151.11233   -72359.699    72379.077    323.62953    38.295788 
19272000    268.57218    307.59868    299.85066   -72360.542    72395.323     7.748013    38.301828 
19276000    254.01267    189.75365      256.005    -72385.35    72418.818   -66.251354    38.310592 
19280000    259.22218    482.13271    258.23131   -72409.324    72425.455     223.9014     38.30836 
19284000    261.24842    261.00168    271.83662    -72407.25    72432.384   -10.834934    38.305317 
19288000     272.4041    217.45175    375.97429   -72432.651    72458.437   -158.52255    38.306136 
19292000     278.0348     228.0707    382.23358   -72457.709    72474.583   -154.16288    38.301272 
19296000    249.30625    214.27378    317.16993   -72443.432    72490.168   -102.89615    38.301085 
19300000    251.05643    375.42835     446.5258   -72455.749    72498.683   -71.097449    38.298948 
19304000    277.56625    294.42757    286.22444   -72485.956    72520.877      8.20313    38.292707 
19308000    240.19592    362.46589    332.24141   -72507.341    72543.274     30.22448    38.290225 
19312000    258.01445    320.34212    300.46263   -72517.401    72556.799    19.879488    38.287678 
19316000    274.79514    319.39033    264.90335   -72529.107    72567.687    54.486975    38.283347 
19320000    273.33933    347.81866    322.31384    -72558.35    72586.935    25.504824    38.286114 
19324000    259.14821    372.61373    206.66174   -72574.283    72586.071    165.95199    38.291824 
19328000    293.93886    405.20641    263.15487   -72594.075    72588.937    142.05154    38.291129 
19332000    283.63171     499.3355    306.31572   -72600.792    72607.872    193.01978     38.28821 
19336000    286.70326    198.83029     296.4902   -72613.183    72629.645   -97.659907    38.279713 
19340000    298.15765    289.99931    522.77541   -72624.421    72631.313    -232.7761    38.274818 
19344000    284.54683    471.52294    354.92365   -72640.011    72645.537    116.59929    38.287632 
19348000    305.04167    465.70857     467.4907   -72655.698    72647.656   -1.7821249    38.298463 
19352000    257.20055    342.85137    239.49452   -72641.813    72683.248    103.35685    38.299564 
19356000    286.92223    389.36278    346.44332   -72666.333    72690.896    42.919459    38.294473 
19360000    277.28191    256.51826    314.37925   -72676.284    72694.849   -57.860988    38.287824 
19364000    288.01789    704.96947    337.79268   -72698.315    72711.355     367.1768    38.294916 
19368000     262.5435    336.21009     253.4453   -72713.053    72734.394    82.764791    38.291228 
19372000    255.87631    315.23368    319.84355   -72721.511    72748.424    -4.609871    38.298437 
19376000     302.2982    445.09709    359.11028   -72721.178    72734.766    85.986816    38.298853 
19380000    313.38336    411.80064    391.85633   -72734.147     72746.27    19.944311    38.294471 
19384000    268.45936    407.78999    270.87823   -72758.426     72775.57    136.91176    38.296399 
19388000    272.80357    227.09053    209.68162   -72762.328    72795.714    17.408911    38.299121 
19392000    307.55954    436.16649    413.48904   -72789.821    72778.742    22.677455    38.295368 
19396000    300.33748    306.97562    312.45904   -72793.738    72806.661    -5.483428    38.294604 
19400000    291.26917    209.93971    430.50066   -72817.135    72814.113   -220.56094    38.286266 
19404000    288.82532    305.64997    281.35802   -72830.982    72847.357    24.291953    38.289282 
19408000    278.90626    478.18009    454.51511   -72848.816    72870.425    23.664983    38.281761 
19412000    254.99947    466.04138    446.04941   -72846.305    72884.913    19.991973    38.285381 
19416000    312.81864    505.43571    249.54694   -72876.322    72883.904    255.88877    38.293984 
19420000    310.64062     408.9427    425.44386   -72897.855    72894.278   -16.501156    38.300567 
19424000    297.90353    191.83049    291.81462   -72906.626    72924.143   -99.984131    38.299755 
19428000    272.77802    358.84509    370.25576    -72911.44    72924.036    -11.41067    38.299226 
19432000    267.04945    401.10861    327.52119    -72898.65    72921.212    73.587414    38.302407 
19436000    300.65529    655.72152    304.48887   -72919.388    72934.932    351.23265    38.309391 
19440000    274.23135    425.75086    241.04832   -72935.287    72967.621    184.70254    38.309113 
19444000    283.56073    443.80256    315.07619   -72976.875    72975.265    128.72637     38.30857 
19448000    332.15855     332.6516    383.11903   -72990.124    72983.386   -50.467429    38.313786 
19452000    288.14476    415.25564    305.68418   -72986.753     73005.26    109.57146    38.315711 
19456000    282.13357    306.85016    347.96255   -72993.485    73011.072   -41.112395     38.31509 
19460000    287.36504    502.44514    362.28675   -73029.662    73029.718     140.1584    38.320143 
19464000    312.33977    363.31907    268.68011   -73036.181     73036.56     94.63896    38.318818 
19468000    294.13269    345.83008    315.90714   -73029.967    73052.514    29.922946    38.318765 
19472000    282.21124    298.34239    233.25155   -73060.734    73086.591    65.090841    38.320567 
19476000    270.54421    432.49559    371.07827   -73079.905    73111.286     61.41732    38.319502 
19480000    276.72185    279.26827    218.33394   -73118.655    73154.718    60.934332    38.320167 
19484000    249.94775    223.54082    215.80219   -73130.915    73177.436    7.7386299    38.323223 
19488000    295.73524    414.85504     341.2515   -73173.517    73196.867    73.603543    38.329513 
19492000    296.49673     338.7904    371.06114   -73227.808    73240.092   -32.270741    38.335831 
19496000    285.41234    474.86974    250.45767   -73247.577    73253.911    224.41207    38.338327 
19500000    297.85416    348.38861    383.91108   -73274.583    73274.639   -35.522473    38.342398 
19504000     289.7472    292.00654    194.50107   -73307.062    73314.685    97.505468     38.34245 
19508000    304.19063     380.1786    356.31104   -73312.811    73334.711    23.867561    38.339671 
19512000     260.9121    425.50042    187.56678   -73313.148    73354.592    237.93364    38.333959 
19516000    289.52632    335.84564    300.94717   -73351.454    73359.368    34.898464     38.33148 
19520000    289.99236    492.36425    306.40814   -73360.063    73375.877    185.95611    38.331842 
19524000    289.19286    255.64127    272.09946   -73386.329    73408.944   -16.458187    38.325713 
19528000    296.09258     372.6327      282.947   -73398.036    73408.474    89.685705    38.316598 
19532000    272.67819    507.68128    345.52384   -73409.256    73440.468    162.15744    38.308618 
19536000    274.33389    518.19655     307.2088   -73436.761    73466.391    210.98774    38.311432 
19540000     302.8418    505.73783    403.10212   -73466.619    73488.323    102.63571    38.309591 
19544000    299.44128    512.76635    280.33785   -73493.872    73510.609     232.4285    38.315339 
19548000    280.16399    308.37206    324.32206   -73496.572    73513.829   -15.950004    38.316161 
19552000    279.94735    254.78797    184.53463   -73484.812    73516.424     70.25334    38.320389 
19556000    274.33332    371.68447    241.71662   -73480.956    73516.181    129.96785    38.319239 
19560000    261.31117    444.75826     177.7643   -73506.831    73512.349    266.99396    38.321034 
19564000    283.38589    275.36649     290.2501   -73501.843    73519.798   -14.883611    38.314103 
19568000    289.33508    546.83668    157.71975   -73521.877    73522.258    389.11693     38.31204 
19572000    281.84598    247.18234    378.43433   -73520.961    73538.756   -131.25199    38.313418 
19576000     316.4553    414.35448    333.58071   -73543.923     73548.34    80.773769    38.312966 
19580000    296.13476     416.8287    427.02513   -73534.176    73553.652   -10.196425    38.309319 
19584000     270.3637    537.21684    413.04682   -73523.773    73557.017    124.17002    38.307497 
19588000    280.14116    456.20347    268.52219   -73544.259    73578.009    187.68128    38.295893 
19592000     312.0682     488.5578    490.54334   -73563.839    73578.566   -1.9855409    38.288877 
19596000    277.05539    373.02257    288.75244   -73577.902    73606.457    84.270134    38.280184 
19600000    242.68997    384.66505     429.3422   -73567.143     73602.47   -44.677153    38.273364 
19604000    292.61825    508.34993    434.88159   -73614.947    73623.903    73.468331    38.275302 
19608000    302.78789    406.96952    368.15116   -73629.995    73639.789    38.818356     38.27483 
19612000    294.50338    139.85482    353.45476   -73660.788    73662.547   -213.59994    38.276865 
19616000    307.54393    343.02594     287.2708   -73674.682     73699.24    55.755138    38.285157 
19620000    264.23005    211.49845    300.38156   -73696.965    73739.093   -88.883111    38.275667 
19624000    273.48013    247.30816     187.5599   -73730.081    73764.919    59.748262    38.273437 
19628000    302.43454      392.932    164.85093   -73751.316    73770.209    228.08107    38.268035 
19632000    281.81921    441.45181     286.5438   -73782.213    73818.164    154.90801    38.268191 
19636000    277.52157    335.01203    469.23091   -73809.281      73830.6   -134.21888    38.273801 
19640000    283.22284    422.90604    270.00242   -73824.141    73834.332    152.90362    38.281787 
19644000    292.10474    300.47007    623.36407   -73826.249    73833.153     -322.894    38.285509 
19648000    280.75753     263.0566    389.13828   -73829.006    73838.619   -126.08168     38.28833 
19652000    290.88542    333.30642    322.21593   -73867.025    73871.247    11.090491    38.284879 
19656000    291.42893    504.43294    338.68396   -73866.028    73872.648    165.74899     38.28397 
19660000    267.20064    427.88408    295.31588   -73890.905    73910.052    132.56819    38.284142 
19664000     270.7902    350.84083    286.11795   -73909.308    73932.179    64.722883    38.284503 
19668000       284.06    505.34902      198.613   -73949.627    73960.619    306.73602    38.286381 
19672000      295.017    292.54018     303.8223   -73974.429    73997.058   -11.282113    38.279626 
19676000    307.71283    266.18603    232.28331   -73996.583    73994.832    33.902724     38.28309 
19680000    261.09518    288.98655    205.79539   -74014.702     74038.65    83.191161    38.283567 
19684000    269.86696    336.41392    252.74404   -74015.406    74030.594     83.66988    38.277115 
19688000    271.86702    298.62374    445.89986   -74023.254    74042.803   -147.27612     38.28286 
19692000    321.84906    347.79681    248.79682   -74056.513     74041.56    98.999988    38.289943 
19696000    308.01144     534.8774    360.85935   -74018.694    74023.622    174.01805    38.286874 
19700000    263.59329    369.36854    431.64665   -74021.734    74034.302   -62.278112    38.286059 
19704000    252.24324    124.44236    264.09938   -74015.251    74045.399   -139.65702    38.270221 
19708000    295.00979    402.21943    389.47876   -74054.996    74066.483    12.740669    38.268477 
19712000    298.27897    594.48864    135.10517   -74092.904    74097.729    459.38347    38.283438 
19716000    276.28094    213.38337    520.06845    -74083.51    74100.178   -306.68508    38.284327 
19720000    267.97584    299.28863     326.7606   -74102.066    74133.585   -27.471974    38.279164 
19724000    298.54798    445.48313    323.09292   -74154.567    74165.024    122.39021    38.279285 
19728000    295.88078    334.55037    255.14486   -74156.079    74169.976    79.405513    38.280632 
19732000    287.05469    359.62432    314.96742   -74161.176    74160.903    44.656899    38.271114 
19736000    289.00191    235.18523    562.05614    -74152.56    74174.746   -326.87091    38.267385 
19740000    292.63403    478.90038    444.08892   -74184.226    74209.212    34.811468    38.273925 
19744000    278.40941    402.17998    209.47384   -74195.682    74204.105    192.70614    38.276865 
19748000    315.06114     308.4029    496.75838   -74205.697    74204.597   -188.35548    38.268211 
19752000    292.21661    525.71582    120.69145    -74233.47    74234.201    405.02437    38.265511 
19756000    301.71974    520.94553    439.09305    -74230.07    74228.691    81.852482    38.264464 
19760000    277.93587    545.45588    377.94988   -74221.993    74242.782    167.50601    38.271526 
19764000    255.54722     156.5752    276.11019       -74228    74251.319   -119.53499    38.273547 
19768000    257.34772    392.23985    197.00346   -74235.633    74266.665    195.23638    38.287287 
19772000    290.43554    438.68316    302.54454    -74270.23    74270.166    136.13861    38.286931 
19776000    282.01334    255.48954    339.65578   -74269.521     74285.46    -84.16624    38.287875 
19780000    271.20638    304.42829    328.86383   -74290.359    74310.618    -24.43554    38.294532 
19784000    279.46045    282.41387    372.12921   -74313.541    74322.993   -89.715338      38.2938 
19788000    282.68291    226.51648    260.41084   -74335.124    74369.252   -33.894368    38.283187 
19792000    283.91132    410.41204    449.97969    -74351.38    74359.247   -39.567643    38.277893 
19796000    276.47981    300.49225     346.8921   -74372.685    74388.667   -46.399844    38.275186 
19800000    285.96696    410.47683     271.4646   -74379.681    74404.948    139.01223      38.2715 
19804000    300.05954    299.12653    321.64104   -74415.421    74414.295   -22.514507    38.281354 
19808000    286.46483    270.23677     343.9725   -74435.415    74444.143   -73.735726    38.280056 
19812000    323.38275    573.73348    358.05566   -74458.887    74445.807    215.67782      38.2809 
19816000    295.21479    285.95709    413.18924   -74462.505    74475.676   -127.23215    38.275134 
19820000    283.55177    408.95706     441.6084   -74477.068    74491.495   -32.651335    38.269196 
19824000     297.3458    353.88657    193.85072    -74511.76    74519.908    160.03585    38.273121 
19828000     264.2606    282.16944    403.69754   -74515.599    74533.328    -121.5281    38.266149 
19832000    282.00483    262.05292    382.26083   -74511.963     74547.32    -120.2079    38.265065 
19836000     248.1894    352.33543    276.91088   -74523.661     74556.93    75.424542     38.27047 
19840000    269.17449     312.8098    175.49908   -74555.958    74580.219    137.31072    38.277103 
19844000    285.19692    267.06192    157.37026   -74575.332    74585.256    109.69166    38.273894 
19848000    282.43849    400.38243    371.14648   -74572.942    74593.264    29.235942    38.281381 
19852000     271.8468    375.09029    273.69749   -74595.437    74605.312    101.39279    38.287016 
19856000    288.21174    298.04504     345.8704   -74612.193    74626.672   -47.825366    38.295418 
19860000    274.67119    402.40168    307.17303   -74629.451    74660.029    95.228649    38.306822 
19864000    278.87353    322.00255    305.71084   -74664.504     74670.38     16.29171     38.30414 
19868000      258.786    188.08582    261.51353   -74695.128    74722.616   -73.427707    38.301343 
19872000    292.10742    272.49207    308.06844   -74710.505    74726.257   -35.576374    38.299441 
19876000    281.80197    500.63484    360.95133   -74727.031    74754.173    139.68351    38.301416 
19880000    271.52229    481.11853     297.4802   -74756.962    74785.694    183.63833    38.299442 
19884000     294.9633    401.06137    305.04637   -74797.297    74812.824    96.015003    38.290842 
19888000    281.24425    474.94108    316.61512   -74831.794    74849.787    158.32596    38.290526 
19892000    288.41899    446.96804    256.37299    -74871.78    74875.998    190.59505    38.296333 
19896000    254.49883    318.72615    254.31078   -74846.935    74881.475    64.415367    38.297078 
19900000    279.59752    152.70664    446.83369   -74884.869    74902.849   -294.12704    38.292035 
19904000     266.6166    302.44645    225.42991    -74905.46    74913.274    77.016535    38.289305 
19908000    282.53361    285.74406    352.02002   -74915.053    74942.683   -66.275969     38.28686 
19912000    296.50737    227.50605    365.08961   -74936.054    74958.178   -137.58356    38.281642 
19916000    249.19001    226.70008    372.39642   -74937.769    74971.139   -145.69633     38.28356 
19920000    293.05839    513.47338    311.64353   -74959.797    74975.015    201.82985    38.279054 
19924000    276.10927    495.59215     197.1647   -74969.871    74990.623    298.42744    38.283974 
19928000    267.52827    324.27723    334.57307   -74981.595    75011.665   -10.295841    38.293146 
19932000    296.42362    395.25836     211.4024   -75004.571    74995.917    183.85596    38.294213 
19936000    285.79694    460.17194    244.17873    -75026.36    75025.981    215.99321    38.296756 
19940000     268.9447     452.9967    399.82271   -75021.744    75067.406    53.173986    38.292138 
19944000     293.4113     401.8291    283.74415   -75054.994    75076.929    118.08495     38.30119 
19948000    299.57968    147.73159    403.97279   -75056.933     75076.73   -256.24119    38.294953 
19952000     295.4835    399.46279    465.49069   -75081.439    75100.253   -66.027901    38.300088 
19956000    262.68205     281.7874    197.24954   -75081.392    75123.923    84.537854    38.287614 
19960000    257.78447    226.76757    368.81535   -75110.195    75136.894   -142.04778    38.283395 
19964000    265.02376    396.62808     470.3944    -75131.48    75161.912   -73.766323     38.27765 
19968000    279.89914    397.51264    287.20717   -75143.538    75175.269    110.30547    38.280557 
19972000    278.90982     431.1831    462.75582   -75162.193    75184.931   -31.572716    38.282478 
19976000     263.9269    357.09604    331.46515   -75159.919    75200.111    25.630889    38.282937 
19980000    301.32004    345.02791    407.25719   -75158.859    75174.245    -62.22928    38.280688 
19984000     275.7123    356.19812    372.12919   -75190.116    75210.041   -15.931073    38.282058 
19988000    298.65855    506.58562    271.32706   -75206.897    75220.664    235.25856    38.285385 
19992000    288.49096    330.44831    481.36357    -75235.81    75241.631   -150.91526    38.283078 
19996000    267.64913    442.13311    385.34868   -75259.208    75279.998    56.784429    38.277833 
20000000    253.40321    171.03746    314.05351   -75287.364     75322.16   -143.01605    38.275661 
20004000    291.01839     266.4388    313.36086   -75304.847      75318.7    -46.92206     38.27506 
20008000    275.36033    307.38457    225.54772   -75327.494    75349.114    81.836849    38.273172 
20012000     260.5716    338.05578    320.99112   -75354.317    75379.935    17.064666     38.26895 
20016000    294.02665    310.38764    440.18087   -75372.104    75394.716   -129.79322    38.269244 
20020000    279.93802    400.74443    382.97442   -75388.507     75410.25    17.770014    38.268768 
20024000    260.49059    493.67056    307.35907   -75406.628    75442.244    186.31149    38.280553 
20028000    292.08469    329.84359    367.13207   -75440.429    75453.328   -37.288488    38.282214 
20032000     287.7867    392.20656    200.25097   -75464.928    75468.282    191.95559    38.280917 
20036000    274.13063     426.5345     316.4941   -75466.801    75469.249     110.0404    38.279233 
20040000    287.87742    338.66965    384.84856   -75479.682    75488.676   -46.178917    38.275243 
20044000    265.83176     443.0746     479.6866   -75487.686    75514.634   -36.612001     38.28056 
20048000    258.02798    319.76716    356.56363   -75524.771    75550.754   -36.796474    38.271901 
20052000    251.59743      503.667    380.22695   -75535.265    75568.508    123.44006    38.272962 
20056000    288.03227    321.30395    325.59535   -75590.448    75600.769   -4.2913977    38.274353 
20060000     300.4807    359.27762    238.39718    -75608.72    75626.716    120.88044    38.266412 
20064000    301.00133    310.06349    321.92399   -75634.844    75643.711   -11.860498    38.262593 
20068000    265.92562    265.47517    199.16645   -75620.326    75651.146    66.308718    38.266386 
20072000    294.07405    541.67486    347.06812   -75659.913    75678.191    194.60674    38.270945 
20076000    282.76422    349.73438     427.9093   -75688.345    75702.359   -78.174917    38.273669 
20080000    287.54972    420.39478    253.90193   -75685.652    75688.309    166.49285    38.276716 
20084000    262.70415     254.7794    280.19387   -75675.108    75705.225   -25.414475    38.273724 
20088000    272.08375    317.63244     323.5104   -75705.219    75719.806   -5.8779594    38.285488 
20092000    270.26859    285.80745    327.58131   -75728.372     75773.08   -41.773857    38.283389 
20096000     271.0153    254.87317    310.79795   -75725.125    75766.673    -55.92478    38.284784 
20100000    256.51178    428.15525    263.76891   -75750.963    75783.811    164.38634    38.292209 
20104000    288.50575    403.97387    270.03628   -75795.593     75805.89     133.9376     38.30017 
20108000    282.31326    378.83113    288.98396   -75800.017    75825.607    89.847172    38.288993 
20112000    278.89616    348.98955    269.30216   -75821.967    75835.559    79.687391    38.287319 
20116000    267.15797    391.85405    309.70908   -75839.782    75867.081    82.144966    38.284873 
20120000    263.05593    381.87656    327.28691   -75861.368    75885.246    54.589648    38.286712 
20124000    290.85529    367.46409    475.40332   -75847.167    75867.086   -107.93923    38.286582 
20128000    306.01768    400.24745    287.30459   -75874.767    75870.861    112.94285    38.288172 
20132000     270.1296    275.15625    449.37385   -75860.513    75885.065    -174.2176    38.288708 
20136000    279.89608    536.70185    288.31839   -75894.044    75898.585    248.38346    38.288727 
20140000    269.86217      309.281    307.41639   -75927.058    75964.978    1.8646048    38.293039 
20144000    304.99108    371.97325     606.4997   -75967.866    75978.114   -234.52645    38.286372 
20148000    314.92137    322.63978    493.74485    -75980.01    75989.359   -171.10507    38.276826 
20152000    261.04626    185.31858    402.40086   -75987.339    76035.921   -217.08228    38.284727 
20156000    264.18156    281.42291    323.89059   -76008.285    76045.245   -42.467686    38.288397 
20160000    270.52977    350.46245    385.59469     -76031.4    76056.973   -35.132249      38.2845 
20164000    342.55008    334.91357    285.80228   -76075.927    76044.344    49.111294    38.281953 
20168000    317.63629    320.92823    434.07867   -76080.979    76074.196   -113.15044    38.282728 
20172000    288.28701    300.71182     184.5419   -76093.474    76103.563    116.16992    38.282538 
20176000    289.25426    395.59182    317.42583   -76125.906    76132.339    78.165998    38.282193 
20180000    280.67471    479.92953    503.83959   -76134.168    76150.303   -23.910057    38.285987 
20184000    301.23215    355.06346    366.42583   -76167.436    76163.545   -11.362376    38.292998 
20188000    285.23073    305.87329     260.9311   -76154.211    76184.888    44.942188    38.294366 
20192000    305.31579    380.49849    475.60977   -76176.042    76180.385   -95.111283    38.288722 
20196000     260.9617    383.45963    307.64978    -76165.44    76197.514    75.809842    38.291114 
20200000    273.03845    433.88324    347.27487   -76200.034    76223.283    86.608365    38.289969 
20204000    278.23959    196.04145    261.75155    -76205.65    76215.631     -65.7101    38.293115 
20208000    294.28803    312.35291    381.51685   -76226.451    76230.192   -69.163942    38.299063 
20212000    315.49327    459.73423    363.40864   -76251.146    76241.269    96.325585    38.298119 
20216000    289.98798    342.56712    708.15255   -76244.603    76250.681   -365.58543    38.295286 
20220000    311.00733    511.20942    236.15501   -76265.094    76264.199    275.05442    38.306281 
20224000    302.05461    329.69058    222.78174   -76278.594     76280.03    106.90884    38.305352 
20228000    296.11545    385.52467    377.67645   -76301.339    76293.005    7.8482195    38.305326 
20232000    297.17985    250.74364    435.55866   -76320.672     76315.46   -184.81502     38.30134 
20236000    284.55002    455.87381    303.59429   -76348.606    76353.658    152.27952    38.304165 
20240000    288.99432    416.34102    240.83779   -76359.461    76371.726    175.50323    38.306516 
20244000    311.29455    399.57001    374.27624   -76381.777    76380.373    25.293771    38.302713 
20248000    278.58439    284.62731    276.83209   -76406.242    76423.812    7.7952256    38.305133 
20252000    294.96459    421.95533     268.7624   -76434.966    76447.131    153.19292    38.295374 
20256000    273.37652    347.92295    599.04889    -76447.32    76463.846   -251.12594    38.305308 
20260000    287.77169    287.79838    365.72235   -76476.444    76483.164   -77.923974    38.303919 
20264000    302.43166    395.42481    280.64546   -76467.824    76500.918    114.77935    38.303575 
20268000    312.22714    289.13765     310.7196   -76513.837    76509.443   -21.581957    38.301232 
20272000     277.0589    470.55806    344.90941   -76530.827    76550.017    125.64865    38.302673 
20276000    310.46858    341.27405    511.56603   -76535.221    76543.525   -170.29198    38.306671 
20280000    269.18945    320.62748    279.06563   -76537.814    76554.365    41.561848    38.314459 
20284000    300.35579    261.86909    180.50528   -76539.522    76559.845    81.363809    38.309178 
20288000    271.12413    371.28809    384.12899   -76552.566     76570.04   -12.840898    38.306981 
20292000    298.49893    542.76934    246.59217   -76588.346     76602.41    296.17717     38.31229 
20296000    274.53726    214.10127    220.50526   -76609.076    76628.572   -6.4039874    38.308873 
20300000    281.34336    334.58043    355.55336   -76625.672    76654.468   -20.972929    38.305873 
20304000    266.80952    305.72855    348.71818   -76642.233     76667.02   -42.989638    38.305629 
20308000    288.92539    372.09189    500.70869   -76673.311    76699.052    -128.6168    38.306435 
20312000    280.21536     331.5142    335.55436   -76685.277    76714.262   -4.0401612    38.311544 
20316000    304.82152    280.09353    251.24866   -76717.268    76707.309    28.844874    38.313352 
20320000    300.80449    549.16758    514.47634   -76721.926    76722.242    34.691246    38.309585 
20324000    264.21061    439.85459    223.88661   -76710.981    76742.666    215.96799    38.312234 
20328000    272.05811    491.00564    397.10376   -76734.585    76761.467    93.901881     38.30836 
20332000    262.12794    324.07576    323.39994   -76745.536    76768.363    0.6758281    38.308918 
20336000    268.89705    291.04617    190.04268   -76763.029    76806.849    101.00349    38.310351 
20340000    290.70923    330.41663    431.48984   -76780.812     76809.45   -101.07321    38.303477 
20344000    276.21087    573.31477    357.38103   -76783.965    76806.923    215.93373    38.306923 
20348000    288.60135    348.43031     386.0497   -76789.067    76818.296   -37.619393    38.310635 
20352000    280.34362    321.06247     359.3753   -76798.521     76828.52   -38.312834    38.308606 
20356000    278.23969    280.79902    295.46518   -76816.716    76840.295   -14.666151    38.316091 
20360000    296.04491    263.35697    317.13879   -76847.832     76858.78   -53.781824    38.319435 
20364000    293.95423    452.93417    628.26667   -76866.192    76877.494    -175.3325     38.31978 
20368000    304.26358    353.86393    274.36335   -76893.022    76904.264    79.500586    38.314274 
20372000    263.20557    280.16202    326.92772    -76884.95    76912.146   -46.765695    38.314777 
20376000    275.97831    376.94126    174.68119   -76901.568    76913.209    202.26007    38.310124 
20380000    273.42258    415.75069    273.39719   -76909.322    76927.994     142.3535    38.305681 
20384000    306.62389    337.86558    375.03492   -76924.119    76929.368    -37.16934    38.305772 
20388000    285.17773    218.74853     656.4627   -76907.972    76924.452   -437.71416    38.304532 
20392000    268.95832    307.62505    243.11143   -76926.017    76966.543    64.513614    38.307895 
20396000    285.69472     323.2252    265.83937    -76961.44    76977.302    57.385824    38.305103 
20400000    296.43923    451.02102    132.42911   -76957.453    76984.063    318.59192    38.303875 
20404000    253.86589    423.22512    270.83402   -76969.085    77004.762     152.3911    38.302067 
20408000    260.62751     331.0094    361.94506   -76981.991    77016.144   -30.935662    38.307699 
20412000    294.54225    482.55781    307.12442   -77038.826    77053.565    175.43339     38.30441 
20416000    289.53071    451.24532    320.07145   -77064.867    77095.987    131.17387    38.301177 
20420000    271.32443    460.10456    287.94148   -77094.562    77116.497    172.16307    38.302402 
20424000     280.6379    369.91343    303.56328   -77125.601    77138.337     66.35015    38.294973 
20428000    273.67067    541.71854    431.86414   -77157.866    77180.498     109.8544    38.305747 
20432000    282.43088    401.65979    224.06522   -77187.297    77192.468    177.59457    38.308794 
20436000    274.74138    283.94069      333.777   -77210.225    77240.181   -49.836309    38.307155 
20440000    276.94897    318.46959    217.59037   -77242.449    77260.883    100.87922    38.316775 
20444000    264.75026    305.44795    273.29062   -77255.628    77294.226    32.157332    38.319179 
20448000    282.74698    433.22994    383.01422   -77276.934    77306.355    50.215715    38.322685 
20452000    287.93259    353.16522    340.05556   -77300.663    77319.194     13.10966    38.316828 
20456000    291.53227    325.90344    364.18031   -77327.777    77351.932   -38.276872    38.313511 
20460000    271.27492    310.06806    342.76608   -77357.968    77396.048    -32.69802    38.306612 
20464000     256.4176    452.37695    342.96204   -77387.317     77434.97    109.41491       38.301 
20468000    258.26101    354.64077    400.88972    -77425.16    77460.931   -46.248943     38.31137 
20472000    281.58709    352.35637    532.30286    -77435.96    77482.755   -179.94649      38.3103 
20476000    283.74236    337.22145    424.36124   -77461.547    77496.148   -87.139786    38.312717 
20480000    295.91913    278.23469    316.93897   -77472.296    77502.381    -38.70428    38.305958 
20484000    270.49589    349.66858    221.34021    -77484.84    77511.663    128.32836    38.297723 
20488000    270.52426    338.05725    449.69108   -77480.134    77509.952   -111.63383    38.296103 
20492000    270.31095    342.45888    377.19855   -77494.547    77525.169   -34.739668    38.296689 
20496000    275.12954    509.83238     505.7766   -77497.794    77534.868    4.0557786    38.293782 
20500000    262.11894    265.41838    315.73258    -77514.38    77547.171    -50.31419    38.297705 
20504000    259.03548    248.01227    292.71423   -77532.132     77556.75   -44.701956    38.297667 
20508000    308.46193    328.54233    467.60609   -77553.298    77563.027   -139.06377    38.301494 
20512000    295.01998    489.09907    459.80158    -77562.52    77576.391    29.297487    38.299196 
20516000    287.45141    222.78033    292.43119   -77581.106    77606.303   -69.650863    38.297238 
20520000    295.95221    274.46995    451.92869   -77615.734    77612.478   -177.45874    38.290445 
20524000     269.9844    343.73982    396.06346   -77622.049     77634.98   -52.323642    38.288853 
20528000    268.06985    220.66354    134.44009   -77616.875    77654.491    86.223453    38.291849 
20532000    267.94295     296.0778    280.89247   -77635.784    77668.844    15.185332    38.291345 
20536000    300.69816    293.66394    367.33656   -77679.337    77690.018   -73.672615    38.291132 
20540000    284.73129    201.77386    254.49546   -77687.462    77687.467   -52.721609    38.284216 
20544000    290.37902    511.10295    281.00121   -77681.528      77703.2    230.10174    38.286126 
20548000    263.15162    210.32963    232.56366   -77693.516    77731.581   -22.234032      38.2836 
20552000    276.94472    367.02834    522.93573    -77696.32    77732.325   -155.90738    38.280555 
20556000    277.53805     349.7777     313.6238   -77706.931    77738.495    36.153903    38.280173 
20560000    269.46618    578.74981    296.47156   -77722.431    77753.221    282.27825    38.276518 
20564000    295.85401    427.01413    253.53925   -77740.954    77750.065    173.47489      38.2712 
20568000    302.51968    375.26091    481.74548   -77769.995    77774.742   -106.48457    38.265199 
20572000    282.55797    214.36723    342.25495   -77779.673    77787.826   -127.88772    38.262446 
20576000    270.91158    437.10498    275.25725   -77801.312    77831.792    161.84773    38.263068 
20580000    248.63138    135.49905    278.85643   -77803.023    77852.431   -143.35738      38.2698 
20584000    287.82283    361.38568    429.68691   -77822.078    77853.744   -68.301237    38.267131 
20588000    275.71688    169.07895     256.0739   -77837.984    77851.377   -86.994948    38.268308 
20592000    278.91984    390.92776    428.44782   -77824.368    77846.635   -37.520063    38.266244 
20596000    256.94179    304.00981    366.82022   -77842.423    77877.404   -62.810403     38.26643 
20600000    281.74396    310.75502    275.03452   -77869.985    77894.768    35.720498    38.257996 
20604000     299.6921     642.3253    464.05938   -77896.474    77919.279    178.26592    38.258373 
20608000    276.99221    434.07781    224.98142   -77906.248    77914.146    209.09639    38.259194 
20612000    274.76597    283.95236    421.50258   -77898.851    77925.871   -137.55022    38.262777 
20616000    252.68663    231.70682     170.5769   -77906.309    77950.912    61.129918    38.255428 
20620000     256.8539    411.20576    203.52482   -77914.225    77954.022    207.68094    38.257242 
20624000    292.35267    402.62742    349.24783   -77933.209    77945.246    53.379596    38.263486 
20628000    282.96958    269.12072     376.1352   -77950.729    77958.977   -107.01448    38.262795 
20632000    285.99943    277.32273    336.10687   -77982.414     77995.49   -58.784133    38.263624 
20636000    284.76017    130.59209    361.14158     -78011.3     78031.91   -230.54949    38.258246 
20640000     293.0039    334.03974    364.59544   -78054.147    78067.674   -30.555701    38.267654 
20644000    276.03849    354.40601     304.2111   -78084.992    78099.288    50.194913    38.266492 
20648000    293.81899    307.93695    520.64512   -78097.831    78101.723   -212.70817    38.273622 
20652000    280.97286    400.02495    418.79064   -78102.211    78117.107   -18.765688    38.271331 
20656000    262.77218    291.24803    321.63092    -78118.67    78153.517   -30.382889    38.268401 
20660000    290.42691     371.0613       269.81   -78125.842    78150.276    101.25129    38.275358 
20664000     291.3657    315.31822    241.26079   -78152.556    78162.371    74.057432    38.275216 
20668000    258.15946     197.7522    246.44189   -78160.813    78200.774   -48.689687     38.27425 
20672000    284.06216    251.78925    364.56212   -78185.322    78215.626   -112.77287    38.264752 
20676000     275.2262    313.56263     441.9903   -78201.323    78215.968   -128.42767    38.262115 
20680000    282.54951    330.39137    210.32897   -78226.363    78233.588    120.06241    38.260132 
20684000    292.73848    521.97398    334.45948   -78243.466    78266.772    187.51449    38.264964 
20688000     305.8071    409.62346    581.27519   -78264.038     78262.32   -171.65173    38.273665 
20692000    274.01927    367.86064    159.86909   -78258.908    78276.366    207.99154    38.273634 
20696000    322.20154    270.18123    375.74705   -78285.169    78279.043   -105.56582    38.260752 
20700000    277.82982    248.74352    228.81804   -78281.078    78299.025    19.925479    38.260095 
20704000    316.18649    521.25846    240.12371   -78307.879    78305.413    281.13474    38.268001 
20708000    285.42526    439.09871    184.52922   -78286.384    78314.889    254.56949    38.268506 
20712000     278.8477    182.07076     204.5871   -78283.285    78329.491   -22.516342    38.269919 
20716000    270.83041    317.98609    253.55584   -78300.269     78338.37    64.430247    38.268373 
20720000    284.02919    462.76619     291.4241   -78323.904     78351.26     171.3421    38.261811 
20724000    281.74228    563.12163    200.80483   -78350.006    78364.457    362.31679    38.260005 
20728000    263.85454    483.84731    311.08033   -78360.168    78404.551    172.76697    38.260279 
20732000     280.9748    508.88177    215.16175   -78361.834    78391.611    293.72002    38.267168 
20736000    275.47493     359.0067    377.13212   -78379.423    78408.261   -18.125425     38.26397 
20740000    315.04901    308.85649    405.87891   -78416.311    78406.286   -97.022413    38.262175 
20744000    311.92803    456.01081    380.10482   -78417.569    78427.831     75.90599    38.262817 
20748000    303.45371     378.8758    496.53468   -78438.144    78446.341   -117.65888     38.26599 
20752000    275.49743    200.22798    355.74654   -78451.894    78465.383   -155.51855    38.266389 
20756000    270.88952    351.42152    413.69611   -78468.571    78501.876   -62.274585    38.253221 
20760000    291.20992    402.95004    476.31864   -78489.284    78513.052   -73.368602    38.257979 
20764000    257.60684    389.95565     414.2222   -78493.324    78535.741   -24.266549    38.256661 
20768000    296.97633    391.54369    244.04251   -78524.726     78541.64    147.50118    38.256547 
20772000    277.76106    326.66386    283.81265   -78534.242     78544.71    42.851209    38.259583 
20776000    287.98859    361.48555    426.55697   -78530.823    78547.642   -65.071417    38.260546 
20780000    282.93925    308.57129    363.23409   -78554.924    78579.068   -54.662799    38.256799 
20784000     262.3501    344.67262    385.70074   -78563.338    78597.123   -41.028121    38.259983 
20788000    295.21455    275.67429    403.94871    -78600.48    78598.124   -128.27443     38.25237 
20792000    285.07591    212.57835    237.63212   -78614.087    78623.137    -25.05377    38.250958 
20796000    294.29178    331.20901    372.44968   -78631.893    78633.644   -41.240676    38.254463 
20800000    326.87838    404.79723    247.70117   -78650.674    78650.202    157.09606    38.246335 
20804000    300.56068    366.17271     410.7021   -78686.751    78683.811   -44.529394    38.245883 
20808000    282.28041    345.10209    485.91186   -78693.211    78717.082   -140.80977    38.238784 
20812000    286.38109    303.44387    231.88517   -78685.612    78710.812    71.558701     38.23313 
20816000    301.04353    448.83919    283.21734    -78714.12    78720.011    165.62185    38.236903 
20820000    269.29851    453.72735    185.01424   -78711.847    78728.069    268.71312    38.241071 
20824000    320.59397    365.11606    442.01038   -78754.736    78764.775   -76.894317    38.240903 
20828000    274.56196      472.471    345.54906   -78744.743     78768.44    126.92194    38.242133 
20832000    265.09672    378.84669    350.28238   -78766.811    78786.714    28.564307    38.239674 
20836000    278.90823    360.02313    243.18511   -78794.702    78805.002    116.83802     38.24671 
20840000    262.02801    266.32048    332.41895   -78801.237    78845.589   -66.098474    38.246224 
20844000    279.11291    462.57851    147.78769   -78820.639    78853.251    314.79082    38.251995 
20848000    286.12718    312.85849    266.89456   -78842.713    78861.757    45.963931    38.261214 
20852000    283.81495    539.80946    340.69756   -78829.778    78857.632    199.11189    38.262797 
20856000    273.70479    297.54215    395.42948   -78830.455    78845.616   -97.887326    38.266964 
20860000    292.01334    351.82439    386.55558   -78856.906    78867.128   -34.731184     38.26365 
20864000    295.36322    248.91433    295.75785   -78885.036    78901.341   -46.843522    38.256565 
20868000     275.2723    466.94205    297.36261   -78895.235    78936.208    169.57944    38.261491 
20872000    253.79254    387.81392    255.69024   -78929.373    78969.214    132.12368    38.255997 
20876000     281.9974    463.94009     283.4062   -78960.758    78987.754    180.53389    38.262745 
20880000    306.92225    409.07335    409.22078   -78968.269    78963.098  -0.14743451    38.261088 
20884000    262.26834    424.63854    401.97168   -78984.987    79017.002     22.66686    38.272684 
20888000    300.75673    569.74403    234.33462   -79018.268    79041.841    335.40941    38.273931 
20892000    298.82617    378.32641    234.72632   -79042.082    79050.993    143.60009    38.281179 
20896000    290.86414    523.72256    282.11727   -79057.353    79072.561    241.60529    38.274325 
20900000     289.9335    412.66675    292.50072       -79072    79088.545    120.16602    38.276142 
20904000    297.96495    411.57301      371.461   -79086.197    79111.379    40.112016    38.267733 
20908000    299.83039    528.34024    281.47479   -79103.849    79122.288    246.86545    38.276961 
20912000    244.91241    386.82425     287.7579    -79103.53    79159.242    99.066358    38.275558 
20916000    282.02848    558.34939    132.30527   -79128.327    79150.014    426.04411    38.274881 
20920000    292.26481    436.59776    251.96395   -79146.803     79167.04    184.63381    38.266964 
20924000    272.71054    416.93389    324.40047   -79161.421    79185.508    92.533426    38.268881 
20928000    266.93351    374.04394    262.61719   -79161.039    79194.921    111.42676    38.266859 
20932000    298.68464    340.88852    293.44103   -79179.561    79205.274     47.44749    38.264873 
20936000    284.42338    196.80511    388.65096   -79200.471    79196.312   -191.84585    38.261944 
20940000    286.27911    286.40694     339.9396   -79190.861    79210.343   -53.532658    38.255131 
20944000    275.35286    422.68374    265.66269     -79209.7    79230.645    157.02105    38.258103 
20948000    281.34402    376.72206    374.55254   -79232.227    79245.406    2.1695234    38.259467 
20952000    265.38357    473.23203    423.80407   -79238.705    79275.727    49.427955    38.261202 
20956000    276.41743    390.27336    345.05338   -79275.918    79302.935    45.219981    38.260683 
20960000    262.31382    352.72576     286.5045   -79291.177    79318.154    66.221258    38.253053 
20964000    264.75377    308.35311    207.84615   -79296.225    79330.088    100.50696    38.255017 
20968000    286.93201     388.6154    246.87577    -79319.84    79339.119    141.73963    38.259545 
20972000    285.54288    233.89269    443.99188    -79358.12    79369.695   -210.09918    38.260914 
20976000     299.4519     750.0288    245.37479    -79381.43    79406.893    504.65401    38.261894 
20980000    267.82165    380.88384     289.6075   -79395.905    79428.693    91.276338      38.2642 
20984000     259.8256    243.39886     260.3945   -79409.939    79443.814    -16.99564    38.264512 
20988000    293.96231    737.50769    322.73809   -79436.478    79451.645     414.7696    38.264667 
20992000    276.26895    216.26278     239.8523   -79474.433    79494.998   -23.589527    38.262367 
20996000    292.48636    313.67387    362.71474   -79520.827    79527.697   -49.040864    38.251234 
21000000    249.15225    270.90397    249.70299   -79531.364    79571.468    21.200972    38.247002 
21004000    306.24001    473.34296       230.59   -79560.632    79580.893    242.75296    38.250361 
21008000    288.84173    248.58679    323.28748   -79581.168    79581.542   -74.700689    38.255003 
21012000    314.91225    503.03425    303.12713   -79581.265    79575.595    199.90712    38.253483 
21016000    303.63951    367.73287     535.0871   -79581.142    79590.289   -167.35424    38.253035 
21020000    278.01114    481.82657    283.42473   -79577.611    79611.864    198.40184    38.247818 
21024000     278.2354    292.47912    274.60236    -79593.84    79629.285    17.876765    38.240596 
21028000    263.30084    306.44683    291.10365   -79602.204     79633.05    15.343173    38.242539 
21032000    264.85252    273.68172    330.02559   -79608.235    79637.774    -56.34387    38.243619 
21036000    315.03015    340.39009    452.01237   -79630.391    79629.296   -111.62228    38.243477 
21040000    304.29937     470.4423    209.10478   -79642.569    79656.454    261.33752    38.242666 
21044000    290.52721     359.1573    281.63284    -79660.04    79691.813    77.524461    38.235534 
21048000    279.74554    507.09919    259.23596   -79685.974    79720.966    247.86323    38.237087 
21052000    320.22951    307.71128    190.42973   -79686.659     79698.58    117.28154    38.235546 
21056000    284.43757    317.14641    350.91403   -79683.196    79700.631   -33.767614     38.23852 
21060000    280.50581     370.2591    244.72504   -79672.189    79696.225    125.53406     38.23622 
21064000    282.02374    383.44622    644.21952   -79686.836    79715.512    -260.7733    38.229645 
21068000    299.65946    521.02433    253.21984   -79718.167    79742.591    267.80449    38.230831 
21072000    301.83067    317.09882    466.51638    -79736.39    79749.685   -149.41756    38.224229 
21076000    249.32586    455.19607    226.83881   -79729.149    79779.701    228.35726    38.225434 
21080000    279.80807    351.99474    361.73794   -79760.481    79801.521   -9.7432014    38.229638 
21084000    277.11135    481.32164    420.46116   -79786.933    79801.117    60.860478    38.227355 
21088000    299.13052     539.5994    273.41366   -79805.026    79816.541    266.18574    38.225237 
21092000    279.69134    374.27383    383.41688   -79822.001    79848.022   -9.1430486    38.230317 
21096000    274.08053    236.60329    238.19358   -79827.872    79856.591   -1.5902958    38.230646 
21100000    292.74781    323.12031    477.14101   -79857.347     79873.87   -154.02069    38.227582 
21104000    254.52479    344.24035    373.12037   -79872.101    79889.258   -28.880027    38.223356 
21108000    297.19802    253.58034    258.92095   -79891.595    79903.516   -5.3406102    38.221363 
21112000    264.44245    356.87178    244.25317   -79908.689    79944.839     112.6186     38.21319 
21116000    283.50357    293.10704    420.89083   -79948.882     79976.06   -127.78378    38.209454 
21120000    263.62487    382.62723    310.94042   -79951.507    79977.526    71.686812    38.211998 
21124000    278.73049    368.56184    333.63535   -79940.007    79970.612    34.926487      38.2126 
21128000    290.83052    428.94308    287.99395   -79964.114     79993.25    140.94913    38.210571 
21132000    284.27122    318.52183     297.0823   -79988.462    79995.673    21.439529    38.211179 
21136000    297.61828    347.60218    374.11092   -79999.099    80011.441   -26.508743    38.214195 
21140000    279.05481    213.12839    292.23248   -80015.489    80045.312   -79.104091    38.210245 
21144000    298.55155    246.47135    245.16949   -80048.556    80057.307    1.3018524    38.210639 
21148000    300.79212     496.2725    357.21463   -80060.955     80075.23    139.05787    38.205356 
21152000    272.79324    475.39548    342.45764   -80093.732    80133.033    132.93784    38.201221 
21156000    304.10988    531.07784    536.26623   -80135.963    80141.625   -5.1883872    38.206551 
21160000    285.58293    417.31403    590.09737   -80142.894    80164.291   -172.78334    38.201806 
21164000    252.33691    391.94902    287.93563   -80179.897    80213.419    104.01339     38.19936 
21168000    282.53572      407.355    215.56631   -80203.621    80210.751    191.78869    38.201146 
21172000    305.65137    310.06361    459.24364   -80235.646    80239.849   -149.18002    38.200595 
21176000    277.41028    197.40581    238.11304   -80242.822    80281.275   -40.707236    38.202174 
21180000    274.71641    218.65037    180.66296   -80260.611    80298.411    37.987405    38.199817 
21184000    275.26192    296.38059    457.48686   -80293.957    80325.568   -161.10627     38.20116 
21188000     294.6545    394.56071    358.02127   -80342.646    80346.876    36.539434    38.208512 
21192000    288.37346    423.53937    208.68342   -80356.194    80374.196    214.85596    38.205751 
21196000    252.17058    367.10909    244.99691   -80357.627    80384.255    122.11218    38.207262 
21200000    291.44073    403.28206    299.74824   -80366.146    80359.115    103.53382    38.205998 
21204000     284.9184    243.88709    486.50964   -80374.763    80379.387   -242.62255    38.201761 
21208000     282.7005    321.21613    171.78124    -80377.74    80404.149    149.43489    38.203663 
21212000    290.59369     378.0078    334.44865   -80400.606    80417.591    43.559157    38.201126 
21216000    304.22061    304.29794    280.86465   -80426.857    80444.602     23.43329    38.200428 
21220000    254.47374    213.08447    218.32804   -80456.498    80482.122   -5.2435758    38.198278 
21224000    295.87694    301.71024    362.94972    -80464.61    80498.896    -61.23948    38.200033 
21228000     245.8806    183.94102     246.3164   -80475.515    80517.649   -62.375381    38.202433 
21232000    269.52617    300.04307    215.58965   -80501.307    80531.516     84.45342    38.199299 
21236000    285.60543    365.79121     364.1879   -80520.586    80551.309    1.6033062    38.202713 
21240000    279.58436    228.13056    319.78701   -80540.063    80555.695   -91.656446    38.200375 
21244000    269.41476    184.31116    446.08555   -80558.722    80584.195   -261.77439    38.205424 
21248000    275.49465    282.39354    322.28821   -80555.315    80598.864   -39.894676    38.210276 
21252000    276.26825    292.38728    302.48926   -80573.496    80609.996   -10.101984    38.206241 
21256000     291.8851    506.62696    252.83917   -80612.154    80628.685    253.78779    38.205738 
21260000    275.24366    536.10259    273.76414   -80611.525    80633.191    262.33845    38.207476 
21264000    297.67794    385.12474    619.36278   -80615.623     80621.39   -234.23804    38.201667 
21268000    286.57174     252.9002    209.14144   -80618.518    80638.778    43.758755    38.204357 
21272000    296.59837     442.4505    415.20765   -80644.116    80653.678     27.24286     38.20062 
21276000    288.62441    346.64529    261.97669    -80646.29    80663.891    84.668599    38.200775 
21280000    288.11856     587.0317    244.77266   -80676.499    80704.211    342.25903    38.202403 
21284000    317.60071    675.36783    186.90932   -80682.931     80693.32    488.45851    38.210033 
21288000    310.29098    264.62353    405.23358   -80691.535    80696.943   -140.61005    38.212772 
21292000    299.22043    649.85302    306.98072   -80704.583    80735.875     342.8723    38.217551 
21296000    273.84336    377.41784    333.66298   -80722.033    80744.086     43.75486    38.209024 
21300000    280.31236    439.60061    332.52075   -80723.683    80740.065    107.07986    38.200991 
21304000    275.59758    289.78863    193.27644   -80744.158    80776.167    96.512192    38.195611 
21308000    319.11041    446.64964    523.04767   -80760.646    80756.713   -76.398032    38.193466 
21312000    288.06085    487.25736    347.02463   -80785.103    80815.712    140.23273    38.190927 
21316000    270.40991    285.31309    428.54709    -80789.19    80821.052   -143.23399    38.190496 
21320000    314.98534    510.54221    264.87781   -80814.319    80818.104     245.6644    38.192419 
21324000    264.42968    279.91043    137.31011   -80812.399    80848.264    142.60032    38.197921 
21328000    293.63548    395.15779    386.51787    -80842.54    80854.419    8.6399241    38.195552 
21332000    314.62904     380.9029    352.66532   -80873.344    80874.697    28.237584    38.205251 
21336000    287.05119    356.74607    311.19334   -80895.434     80916.27    45.552729    38.202393 
21340000    298.48235    248.97947    368.28361   -80931.189    80955.829   -119.30415    38.206313 
21344000    276.38821    349.64202    412.66947   -80945.129    80978.555   -63.027447    38.204802 
21348000    305.87841     558.1184    273.96973   -80956.132      80982.5    284.14866    38.207562 
21352000    273.92005    178.82992    202.53474   -80979.997    80985.066   -23.704822    38.212459 
21356000    298.71257    354.48251    434.47096    -80996.99    81009.435   -79.988445    38.221064 
21360000    247.45029     326.1876    257.53336   -80991.749    81025.744    68.654245     38.21772 
21364000    289.65918    364.86513    242.20388   -81012.134    81037.948    122.66124    38.218399 
21368000    278.41365    345.55911    333.68431    -81035.61      81056.3      11.8748     38.20578 
21372000    292.83697    350.51367    325.27712   -81058.104    81067.128    25.236553    38.209654 
21376000    278.11133    385.37414    355.39347    -81067.11    81089.551    29.980675     38.21349 
21380000    271.29443    393.19202    271.64523   -81077.001    81110.996    121.54679    38.218322 
21384000    234.17914    213.50176    336.37673   -81084.897    81135.664   -122.87497    38.221973 
21388000    245.85115    257.06395    253.62295   -81102.775    81154.654    3.4410053    38.217599 
21392000    279.16719    420.93982    454.04441    -81139.64    81159.028   -33.104593    38.218511 
21396000    295.91059    443.16265    440.64519   -81154.151    81177.576    2.5174582    38.225117 
21400000    316.74016    295.98041    376.09552   -81181.102    81177.422   -80.115114     38.22576 
21404000     267.7738    279.26851    335.55808   -81179.724    81225.179   -56.289572    38.228946 
21408000    275.37699    400.14719    514.77643   -81221.833    81240.526   -114.62924    38.230764 
21412000    268.20693    325.94235    255.28069    -81221.58    81265.982    70.661659    38.229641 
21416000    292.75611    209.92183    339.95682   -81269.746    81286.247   -130.03499    38.224686 
21420000    267.72248    605.95229     219.4554   -81285.109    81310.562    386.49689    38.225811 
21424000    275.58672     335.2693     265.0842   -81278.817    81299.589    70.185109    38.230076 
21428000    296.50918    515.92873    403.18738   -81305.776    81317.855    112.74135    38.229904 
21432000    303.13537    526.84743    444.81365   -81291.379    81307.519    82.033777    38.226604 
21436000    307.75993    87.656671    433.45504   -81332.832    81341.607   -345.79837    38.222761 
21440000    324.89897    381.56535    412.33961   -81387.378    81378.332   -30.774256    38.224737 
21444000    325.63415    294.42965    271.93798   -81414.162    81414.441    22.491676    38.219976 
21448000    273.00138    405.13406    270.48445     -81416.9    81440.928    134.64962    38.222997 
21452000    265.37534    353.37548     436.2992   -81422.722    81459.875   -82.923715    38.224351 
21456000    275.15536    389.00154    431.38378   -81443.686    81466.871   -42.382236    38.222414 
21460000    268.42365     303.2449    282.62992   -81467.104    81496.839    20.614986    38.228022 
21464000    317.16487       296.92    486.33338   -81502.414    81483.838   -189.41338    38.229111 
21468000    290.94904    339.15163     251.1964   -81510.241    81520.134    87.955232    38.227844 
21472000    273.84255    386.47892    359.58392   -81509.784    81544.481    26.894996     38.22876 
21476000    288.07639    426.12981    424.07644   -81530.673     81552.76    2.0533656    38.220938 
21480000    272.55386    325.16327    291.39087   -81553.427    81566.184    33.772395    38.220887 
21484000    290.35058    544.79511     370.3044   -81577.551    81601.643     174.4907    38.224009 
21488000    297.14867    462.52498    346.33031   -81597.643    81604.544    116.19467    38.227788 
21492000     279.8061    272.48882    205.30919   -81596.441    81634.033    67.179631    38.229028 
21496000    282.39264    307.52563    300.39887   -81612.362    81634.694    7.1267648    38.224028 
21500000    286.49049    349.72995    380.24571   -81621.034    81641.235   -30.515762    38.215274 
21504000    285.56732    380.58978    384.96536   -81626.578     81657.15   -4.3755796    38.215992 
21508000    280.92562    228.23978    255.82174    -81622.71    81681.997   -27.581959    38.211086 
21512000    251.59715    421.21277    315.99276   -81653.935    81694.408    105.22001    38.213613 
21516000    278.80268    351.96994    231.56484   -81674.837    81689.601     120.4051    38.208807 
21520000    254.51702    310.14042    266.78687   -81676.919    81724.884    43.353549    38.209971 
21524000       264.59     427.6783    420.63334   -81721.115     81757.94    7.0449573     38.21056 
21528000    275.54632    289.62478    298.05837   -81725.313    81755.906   -8.4335919    38.208163 
21532000    270.84211     486.9311    626.50638   -81736.575     81762.93   -139.57527    38.201251 
21536000     262.7722     355.0698    333.04011   -81751.702    81790.501     22.02969    38.194671 
21540000     271.2687    356.55264    754.06529    -81758.25    81796.858   -397.51265     38.19354 
21544000      278.884    350.28301    287.62683   -81780.428    81808.116    62.656183    38.196767 
21548000    271.41512     197.6604     329.8321   -81793.274    81836.654    -132.1717    38.196522 
21552000    320.34575     462.9108    257.64835    -81854.25    81837.397    205.26245    38.197524 
21556000    280.22363    298.76403    491.60792   -81844.802    81871.673   -192.84389    38.190674 
21560000    265.93314    341.42989    221.13354   -81831.656    81863.538    120.29635    38.189947 
21564000    314.26588    503.20448    311.51749   -81861.041    81878.236    191.68698     38.18583 
21568000    278.90993     531.2947    188.19445   -81871.052    81878.827    343.10025    38.186114 
21572000    292.59232    252.01973     253.4986   -81874.115    81876.047   -1.4788696    38.183993 
21576000    295.32542    232.12314    677.06169   -81850.324    81865.042   -444.93854    38.175499 
21580000    263.36149    311.50026    420.94727   -81853.218    81875.186     -109.447    38.174978 
21584000    262.14048    369.58021    253.75077   -81863.068    81903.654    115.82944    38.178376 
21588000    251.84222    295.41319    335.43445   -81856.993    81913.178   -40.021259    38.178197 
21592000    254.22675    295.32439    223.74273   -81900.121    81938.978    71.581656     38.17645 
21596000    310.10285    376.09665    421.35825   -81937.848    81935.892   -45.261598     38.17455 
21600000    258.49674    277.56943     309.2725   -81937.316    81973.444   -31.703075     38.18705 
21604000    281.10156    256.49824    286.10157     -81954.8    81972.742   -29.603337      38.1941 
21608000    288.12292    285.72164    404.84951   -81967.173    81986.617   -119.12787    38.184217 
21612000    296.94054    518.68466    277.08974   -81986.664    82011.373    241.59491    38.183985 
21616000    302.72155    502.24261    609.97463    -82000.81     82016.52   -107.73202     38.18141 
21620000    278.12933    325.96514    479.08556   -82009.865    82044.017   -153.12042    38.186486 
21624000    266.69529    430.80201    588.75615   -82023.911    82062.598   -157.95414    38.183585 
21628000    297.55719    282.66002    219.78668   -82048.111     82059.58    62.873342     38.18357 
21632000    285.09683    349.20912    167.99182   -82067.524    82087.495     181.2173    38.183784 
21636000    291.01184    290.38767    388.84187    -82073.94    82098.127   -98.454196    38.173951 
21640000    283.73165    327.42091    475.82599   -82092.599    82115.965   -148.40508    38.171228 
21644000    283.19532    293.18026    342.90314   -82092.909    82124.985   -49.722879    38.172862 
21648000    276.16391    280.84793    279.75385     -82119.4    82127.265    1.0940781    38.166262 
21652000    300.97399    224.27101    378.26129   -82119.352    82134.551   -153.99028     38.16398 
21656000    242.31105    413.74879    318.33592   -82152.552    82162.918    95.412869    38.162115 
21660000    286.89465     517.7679    305.00201   -82161.666    82177.248    212.76589    38.162433 
21664000    310.90559    402.20379    391.41873   -82193.927    82195.958    10.785058    38.164821 
21668000     269.1439    308.45471    203.49249   -82178.933    82203.237    104.96222    38.158801 
21672000    280.04993    470.11927    342.29929   -82201.135    82224.194    127.81998    38.158162 
21676000    310.92425    169.35991    299.75808   -82207.201     82233.52   -130.39817    38.161215 
21680000    281.22843    304.63646    257.06644   -82234.622    82255.956    47.570022    38.163183 
21684000    296.30751    408.93724    315.37349   -82233.909    82256.387    93.563746    38.168713 
21688000    288.47296    517.55706    313.19556   -82263.868    82276.664     204.3615     38.16881 
21692000    335.67297    448.50416    487.58246   -82304.593    82299.378   -39.078305    38.169214 
21696000    274.59375    479.35054    216.86365   -82314.724    82323.638    262.48689    38.173554 
21700000     288.0526    431.09898    176.25761   -82342.086    82359.554    254.84137    38.174361 
21704000    274.50702    476.17794     270.5737   -82333.234    82358.438    205.60424    38.171375 
21708000     248.4556    461.62044    216.04371    -82333.33    82384.286    245.57673    38.178595 
21712000    288.00726    381.83494    358.69776   -82371.276    82387.626    23.137181    38.184498 
21716000    305.79127    240.85589    297.70583   -82373.059    82409.488   -56.849934    38.190811 
21720000    252.48872    293.43786    300.50852   -82381.192    82429.912   -7.0706546    38.193449 
21724000    258.66617    417.85282    430.83823   -82381.898    82409.919   -12.985412    38.192052 
21728000    266.09442    379.97676    374.68409   -82405.953    82426.097    5.2926695    38.190909 
21732000    248.68327    245.27783     394.6856   -82414.637    82454.907   -149.40777    38.189688 
21736000    252.78919    267.00773    255.79595   -82427.585    82467.458    11.211782    38.188672 
21740000    302.12026    293.86924    387.55348   -82461.479     82472.58   -93.684242    38.187415 
21744000    267.52418    356.83425    251.69107   -82461.861    82492.047    105.14318    38.182409 
21748000    294.70596    310.42034    442.80893   -82483.594    82502.788   -132.38859    38.191072 
21752000    290.32348    249.11465    232.33772   -82497.838    82510.345    16.776932     38.18923 
21756000    290.06433     431.5951     196.7699   -82513.322    82533.661     234.8252    38.185073 
21760000    277.39324    208.11157    198.25711   -82519.182    82529.231    9.8544674    38.184261 
21764000    301.52811    427.70022    299.46945   -82535.357    82557.933    128.23077     38.18488 
21768000     259.5327    238.12491    250.08204   -82539.871    82580.406   -11.957129    38.185891 
21772000    287.20142    301.40666     237.5122   -82568.541    82585.804    63.894455    38.186004 
21776000    287.39208     349.8815     401.5009   -82557.852    82562.413   -51.619395    38.174669 
21780000    297.59262    403.30205    443.73529   -82602.622    82603.609   -40.433248    38.179176 
21784000     302.5266     483.5728     315.8503   -82617.237    82624.624     167.7225    38.176972 
21788000    260.99464    405.73058    264.12013   -82614.034    82657.521    141.61045    38.172394 
21792000    276.42879    584.11181    288.43047   -82628.546    82655.334    295.68135    38.165207 
21796000    302.85594    404.99542    352.81048   -82667.254    82674.632    52.184941    38.167875 
21800000    253.42789    267.51376    453.67988    -82672.13    82704.889   -186.16613    38.165437 
21804000    284.36272    322.30082    378.02478   -82718.053     82725.46   -55.723966    38.166444 
21808000     281.1172     414.2209    453.92008   -82729.369    82733.281   -39.699177    38.175457 
21812000    329.31414    316.56698    384.57128   -82752.044    82756.059   -68.004304    38.171412 
21816000    277.56998    313.99704    261.56078   -82771.179    82787.545     52.43626    38.179574 
21820000    311.39379    394.44906    477.58407   -82763.481     82775.08   -83.135013    38.182425 
21824000    343.50463    550.00093    292.35318   -82779.601     82778.43    257.64776    38.187723 
21828000     291.0691    300.01628    466.78097   -82770.427    82778.137   -166.76468    38.183669 
21832000    263.97052    452.73817    302.94565   -82795.829    82826.577    149.79252    38.186586 
21836000    271.19343    348.09922    217.16624   -82835.022    82865.395    130.93298    38.186682 
21840000       274.38    346.56996    225.07124   -82874.737    82903.774    121.49872    38.193935 
21844000    271.95237    295.04362    334.26394   -82905.895    82936.965   -39.220328    38.190571 
21848000    278.27436    398.55564    275.52001   -82909.782    82932.047    123.03563    38.192622 
21852000      277.933    376.94814    444.15922   -82928.354    82966.558    -67.21108    38.191265 
21856000    260.89813    301.55754    291.35676   -82943.833    82991.835    10.200781    38.191865 
21860000    237.08558    233.83543    253.88433   -82979.252    83023.914   -20.048898    38.197008 
21864000    291.46927    435.03957    308.42307   -83001.625    83021.385     126.6165    38.189848 
21868000    280.98827    295.41901    265.53088   -83006.858    83027.628    29.888136    38.181539 
21872000    253.99092    429.85408    621.89595   -83038.055    83066.187   -192.04187    38.181093 
21876000    255.84579    488.38158    192.67654    -83041.73    83092.898    295.70503    38.181144 
21880000    260.60354     257.5088    250.81434   -83073.111    83118.968    6.6944561    38.183123 
21884000    272.43267    206.74101    190.08532   -83099.723     83126.59    16.655688    38.183941 
21888000    257.26761    335.20007     192.0485   -83125.561    83154.862    143.15156    38.179163 
21892000    275.03315    418.77744      265.803   -83160.403    83172.059    152.97444    38.174827 
21896000    290.22795     190.3725     333.9604   -83166.166    83187.217    -143.5879    38.162794 
21900000     275.8569     275.0379    148.03177   -83178.072    83215.292    127.00613    38.162848 
21904000     295.7788    473.42713    378.24771   -83186.551    83212.539     95.17942    38.166815 
21908000    276.75616    223.81556    137.27513   -83214.865    83242.776    86.540436    38.157685 
21912000     280.7589    478.93795    369.97552   -83224.749    83256.829    108.96243    38.158808 
21916000    271.82216    521.57201    360.54617   -83245.483    83264.608    161.02584     38.15921 
21920000    289.19268    537.05476     260.1502   -83244.922    83277.291    276.90456    38.166211 
21924000    262.66459    409.75493    272.31028    -83249.65    83301.272    137.44465    38.166575 
21928000     260.4525    509.44925    205.92293   -83281.425    83317.076    303.52631    38.170199 
21932000    285.86554    280.94962    261.60068   -83299.372     83327.57    19.348947    38.176142 
21936000    297.74629    323.28694    347.74831   -83313.519    83330.692   -24.461369    38.175579 
21940000    279.12316    427.61986    338.04913   -83317.886    83333.203    89.570722    38.175463 
21944000    284.78436    527.19442    306.78172   -83334.122     83372.09     220.4127    38.173271 
21948000    278.46058    519.80351    237.61955   -83366.031    83415.777    282.18396    38.175958 
21952000    264.90908    341.18651    235.01583   -83392.155    83418.037    106.17068    38.176663 
21956000     316.8117    506.67309    542.34639   -83421.403    83420.035   -35.673298    38.176193 
21960000    286.40733      283.604     317.0963   -83423.167    83442.209   -33.492295    38.175508 
21964000    253.06786    461.42775    235.88488   -83424.956    83460.676    225.54287    38.174658 
21968000    292.35947     234.0548    344.48355    -83454.81    83483.854   -110.42875    38.170143 
21972000    285.20752    428.66757    388.86846    -83459.64    83490.719    39.799107    38.170979 
21976000    278.56729    255.81042    322.54725    -83484.97    83502.214   -66.736829    38.172102 
21980000    260.79257    190.08534    310.79927    -83479.59    83523.427   -120.71392    38.173536 
21984000    297.67011     546.1873    333.85696   -83492.104    83518.424    212.33033    38.172995 
21988000    262.73705    359.20198    223.96638   -83503.391    83539.934    135.23559    38.172204 
21992000    307.25207    443.97609    407.23886   -83532.317    83530.188    36.737232    38.173937 
21996000    285.69366    465.81266    312.37897   -83540.282    83573.301    153.43369     38.17956 
22000000    304.95016    308.41115     202.0283   -83557.654    83580.412    106.38285    38.179307 
22004000    298.52594    361.96308    497.60672    -83576.66    83606.621   -135.64364    38.171162 
22008000    273.75839    418.25365     138.8424   -83580.451    83614.097    279.41125    38.172456 
22012000     265.1069    461.74146    342.98923   -83586.466     83619.23    118.75223     38.17034 
22016000     267.4186     420.5368    328.60571   -83597.084    83630.354    91.931086    38.174968 
22020000    278.77075    464.88013    213.18618   -83620.506    83660.845    251.69395    38.177565 
22024000     293.2035    491.40002    353.51808   -83650.986    83672.055    137.88194    38.179671 
22028000    277.39016    436.67861    253.14246   -83668.246    83696.578    183.53615    38.169032 
22032000    273.99539    278.71726    395.82176   -83685.443    83714.881    -117.1045    38.168917 
22036000    265.42275     335.6826    235.02035    -83704.31    83732.269    100.66225    38.163275 
22040000    269.84435    290.53064    300.91195    -83714.14    83753.521   -10.381312    38.154103 
22044000    280.09709    358.09174    258.49235   -83740.584    83759.789    99.599385    38.158809 
22048000    280.78297    410.07157    241.02896   -83739.171    83763.827    169.04261    38.157909 
22052000    308.02033    421.66005    364.64863   -83756.334     83780.69    57.011423    38.156113 
22056000    287.17641    316.16083    248.81539   -83801.538    83820.703    67.345443    38.154741 
22060000     294.3599     162.3069    422.84645   -83817.611    83823.943   -260.53955    38.153197 
22064000    290.06877    415.29997    309.80072   -83824.887    83846.978    105.49925    38.164349 
22068000    286.98857    542.87509    358.40818   -83837.526    83862.792     184.4669    38.168525 
22072000    286.42914    285.90585    423.56873   -83851.582    83878.116   -137.66288     38.16577 
22076000    281.89485    167.34883    167.50463   -83862.907    83886.334  -0.15579757     38.16185 
22080000    289.62751    333.10432    235.87251   -83885.269    83912.841    97.231808    38.158847 
22084000    304.35648    279.73311    208.06076   -83917.992    83945.201    71.672344    38.167715 
22088000    253.82308    370.07716    237.55154   -83948.037    83966.915    132.52563    38.158585 
22092000    286.43926    220.71722    459.47183   -83968.625    83997.814    -238.7546    38.152699 
22096000    293.72914    398.72478    270.60127   -83997.621     84023.47    128.12351    38.159155 
22100000     312.2735    458.92356     373.5019   -84016.062    84027.376    85.421659    38.164067 
22104000    294.38677    521.67119    204.54102   -84036.331    84065.474    317.13017    38.164269 
22108000    309.25546    253.51694    479.23156   -84071.344    84062.268   -225.71462    38.159706 
22112000    297.53553    489.92049    217.12362   -84080.306    84102.899    272.79686    38.167823 
22116000    264.41231    225.01975    214.42337    -84084.75    84135.221    10.596387    38.168054 
22120000    267.29211    226.57133    398.64839   -84106.924    84135.431   -172.07706    38.164369 
22124000    276.93762    426.36988    189.05215   -84125.648    84151.495    237.31773     38.16449 
22128000    277.18892    239.88759    241.59476   -84159.516    84190.495   -1.7071697    38.161891 
22132000    280.81404    462.98337    173.67381   -84160.879     84193.68    289.30956    38.166597 
22136000    259.81857    362.28295    239.69958   -84176.068    84222.945    122.58336    38.162705 
22140000    293.70293    657.85841    335.44026   -84218.448    84231.999    322.41815    38.163634 
22144000    310.17667    484.47589    402.31479   -84212.886    84223.674    82.161104    38.169906 
22148000    287.47705    314.90554    381.52889   -84215.211    84229.071   -66.623353    38.167051 
22152000    289.72997     213.4202    597.61263   -84228.241    84238.673   -384.19243    38.163852 
22156000    275.08747    240.56301    307.02004   -84258.171    84276.355   -66.457031    38.165858 
22160000     287.7941    339.17275    240.13914   -84267.588    84298.843    99.033617    38.171716 
22164000    272.57354    313.68261    343.17648   -84284.262    84322.638   -29.493863    38.170566 
22168000    293.12581    298.47679    435.01466   -84295.416    84321.417   -136.53787    38.169709 
22172000    279.36052    623.90361    209.29238   -84310.544     84346.83    414.61123    38.169013 
22176000    289.22725    221.62707    283.02632   -84332.663    84357.548   -61.399249    38.160471 
22180000    310.24641    437.80463    412.31721   -84361.305    84384.729    25.487415    38.167091 
22184000    300.87679    274.88558    605.35718   -84384.773    84393.403    -330.4716    38.158913 
22188000    284.91646    461.14156    268.12514   -84402.055    84425.941    193.01642    38.162463 
22192000    291.34432    423.39573    261.86673   -84421.738    84445.732      161.529    38.160738 
22196000    294.49957    426.71739    306.18386   -84408.584    84447.772    120.53354    38.156571 
22200000     303.0551    254.83244    348.37082   -84442.705    84452.998   -93.538382    38.155415 
22204000    287.14236     281.8909    149.85856   -84466.111    84484.473    132.03234    38.146307 
22208000    291.44069    226.59284    429.90606   -84464.061    84494.687   -203.31321    38.142988 
22212000    288.47697    383.74578     428.7417   -84518.409    84527.164   -44.995921    38.136612 
22216000    302.05978    510.14847     253.4259    -84535.09     84544.19    256.72257    38.141961 
22220000    268.26693    308.75219    446.33961   -84535.009    84575.152   -137.58743    38.133177 
22224000    283.49738     327.1356    244.22884   -84559.869    84592.374    82.906761    38.137012 
22228000    280.16515    294.04963    429.12159   -84565.689    84597.122   -135.07196     38.14079 
22232000    263.05702    402.88329    291.04042   -84581.997    84613.755    111.84287    38.137777 
22236000     258.9616    477.49581    331.18476   -84595.985    84646.793    146.31105    38.130627 
22240000    228.32989    188.99516    237.06654    -84592.76     84655.61   -48.071381     38.13079 
22244000    288.68083    577.99795    287.97714   -84635.833     84656.74    290.02081     38.12961 
22248000    304.04084    278.39057    552.76103   -84650.162    84659.585   -274.37046    38.132769 
22252000    264.87099    245.80183    299.71167   -84683.807    84694.658   -53.909844    38.137222 
22256000    293.24505    269.49412    371.78927   -84688.256    84710.248   -102.29515    38.129773 
22260000    270.34967    310.62402    287.39457   -84673.855    84711.927    23.229447    38.130257 
22264000    262.27061    400.46284    394.66437   -84708.258    84751.583    5.7984768     38.12504 
22268000    259.39764    268.14478    456.34705   -84712.532    84759.936   -188.20227    38.120632 
22272000    305.32479    316.87986    282.26595   -84754.061    84768.529    34.613903    38.115797 
22276000    300.70844    397.14831    308.73605    -84745.11    84774.315    88.412252    38.121473 
22280000    288.26251    330.03428    357.00765   -84790.104    84805.971   -26.973368    38.120111 
22284000    281.73489    301.81057    230.32908    -84804.64    84823.693    71.481489    38.127343 
22288000     286.5071    518.61351     263.3807   -84817.302    84853.338    255.23281    38.131087 
22292000    285.72865    343.34532    273.84311   -84810.948    84846.476    69.502207    38.133623 
22296000    293.27594    497.51819    357.02417   -84835.662    84855.106    140.49402    38.132224 
22300000     254.7379    342.90867    254.21173   -84855.544    84911.959    88.696935    38.130081 
22304000    282.78431    315.33019    509.06604   -84885.823    84888.413   -193.73585    38.128251 
22308000    288.27715    420.84556    186.70969   -84878.112    84904.586    234.13587    38.125962 
22312000    289.00086    521.67517    175.55388   -84899.752    84927.975     346.1213    38.124757 
22316000    290.43176     502.7077    365.78315   -84920.113    84938.281    136.92455    38.130743 
22320000    288.99483    431.71681    344.31163   -84946.834    84949.993    87.405184    38.125105 
22324000    323.66916    421.65402    439.80637   -84965.767     84960.86    -18.15235    38.129862 
22328000    302.61617    400.91687    281.59868   -84988.611    84993.462    119.31819     38.12987 
22332000    259.36248    406.86854    295.62358   -85019.633    85036.373    111.24496    38.125485 
22336000    278.47385    222.86226     435.5589   -85028.801    85052.561   -212.69664    38.119778 
22340000    293.99351    455.11597    281.96429   -85049.299    85057.766    173.15168    38.125904 
22344000    274.15954    383.07295    295.26688   -85049.296    85067.583    87.806069    38.132587 
22348000    299.78224    555.84971    364.51402    -85072.66    85089.088    191.33569     38.13382 
22352000    292.93016    429.54809    230.03828   -85088.428    85109.711    199.50982    38.133902 
22356000    255.34432    207.57196    476.43707   -85104.361    85125.091    -268.8651    38.127021 
22360000    268.58346    309.34345    296.82232   -85100.353    85144.552     12.52113    38.117218 
22364000    295.18137    568.15405    220.94333   -85127.697    85142.905    347.21073    38.109483 
22368000    242.23595    186.53697    341.55187   -85125.963    85176.151    -155.0149    38.104636 
22372000     311.5517    498.94406    383.72244    -85156.26    85162.423    115.22162    38.101659 
22376000    304.26603    411.44482    296.18313   -85164.814    85176.262    115.26169      38.1004 
22380000    258.37978    302.21141    347.84324   -85169.602     85206.14   -45.631831    38.108808 
22384000    287.28946    419.53335    285.87972   -85186.367    85218.206    133.65363    38.111466 
22388000    247.42754    385.00109    344.11084   -85187.165    85241.232    40.890247    38.108569 
22392000    251.53385    328.68376    224.63132   -85186.827    85230.654    104.05244    38.115657 
22396000    281.81367     302.0471     366.8179   -85202.914    85235.296   -64.770802    38.122165 
22400000    262.64395    370.04891    233.42786    -85218.22    85259.274    136.62106    38.115451 
22404000     305.4898    258.51662    337.86826   -85265.851    85272.969   -79.351636    38.111779 
22408000    276.42998    161.24775    233.81224   -85281.424    85307.135   -72.564489     38.10529 
22412000    276.48368    338.50507    265.00753   -85307.153    85337.193    73.497544     38.10516 
22416000    297.91056    181.60303    206.91446   -85329.626    85349.305   -25.311427    38.103702 
22420000    299.06263    357.61258    197.72745   -85368.881    85389.506    159.88513    38.108619 
22424000    264.90538    285.79122    187.75004   -85372.448    85396.962    98.041186    38.116627 
22428000    301.69735     318.3392    337.77881   -85382.472    85402.706   -19.439603    38.116295 
22432000    252.90098     436.3048    317.46075   -85407.452    85432.341    118.84405    38.113882 
22436000    284.67057    578.41705    443.65358   -85429.974    85454.588    134.76347    38.114241 
22440000    282.12055    494.31932    234.99736   -85436.918    85465.455    259.32196    38.111805 
22444000     296.1195    586.20024    448.07571   -85451.723    85477.802    138.12453    38.106104 
22448000    297.27391    497.62438    185.64239   -85467.913    85500.309    311.98199    38.095762 
22452000    273.37098    378.62163    556.16131   -85459.816    85508.158   -177.53968    38.101326 
22456000    296.33299    359.03532    325.35655   -85514.617    85511.031     33.67877    38.105378 
22460000    256.05069    208.35603    317.09504   -85494.125    85531.499   -108.73901    38.107594 
22464000    265.75386    381.36202    445.30432   -85510.493    85545.281   -63.942307    38.116162 
22468000    265.00885    274.08351    311.86618   -85532.452    85567.559   -37.782668    38.113034 
22472000    328.77428    625.73273    286.26764   -85567.893    85575.894     339.4651    38.119857 
22476000    301.74037    430.88258    269.83125   -85578.918    85603.314    161.05132    38.123963 
22480000     281.7025    293.33452    293.51879   -85592.166    85616.011  -0.18427103    38.125216 
22484000    282.94303    310.27456    208.50319   -85627.906    85660.572    101.77138    38.126816 
22488000    273.19081     296.8896     302.4842   -85669.226    85698.995   -5.5946011    38.129585 
22492000     284.2606    246.24843    452.14485   -85697.594    85719.386   -205.89643    38.127505 
22496000    259.09939    332.94566    282.09301   -85707.708    85735.018    50.852648    38.128787 
22500000    257.68596    355.09345    341.31341   -85714.946    85759.542    13.780037    38.132927 
22504000    266.01694    558.06954    249.30834   -85719.736     85746.06     308.7612    38.132196 
22508000    275.40088    302.47411    296.16135   -85729.958    85750.658     6.312764    38.135589 
22512000    306.30302    491.46014    366.80594    -85782.27    85792.245    124.65419    38.130421 
22516000    291.51563    448.51402    341.14891   -85787.209     85811.68    107.36512    38.120511 
22520000    248.35242    447.85053    317.85238   -85801.712    85833.506    129.99815    38.125272 
22524000    287.80516    322.34663     346.6003   -85828.433    85860.256   -24.253667    38.123695 
22528000    287.24682    232.81533    318.97077   -85846.052    85873.538    -86.15544    38.130631 
22532000      261.815    210.84425    228.59275   -85864.617    85903.447   -17.748501    38.129329 
22536000      252.733    312.17199    279.19885   -85885.096    85919.699     32.97314    38.129483 
22540000    253.68508     397.2822    136.81077   -85907.105    85955.256    260.47143    38.135249 
22544000    250.98853    466.67474    418.84464   -85916.431    85965.865    47.830097    38.132255 
22548000    279.50225    488.07266    223.52472   -85935.609    85961.238    264.54794    38.128541 
22552000    248.90053    388.18324    360.70496   -85949.898    85999.539    27.478278    38.128091 
22556000    274.47794    481.15136    254.23023    -85976.53    86016.332    226.92113    38.131316 
22560000    268.51736    219.21903    301.77736   -85972.819    86020.728   -82.558328     38.12462 
22564000    289.97481     431.6248    528.57041   -85971.553    85992.193    -96.94561    38.124756 
22568000    298.34227    307.43639    322.53278   -85976.858    86004.897   -15.096381    38.122383 
22572000    271.99303    416.98934    227.80758   -85985.493    86014.254    189.18176    38.121596 
22576000    291.23423    349.58234    257.90061   -85995.608     86036.77     91.68173    38.122284 
22580000    249.34531    340.19779    498.44016   -86004.119    86061.103   -158.24236    38.117949 
22584000     278.7058    388.23253    311.39079   -86032.852    86068.115    76.841739    38.110421 
22588000    276.83581    247.01943    410.50359   -86025.901    86046.147   -163.48415    38.108197 
22592000    286.57934     381.2291    236.96704   -86030.147    86052.688    144.26207    38.111861 
22596000    288.92803    587.89428    327.87569   -86047.892    86085.976    260.01859    38.108761 
22600000     295.8383    520.49856    281.05776   -86075.293    86093.625     239.4408    38.106805 
22604000    292.48293    440.65632    371.79878   -86075.312    86116.178    68.857538    38.105117 
22608000    286.21447    514.23215    238.26553   -86101.942    86136.394    275.96662    38.108929 
22612000    279.41076    312.72258     288.0846   -86122.067    86156.311    24.637982    38.111566 
22616000    281.63583    273.57435    282.86534   -86139.092    86176.864    -9.290994    38.111897 
22620000    247.39896    310.18707     177.5019   -86139.162    86201.446    132.68518    38.112467 
22624000    272.10526    327.23031    312.14181   -86145.337     86182.11    15.088498    38.108193 
22628000    239.54479    219.88031    275.88486   -86154.553    86216.598   -56.004545    38.105799 
22632000    299.35356    104.74938    363.03649   -86173.696     86204.15   -258.28711    38.099777 
22636000    283.20451    288.98468    412.03015   -86193.527    86230.381   -123.04546    38.096156 
22640000    278.36621    384.10888    200.97367   -86219.094    86254.886    183.13521    38.096787 
22644000    265.03101    294.66378    336.38457   -86242.436    86268.528   -41.720789    38.094353 
22648000    298.32265    371.63004    218.04764   -86230.482    86264.823     153.5824     38.10381 
22652000    256.75239    282.50897    360.40549    -86237.01    86270.136   -77.896525    38.094691 
22656000      269.069    358.14785    191.05254   -86246.182    86288.167    167.09532     38.09741 
22660000    317.19353    234.73434     299.8461   -86302.036    86312.347   -65.111755    38.098691 
22664000    278.68836    670.86724    172.07552   -86338.967    86354.684    498.79172    38.103561 
22668000    280.05514    279.63172    240.59578   -86357.235    86388.598    39.035938    38.108051 
22672000     279.3164    490.48698    176.45702   -86380.405    86408.222    314.02996    38.111082 
22676000    266.51402    395.21767    217.38813   -86369.789    86412.568    177.82954    38.113918 
22680000    281.81354    519.39619    242.72868    -86384.18    86414.025    276.66751    38.108716 
22684000     282.7985    438.64665    265.29977   -86393.958     86434.37    173.34688    38.106215 
22688000    305.15147    337.52844    377.87569   -86397.178    86422.009    -40.34725    38.102102 
22692000    318.46319     307.9399    193.63915   -86443.108    86435.957    114.30074    38.098775 
22696000    314.89275    217.81485    390.11956   -86460.338    86477.361    -172.3047    38.093107 
22700000    312.09043    362.06733    464.88137   -86492.806    86503.704   -102.81405     38.09267 
22704000     299.8015    339.47844    263.52017   -86513.067    86519.778    75.958263    38.094472 
22708000    291.09861    139.49408    405.37657   -86533.055    86557.682   -265.88249    38.098083 
22712000    305.19148    268.99673    354.24124   -86542.321    86556.274   -85.244514    38.097894 
22716000    295.89282    554.96266    401.40923   -86548.124    86567.439    153.55343    38.087134 
22720000    304.07268    494.17867    490.71754   -86556.614    86576.602    3.4611216    38.091171 
22724000    292.70606    232.88804    182.82367   -86574.434    86597.374    50.064372    38.093636 
22728000    290.99435    599.63657     442.3684   -86607.846    86629.772    157.26817    38.098004 
22732000    305.09988    234.49061    293.11534   -86645.016    86659.797   -58.624729    38.097108 
22736000    296.35262    296.66771    328.60245   -86676.494     86683.49    -31.93474    38.102382 
22740000    284.26735    345.04406    173.12022   -86697.668    86726.182    171.92384    38.106506 
22744000    274.26296    467.73013      395.381   -86745.361    86772.596    72.349137    38.106696 
22748000    292.69995    413.98146     180.4589   -86766.646    86792.442    233.52256     38.11299 
22752000    277.30245    267.36045    249.92948   -86768.783    86792.291    17.430972    38.115342 
22756000    282.13727    425.54451     339.7727   -86789.025    86812.669    85.771808    38.115672 
22760000    290.92254    509.53478    367.46465   -86801.828    86828.086    142.07013    38.117559 
22764000     274.5151     439.9429    259.16891   -86822.698    86850.771    180.77399    38.118963 
22768000    280.91647     363.8817     362.1113   -86828.018    86860.841    1.7703943    38.122701 
22772000    258.22396    298.49723    184.58867   -86845.999    86883.917    113.90856    38.120435 
22776000    305.24314    582.16109    337.14781   -86873.427    86884.622    245.01328    38.120797 
22780000    274.31111    276.60316    552.34717   -86869.762    86894.094     -275.744    38.115656 
22784000     300.4803    507.66737    347.56481    -86892.05    86910.007    160.10256    38.119192 
22788000    250.30123    282.32155     319.3871   -86903.144    86951.552   -37.065547    38.118381 
22792000    272.35378    467.74068    389.31329   -86927.823    86953.333    78.427391    38.125716 
22796000    264.31533    394.30751    328.55857   -86907.912    86968.554    65.748946    38.123998 
22800000    262.70752    318.10303    409.32934   -86944.799      86979.9   -91.226305    38.119015 
22804000    279.23475    252.22585    398.13095   -86948.246    86999.686   -145.90511    38.118553 
22808000    293.82117    327.82259    200.90259   -86958.402    86984.015       126.92    38.114278 
22812000    285.85917    496.09738    405.91682   -86972.459    86999.576    90.180556    38.122974 
22816000    310.50641    300.32847    286.04639   -86993.529    87016.214    14.282074    38.123887 
22820000    280.69925    312.46458    275.63721   -87007.995    87032.637    36.827362    38.129069 
22824000    271.28662    220.54179    302.70737   -87028.404    87066.092   -82.165582    38.129151 
22828000    264.45942    304.78165    473.62255   -87036.618    87060.509   -168.84091    38.129531 
22832000    299.64664    375.88799    498.62593   -87072.845      87078.7   -122.73794    38.129214 
22836000    289.60752    466.84883    352.53389   -87070.928    87084.668    114.31494    38.125311 
22840000    323.82736    536.45734    464.66206   -87098.392      87109.8    71.795276    38.131691 
22844000    289.80719    316.49462    612.21943   -87119.665    87145.436   -295.72481    38.126061 
22848000    288.70926    407.90519    358.72223   -87128.795    87147.356    49.182963    38.131726 
22852000    296.87174    190.08344    399.11404   -87140.265    87161.576    -209.0306     38.13049 
22856000    293.19851    321.87338    190.97479   -87185.074     87200.79    130.89859    38.134819 
22860000    263.75146    404.39552    205.61491   -87167.905     87214.63    198.78061    38.144801 
22864000    279.08535      323.682    239.54607   -87196.999    87229.544    84.135931    38.144589 
22868000    257.53075    360.10549    207.84181   -87217.167    87270.044    152.26368    38.139824 
22872000    267.35871    364.75761    197.01425   -87240.881    87288.754    167.74336    38.144317 
22876000    265.96222    324.71147    171.42006   -87283.549    87305.777    153.29142    38.141172 
22880000    272.76335    437.02615    403.84515   -87293.442    87340.553    33.180991    38.141502 
22884000    271.66754    333.44597    230.41351   -87298.275    87352.245    103.03247    38.141477 
22888000    285.56569     411.5798    239.20828    -87291.84     87336.41    172.37152    38.143434 
22892000    299.87393    333.76453    260.95566   -87316.099    87338.896    72.808866    38.151177 
22896000    288.12537    255.96096    486.80782   -87324.429    87347.348   -230.84686    38.148461 
22900000    295.20339    407.36674    374.05449   -87330.815    87362.883    33.312253    38.152639 
22904000    271.13651    452.60083    348.64768   -87338.964    87394.169    103.95315    38.143684 
22908000    269.30011    508.35964    171.16906   -87365.016    87387.704    337.19057    38.144855 
22912000    305.56368     613.3205    473.41606   -87367.481    87383.544    139.90444    38.146146 
22916000    252.53691    396.10186    179.65623   -87354.568     87382.83    216.44563     38.14495 
22920000    285.10851    406.02429    520.36382   -87373.892    87406.203   -114.33953    38.141113 
22924000    281.80354     457.5566    234.71404   -87387.998    87422.391    222.84255    38.138286 
22928000     279.9261    454.83606    267.40424   -87395.331    87441.837    187.43182    38.146888 
22932000    269.51284    311.55886    250.46866   -87411.754    87452.443    61.090197    38.149312 
22936000    282.33433    382.54205    381.70853   -87443.253    87473.689   0.83352104      38.1479 
22940000    273.20273     397.5894    298.12189   -87459.911    87510.293    99.467508    38.150565 
22944000    280.57876    363.70975     259.3763   -87478.072    87501.103    104.33346    38.149081 
22948000    262.41754    273.58184    222.30731   -87478.771    87520.453    51.274526    38.156045 
22952000    264.05886    443.38207    335.67514   -87505.039     87549.18    107.70693    38.153473 
22956000    267.57677    337.87409    391.08193   -87489.418    87525.493   -53.207836    38.154178 
22960000    288.71771    346.25696    252.08888   -87493.127    87516.405    94.168075    38.153987 
22964000    304.08856    454.40243    311.33173   -87523.338    87520.454    143.07071    38.150817 
22968000    288.50569    451.19654    309.47437   -87542.342    87566.095    141.72217    38.145821 
22972000    259.62725    425.23073    247.89271   -87531.761    87581.335    177.33802    38.144288 
22976000    287.89463    459.56552    354.83271   -87579.317    87588.919    104.73281    38.148281 
22980000    270.43229    310.89099    365.33127    -87576.89    87629.402    -54.44028    38.143982 
22984000    263.19177     362.9093    185.38891   -87584.655    87629.961    177.52039    38.142821 
22988000     250.6303    267.57856    263.08285   -87592.327    87648.422    4.4957156    38.146265 
22992000    301.78762    428.71357     249.5929   -87595.446    87638.486    179.12067    38.152899 
22996000    295.28006     477.1762    435.43673   -87624.593    87643.232    41.739463    38.159786 
23000000    289.80055    576.49439    206.29148   -87645.645      87644.5    370.20291    38.165052 
23004000    281.11221    380.20261    329.95901   -87643.678    87678.662    50.243605    38.168201 
23008000    291.76768    281.97437    465.83324   -87656.271    87680.945   -183.85887    38.164429 
23012000    270.26793    322.68335    377.43331   -87651.359    87691.393   -54.749957    38.162886 
23016000    266.19572    264.00196    240.73608   -87658.342    87694.563    23.265883    38.163478 
23020000    280.00057    511.02681     502.1512   -87685.635    87710.483    8.8756142    38.162679 
23024000    290.90956    424.61482    338.09434   -87708.259    87718.889    86.520484    38.160622 
23028000    289.67517    235.12805    487.68076   -87696.906     87717.53   -252.55271    38.158592 
23032000    287.56823    311.26819    216.93597   -87710.209    87736.804    94.332221    38.154619 
23036000    269.80774    300.46573    287.23498   -87741.012    87770.285    13.230745    38.156063 
23040000    275.89187    227.77302    302.22179   -87761.962    87787.418   -74.448773    38.156392 
23044000    270.82224     354.7172    273.63943   -87772.451    87813.491    81.077772    38.154413 
23048000    287.08057    441.12038    262.33253   -87809.495    87832.245    178.78785    38.159258 
23052000    279.19217    331.82469    302.16968     -87831.8    87865.484    29.655012    38.155539 
23056000    246.36899     250.9504    201.06962   -87813.012    87884.336    49.880772    38.156829 
23060000    277.04003    331.20099    458.27493   -87848.998    87877.519   -127.07394    38.160434 
23064000    266.23083    290.61932     173.8886   -87857.946    87902.879    116.73072    38.154895 
23068000    269.44967    459.13782    264.07595   -87893.076    87920.615    195.06187    38.158018 
23072000     310.2086    488.07854    452.40311   -87925.413    87940.755    35.675434    38.151657 
23076000    281.43907    350.16267    433.64717   -87948.568    87977.946   -83.484493    38.142706 
23080000    271.83576    239.63985    374.84295   -87959.449    87995.175    -135.2031    38.131091 
23084000    298.05771    242.70475    304.63215   -87969.421    88001.868   -61.927391    38.129482 
23088000     280.6536    241.46034    293.79726   -88009.602    88033.837   -52.336916    38.130807 
23092000    298.90406    314.03297    460.84405    -88021.91    88037.097   -146.81108     38.12902 
23096000    293.10512    432.34644    360.60385   -88029.834    88051.546     71.74259    38.131094 
23100000    286.67807    485.71241    278.37168   -88047.566    88086.812    207.34073    38.132043 
23104000    294.71606    294.60558    306.78075   -88049.583    88066.049   -12.175178    38.124872 
23108000    275.47589    449.87261    405.01465   -88057.465    88097.862    44.857959    38.123537 
23112000     291.2109    190.85303    381.62058    -88066.79    88090.111   -190.76755    38.121703 
23116000    253.66637    411.43238    391.87104   -88058.224    88099.855    19.561332    38.120999 
23120000    285.33232    536.84596    245.81949   -88081.579    88111.733    291.02647    38.115905 
23124000    310.05652    353.79715    327.19255   -88082.466    88099.821    26.604593    38.109392 
23128000    268.41205    281.05845    212.20456   -88096.932    88133.345    68.853896    38.107291 
23132000    253.98198    288.95477    212.86218   -88127.509    88182.086    76.092584    38.109602 
23136000    263.94283    367.95285    214.12687   -88131.325    88188.557    153.82598    38.102001 
23140000    262.10677    298.54515    281.49329   -88146.497     88201.59    17.051865    38.102749 
23144000    304.43762    301.27471    374.99341   -88173.034    88215.874   -73.718698    38.103709 
23148000    269.92881     291.0504    439.66106   -88207.337    88244.723   -148.61066    38.105635 
23152000    245.75398    240.26272    279.13988   -88187.363    88238.835   -38.877168    38.106586 
23156000    272.20747    457.76016    335.28371   -88209.901    88229.933    122.47645    38.105999 
23160000    284.90091    254.63987    265.55456    -88210.57    88234.617   -10.914684    38.106922 
23164000    280.72756    312.65218    149.54203   -88211.638    88244.283    163.11015    38.110228 
23168000     271.3166    364.25329    389.70004   -88213.536    88232.861   -25.446751    38.113448 
23172000    294.88876    297.06731    311.97172   -88226.207    88254.805   -14.904412    38.112762 
23176000    290.36345    393.36702    254.67355   -88242.047    88244.091    138.69347    38.117109 
23180000    306.44135    352.68238     286.7966   -88244.413     88255.09    65.885779    38.117767 
23184000    293.70148    421.45735    334.69439   -88280.242    88280.358    86.762965     38.11962 
23188000    296.18314    374.21388    409.69197   -88281.151    88294.019    -35.47809    38.119745 
23192000    276.00614    221.35849    291.66918   -88294.483    88320.373   -70.310695    38.115654 
23196000    274.97119    288.06566    326.21393   -88273.838    88329.171    -38.14827    38.117131 
23200000    294.63932     497.9186    244.97935   -88309.127    88319.955    252.93926    38.118043 
23204000    292.56985    461.37608    282.79705   -88318.858    88337.445    178.57903    38.117721 
23208000    311.83428    364.40062    207.18159   -88332.511    88355.201    157.21903    38.112947 
23212000    255.36048    281.27496    247.84679   -88349.331     88389.94    33.428171    38.111909 
23216000    314.52109    424.65431    329.39324   -88365.505    88384.321    95.261065    38.110652 
23220000    270.09639    235.20883    213.14523   -88381.116    88417.598    22.063603    38.109021 
23224000    270.53892    347.90631    400.19715   -88412.414    88435.397   -52.290831    38.110448 
23228000    276.85373    338.78481     335.8237   -88414.936    88455.516    2.9611058    38.109081 
23232000    284.90185    392.09593    302.13514   -88417.988    88451.997    89.960789    38.105755 
23236000    310.72623    359.82306    272.69996   -88443.768    88457.683    87.123102    38.105256 
23240000    253.81662    298.00184    333.68721   -88446.651    88479.557   -35.685379    38.101658 
23244000    283.00018    355.15493    308.30492   -88495.568    88508.441     46.85001    38.103422 
23248000    292.06948    299.12244    370.31793   -88510.254    88526.462   -71.195483    38.108742 
23252000    283.46818    235.36465    459.39376   -88534.567    88553.157    -224.0291    38.114357 
23256000      279.089    242.00816    448.96763    -88546.33    88583.133   -206.95948    38.117853 
23260000    292.54018     392.6324    441.28622   -88539.354    88572.094   -48.653824     38.11609 
23264000    267.53005    268.98715     222.6133   -88550.661    88591.686    46.373849    38.120999 
23268000    250.64038    219.61741    242.20927   -88548.317    88601.302   -22.591861    38.118148 
23272000    248.31868     383.6642    378.07932   -88581.341    88629.933     5.584881    38.112404 
23276000    263.81395    236.85851    264.17751   -88597.633    88636.669   -27.318999    38.116409 
23280000    254.30941    560.47219    176.86323   -88621.501    88674.127    383.60896    38.117197 
23284000    267.95112    393.01024    406.31316   -88648.921    88680.672   -13.302924    38.118142 
23288000    261.64087     215.7758    303.67172   -88663.734    88710.836   -87.895923    38.115861 
23292000     257.1137    215.25204    237.22824   -88687.961     88744.91   -21.976205    38.102273 
23296000    268.10995    240.52199    547.21391   -88729.126    88769.987   -306.69192    38.104232 
23300000    308.16426    616.61292    468.01877   -88770.753    88787.139    148.59415    38.101493 
23304000     279.1834    319.54857    286.42197   -88797.097    88822.505    33.126594    38.094282 
23308000    241.85595    279.90636    252.67451   -88775.693    88828.429    27.231844    38.098466 
23312000    295.04712    465.81272    224.00072   -88790.277    88845.035      241.812    38.098346 
23316000     306.7878    401.99857    296.82247   -88841.898    88853.439     105.1761    38.095261 
23320000    277.17603     481.1996    358.87876   -88848.189    88884.385    122.32085    38.092638 
23324000    270.75266    304.24719     366.4042   -88846.554    88862.496   -62.157009    38.098758 
23328000    286.10599    225.37885    276.92825   -88878.457    88901.331   -51.549403     38.09692 
23332000    271.09967    340.10537     290.4333   -88916.336    88927.169    49.672071    38.102904 
23336000    273.01016    400.93695     407.9911   -88909.404    88958.763   -7.0541415    38.102375 
23340000    254.14915    238.24855    263.77216   -88919.549     88973.91   -25.523615    38.100096 
23344000     265.2653    371.32414    294.92369   -88918.778    88965.323    76.400458    38.098658 
23348000    316.54128    210.20799    362.56357   -88942.437      88955.2   -152.35558    38.103835 
23352000    260.94522    401.34514    276.61884   -88941.519    88978.826    124.72629    38.097616 
23356000    278.24853    227.81907    375.16901   -88936.726    88970.853   -147.34994    38.102532 
23360000     260.4186    287.24391    266.16606   -88955.573    88996.281    21.077852      38.0987 
23364000    288.20449    309.03024    424.04113   -88962.259      88996.7   -115.01089    38.095228 
23368000    291.14473    368.64778    263.20226   -88977.419    88995.279    105.44552    38.100306 
23372000    258.64898    345.83502    312.41423   -88989.389    89022.913    33.420789    38.093394 
23376000    289.95185    453.58108    282.63517   -89027.422    89050.928    170.94591    38.092549 
23380000    280.57727    249.60712    330.44413   -89045.034    89051.923   -80.837011      38.0906 
23384000      282.074     480.5337    213.08759   -89050.213    89072.894    267.44611    38.090144 
23388000    288.67966    572.03813    339.91638   -89044.903    89073.502    232.12175    38.094006 
23392000    282.05313    438.07619    293.16132   -89039.363    89080.061    144.91487    38.101062 
23396000    302.93268    414.15794    400.97703   -89059.035    89084.015    13.180916     38.10246 
23400000    278.05475     218.6601    217.92238   -89062.494    89108.204   0.73771536    38.100764 
23404000    288.65956    318.49769    323.90294   -89096.572    89120.488   -5.4052551    38.095884 
23408000    243.37426    369.29801    399.35572   -89083.284    89143.366   -30.057717    38.094158 
23412000    257.85903    489.62743    337.93348   -89105.417    89150.999    151.69395    38.093994 
23416000    264.99944     312.9423     320.7047   -89120.699    89169.708   -7.7624041     38.09462 
23420000    269.02931     408.4382      251.813   -89144.113    89186.028     156.6252    38.098894 
23424000    277.86471     384.5369    393.12107   -89152.692    89184.089   -8.5841767    38.102217 
23428000    247.66078    254.56019    268.80892   -89171.539    89216.843   -14.248727    38.097712 
23432000     275.3489    335.71063    302.44561   -89182.368    89222.916    33.265025    38.090332 
23436000    276.18541    395.71489    332.19229   -89200.109    89230.667    63.522595    38.088907 
23440000    281.25788    354.78262    255.46654   -89183.045    89219.757    99.316087    38.088825 
23444000    257.32429    271.29082    365.69023   -89200.346    89248.742   -94.399407    38.086366 
23448000    269.60034    377.87749    206.11729   -89191.574    89228.673     171.7602    38.085864 
23452000    311.74181      278.057    313.26863   -89206.896    89222.363   -35.211626    38.083442 
23456000    287.02689    258.88654    186.55762   -89228.357    89256.253    72.328919    38.081726 
23460000     280.1018    367.15237    319.31787    -89241.15    89270.839    47.834496     38.08036 
23464000    283.83981    231.37384    482.60137   -89274.879     89294.73   -251.22753    38.076242 
23468000    256.06291    312.70282     299.2748   -89260.906    89311.651    13.428024    38.073483 
23472000    277.35298    503.91563    445.37532   -89296.107    89315.551    58.540316    38.074205 
23476000    323.77929    224.74777    258.44465    -89303.36    89314.038   -33.696877    38.069517 
23480000    290.01149    378.45783    333.89142    -89307.22     89334.71     44.56641    38.065771 
23484000    301.14513    350.55727    328.06508   -89360.094    89374.583    22.492196    38.067844 
23488000    292.77417    403.69969    339.14828   -89361.542    89384.925    64.551414    38.064475 
23492000    277.61002    400.74819    301.64739   -89358.861     89384.82    99.100794    38.068352 
23496000    287.46822    385.74153    376.30736    -89370.06    89401.507    9.4341727     38.06844 
23500000    291.92089    269.03549    274.94178   -89362.459     89399.42   -5.9062919    38.071149 
23504000     271.3774    261.65715    181.76069   -89372.902    89418.407    79.896466    38.073649 
23508000    242.57562    193.48488     265.6756   -89381.941    89447.931    -72.19072    38.070569 
23512000    281.67947    265.59697    398.20653   -89424.776    89451.851   -132.60956    38.071904 
23516000    262.99524    396.67063    203.08737   -89441.718    89482.685    193.58325    38.065259 
23520000    278.24706    498.62634    339.31159   -89462.266     89497.92    159.31475    38.062314 
23524000    286.14366    476.65764    223.82047   -89508.126    89546.039    252.83716    38.059526 
23528000    281.69168    445.91635    432.58232   -89530.554     89560.45    13.334028    38.055742 
23532000    317.22136    328.28756    260.80705     -89542.5    89545.212    67.480507    38.057248 
23536000    276.59086    215.05666    477.89551   -89539.187    89562.911   -262.83885    38.055331 
23540000    251.13673    339.05124    250.29942   -89546.582    89582.961    88.751817    38.051184 
23544000    313.03985    313.63567    264.06392   -89586.645    89599.549    49.571748    38.055986 
23548000     268.7012    362.66691    371.99699   -89584.033    89633.121   -9.3300814    38.050957 
23552000    276.76042     481.0594     392.5765   -89589.409    89641.244    88.482898    38.047529 
23556000    266.14224    400.43051    199.57316   -89626.535    89658.846    200.85735    38.052265 
23560000     250.7657    249.10378    290.39168   -89630.717    89679.751   -41.287903    38.053713 
23564000    277.01373    248.38306    262.09081   -89666.783    89698.845   -13.707756    38.067714 
23568000    283.92833    421.41311    403.25836   -89691.582    89723.246     18.15475    38.064965 
23572000    293.71806    440.38637    564.55667   -89712.494    89732.477    -124.1703     38.06279 
23576000    240.75607    436.91976    298.10012   -89694.039    89753.079    138.81964     38.06435 
23580000    288.54547    267.56418    374.81509   -89715.442    89734.999   -107.25091    38.060794 
23584000    269.40378    358.05606    241.27597   -89702.723    89736.774     116.7801    38.064943 
23588000    258.12425    346.68822    199.64707    -89703.96    89745.085    147.04115     38.06825 
23592000    285.21081    308.08317    197.83774   -89722.843    89752.259    110.24543    38.065368 
23596000    263.01332    298.45034    514.97867   -89728.203    89768.193   -216.52832    38.067041 
23600000    278.70746    399.64192    224.76167   -89771.467    89785.302    174.88025    38.072491 
23604000    272.18741    424.34086    233.55134   -89788.375    89821.661    190.78952    38.066311 
23608000    291.71179    290.52159    282.08942   -89807.008    89830.577    8.4321699    38.064832 
23612000    264.70851    577.49501    198.24099   -89828.547    89873.526    379.25402    38.074239 
23616000    246.29411     221.0633    252.91027   -89848.671    89899.202   -31.846971     38.07848 
23620000    267.05957    219.96321    237.32044   -89868.613    89898.721   -17.357236    38.075718 
23624000     317.3002    284.27496    357.51577   -89895.721    89917.292   -73.240813    38.072334 
23628000    269.22787     605.0809    333.90806   -89898.183     89948.02    271.17285     38.07037 
23632000    288.67858    367.19513    287.10394   -89910.633    89947.764    80.091186    38.077149 
23636000    279.06128    406.70108    484.34395   -89918.129    89942.168   -77.642871    38.076869 
23640000    317.91866     405.6943    238.50431   -89963.741    89972.258    167.18999    38.076394 
23644000    280.99864     351.0142    336.20127   -89981.763    89992.732    14.812931    38.066946 
23648000    282.12734    183.60589    245.90628   -89998.465    90029.099   -62.300398    38.060357 
23652000    304.72105     639.3922    251.17152   -90025.098    90049.527    388.22068    38.067614 
23656000     301.6952    339.01101    429.14548   -90017.501    90050.047   -90.134472    38.068703 
23660000    269.37501    459.70176    423.00278   -90028.069    90065.498    36.698985    38.070557 
23664000    281.15787    245.85101    264.19952   -90062.604    90074.744   -18.348501    38.074566 
23668000    309.09587    385.32605    334.19558   -90065.675    90084.848    51.130464    38.072627 
23672000    288.68817    412.38446    258.74802   -90083.429    90100.844    153.63644    38.079694 
23676000    271.49388     229.8231    329.62533   -90096.529    90139.131   -99.802233    38.076927 
23680000    282.03031    228.24395    353.39397   -90112.009    90138.645   -125.15002    38.074283 
23684000    278.15542    413.44089    482.48353   -90124.615    90142.126   -69.042642    38.075222 
23688000    297.69923    253.85478     353.7967   -90163.622    90167.974   -99.941918    38.075551 
23692000    298.27211    218.42406    386.04593   -90172.486    90196.905   -167.62186    38.070356 
23696000    286.49767    324.47928    231.26624   -90177.362    90197.143    93.213044     38.07252 
23700000    293.12768    467.04567    236.76799   -90199.147    90222.742    230.27769    38.077387 
23704000     295.4995    387.99997    449.81776   -90212.291    90232.616   -61.817791    38.066712 
23708000    298.07938    464.46466    303.68735    -90241.34    90268.308    160.77731    38.067156 
23712000    292.47476    269.32894    344.41522   -90248.136    90280.607   -75.086278    38.069461 
23716000    255.69685    495.56644    281.95399   -90265.123     90300.07    213.61245    38.072931 
23720000    302.92987    412.33638    555.03841   -90264.172    90288.677   -142.70204    38.072511 
23724000    301.40964    353.73379    437.80355   -90301.408    90315.959   -84.069755    38.075471 
23728000    289.60113    420.56148    214.89729   -90332.042    90366.148     205.6642    38.081006 
23732000    246.69462    293.22895    209.34307   -90329.753    90390.869    83.885881    38.081338 
23736000    276.84371    596.60437    317.85129   -90383.002     90408.27    278.75307    38.081396 
23740000    312.34958    258.64546    198.33496    -90402.96    90426.074    60.310501    38.081325 
23744000    302.60655    736.42918    378.91681   -90406.325    90439.962    357.51237     38.07638 
23748000    294.38087    491.13974    247.57629   -90424.987    90449.188    243.56344    38.076659 
23752000    326.84841    501.25898    411.56416   -90458.453    90454.892    89.694817     38.07569 
23756000    284.24686    403.15565    136.32636   -90469.139    90512.149    266.82929     38.07862 
23760000    280.45439    256.03582    331.40449   -90499.593    90539.819   -75.368667    38.079261 
23764000    288.34634     409.2195    257.10013   -90517.705    90544.739    152.11937     38.08279 
23768000    275.59202    291.50581    389.23001   -90513.189    90548.354   -97.724202     38.08401 
23772000    278.02911     339.9291    329.55654   -90527.688    90549.153    10.372558    38.082253 
23776000    272.28751    294.88261    240.59828    -90540.34    90557.364    54.284337    38.089864 
23780000    270.67542    430.96782    381.60173   -90529.035    90573.249    49.366089    38.085529 
23784000    257.30116    405.23882    330.24439   -90558.566    90589.929    74.994432    38.089578 
23788000    272.84894    259.69021     181.9003    -90590.56    90625.537     77.78991    38.089365 
23792000    304.13284    407.71197    430.57737   -90610.157    90636.188   -22.865398    38.084643 
23796000    308.65605    410.65385    506.64035   -90622.268    90626.528   -95.986499    38.080837 
23800000    286.01191    324.81436    435.50785   -90636.186    90654.892   -110.69349    38.078649 
23804000    281.07377    370.94777    382.30165    -90645.58    90668.565   -11.353877    38.069779 
23808000    261.25449    476.18708    177.66151   -90644.813    90691.452    298.52557    38.064631 
23812000    275.92107    330.08265    369.10709   -90645.473    90670.696   -39.024439    38.060633 
23816000    266.27662    394.64806    324.22905   -90655.204    90691.528    70.419014    38.057239 
23820000    267.74803    377.42259    189.03763   -90675.693    90719.556    188.38496     38.04956 
23824000    322.25303    545.01352    364.74642   -90701.774    90722.565    180.26711    38.048598 
23828000    267.05909     490.0497    128.53544   -90711.245    90749.778    361.51426    38.045755 
23832000    278.18399    213.45558    363.97369   -90715.673    90758.504   -150.51811    38.044593 
23836000    252.67239    289.53776    338.83891   -90725.052    90766.863   -49.301148    38.042385 
23840000    261.40538    172.94631    348.01227   -90739.959    90770.469   -175.06596    38.031835 
23844000    287.86453    395.47757    225.62722   -90762.652    90790.652    169.85036    38.035065 
23848000    263.29779     483.6507    453.90508   -90780.254    90816.201    29.745612    38.042615 
23852000    313.74334    612.63899    364.41656   -90820.522    90831.743    248.22243    38.052914 
23856000    250.20714    343.05529    213.64212   -90810.004    90866.827    129.41316     38.06019 
23860000     279.0775    232.40745     366.3593   -90825.636    90854.238   -133.95185    38.053576 
23864000    284.77941    451.35317    221.33281   -90842.801    90873.633    230.02036    38.054155 
23868000    265.16299    324.30256    265.48849   -90843.239    90888.568    58.814076    38.060128 
23872000      284.488    237.60953    365.05228   -90872.128    90887.771   -127.44274     38.05846 
23876000    291.93762    417.27379    341.74435   -90900.703    90932.733    75.529445    38.059983 
23880000    271.88359    373.76807    374.86585   -90913.967     90953.39   -1.0977784    38.054119 
23884000    261.43878    554.02776    263.47186   -90918.985     90958.28     290.5559    38.056505 
23888000    272.11161    261.90453    264.81751     -90941.3     90975.03   -2.9129839    38.060394 
23892000    316.39177     494.2692    395.36974   -90975.226    90958.517    98.899463    38.066238 
23896000    328.47303    373.32654    488.05514   -90976.431    90984.884    -114.7286    38.062423 
23900000     300.8944    519.18117    269.07369   -90973.086    90996.562    250.10747    38.061716 
23904000    298.54664    338.94628     386.0622   -90995.258     91016.97   -47.115915    38.063471 
23908000    327.94691    166.13325    490.75086    -91016.71    91018.572   -324.61761    38.062359 
23912000    277.95398    429.73255    281.96957   -91030.211    91069.276    147.76299     38.06468 
23916000    311.47727    179.25988    301.18695   -91058.955     91069.75   -121.92708    38.060145 
23920000    330.90631    310.03138    292.64573   -91084.263    91083.526    17.385644    38.056512 
23924000    248.78338    250.34862    372.66992   -91076.117    91126.795   -122.32129    38.048607 
23928000    300.29842     210.3467    441.11727   -91083.537    91109.303   -230.77057    38.046988 
23932000      276.413    158.93296    317.96509   -91091.844    91121.483   -159.03213    38.047946 
23936000       283.06    477.77634    195.38669   -91126.156    91140.719    282.38965     38.05146 
23940000    286.71233    449.14796    327.04271   -91110.429     91138.56    122.10525    38.050842 
23944000    274.72525    244.63646    362.44111   -91143.602    91174.993   -117.80466     38.05357 
23948000    306.86266    383.23667    399.12452   -91169.521    91198.788   -15.887856    38.049483 
23952000    286.44643    392.28213    396.03444   -91179.555    91212.043    -3.752309    38.052343 
23956000     284.4567    256.92639    264.14057   -91205.035    91241.005   -7.2141747    38.046413 
23960000    262.84518     414.3179    382.01985   -91220.022    91249.099    32.298045    38.046593 
23964000     292.4212    344.76308    393.16213   -91233.096    91260.838   -48.399048    38.043973 
23968000     254.6832    278.85902    553.91012   -91241.961    91274.327   -275.05109    38.052485 
23972000     274.5427    240.13365    247.28471    -91265.64     91309.54   -7.1510559    38.052187 
23976000    303.87167    566.62366    333.04691   -91304.767    91314.649    233.57674    38.052362 
23980000    283.59138    222.25686    285.62544   -91297.622    91325.905   -63.368585    38.050605 
23984000    304.48015     283.4522    379.65379   -91319.025    91335.811   -96.201585     38.05086 
23988000    290.69529    391.98028    426.19005   -91335.955    91350.804   -34.209776    38.048775 
23992000    282.06535    297.06761    361.86175   -91341.892    91384.304   -64.794142    38.048498 
23996000    291.74816    329.01258    393.37927   -91382.831    91412.572   -64.366692    38.048394 
24000000    289.57504    385.81596    182.83998   -91401.028    91417.528    202.97598    38.047805 
24004000    269.29629     294.4144    281.25008   -91401.985    91440.015     13.16432    38.050698 
24008000    299.79183     322.2454    237.86355   -91418.158     91429.94    84.381849    38.046851 
24012000    262.29919    200.70507    245.43968   -91436.609    91464.318   -44.734608     38.04062 
24016000    236.77487    351.15076    255.61097   -91446.694    91499.147    95.539787    38.039012 
24020000    257.77137    312.29178     193.1004   -91491.889    91527.923    119.19138    38.043503 
24024000    299.36457    377.63202    246.99419   -91522.025    91547.067    130.63784    38.053049 
24028000    282.62405    395.77751    320.11025   -91540.362    91562.578    75.667254    38.059927 
24032000    270.82497    549.00954    419.00996   -91548.507    91559.267    129.99958    38.063987 
24036000    261.40122    302.13143    201.08152   -91542.827    91577.929    101.04991    38.064511 
24040000    323.16194    326.04669    323.96022   -91579.915    91581.512    2.0864715    38.065504 
24044000    286.16304    354.97863    252.47178   -91569.795    91571.106    102.50685    38.061662 
24048000    294.47113    436.36626    257.36627   -91556.802    91583.277    178.99998    38.062115 
24052000    314.27573    690.61491    346.91074   -91564.161    91590.765    343.70416    38.061731 
24056000    262.72666    246.07024     463.9791   -91572.627    91592.665   -217.90886    38.067584 
24060000    272.70082    337.65776    337.72008   -91590.691    91611.784 -0.062316742     38.06747 
24064000     287.4705    337.60422    358.89806   -91602.204    91635.584   -21.293833    38.069604 
24068000      288.098    547.59564    214.79324   -91636.621    91654.951     332.8024    38.073359 
24072000    268.71139    218.08076    266.91136   -91646.093    91703.209   -48.830591    38.069589 
24076000     323.6707    464.55561    479.75094   -91694.013    91710.408   -15.195325    38.066712 
24080000    292.25037    214.74536    242.34684   -91692.573    91714.846   -27.601483    38.060001 
24084000    290.27851    377.46611    319.76128   -91695.734    91720.716    57.704836     38.06209 
24088000    260.80082    298.18818    125.48929   -91714.742    91753.077    172.69889    38.060612 
24092000    276.90569    641.20871     287.2933    -91741.72    91792.026     353.9154    38.063344 
24096000    246.82482    305.08932    240.72136   -91765.175    91818.343     64.36796    38.063636 
24100000    261.42555     350.8637    500.46423   -91785.504    91817.374   -149.60053    38.064964 
24104000    282.97362    298.39268    271.18688   -91795.866    91810.995    27.205804    38.064643 
24108000    301.32947    263.78741    223.95051   -91825.664    91834.459    39.836899    38.060546 
24112000    275.25109    214.25016     302.5744   -91820.483    91861.369   -88.324238    38.055635 
24116000    265.00297    298.67073    274.44978   -91838.874    91869.789    24.220946    38.052433 
24120000    299.42958    339.40217    238.32586   -91882.417    91903.303    101.07632     38.05266 
24124000    297.84156    450.49682    304.13154   -91891.518    91918.461    146.36529    38.057286 
24128000    281.98448    579.47465    363.98891   -91921.676    91935.568    215.48574    38.062562 
24132000    296.27794    425.27668    309.15224   -91913.319    91927.738    116.12444    38.061317 
24136000    279.87003    519.49196    258.58699   -91902.968    91944.865    260.90497     38.06731 
24140000    286.49413    291.90125     211.2281     -91923.2        91950    80.673147     38.06513 
24144000    288.92291    277.23969    190.84163   -91945.339    91982.862    86.398064    38.067145 
24148000    309.34577    630.32665    420.77437   -91996.553    91996.977    209.55228    38.063559 
24152000     272.3189    388.74309    235.23893    -91995.85    92034.627    153.50416    38.065818 
24156000    257.86145    422.61613    374.31566   -92001.481    92047.001    48.300473    38.067383 
24160000    267.31446     197.7692    319.42317    -92027.75    92052.009   -121.65397     38.06641 
24164000    254.66347    239.54899    229.33829   -92009.995    92060.286    10.210704    38.070194 
24168000    251.98678    308.60838    229.47749   -92020.831    92065.401    79.130891    38.067155 
24172000    282.49789    311.22434    158.56765    -92029.53    92059.202    152.65669    38.064849 
24176000    297.27414    410.58948    329.94225   -92032.132    92080.359    80.647239    38.068309 
24180000    296.34876    480.80774    314.37922   -92072.563    92104.956    166.42852    38.068822 
24184000    305.46553    325.68999    323.36267   -92080.642    92103.466    2.3273161    38.070758 
24188000    278.35468    204.79735    481.86533   -92063.558    92089.984   -277.06798    38.063775 
24192000    264.27962    291.30988     497.2669   -92063.878    92110.357   -205.95702     38.07282 
24196000    303.05368    515.12097    309.69638   -92111.734    92137.498    205.42459    38.068607 
24200000    251.45231    206.93566    363.93321   -92097.239    92143.647   -156.99755    38.063985 
24204000    285.92687    589.17928    266.03819   -92142.021    92168.406    323.14109    38.071274 
24208000    323.01626    609.01826    278.36227   -92164.265    92174.291      330.656    38.073725 
24212000    284.50483    348.56105    369.56452   -92172.878    92174.967   -21.003466    38.071574 
24216000     284.9177    310.07148    218.77985   -92178.057    92203.934    91.291622    38.075673 
24220000    295.24339    657.85187    341.58594   -92201.062    92238.035    316.26593    38.071048 
24224000    288.34213    482.48217    411.21479   -92227.152    92245.691    71.267376    38.074356 
24228000    268.59906    147.99025    260.04419   -92241.167    92268.568   -112.05395     38.07662 
24232000    262.21173    347.00653    260.31977   -92271.073    92286.166    86.686763    38.076168 
24236000     303.5012    331.35174    540.62173   -92269.982    92299.779   -209.26999    38.079913 
24240000     292.3434    194.69218    326.69182   -92301.732    92301.827   -131.99964    38.083784 
24244000    306.89834    477.14152    392.84545   -92329.071    92324.979     84.29607    38.080247 
24248000    306.99287    326.19676    474.68804   -92365.505    92367.643   -148.49128    38.079688 
24252000    306.80044    347.74674    282.50032   -92386.081    92377.224    65.246419    38.080189 
24256000    294.86186    277.29706    324.25307    -92368.28    92387.432   -46.956008    38.075279 
24260000    300.56474    229.41401    378.45725    -92357.64    92380.421   -149.04323    38.075632 
24264000    302.17682    265.79391    274.06676   -92360.023    92382.104   -8.2728464    38.076371 
24268000    294.33673    408.37293    439.07082   -92380.698    92405.729   -30.697892    38.074161 
24272000    278.46142    208.35312     403.9005   -92398.065    92425.042   -195.54738    38.073007 
24276000    267.53338    389.34752    248.54839   -92394.492    92412.125    140.79914    38.065805 
24280000    283.45563    330.78373    205.56621    -92417.99      92438.7    125.21752    38.059611 
24284000    280.49489     347.1961     267.7184   -92433.641    92445.702    79.477696    38.064531 
24288000    281.74469     238.2663    267.42517   -92417.673    92447.075   -29.158863    38.067329 
24292000    262.44022    329.05121    349.92878   -92427.976    92476.727   -20.877573    38.059846 
24296000     271.2881    554.71599    188.22155    -92470.38    92502.059    366.49444    38.061039 
24300000    261.29974    387.47864    200.24691   -92470.455     92514.91    187.23173    38.062627 
24304000    250.49299    321.67821     200.3639   -92474.962    92531.718    121.31431     38.05526 
24308000    279.50451    190.12317    372.78656   -92468.703    92523.415   -182.66339    38.062396 
24312000     282.1703    282.93184    260.61847   -92508.773    92541.301    22.313368    38.059132 
24316000    301.11194    264.83364    331.16697   -92556.009    92569.953   -66.333331    38.054499 
24320000    249.40812    392.90858    328.12124   -92562.509    92601.147    64.787334    38.057444 
24324000    308.13664    503.63428    389.42605   -92601.084    92628.318    114.20823    38.054704 
24328000    303.98349    451.83713    284.00363   -92629.291    92645.984     167.8335    38.051952 
24332000    298.66925    444.13969    329.66008   -92633.219    92661.489    114.47962    38.050279 
24336000    274.39942    307.63972    384.23507   -92628.316     92670.93   -76.595344    38.048321 
24340000    308.65126    458.50703    328.63874   -92650.123    92680.165    129.86829    38.054719 
24344000    269.27119     474.7358    307.28051   -92674.306    92725.626    167.45529    38.059744 
24348000    246.71914     462.7535    239.93141   -92695.976    92727.739    222.82209    38.061904 
24352000    305.73795    401.93381    373.41257   -92702.136    92742.194    28.521237    38.062215 
24356000    276.73757    410.36587    272.86914   -92726.174    92761.994    137.49673    38.063934 
24360000    291.42703    425.88756     480.3883   -92733.131    92769.302   -54.500737    38.058306 
24364000    290.31984     350.7832    338.23248   -92767.616    92800.298    12.550727    38.061409 
24368000    290.70197    360.26157    207.82644    -92762.32    92799.436    152.43513     38.06072 
24372000    282.00063    236.77864    246.28285   -92744.909    92791.358   -9.5042123    38.064033 
24376000    292.36209    281.70608    613.67731   -92785.838    92807.128   -331.97123    38.069023 
24380000    255.00381    349.77178    354.83954   -92796.506    92840.959   -5.0677513    38.064919 
24384000    277.83838    274.60812    340.24052    -92805.97    92853.018   -65.632404    38.062464 
24388000    292.53595    474.20589    533.02379   -92844.558    92865.564   -58.817899    38.058351 
24392000    305.31392    417.61803    338.39303    -92876.85    92877.183    79.225004    38.060727 
24396000     278.5736    314.68515     328.5111    -92864.65    92909.724   -13.825946    38.057317 
24400000    271.64276    257.27381     193.8676   -92894.452    92936.036    63.406212    38.061527 
24404000    265.53499      260.557     276.2378   -92902.303    92932.905   -15.680796    38.058491 
24408000    284.04499    394.05629    321.46714   -92913.996    92927.957    72.589151    38.061208 
24412000    277.90397    212.70574     324.6676   -92920.083    92948.902   -111.96186    38.062157 
24416000    261.81533    416.45518     295.3537    -92916.89    92965.726    121.10147    38.056727 
24420000     290.2428    435.10128    463.41392   -92931.945    92966.425   -28.312635     38.05435 
24424000    282.17426    227.72151    298.49314   -92939.854     92976.02   -70.771635    38.053651 
24428000     281.4144    475.86698     342.3516   -92946.092    92981.675    133.51537    38.053567 
24432000    290.47908    434.91737    411.29463   -92953.146    92979.594    23.622739    38.051432 
24436000    282.75055    400.11685    258.93757   -92961.571    92991.111    141.17928    38.041896 
24440000    276.75154    516.31482    283.07149   -92949.527    92978.563    233.24333    38.042107 
24444000    291.78232    375.20901    247.05261   -92973.438    92987.003     128.1564    38.038446 
24448000    285.17234    406.64959    363.20279   -92972.806    93001.497    43.446801    38.040375 
24452000    290.82514    310.94065    308.19694   -93010.654    93025.716    2.7437025    38.035943 
24456000    263.78658    448.34213    404.81781    -92998.98    93045.285    43.524322    38.032738 
24460000    311.35347    552.94898    351.42641   -93026.773    93055.886    201.52257    38.028491 
24464000    290.90828    349.01557    362.21943   -93061.483    93083.345   -13.203858    38.028688 
24468000     287.1985    299.46574    403.74055   -93076.561    93098.716   -104.27481    38.028657 
24472000    335.06067    302.97553    355.72078   -93067.127    93066.955   -52.745251    38.026233 
24476000    296.79015    278.02398    301.26502   -93072.127    93086.422   -23.241031    38.029406 
24480000    288.03833    478.41031    357.79226   -93072.492    93110.036    120.61804    38.027667 
24484000    256.90062    350.43598    258.33868    -93100.04    93131.329    92.097297    38.030637 
24488000    298.97504    329.33172    491.82326   -93139.277    93168.739   -162.49155    38.037248 
24492000      269.818    357.70542    424.98291   -93150.383     93196.84   -67.277491    38.034056 
24496000    273.74724    292.26631    292.69903   -93177.709    93220.462  -0.43271696    38.035922 
24500000    248.44964    187.20586    214.88681   -93178.693    93242.899   -27.680948    38.038685 
24504000    249.33434    445.18068    210.95746   -93195.577    93268.507    234.22322    38.037182 
24508000     249.7133    405.84644     235.0765   -93212.386    93266.904    170.76994    38.039595 
24512000    247.31127    316.60507    428.65144    -93213.66    93274.287   -112.04636     38.03321 
24516000    305.43007    379.64112    346.23113   -93234.325    93247.582    33.409992     38.02965 
24520000    299.37011    369.13693    395.34639   -93236.315    93263.545   -26.209464    38.023854 
24524000    300.17128    519.41878    312.88533   -93257.623    93295.512    206.53344    38.025773 
24528000    286.44578    655.00857    433.29063   -93300.099    93326.378    221.71794    38.027533 
24532000      265.805    411.42733    249.50309   -93315.168    93350.686    161.92424    38.018999 
24536000    254.24186    306.87071    360.39116   -93327.216    93384.207   -53.520445    38.016362 
24540000    254.56436    522.56056    303.45782   -93338.455    93378.987    219.10274    38.021485 
24544000    291.06902    421.89116    431.13173   -93353.559    93397.292   -9.2405716    38.027307 
24548000    281.49596    272.12666    309.62746   -93381.465    93429.139   -37.500799    38.032313 
24552000     317.1465     376.4177    341.38303   -93409.499    93419.998    35.034666    38.034132 
24556000    276.45322    335.26336    523.28513   -93421.436    93447.647   -188.02176    38.038364 
24560000     243.9881    250.44278     247.0837   -93413.111    93458.503    3.3590835    38.039353 
24564000    278.69765    425.06033    213.40607   -93437.327    93461.736    211.65426    38.041761 
24568000    299.01419    781.48785    280.54071   -93458.139     93472.46    500.94715    38.044064 
24572000    270.59376    351.32679    368.03321   -93458.419        93476   -16.706417    38.043218 
24576000     269.2328    469.27096    197.18303   -93455.243    93490.055    272.08793    38.040021 
24580000       289.34    600.99808    375.22357   -93489.254    93538.112    225.77451    38.039658 
24584000     260.2994    308.70371    186.13839    -93519.28    93555.335    122.56533    38.040191 
24588000    306.45882    420.32379    249.63685   -93542.378    93562.606    170.68694    38.052472 
24592000    304.17995    220.73098    275.08411   -93578.767    93581.569   -54.353132    38.055591 
24596000    291.62162    331.88019    266.25309   -93598.993    93598.754    65.627094    38.058393 
24600000    314.86193    372.71645    487.72645   -93589.854      93609.9      -115.01    38.062385 
24604000    261.12879    324.04957    179.52525   -93603.731    93645.573    144.52431    38.068083 
24608000    307.27408    456.33247     538.8295   -93627.551    93640.112   -82.497036    38.065954 
24612000    251.87353    284.77008    223.46281   -93622.063    93679.241     61.30727     38.07528 
24616000    277.58229    399.26938    264.33095   -93653.918    93688.412    134.93843    38.075902 
24620000    301.24716    511.59252    364.04977   -93689.583    93696.326    147.54276    38.073629 
24624000    257.19721    170.83495    196.50272   -93659.745    93712.555    -25.66777     38.07674 
24628000    271.83025    317.68831    325.50535   -93683.361    93724.172   -7.8170361    38.077161 
24632000    254.31826    354.02877    248.72048    -93686.26    93734.664     105.3083    38.076115 
24636000    285.96602    176.88138    163.91861   -93703.194    93724.189    12.962766    38.074746 
24640000    282.27886    249.63877    458.13984    -93716.27    93750.437   -208.50107    38.069218 
24644000    290.73251    416.61721    299.26999   -93741.056    93769.512    117.34722     38.07039 
24648000    270.60912    349.13451    369.02942   -93765.033    93801.581   -19.894908    38.069752 
24652000    283.03161    435.34484    421.84798   -93784.268    93825.677    13.496862    38.072477 
24656000     257.6649    331.22062    369.99631   -93780.897    93828.649   -38.775692    38.072257 
24660000    291.18963    290.23251    340.66784   -93816.408    93830.797   -50.435334    38.068911 
24664000    298.32157    378.59299     305.8928   -93818.339    93843.875    72.700197    38.064868 
24668000    277.63008     435.2802    363.60375   -93836.148    93870.207    71.676449    38.062227 
24672000    283.96847    500.12005    245.59502   -93863.013    93898.378    254.52504    38.069579 
24676000    289.77157    269.34504    336.48677   -93906.241    93927.185   -67.141727    38.069381 
24680000    277.29995    255.10163    318.43476   -93937.435    93971.125   -63.333131    38.067907 
24684000    283.30943    306.67707    368.95844   -93983.612    93983.978   -62.281367    38.068932 
24688000      302.845    361.17476    150.65935     -93988.7    94009.748    210.51541    38.072344 
24692000    287.53041    482.53292    514.16054   -94028.837     94043.39   -31.627616    38.069509 
24696000    303.88399    359.02694    428.74243   -94057.196    94062.762   -69.715485    38.068766 
24700000     271.0314    440.96729    274.19137   -94085.285    94119.215    166.77592    38.071416 
24704000    266.70446    420.02789    163.24676   -94103.183    94148.791    256.78113    38.070509 
24708000     294.1546    385.15495    181.49845   -94125.441    94139.396     203.6565    38.068861 
24712000    284.01432    420.32206    528.79081    -94117.13    94155.634   -108.46875    38.063313 
24716000    258.82375    411.35931    239.81017   -94130.632    94183.926    171.54914    38.058362 
24720000    258.95236    326.15911    320.49578   -94145.006    94205.907    5.6633303    38.063357 
24724000    276.76631    371.94271    144.45076   -94171.111    94209.708    227.49195    38.063236 
24728000    283.28315    523.15029    331.37466   -94185.585    94231.043    191.77562    38.065955 
24732000     265.8943    284.56965    194.95855   -94196.989    94241.984    89.611103    38.065886 
24736000    259.20365    465.05888    326.36591   -94225.422     94263.31    138.69297    38.065692 
24740000    300.05539    499.43383    334.79519   -94258.373    94286.519    164.63864    38.074405 
24744000    276.72646    260.98525    257.15068   -94280.193    94326.196     3.834578    38.066633 
24748000     294.4743    397.52197    429.42541   -94317.529    94321.791   -31.903439    38.071206 
24752000    287.64112     533.1837    310.43965    -94323.75     94341.69    222.74404    38.073785 
24756000    304.61746    297.59485    384.70985   -94355.532    94375.881   -87.115005    38.073987 
24760000    274.50418    328.54675    451.14542   -94341.801    94387.961   -122.59867    38.075891 
24764000    281.10401    277.98729    280.95813   -94357.063    94384.149   -2.9708408    38.073591 
24768000    296.17824    386.87287    310.55784   -94375.871    94393.129    76.315026    38.078762 
24772000    261.29859    271.83955    257.37276   -94390.813    94411.311    14.466792    38.076322 
24776000    290.27662    433.46293    315.95493   -94393.023    94414.374      117.508    38.081637 
24780000    265.80928    343.57197     223.6173   -94408.816    94432.842    119.95467    38.082069 
24784000    280.34783    442.63798    289.20804   -94419.192    94436.054    153.42994    38.088679 
24788000    295.95777    372.54529      401.023   -94424.728    94451.943   -28.477711    38.088471 
24792000    279.66556    392.65457    368.24096   -94434.927    94469.085    24.413609    38.088223 
24796000    270.45175    537.65869    346.67134   -94462.132      94488.8    190.98735    38.092327 
24800000    274.63005    437.66643    234.00745   -94470.596    94509.794    203.65898    38.091726 
24804000    272.38393    400.34449    471.15469    -94465.19    94492.466   -70.810203     38.08504 
24808000    333.40631    346.23539    462.00962   -94484.941    94471.678   -115.77423    38.096307 
24812000     294.3853    224.90712    369.26403   -94479.934    94510.909   -144.35691    38.090216 
24816000     269.3194    514.32836    258.53986    -94494.65    94533.443     255.7885    38.093614 
24820000    261.58287    416.21513    221.44811   -94493.671    94527.038    194.76701     38.09395 
24824000    288.44629    294.14358    522.87098   -94510.825    94545.964    -228.7274     38.09524 
24828000    292.16872    399.00603    472.49336   -94506.854    94535.627   -73.487335    38.089879 
24832000    268.72831    238.42116    264.50643   -94529.001     94562.43    -26.08527    38.089312 
24836000    287.19781    249.92583    372.94759    -94564.73    94596.231   -123.02176     38.09227 
24840000    273.71263     515.7667    470.13198   -94553.135    94598.738    45.634717    38.092102 
24844000    283.25211    469.95011    272.67038   -94588.437    94615.856    197.27973    38.094054 
24848000     247.5616    390.10482    461.13327    -94592.07    94631.243   -71.028451    38.090491 
24852000    290.21592    276.93659    296.51675   -94597.384    94643.919    -19.58016    38.096104 
24856000     259.8833    287.84514    455.03237    -94609.98    94643.084   -167.18723    38.093983 
24860000    291.08744    418.55092    230.44103    -94634.94     94655.01     188.1099    38.090594 
24864000    296.45348    292.96424    443.01427   -94642.999    94689.613   -150.05003    38.086782 
24868000    263.73551    260.65251    331.77346   -94663.937    94725.184    -71.12095    38.089703 
24872000    295.42746    582.30267    343.09385   -94700.615    94736.125    239.20882    38.095236 
24876000    270.81581    331.08621    213.48404   -94708.037    94756.536    117.60217    38.097971 
24880000    267.28628    419.37985    172.49661   -94744.289    94787.546    246.88324    38.099009 
24884000    297.49994    399.64512    314.66533   -94772.482    94812.879    84.979795    38.100178 
24888000     261.1139    264.49292    269.90521   -94802.304    94855.695     -5.41229    38.099662 
24892000    286.91066    155.22169    354.16643   -94814.576    94860.979   -198.94475    38.091915 
24896000    257.17456    269.27376    256.13668   -94841.012    94890.657    13.137079    38.089009 
24900000    257.71831    300.86658    295.63009   -94854.382    94902.523    5.2364867    38.090774 
24904000    265.26065    303.29572    342.37984   -94892.667    94912.375   -39.084123    38.089911 
24908000    313.72779    512.69597     353.2867   -94919.648    94938.208    159.40927     38.09066 
24912000    279.83021    205.11271    313.66121   -94935.166     94966.13    -108.5485    38.091502 
24916000    302.22576    552.42062    408.96297   -94951.693    94974.126    143.45765    38.085438 
24920000    262.43919    286.90983    210.09741    -94950.67    95008.321    76.812424    38.090589 
24924000    256.17428    216.97826    258.16683   -94960.164    95008.121    -41.18857    38.087243 
24928000    269.20524    258.49663    427.23285   -94975.746    95018.743   -168.73622    38.084664 
24932000    299.31233    557.79401    398.30254   -95022.086    95030.571    159.49147    38.087135 
24936000    271.38858    287.82133    333.45955   -95030.873    95066.574   -45.638224    38.085986 
24940000    290.66918    739.20411    316.41333   -95067.912    95094.104    422.79078    38.094227 
24944000    309.38661    474.12444    588.66493   -95079.183    95099.442   -114.54049    38.098507 
24948000    281.57091    242.21326    461.11665   -95100.252    95127.771   -218.90339    38.101309 
24952000     281.6965    225.28736    337.25632   -95117.749    95158.419   -111.96896    38.101002 
24956000    273.14284    241.68195    197.77328   -95139.866    95185.994    43.908671    38.098598 
24960000    270.12319    314.25168    275.88554   -95151.218    95187.319    38.366141    38.097961 
24964000     261.9868    406.77916    358.02515   -95161.759    95205.756    48.754016    38.101204 
24968000    263.98588    215.48586    416.71268   -95171.905    95220.047   -201.22682    38.103462 
24972000    293.28486    249.30682    537.82658   -95204.556    95239.035   -288.51976    38.097024 
24976000     276.9642    318.38994     404.0253   -95209.466    95250.232   -85.635357    38.097244 
24980000    254.73931    320.06462    329.35016   -95205.813    95237.929   -9.2855467    38.090219 
24984000    304.22056     386.1276    476.57943   -95219.916    95249.416   -90.451834    38.091197 
24988000     287.9231      463.561    312.54211   -95249.963     95278.49    151.01889    38.083963 
24992000    287.97991    451.69268    417.77041   -95258.455    95277.305     33.92227    38.084521 
24996000    286.13774    355.31474    276.12184   -95247.674    95285.668    79.192898    38.091467 
25000000    277.60944     408.3025    377.52564   -95272.177    95304.736    30.776867    38.090459 
25004000    285.06604    451.02536    279.48919   -95284.646    95315.902    171.53617    38.097499 
25008000    281.93442    544.41262    279.47057   -95318.335    95347.098    264.94205     38.09352 
25012000    263.95693     254.5988    220.26347   -95314.925    95363.664    34.335333     38.09189 
25016000    278.94172      279.507    285.47035   -95338.855    95368.918   -5.9633474    38.089096 
25020000    293.95244    498.17922    292.01742   -95344.427    95368.393    206.16181    38.082035 
25024000    312.86896    189.76446    319.84566   -95369.616    95390.395    -130.0812    38.078824 
25028000    274.61406    256.33285    332.54667    -95372.83    95415.301   -76.213824    38.079957 
25032000    284.53518    383.84612    410.45406   -95396.238    95420.761   -26.607939    38.075424 
25036000    294.73866    294.09034    277.28065   -95391.197    95439.291    16.809692    38.074705 
25040000      261.061    153.89474    372.66618   -95422.502    95462.538   -218.77144    38.073913 
25044000    273.26074    340.82505    206.37935   -95449.795    95482.141     134.4457    38.074114 
25048000    264.12762    210.94624    443.16284    -95473.47     95519.73    -232.2166    38.068114 
25052000    266.58794    334.48988      310.278   -95492.529    95541.205    24.211882    38.067438 
25056000    284.06758     394.6402    288.15263   -95503.832    95533.006    106.48757    38.070619 
25060000    312.28131    472.75014    244.84254    -95538.56    95545.388     227.9076    38.057903 
25064000     305.1814    354.97793    466.46326   -95538.831    95555.317   -111.48533    38.052264 
25068000    293.43574    301.21723    308.25655   -95554.561    95570.447   -7.0393205    38.056605 
25072000    272.83742    253.82063     340.7364   -95565.058    95607.843   -86.915779    38.055889 
25076000     267.9201    424.66602    234.69375   -95587.467    95632.239    189.97226    38.057849 
25080000    261.46978    293.64964    281.07103   -95591.606    95644.651    12.578609    38.056355 
25084000     285.0645      391.986     249.4798   -95641.185    95666.602    142.50619    38.049808 
25088000    274.91547    255.55325    484.96471    -95649.57    95660.607   -229.41146    38.039316 
25092000    266.48001    401.17002    363.45526   -95653.638    95687.294    37.714752    38.036591 
25096000    269.74362    336.19963    316.42144   -95680.741    95709.781    19.778189    38.039903 
25100000    297.01907     554.9172    322.07051    -95676.55    95729.037    232.84669    38.043717 
25104000    302.13916    528.72698    335.11198   -95718.766    95735.003      193.615     38.04422 
25108000    268.47383    200.50824    314.69302    -95731.86    95764.992   -114.18478    38.039695 
25112000    285.33211    413.20962    236.73036   -95748.638     95775.19    176.47926    38.039146 
25116000    281.75261    303.30943    451.89153   -95768.629    95799.234    -148.5821    38.036153 
25120000    280.06602    449.01223    366.20235   -95752.166    95805.898    82.809884    38.036983 
25124000    296.73757    309.83063    481.22494   -95758.832    95786.831   -171.39431    38.039746 
25128000    297.39728    600.51571    364.60171   -95815.765    95835.485    235.91401    38.042544 
25132000    289.04722    237.09822     473.4502   -95821.802    95852.304   -236.35198    38.040258 
25136000    306.27182    618.85976     357.4518   -95848.966    95870.644    261.40795    38.042722 
25140000    315.29878    497.83726    420.72189   -95862.768    95877.545    77.115372    38.037582 
25144000    275.25494    556.45405    165.86633    -95877.31    95916.919    390.58772    38.041277 
25148000    286.18308    380.92189    337.43342   -95881.158    95919.046    43.488476    38.043673 
25152000    276.20662    431.44215    163.50225   -95881.486    95906.653    267.93989    38.046097 
25156000    266.62168    428.66969    371.05487   -95866.951    95917.382    57.614821    38.047996 
25160000    309.45769    349.53942    348.28453   -95904.561    95917.966    1.2548869    38.051081 
25164000     288.9604    388.89146    177.16859   -95922.342    95953.497    211.72287    38.049166 
25168000    290.88827    310.87099    319.76745   -95931.014    95955.042   -8.8964679    38.051515 
25172000    285.89865    334.10844     349.4824   -95946.806    95978.151   -15.373965    38.050176 
25176000    260.86621    325.15901    308.48984   -95932.521    95974.366    16.669163    38.052764 
25180000      274.241    515.34321    323.21336   -95947.255    95983.493    192.12986    38.054828 
25184000    292.07554    349.25468    163.22213   -95975.657    96002.412    186.03255    38.061379 
25188000    289.82607    441.96469    241.67439   -95996.768    96017.383    200.29029    38.059777 
25192000    266.34948    336.86782    356.92508   -95992.748    96035.901   -20.057261    38.060542 
25196000    276.67768    398.84351     339.8828   -96030.239    96079.901    58.960712    38.058188 
25200000    307.40513    451.71597    245.41371   -96065.529        96076    206.30226    38.057763 
25204000    283.01488    477.04431    287.60958   -96096.866    96118.484    189.43474    38.057021 
25208000    267.36948    279.94025    271.28769   -96106.624    96154.083    8.6525563    38.060967 
25212000    292.70386    439.43209    271.83526   -96128.898    96164.532    167.59683     38.05925 
25216000    258.07194    390.82145    353.79718    -96122.83    96169.748    37.024265    38.060743 
25220000    266.93844    282.02713    228.31461   -96146.937    96178.323    53.712525    38.055608 
25224000    282.94297    299.34203    325.16385   -96158.498    96192.499   -25.821826    38.063533 
25228000    254.36828    305.10743     259.4246   -96157.476    96223.553    45.682834    38.059394 
25232000    263.84201    238.74643    243.17201   -96169.829    96213.968   -4.4255877    38.059469 
25236000     276.2843    293.58121    261.56457   -96181.196    96217.644    32.016641    38.051527 
25240000    278.50496    301.30878    427.50263   -96199.637    96235.344   -126.19385    38.050642 
25244000    251.80387    201.15944    178.28564   -96215.683    96265.752    22.873798      38.0556 
25248000    284.46642     223.9531    327.13765   -96242.848    96260.271   -103.18455    38.055275 
25252000    301.19062    323.88478    358.22983   -96254.601     96282.83   -34.345048    38.051875 
25256000    271.39242    275.50136      631.115   -96264.092    96321.254   -355.61364    38.047551 
25260000     258.9861    410.18327    227.80393   -96284.398    96332.412    182.37934     38.04783 
25264000    274.87296    378.30341    306.72321   -96306.645    96349.616      71.5802    38.043966 
25268000    290.18337    223.41862    305.74265   -96324.628    96359.376   -82.324034    38.042029 
25272000    289.24741    380.32365    499.94178   -96345.771    96364.653   -119.61813     38.04255 
25276000    302.34061     325.6001     281.2264   -96356.222    96355.555    44.373701    38.038977 
25280000    319.58627    236.67174    218.12495   -96356.012    96355.744     18.54679     38.04248 
25284000    278.79055    556.34611    328.91571   -96338.376     96370.48    227.43041    38.040097 
25288000    256.79744    440.40966    285.00384   -96345.715    96404.962    155.40582    38.044983 
25292000    268.52305    305.36088    243.53711   -96363.734    96415.321    61.823776    38.045252 
25296000    292.93365    346.63908    373.98541   -96369.286    96386.401   -27.346326    38.046484 
25300000    270.12577    216.15045    279.61457   -96348.019    96401.195   -63.464124    38.049965 
25304000     309.7635    539.89908    404.64586   -96376.303     96380.74    135.25322    38.046771 
25308000    253.79175    240.52176    213.43291   -96382.572    96431.087    27.088853    38.050756 
25312000    291.24257     123.6938    399.37504   -96392.615    96429.061   -275.68124    38.044199 
25316000    260.19728     316.4844    313.99693    -96395.06    96441.063    2.4874683     38.04327 
25320000    248.39892    149.05023    280.85379   -96408.256    96464.719   -131.80356    38.050344 
25324000    268.26128    317.17122    418.53657   -96418.431    96476.164   -101.36535    38.050872 
25328000    255.99222    344.47027    432.93361   -96455.525    96493.428   -88.463345    38.043676 
25332000    280.09704    380.99975    423.77961   -96466.554    96506.165   -42.779859    38.043596 
25336000    257.28957    288.80014    444.69991   -96464.669     96520.96   -155.89977     38.04355 
25340000    294.52968    239.69014    330.73138   -96469.854    96498.257   -91.041233    38.038561 
25344000    290.51133    404.94243    459.68846   -96488.216    96521.008   -54.746025    38.040885 
25348000    284.40248    391.15573    282.34291   -96500.839    96529.768    108.81282    38.033776 
25352000    288.40195    345.69987    257.01729   -96533.168    96556.587    88.682577     38.03272 
25356000     291.9396    481.50574    451.39795   -96559.256    96579.259    30.107791    38.037231 
25360000    302.37673    297.99602    505.97446   -96589.947    96610.251   -207.97844     38.03937 
25364000     305.2554    351.04372    166.88554   -96609.586    96637.366    184.15818    38.040044 
25368000    257.24305    305.83623    332.40135   -96597.967    96654.813   -26.565115     38.03956 
25372000    237.55233    302.38471    229.02159   -96633.245    96693.516    73.363127    38.045923 
25376000     292.3928    566.44688     294.7353   -96671.859    96693.162    271.71158    38.045861 
25380000    311.16859    370.12951    475.88922   -96710.202    96727.296   -105.75971    38.043762 
25384000    273.20784    342.83607    385.72937   -96724.908    96752.205     -42.8933     38.03891 
25388000    280.91737    466.69409    204.91241   -96731.429    96770.591    261.78168    38.037896 
25392000    308.60797    473.83346    417.91152   -96740.963    96761.715    55.921935    38.032795 
25396000    290.45328     193.5736    453.99407   -96749.377    96775.217   -260.42046    38.028122 
25400000    268.20306    401.86159    207.91094   -96779.367    96790.868    193.95065    38.032957 
25404000    300.97229    323.32401    300.10761   -96795.228    96814.173    23.216401    38.033245 
25408000    298.34744    183.12293    326.42716   -96817.903    96842.424   -143.30423    38.029401 
25412000    294.60265    351.29033    471.50741   -96868.015    96857.202   -120.21708    38.029644 
25416000    315.68387    509.51965    292.23026   -96865.145    96862.581    217.28938    38.035832 
25420000    308.59472    419.38103    498.78095   -96877.032    96892.808   -79.399923    38.033695 
25424000    283.56354    329.03071    581.23653   -96890.023    96916.663   -252.20582    38.041717 
25428000    294.50296    442.46383    277.44786   -96932.088    96959.453    165.01597    38.044754 
25432000    270.41639    267.71055    408.21683   -96948.738    97000.516   -140.50628    38.045779 
25436000    259.74955     434.2323    161.39083   -96966.231    97008.893    272.84147    38.040142 
25440000    295.41832    440.56759     234.0005   -96985.997    97015.055    206.56709     38.04106 
25444000    279.06261    305.43866    270.32702   -96998.131    97026.531    35.111646    38.041929 
25448000    277.06943    251.07409     234.3577   -97002.776    97021.351    16.716395    38.041043 
25452000    307.81236    235.51321    397.05158   -97037.579    97053.887   -161.53837    38.034367 
25456000    283.78413    235.23938    236.80444   -97039.965    97084.667   -1.5650517    38.033479 
25460000    292.48185    386.35834    298.00547   -97046.659    97080.981    88.352872    38.031113 
25464000    284.03975     263.4769    400.15329   -97085.469    97093.967    -136.6764    38.026131 
25468000    262.60193    313.73417    238.85643   -97099.701    97149.041    74.877749    38.024384 
25472000    283.90848    456.22485    320.50954   -97138.542    97153.985    135.71531     38.02247 
25476000    292.46888    471.77123     407.7569    -97150.19    97170.142    64.014326     38.01543 
25480000    265.85776    415.11191    410.16667   -97161.184    97193.663    4.9452398    38.013587 
25484000    278.67974    340.95316    352.75734   -97183.925    97203.585   -11.804179    38.013938 
25488000    284.78447    448.58325    222.66398   -97225.609    97252.753    225.91927     38.01069 
25492000    246.80325    330.36139    165.35627   -97242.725    97275.356    165.00513    38.012194 
25496000    273.93102    443.30986     286.2228    -97254.48    97293.346    157.08706    38.010868 
25500000    284.20793     363.7862    363.16289   -97287.612    97318.195   0.62330125      38.0122 
25504000    270.50547    445.85693    351.71347   -97297.049    97341.578    94.143464     38.00607 
25508000    272.73007    344.82717    445.67019   -97314.455    97354.312   -100.84301    38.004815 
25512000    271.85767    245.68937    288.38097   -97332.738    97386.388   -42.691596    38.001688 
25516000    294.36043    274.16902    540.05371   -97348.439    97361.164   -265.88469    37.999928 
25520000    269.20034    127.19259    270.83897   -97346.373    97377.018   -143.64638    37.996733 
25524000    265.16025    390.93391    316.14737   -97348.985    97400.524    74.786539    38.002739 
25528000    267.45274    433.47359    187.34783   -97381.684    97413.992    246.12576    38.007731 
25532000    319.40673    458.58168    389.93367   -97426.257    97420.434    68.648012    38.011021 
25536000    320.23675    660.38178    345.23226   -97431.323    97460.783    315.14952    38.012745 
25540000    287.00921    443.15184    389.44806   -97467.203    97485.371    53.703776     38.00967 
25544000    276.87283    449.34724    277.36029   -97485.243    97513.246    171.98695    38.002853 
25548000    310.47621     409.9595    191.63444   -97512.095    97527.773    218.32506     38.00329 
25552000    285.05728    348.90901    260.92752   -97531.677    97551.971    87.981496    38.005232 
25556000    284.51447     408.4641    425.32686   -97527.544      97570.9   -16.862757    38.004384 
25560000    280.52179    375.45571    238.79468   -97565.156    97585.755    136.66103    38.007718 
25564000    311.70324    505.70027     362.0948   -97567.473    97577.534    143.60547    38.006358 
25568000    279.25461    315.43092    235.04736    -97590.62    97596.009    80.383562    38.000793 
25572000     292.0161    277.53427    339.84941   -97615.192    97644.932   -62.315133    37.998261 
25576000    282.38656    311.63546    261.10577    -97622.91    97663.654    50.529691     37.99488 
25580000    263.41395    204.16295    369.91546   -97641.651    97665.687   -165.75251    37.997988 
25584000    304.47019    260.60318    185.58955   -97686.646    97692.681    75.013629    37.996892 
25588000    305.46803    541.50633    371.31398   -97710.355    97746.299    170.19236    37.994784 
25592000    297.58608    341.97835    280.93948   -97734.902    97757.791    61.038868    37.994717 
25596000    275.19025    252.35554    296.06166   -97745.707    97778.781   -43.706116    37.990902 
25600000    266.54993    279.05334    281.30212   -97780.619    97832.441    -2.248785    37.987192 
25604000    302.67396    307.96211    206.33664    -97803.89    97829.548    101.62548    37.984797 
25608000    282.28578    193.61302    302.45521   -97822.006    97861.749   -108.84219    37.978875 
25612000    266.39682    370.17994    326.38583   -97832.952    97875.984    43.794105     37.98085 
25616000    268.72323    347.20354    321.68659   -97818.344    97864.748    25.516951    37.982259 
25620000    278.16062    262.43068    346.93186   -97843.175      97878.6   -84.501183    37.977488 
25624000    256.35153    334.93501    333.78269   -97866.925    97910.789    1.1523166    37.978667 
25628000    268.32306      176.255    182.47071   -97886.589    97920.017   -6.2157062    37.977418 
25632000    282.69388    251.20128    254.28823   -97891.136    97926.551   -3.0869481    37.977402 
25636000     284.8924    292.25049    312.65675   -97901.872    97938.563   -20.406253    37.977247 
25640000    310.06722    578.30164     422.4932   -97925.396    97939.269    155.80844    37.977674 
25644000    282.36187    376.65082    266.18677   -97938.516    97976.573    110.46405    37.979481 
25648000    294.21083    410.48228    392.49176    -97950.37    97983.261    17.990527    37.981709 
25652000     258.4289    307.51227    343.22234   -97964.631     98016.04   -35.710067     37.97862 
25656000    273.40485    267.96757    305.72817   -97990.637     98031.49   -37.760603    37.983499 
25660000    274.61547    433.23679    501.38764   -98002.493    98038.686   -68.150852    37.978281 
25664000    302.16238     456.8772    233.99277   -98021.496     98037.79    222.88442    37.979488 
25668000    300.03083    293.39655    408.13343   -98045.207    98064.126   -114.73687    37.977302 
25672000      296.121    558.54558    424.76572   -98065.744    98068.833    133.77986    37.983645 
25676000    262.37923    309.62983    312.78993   -98053.854    98093.045   -3.1601009    37.982199 
25680000    280.23268    497.31447    313.74296   -98087.386    98107.647     183.5715    37.981755 
25684000    291.93918    281.64061    219.68111   -98115.143    98147.451    61.959503    37.973536 
25688000    285.58019    366.46168    546.70981   -98137.806    98167.393   -180.24813    37.973188 
25692000    284.58956    339.75079    269.41732   -98170.091    98213.618    70.333468    37.969871 
25696000    279.53557    293.67643    465.00172   -98175.582    98221.681   -171.32529    37.968792 
25700000    283.01593    412.01493    215.94421   -98184.211    98221.741    196.07072    37.964703 
25704000    306.52902    287.26158    294.27468   -98204.521    98230.435   -7.0131053    37.961276 
25708000    249.20737    186.89223    251.09382   -98197.402    98242.824   -64.201592    37.960084 
25712000    275.74067    270.89196    264.59417   -98210.972    98261.962    6.2977898    37.963191 
25716000    313.36311    458.00807    390.18596   -98271.708    98280.468    67.822104     37.96961 
25720000    299.38354     449.6427    397.00835   -98269.454    98293.432    52.634344    37.969788 
25724000    280.16888    332.83913    352.73571   -98292.568    98318.113   -19.896581    37.968839 
25728000    283.86075    286.25448    273.92823   -98312.883    98340.259    12.326248    37.967012 
25732000    291.08738    524.35648    253.40469    -98338.36    98365.724     270.9518    37.961584 
25736000    300.32837    619.91079    256.27761   -98368.694     98375.69    363.63318    37.973116 
25740000    277.96794    322.24185    285.45833   -98363.511    98402.114     36.78352    37.974462 
25744000    265.14439    461.55682     228.9173   -98363.467    98412.263    232.63952    37.974812 
25748000    286.21809    354.56304    352.15514   -98371.058    98408.932    2.4078986    37.971168 
25752000    269.63232    217.03246    421.71619   -98368.299    98413.458   -204.68373    37.968669 
25756000    265.54586    264.50209    342.06274   -98372.254    98425.637   -77.560646    37.972839 
25760000      285.282     284.6743    286.84369   -98398.203    98432.907   -2.1693905    37.970273 
25764000    295.63667    396.40148    577.00851   -98429.443    98451.988   -180.60703    37.969682 
25768000    264.63283    271.93604    171.25704   -98444.765    98484.357      100.679    37.968136 
25772000    290.09353    328.01366    465.20186   -98469.039    98505.925    -137.1882    37.964887 
25776000     271.9993    383.76609    356.97241   -98456.823    98503.596    26.793673    37.966638 
25780000     273.0664    419.35795    286.72589   -98475.315    98528.967    132.63207    37.968781 
25784000    247.12984    453.87973    320.16245   -98504.836    98563.625    133.71728    37.965146 
25788000    293.50205    481.28812    308.49557   -98549.381     98564.08    172.79255    37.963023 
25792000    275.72344    221.53824    419.77191   -98548.378    98571.786   -198.23368    37.959144 
25796000    302.58139    430.12445     389.4248   -98567.778    98589.019     40.69965    37.959716 
25800000    275.90336    419.04176    374.02711   -98593.489    98623.048    45.014656    37.959152 
25804000    271.85966    242.64343      240.713   -98599.044      98653.2    1.9304255    37.959258 
25808000    269.70145    343.39705     280.3872   -98647.621    98681.859    63.009845    37.963508 
25812000    286.38012    320.18103    187.46014   -98639.662    98682.012    132.72089    37.971958 
25816000    298.48922    390.60475    378.83068    -98685.62    98706.668    11.774076    37.974625 
25820000    305.14078      264.153    214.23391   -98719.228    98733.435    49.919091    37.983231 
25824000    280.80201    444.08607    273.57417   -98704.838    98758.449    170.51191    37.985381 
25828000    245.95726     352.9262    361.06212   -98711.915    98759.968   -8.1359209    37.983632 
25832000    284.73115    255.80995    287.72685   -98728.923    98766.707   -31.916893    37.982465 
25836000    270.50873    324.55426    267.48657    -98745.76    98778.037    57.067685    37.984955 
25840000     255.4025    317.30266    355.72059   -98739.187    98810.975   -38.417931    37.988078 
25844000     264.7958    338.49523    145.36062   -98774.384     98832.09    193.13461    37.987444 
25848000    257.35885    455.43545    237.80355   -98776.996    98843.486    217.63189    37.985931 
25852000    238.82445    341.86553    235.46366   -98791.203    98873.098    106.40187    37.989439 
25856000    251.92293    274.49682    253.20455    -98824.28     98881.56    21.292271    37.991934 
25860000    266.69414    568.15083    216.65787     -98861.4    98896.741    351.49295     37.99555 
25864000    258.20392    433.20001    298.02438   -98872.123     98916.55    135.17563    38.004463 
25868000     291.6494    421.70017    258.79862   -98892.423     98902.42    162.90155    38.004233 
25872000    269.74497    445.90393    188.95994   -98897.265    98935.966    256.94399    37.997981 
25876000    295.18118    413.01019    400.60146   -98916.552    98932.393    12.408735    38.001127 
25880000    274.05116    346.39338    387.16986   -98936.634     98984.51   -40.776483     38.00555 
25884000    275.82237    338.79237    202.53334   -98953.935    98996.566    136.25903    38.002814 
25888000    282.85279    432.00158    296.59651   -98969.186    99012.451    135.40507    38.004497 
25892000    292.65267     341.2132    293.38511   -98991.546    99009.448    47.828088     38.00471 
25896000     303.4178     412.3411    276.63082   -99007.101    99035.009    135.71028    38.006462 
25900000    272.03131     338.9457    231.20623   -99040.099    99080.433    107.73947     38.00722 
25904000    270.53027    321.17438    302.24378   -99062.373    99095.337    18.930605    38.010109 
25908000    275.83138    520.79318    127.60429   -99053.733    99093.135     393.1889    38.013821 
25912000    255.56261    307.58856     339.8001   -99069.509    99116.428   -32.211535    38.016887 
25916000     286.7613    221.94788    350.11206   -99080.955    99108.935   -128.16418    38.012999 
25920000    280.41498    378.31463    437.76432   -99094.686    99129.289   -59.449691    38.018473 
25924000    277.39738    461.25018    289.90886   -99096.681    99138.271    171.34132     38.01696 
25928000    288.89263    285.26844    245.49974   -99095.331    99130.132    39.768703    38.014976 
25932000    252.44925    370.80586    348.82448   -99096.063    99148.827    21.981383    38.017673 
25936000    290.19586    415.87254    523.77862   -99126.491    99140.506   -107.90608    38.017487 
25940000     289.0274    564.91807    265.56717   -99140.101    99166.435    299.35089    38.020721 
25944000    287.15277    365.37243    279.63125   -99134.398    99173.645     85.74118     38.02392 
25948000    242.10598    307.19224    217.90947   -99143.145    99203.899    89.282775    38.022988 
25952000     276.4393    436.74446    237.38023   -99165.872    99189.239    199.36422    38.025869 
25956000    309.79647    369.68023    348.54196   -99189.653    99195.433    21.138264    38.027446 
25960000    293.61011    351.27554    283.61041   -99178.522    99202.816    67.665128    38.024345 
25964000    288.02503    197.57218     386.0702   -99185.978     99202.37   -188.49802    38.021724 
25968000    280.74118    411.72197    222.28722   -99197.861    99239.603    189.43475    38.017796 
25972000    251.56084    322.96322    316.38114   -99200.814     99252.42     6.582083    38.018013 
25976000    296.30062    509.75915    259.46509   -99214.855    99254.571    250.29405    38.018401 
25980000    284.46897    143.40764    437.51613    -99242.02    99253.068   -294.10849    38.016853 
25984000     287.5179    228.12296    262.34793   -99236.984    99284.111   -34.224972    38.016209 
25988000    271.44716    244.83893    433.35202   -99244.626    99288.138   -188.51309    38.019283 
25992000    286.84057    334.77612     302.3822   -99277.983    99294.428    32.393921    38.019942 
25996000    270.18049    275.39045    182.65469   -99265.898    99315.095    92.735759    38.018228 
26000000    302.98841    528.96228    291.46994   -99267.871    99301.119    237.49234    38.015338 
26004000    285.89634    300.15417    162.04733   -99296.686    99318.179    138.10684    38.016389 
26008000    303.42921    470.19352    468.61667   -99318.774    99329.475    1.5768513    38.012122 
26012000    311.36986    468.28714    291.20214   -99329.257    99330.087    177.08501     38.01248 
26016000    315.65674    540.34878    407.50084   -99338.066     99344.23    132.84795    38.012094 
26020000    273.02475    372.44761    241.57846    -99341.65     99384.83    130.86915    38.012208 
26024000    274.67351    547.92949    246.40236   -99364.364     99393.92    301.52713    38.016437 
26028000     287.1608    179.32943     368.0662   -99374.019    99393.737   -188.73676     38.01663 
26032000      277.014    300.39194    393.04232   -99397.598    99424.785   -92.650379    38.014865 
26036000    298.16347    516.82456    338.80122   -99411.768    99436.233    178.02334    38.004727 
26040000    275.01068    370.16294    402.17691   -99418.794    99450.213   -32.013963    38.001848 
26044000    280.30655    266.60936    310.42288   -99422.941    99469.827   -43.813519    37.995301 
26048000    283.34911    231.99143    321.85561   -99451.011    99497.997   -89.864179    38.000507 
26052000    293.91887     459.5901    443.39838   -99472.666    99495.499    16.191721     37.99698 
26056000    292.34068    359.95244    224.17176   -99504.562     99514.99    135.78068    38.001167 
26060000    278.95141    364.44262    312.46873     -99494.8    99551.611    51.973885    38.002211 
26064000    289.77951    395.09704    424.15627   -99534.021    99568.024   -29.059227    38.008857 
26068000    247.21528    293.54316    252.20955   -99575.329    99619.988    41.333602    38.014916 
26072000    321.84759    262.91814    673.18784   -99592.414    99612.536   -410.26971     38.01403 
26076000     265.1915    336.59993    421.04995   -99593.399    99622.948   -84.450018    38.010786 
26080000    295.68643    489.19122    393.62324   -99608.521    99620.829    95.567978     38.01202 
26084000    302.68727    414.83936    300.65484   -99630.242    99651.587    114.18453    38.012668 
26088000    286.35525    268.19981    248.59599    -99655.15    99683.934    19.603826    38.014821 
26092000    291.43882    536.27342    331.62692   -99678.256    99706.562    204.64651    38.013409 
26096000    284.64806    251.36361    316.61615   -99681.835    99721.671    -65.25254    38.015925 
26100000    269.37748     444.0689     432.0778   -99691.542    99727.369    11.991099    38.015445 
26104000    271.61518    348.72345    517.74112    -99710.45    99755.664   -169.01767    38.009387 
26108000    276.35856    349.59329    341.71959   -99749.195    99775.447    7.8737033    38.012426 
26112000    251.27701    362.09029    133.11597   -99759.715     99814.62    228.97432    38.012774 
26116000    292.34781      315.722    390.28525   -99796.761    99838.007   -74.563243    38.015015 
26120000    260.63002     364.0237    307.24615   -99808.505    99869.656    56.777558    38.018626 
26124000    264.91093    258.03913    301.38807   -99836.556    99894.299   -43.348944    38.022353 
26128000    258.94777    439.38397    293.69448    -99843.21    99901.378    145.68949    38.020242 
26132000    293.88424    523.30703    450.22319    -99865.85    99897.192     73.08384    38.018438 
26136000    276.64346    319.49238    389.47316   -99892.389    99937.663   -69.980782    38.021769 
26140000    274.71423    353.26683    425.76616   -99926.373    99957.387   -72.499324    38.021475 
26144000    278.11011    264.53522    305.50451   -99933.923    99955.594   -40.969299    38.018627 
26148000     285.7604    340.07236    377.78684   -99931.483     99977.47   -37.714481    38.027252 
26152000     292.9977    388.85745    345.21941   -99946.009    99980.818    43.638034    38.029568 
26156000    278.55982    207.47165     431.6217   -99945.869    99980.498   -224.15005    38.028738 
26160000    327.62647    583.24253     519.6568   -99983.297    99988.507     63.58573    38.031026 
26164000    283.12757    264.14353    330.39926   -99981.567    100029.32   -66.255724    38.027061 
26168000    297.04601    765.37114    242.94541   -100027.32    100050.63    522.42573     38.02766 
26172000    308.28613    426.36053    278.42209   -100054.42    100059.61    147.93844    38.021872 
26176000    310.32703    278.17626    318.66171   -100061.35    100060.55   -40.485448    38.026068 
26180000    301.97642    508.26436    294.20771   -100070.38    100092.59    214.05666    38.019036 
26184000    302.84721    398.62336    417.49541   -100101.97     100115.8   -18.872052     38.01686 
26188000    286.14347    383.90088    361.87099   -100107.95    100114.12    22.029895    38.012545 
26192000    248.43067    344.83006    208.39487   -100128.75    100172.78    136.43519    38.009897 
26196000    276.24245    329.55281    438.43597   -100136.96    100165.75   -108.88317     38.00411 
26200000    263.26168    441.78118     312.2815   -100166.98    100208.53    129.49968     38.00625 
26204000    262.21198    278.82236    272.07547   -100186.61    100225.35    6.7468905    38.007227 
26208000    287.27852    242.04867    325.38041   -100198.71    100239.24   -83.331737    38.003688 
26212000    280.99501    280.42281    235.83043   -100210.91    100244.18    44.592374    38.004228 
26216000    285.03845     313.9219    120.10257   -100247.32    100258.71    193.81933    38.005662 
26220000    291.26402    462.42384    172.57418   -100278.55    100283.26    289.84966    38.008255 
26224000    293.99129    288.92707     285.4432   -100296.16    100310.33    3.4838783      38.0054 
26228000    277.87853    313.83182    266.93975   -100322.03    100334.37    46.892069    38.007188 
26232000    311.06727    234.56611    268.91665   -100335.97     100361.9   -34.350544    38.004039 
26236000     300.6481    484.60201    419.60464   -100376.03    100395.14    64.997369    38.010675 
26240000    292.57012    205.81013    315.99899   -100359.33    100396.87   -110.18886    38.006835 
26244000    264.79546    388.38965    236.83403    -100368.9    100412.45    151.55561    38.009246 
26248000    276.13865     361.2634    380.15106   -100396.71    100429.47   -18.887667    38.012207 
26252000    325.15163    359.37047    345.08623   -100425.35    100432.48    14.284243    38.011708 
26256000    282.32464    436.11506    431.03897    -100446.7    100494.37    5.0760869    38.010324 
26260000    282.34376     394.8377    262.25952   -100460.06    100504.13    132.57819    38.018196 
26264000    286.18038    207.29444    289.13755   -100480.48    100502.37   -81.843112    38.015357 
26268000    289.13846    293.92307    459.55511   -100486.93    100504.95   -165.63204    38.013397 
26272000    290.51116    229.17048    315.27028   -100502.29    100522.72     -86.0998    38.017105 
26276000    290.72594    393.94747    404.85147   -100528.33    100550.45   -10.903997    38.013524 
26280000     326.6679    280.46427    400.78913   -100543.33    100540.69   -120.32486    38.013656 
26284000    278.33727    359.04341     413.3748   -100533.25    100553.09   -54.331389    38.014198 
26288000    289.24369    308.80958     245.3207   -100554.02     100573.4    63.488885    38.011806 
26292000    303.66932    318.88226     498.9492   -100564.34    100581.16   -180.06693     38.00687 
26296000    283.26703    386.83199    230.10151   -100582.74     100610.8    156.73048     38.01268 
26300000    269.00647     215.4318    238.48692   -100591.57    100630.29   -23.055117    38.012362 
26304000     275.5699     207.4824    437.15714   -100586.79    100628.42   -229.67475    38.005781 
26308000    298.86935    514.90077     358.1554   -100616.34    100636.04    156.74537    38.007222 
26312000    302.95321    305.41318     430.3617    -100641.1    100657.18   -124.94852    38.007967 
26316000    296.24901    368.53308    327.58236   -100641.86    100666.65    40.950724    38.012625 
26320000    257.58895    183.93278    218.25105   -100646.93     100702.3    -34.31827    38.007346 
26324000    270.27675    288.16405    376.97009   -100662.69    100711.14   -88.806044    38.008993 
26328000    280.10735       435.97    302.79625   -100700.67    100729.12    133.17374    38.011291 
26332000    283.25192     387.4471    311.97197   -100715.64    100747.66    75.475134    38.006642 
26336000    279.62054    388.85328    372.47374   -100730.81    100762.14     16.37954    38.008181 
26340000    311.45268    817.19402    389.40078   -100766.01    100777.09    427.79324    38.010322 
26344000     303.8848    366.39315    253.66925   -100773.99    100793.61    112.72391    38.006596 
26348000    284.63493    156.59233    267.54052   -100769.85    100797.54   -110.94819    38.004776 
26352000    301.68021    464.01838    218.36989   -100778.02    100811.85     245.6485    38.009184 
26356000    298.02893    416.63583     327.8711   -100805.28    100831.52    88.764736    38.013167 
26360000    262.74953    285.84632    311.49951   -100794.22    100825.82   -25.653189    38.011147 
26364000    314.79116    644.00944    432.71433   -100820.78    100833.25    211.29511    38.008573 
26368000    310.46884    349.00759     419.3689    -100828.3    100833.15   -70.361316    38.012548 
26372000    262.97017    243.37476    313.35151   -100805.51    100856.54   -69.976749    38.008055 
26376000    241.14261    163.33277    215.95915   -100814.69    100878.64   -52.626386    38.006038 
26380000    269.63209    301.57302     344.7081   -100834.24    100877.96   -43.135079    38.006934 
26384000    301.79779    484.30939    392.19573    -100861.1    100873.16    92.113656    38.008644 
26388000    286.56313    381.96216    348.36952   -100877.15    100910.46    33.592637     38.01063 
26392000    277.88346    354.56237    300.51802   -100885.37    100919.78    54.044351    38.006759 
26396000    291.92231    504.77052     395.2232   -100914.42    100932.76    109.54731    38.003938 
26400000    271.63847    256.38664    249.67345   -100910.05    100950.78    6.7131919    38.000878 
26404000    296.37919    363.71903     241.7211   -100944.29    100973.56    121.99793    38.011986 
26408000    255.58257    369.07016     280.9309   -100934.46    100976.68    88.139258    38.018798 
26412000    293.03764    463.47689    344.86378   -100942.06    100975.16    118.61311     38.01194 
26416000    270.89668    254.80792    226.82331   -100959.97    100986.39    27.984617    38.017456 
26420000    278.30366    569.41813    327.44074   -100983.72    101001.38    241.97739    38.014057 
26424000     277.4658    409.80223    458.88088   -100982.01    101017.53   -49.078649    38.013352 
26428000    252.78363    313.51944    335.05095   -100991.74    101027.88   -21.531505    38.018701 
26432000    274.01254     222.2435    145.36318   -101002.65    101051.42    76.880327    38.016938 
26436000    300.03653    341.63016    380.48251   -101031.76    101070.36   -38.852352    38.012027 
26440000    294.92167    346.17323    467.23379   -101053.57    101081.91   -121.06056    38.008581 
26444000    251.49667    264.39086    344.05712   -101047.12    101096.09   -79.666259    38.008444 
26448000    286.37759    443.45438     271.9478   -101073.26    101111.25    171.50658    38.008438 
26452000    285.96166    384.39959    358.83838      -101087    101097.69    25.561207    38.006054 
26456000    308.96806    566.06058    323.49043   -101093.16    101106.05    242.57016    38.008334 
26460000    311.14166    406.07054    316.06655   -101126.05    101129.54     90.00399    38.012868 
26464000    301.35725    216.55658    672.91141   -101152.24    101150.11   -456.35483    38.014381 
26468000    330.52313    301.74653    345.51411   -101165.72     101169.6    -43.76758    38.011666 
26472000    288.99681    477.88247    456.53492   -101173.45    101204.25    21.347557     38.01815 
26476000    280.82015     338.1047    349.01444   -101189.61    101212.47   -10.909736    38.015817 
26480000    293.74079    278.48114    258.58031    -101187.8    101206.38    19.900838    38.010769 
26484000    330.20887    327.97532    490.27425   -101215.08    101220.02   -162.29893    38.008054 
26488000    300.17707    352.48186    236.88584   -101218.78    101237.87    115.59602    38.007782 
26492000    284.17127    350.87537    353.65297   -101256.16    101269.35   -2.7776001    38.006549 
26496000    255.08853    326.42875    199.95242   -101244.35    101272.96    126.47632    38.004704 
26500000    264.52284    304.90209    228.66882    -101252.8    101294.49    76.233269     38.00486 
26504000    288.41495    293.67358    234.28372   -101254.65    101291.32    59.389858    38.002721 
26508000    261.07444    280.88273     326.6059   -101290.14    101323.23   -45.723173    38.005855 
26512000    299.06681    215.06779    334.65396   -101306.06    101328.95   -119.58617    38.008049 
26516000    270.47208    323.17088    252.30146   -101324.62    101367.58     70.86942    38.011055 
26520000    302.64743    338.39897    438.65327   -101341.19    101367.48    -100.2543    38.015237 
26524000     268.8895    308.95172    254.50522   -101363.17    101389.58    54.446494    38.015942 
26528000     284.8306    268.85472    259.98791   -101378.47    101424.94    8.8668115    38.018312 
26532000     278.2677    462.43586    328.38299   -101399.08    101429.73    134.05287    38.016886 
26536000    302.62308    317.81538    447.47867   -101421.09    101431.06   -129.66329    38.011381 
26540000    257.68498    255.54753    321.29912   -101401.47    101461.89   -65.751594     38.01563 
26544000    337.77162     412.2521    445.97139   -101457.72    101454.19   -33.719281    38.022405 
26548000    300.51323    273.26779    383.14479   -101453.16    101483.17     -109.877    38.024294 
26552000    278.96252    320.21427    465.68064   -101482.69    101522.14   -145.46637    38.025198 
26556000    278.41878    371.60227    415.48659   -101495.77    101530.76   -43.884328     38.02337 
26560000    298.04376      509.311    243.92393   -101522.71    101554.12    265.38707    38.019514 
26564000    282.91432    262.97536    262.34199   -101545.52    101571.42   0.63337515    38.016652 
26568000    270.03382    211.85269    214.08589   -101530.25     101594.8   -2.2332016    38.013509 
26572000    282.68583    408.03321    133.16841   -101530.28    101580.11    274.86479    38.016064 
26576000    247.26842    370.32463    141.29316   -101563.17    101596.97    229.03147    38.019127 
26580000    302.48439    400.81422    361.81648   -101582.41    101603.53    38.997748    38.022797 
26584000    262.48439    408.79408    326.91449    -101571.6     101617.1    81.879592    38.024184 
26588000    263.90903     280.6094    333.43184   -101579.06    101632.86   -52.822441    38.025873 
26592000    305.68266    275.22104    306.08549   -101607.92    101616.45   -30.864449    38.025585 
26596000    295.53709    352.39715    370.85275   -101621.91    101674.57   -18.455607    38.026997 
26600000    293.53517    266.53262    312.14256    -101637.8    101677.16   -45.609946    38.026875 
26604000    260.00553    249.51863    335.69981   -101641.97    101695.31   -86.181182    38.030287 
26608000    281.88233    450.98777    321.36817   -101670.02    101704.53     129.6196    38.025062 
26612000    273.33296    310.61946    249.19719   -101705.59    101724.02    61.422277    38.018412 
26616000    276.91941    332.96643    311.72175   -101706.73    101744.62    21.244677    38.015712 
26620000    282.04041    375.71682    358.13079      -101742     101765.8    17.586031    38.015692 
26624000    272.84888    306.31482    388.32453   -101741.68    101789.17   -82.009711    38.012728 
26628000    277.29176    326.61621    465.89808   -101759.61    101781.98   -139.28188    38.011203 
26632000    280.13498    510.86858     128.4244   -101788.37    101823.83    382.44418    38.015492 
26636000    280.88677    373.50018    547.83755   -101794.92    101823.21   -174.33736    38.013175 
26640000    271.06203    374.20398     338.5116   -101796.73    101832.98    35.692374    38.014452 
26644000    279.66097    281.84799    446.46229   -101806.56    101824.13    -164.6143    38.017935 
26648000    295.54769    255.70173    446.41183   -101804.66    101839.45    -190.7101    38.015892 
26652000    311.25006    208.68083    299.98258    -101814.6    101821.14   -91.301752    38.011124 
26656000     281.7667     371.4496    280.06257   -101800.21    101847.47     91.38703    38.008866 
26660000    266.98465    454.58318    289.38315   -101828.29    101869.47    165.20002    38.008075 
26664000    308.85178    346.90972    467.94126   -101859.34    101860.71   -121.03154    38.006792 
26668000    276.08623    318.68121    262.08694   -101887.74    101906.84    56.594272    38.005964 
26672000    281.92268    272.53429     388.8463   -101899.72    101919.63   -116.31201    38.005484 
26676000    274.13306    420.25798    329.53864   -101907.33    101954.45    90.719342    37.999646 
26680000    263.39459    300.38322     526.1172    -101940.5    101975.45   -225.73398    38.000198 
26684000    273.93722    436.59165    195.79508   -101934.96     101988.7    240.79657    37.996643 
26688000    270.05285    339.85669    312.56464    -101959.6    101980.85    27.292051    37.994364 
26692000     280.0697    375.36495    431.54122    -101959.4    101996.35    -56.17628    37.995364 
26696000    302.98777    327.12756    293.22435    -101966.1    101998.73    33.903209    37.998462 
26700000    319.58186    482.88894    314.47884   -102009.78    102027.44     168.4101    37.999394 
26704000    268.25139    307.61981    300.13684   -102017.76    102066.34    7.4829687    37.995105 
26708000    275.45196     348.0297    248.46648   -102033.99    102077.03    99.563224    37.994503 
26712000    299.17033    508.45116    444.18484   -102053.79    102076.89    64.266326    37.993699 
26716000     279.9922    248.90714    292.33272   -102038.26    102074.43   -43.425583    37.991432 
26720000    281.62435    366.21117    318.22649   -102061.84    102086.09    47.984686    37.992644 
26724000    306.28402    502.70987     348.2175   -102099.63    102129.13    154.49238    37.999825 
26728000    251.46705    311.10381     291.0757   -102096.44    102152.75    20.028109    38.000484 
26732000    284.64854    402.35375    255.76457   -102113.37    102149.92    146.58918    38.001458 
26736000    273.33586    297.02421    345.40092   -102129.34    102163.99   -48.376706    38.005669 
26740000    320.80755     674.0717    374.82455   -102163.75    102160.41    299.24715    38.006504 
26744000    321.36764    471.64435    390.75983   -102160.85    102179.25     80.88453    38.000743 
26748000    276.44763    436.15273    303.25836   -102187.17    102223.15    132.89437    38.002598 
26752000    269.56558    282.43533    274.65146   -102185.59    102238.83    7.7838696    38.000456 
26756000    293.89879    445.32479    235.31932    -102234.8    102261.35    210.00546    38.003052 
26760000    281.22083    436.53433    287.41982   -102245.12    102280.65    149.11451    38.007135 
26764000     286.8097    219.56231    429.89594   -102248.38    102287.58   -210.33363    38.008511 
26768000    272.70915     346.9006    405.49575   -102270.09    102316.51   -58.595146    38.016699 
26772000    311.41854    430.31324    256.83101   -102292.94    102307.27    173.48224    38.016032 
26776000    286.08068    387.41728    272.26887    -102307.8    102335.49    115.14841    38.015472 
26780000    263.47391    314.04513     515.9223   -102308.04    102359.29   -201.87717    38.016604 
26784000    325.25332    381.60302    304.68731   -102330.43    102357.43    76.915708    38.018603 
26788000    307.11913     358.4675    485.35457   -102344.93    102380.21   -126.88707    38.023112 
26792000    282.41823    331.34332    479.99013   -102343.96    102375.72   -148.64682    38.019712 
26796000    263.34339     350.1706    428.90491   -102400.86    102429.98   -78.734309    38.021255 
26800000    299.13326     220.9473    329.20563   -102439.84    102455.87   -108.25833    38.022864 
26804000    287.87674    450.28807     280.5049    -102465.2    102481.62    169.78317    38.025001 
26808000    307.50305    515.04529    221.38907   -102483.07    102499.16    293.65623    38.022538 
26812000    311.69662    507.43875    327.31515   -102488.35    102506.98     180.1236    38.023572 
26816000    259.07406     190.6535      547.868   -102469.61    102526.84    -357.2145    38.022432 
26820000    283.46841    217.41896     255.6496    -102514.3    102547.12   -38.230646    38.023823 
26824000    280.95976    188.12989     381.7802   -102511.73    102553.01   -193.65031    38.018796 
26828000    278.35655    426.06758    313.06282   -102516.78    102556.51    113.00476    38.023147 
26832000    296.48379    376.64849    298.69433    -102515.5    102540.13    77.954158    38.031804 
26836000    310.29151    356.49722    239.53621   -102544.82    102571.14    116.96101    38.032305 
26840000    300.49605    528.19565    304.40345   -102548.88     102567.8     223.7922    38.036268 
26844000    289.50422    248.53279    217.31197   -102557.94    102577.68    31.220821    38.032874 
26848000     304.3571    494.55028    483.47078   -102543.01    102579.83    11.079506    38.035304 
26852000      281.964    195.59388     394.7567   -102558.19     102597.6   -199.16282    38.031864 
26856000     264.7473    292.43898    243.08737    -102582.4     102628.9    49.351613    38.031899 
26860000    299.76585     432.4624    338.32564   -102625.52    102660.87    94.136761     38.03101 
26864000    282.17347    541.47346    384.40634   -102639.23    102664.49    157.06713    38.027713 
26868000    298.10324    370.26496    180.27199   -102645.61    102678.24    189.99297    38.029498 
26872000    263.55368    240.23134    334.73126   -102655.67    102697.19   -94.499918    38.027263 
26876000    290.25761    359.71827    260.74198   -102686.58    102713.28    98.976294    38.025191 
26880000    291.92123    343.31094    470.76473   -102713.12    102737.19   -127.45379     38.02951 
26884000    268.17359    405.45258    198.75897   -102739.63    102761.77    206.69361    38.030766 
26888000    279.49627    402.44874    469.02977   -102726.49     102760.5   -66.581035    38.028074 
26892000    304.15852    392.05354    169.02178   -102744.75    102764.79    223.03176    38.027735 
26896000    287.75496    258.81989    287.36732   -102746.81    102769.02    -28.54743    38.028408 
26900000    291.46048    457.63784    265.51631   -102769.69    102795.72    192.12153    38.027677 
26904000    299.49933    479.86478    316.01462   -102762.32     102785.2    163.85016     38.02556 
26908000    264.27064    326.84543    342.25364    -102782.5    102829.29   -15.408208    38.026375 
26912000    280.22886    549.68949    345.82742   -102812.17    102837.47    203.86208    38.031505 
26916000    282.87793    444.03618    373.29935   -102803.84    102834.49    70.736827    38.029572 
26920000      282.194     244.9637    364.98813   -102806.98    102832.63   -120.02443    38.035728 
26924000    287.07463    464.47776    365.54248   -102826.99    102857.93    98.935271    38.033224 
26928000    299.28536    547.94057     250.0076   -102837.65    102865.22    297.93297     38.02917 
26932000     297.7944    372.27908    117.42841   -102867.54    102898.98    254.85067    38.024991 
26936000    273.97209    152.91069    277.09369   -102884.86    102921.13     -124.183    38.027708 
26940000    283.70878     348.8989    218.13157   -102910.74     102939.8    130.76733    38.029792 
26944000    270.56783    238.01137    505.44844   -102916.77    102944.57   -267.43707    38.028449 
26948000    285.65636    264.56273    209.26004    -102935.4    102951.56     55.30269    38.033431 
26952000    281.18696    248.12066    223.04284   -102948.67    102977.31     25.07782    38.036227 
26956000    253.80184    324.87149    363.17931      -102930    102998.96   -38.307814    38.030191 
26960000    286.10983    348.02014    290.50119   -102964.77    102992.43    57.518949    38.025995 
26964000    271.91612    508.56563    303.66734   -102974.42    103020.66    204.89829    38.027607 
26968000    266.58784    157.98481    439.66998    -103002.5    103057.87   -281.68517    38.028837 
26972000    277.40501    264.61366    307.26325   -103023.11    103070.09   -42.649586    38.029635 
26976000    300.68314    353.32449    413.41425   -103031.58    103055.81   -60.089761    38.034635 
26980000    288.56324     516.9383    344.22603   -103034.71    103054.21    172.71227    38.035043 
26984000    291.66021    252.50796    440.94402   -103036.37    103060.52   -188.43606    38.028769 
26988000    275.95644    246.60362    268.36356    -103065.1    103090.97   -21.759941    38.028491 
26992000    315.27298    280.09116    340.22616   -103075.32    103098.95   -60.135005    38.026789 
26996000    286.70903     418.9365    161.65355   -103090.12    103111.37    257.28296    38.026173 
27000000    277.83573    237.26326     449.8451   -103088.62    103125.03   -212.58184    38.028042 
27004000    268.30015    301.38966    113.59395   -103103.18    103152.91    187.79571    38.033083 
27008000    285.42811    505.07207    363.63542   -103137.04    103164.06    141.43664     38.03212 
27012000    285.47843    292.75057    340.67975   -103154.79    103190.58   -47.929188    38.028647 
27016000    298.43749    349.45706    404.53098   -103174.54    103200.97   -55.073922    38.026062 
27020000    290.56354    375.02844    431.53469   -103182.09    103210.41   -56.506244    38.020156 
27024000    262.79587    420.78318    252.36768   -103197.25    103243.09     168.4155    38.022623 
27028000    307.57597    201.17368    388.35639   -103232.07    103253.11   -187.18272    38.020934 
27032000    262.14017    359.88255    257.66907   -103227.01    103300.06    102.21348    38.023719 
27036000    286.89129    291.85295    277.60517   -103246.15    103283.84    14.247782    38.021728 
27040000    280.90517    328.88982    220.28067   -103277.55    103316.31    108.60915    38.017498 
27044000    263.06094    294.06834    296.07704   -103305.82    103349.86   -2.0087052    38.017673 
27048000    282.47573    343.54308    332.62594    -103315.9     103362.1    10.917139    38.020276 
27052000    306.91699    594.56413    333.17047   -103337.11    103366.78    261.39366    38.022013 
27056000    261.32326     334.4833    315.92968    -103349.7    103393.65    18.553625    38.021846 
27060000    277.67463    339.59269    351.60266   -103368.69    103412.43    -12.00997    38.022343 
27064000     274.9236    307.15963    285.14591   -103380.85     103422.1    22.013725    38.022238 
27068000    305.33905    427.28989    253.32417   -103428.76    103435.82    173.96572    38.023365 
27072000     293.6506    323.21984    326.44079      -103411    103457.83   -3.2209453    38.021924 
27076000    284.85449    298.77541    373.21767    -103429.4    103455.21    -74.44226    38.024174 
27080000    253.37556    263.18885    464.23803   -103420.77    103469.61   -201.04918    38.027878 
27084000    294.18746    511.12055    289.76157   -103475.67    103487.28    221.35898    38.025506 
27088000    263.42641    393.27399    197.52332   -103463.18    103507.88    195.75067    38.025758 
27092000    291.68545    442.34605    354.86517   -103452.58    103477.08    87.480879    38.033082 
27096000    284.84507    297.57179    299.00192    -103459.8    103492.17   -1.4301302    38.034722 
27100000    303.26845    375.42941    250.60429   -103493.52    103522.21    124.82512    38.034722 
27104000    283.36757    221.18642    487.28192   -103509.19     103548.7    -266.0955    38.036027 
27108000    256.45543    305.26497     198.7331   -103527.46    103575.45    106.53187    38.035438 
27112000    293.87735     314.6941    395.86133   -103568.36    103590.86   -81.167228    38.041426 
27116000    296.75651     306.9519    377.29535   -103583.65    103608.96   -70.343453    38.039015 
27120000    292.13336    235.20359    334.32847   -103598.94    103629.43    -99.12488    38.036343 
27124000    297.96484    230.34739    270.01582   -103629.21    103633.69   -39.668429    38.030552 
27128000     264.5036    425.55634    203.67205   -103615.03    103651.68    221.88428    38.030053 
27132000    299.53015    532.57264    288.53973   -103637.48    103651.52     244.0329    38.032216 
27136000    283.67193    239.45259     314.6226    -103653.7    103677.87   -75.170008    38.030526 
27140000    263.81291    362.05592    222.65504   -103668.33    103722.58    139.40088    38.032056 
27144000    270.58547     293.5433    225.32928   -103698.87    103742.39     68.21402    38.036477 
27148000    277.04399    365.16003    348.84394   -103734.39    103767.59    16.316092    38.034898 
27152000    300.18795    491.83679    222.85548   -103773.09    103796.84    268.98131    38.033124 
27156000    303.37536    255.72861    349.06361   -103791.59    103814.51   -93.334995     38.03571 
27160000    275.97517     298.5735    253.91511   -103813.76    103852.98    44.658388    38.035901 
27164000    258.36115    340.81623    215.90247   -103807.84    103872.29    124.91377    38.035581 
27168000    287.22185    315.73703    203.01216   -103859.42    103867.91    112.72487    38.035447 
27172000    297.80247    370.30542    424.75666   -103869.61    103891.04   -54.451237    38.034477 
27176000    269.96277    273.70648    340.70732   -103871.97    103911.34   -67.000834    38.033318 
27180000     282.0404    379.16981    335.15292    -103886.6    103913.38    44.016882    38.024233 
27184000    289.62538     335.7304    480.86124   -103909.67    103920.35   -145.13083     38.01962 
27188000     290.0604    515.39034    305.84402   -103932.87    103959.28    209.54632    38.018528 
27192000    297.30041    293.80357    361.32213   -103958.33    103997.99   -67.518557    38.014383 
27196000    279.68385    408.30568    307.81162   -103983.66    104020.64    100.49406    38.011355 
27200000     309.0301    356.54627    497.37292   -104019.42    104026.56   -140.82665    38.010895 
27204000    299.49995    290.87813    415.21364   -104035.25    104055.37   -124.33552    38.011801 
27208000    277.83853    338.67756    299.10004   -104039.06    104090.57    39.577513    38.008367 
27212000    282.98531    439.04401    482.78139   -104059.69    104094.48   -43.737388     38.00712 
27216000    274.64992    269.53024    242.75092   -104076.31    104109.26    26.779317    38.007479 
27220000    300.78485    351.04654    331.14912   -104106.13    104133.82    19.897422    38.011411 
27224000    267.92205    209.16788    284.44485   -104129.76    104151.25    -75.27697    38.010057 
27228000    320.66566    340.22314    379.78298    -104171.1    104170.32   -39.559843    38.012044 
27232000    308.97135    260.47219    518.91493   -104181.89    104192.18   -258.44275    38.004199 
27236000    300.50199     387.4147    341.01429   -104205.26    104220.79    46.400415    38.004441 
27240000    269.48387     414.1955    290.20675   -104192.36    104256.48    123.98875    38.004034 
27244000    267.86667    332.94576    400.11252   -104236.97    104271.37   -67.166751    38.000486 
27248000    300.95057      473.435    216.75161   -104265.89    104291.86    256.68339     38.00096 
27252000     309.4961    375.04337    382.66551   -104258.58    104277.07   -7.6221354    38.005389 
27256000    258.81211    465.05137    222.89832   -104261.95    104296.89    242.15305    38.009669 
27260000    322.21565    596.95891    232.51549   -104267.45    104295.35    364.44342    38.012577 
27264000    284.35442     327.2932    320.55499   -104288.01    104300.56    6.7382111    38.017117 
27268000    292.76935    279.03197    412.55774   -104277.26     104322.9   -133.52577    38.015055 
27272000    293.94443    302.85064    214.07644   -104310.19    104336.89    88.774197    38.012538 
27276000    261.34264     100.0564    474.96883   -104302.79    104339.38   -374.91243    38.009609 
27280000    256.49583    339.17249    358.40097   -104322.35    104365.82   -19.228482    38.012878 
27284000    309.78953    245.36206    240.11457   -104354.84    104383.16     5.247493    38.009357 
27288000    247.90086    245.62308     194.4435   -104368.18    104407.57    51.179573    38.008946 
27292000    285.04932    314.32578    299.79906   -104373.35    104417.62    14.526724    38.013064 
27296000    271.81873    215.44699    502.48149   -104391.55    104418.16   -287.03451    38.008462 
27300000    271.48493    133.07029    304.80229    -104395.3    104432.88     -171.732    38.004077 
27304000    279.94556    431.20379    193.45292   -104389.75    104435.02    237.75087    38.005471 
27308000    296.21088    611.73187    280.08564   -104413.89    104444.21    331.64624    38.010476 
27312000     305.8976    428.01418    300.28495   -104406.26     104425.9    127.72923     38.00818 
27316000    287.91737    814.34942    338.33713   -104436.23    104469.79     476.0123    38.017566 
27320000    274.89469    326.39863    412.39195   -104471.19    104505.74   -85.993317    38.016916 
27324000    282.71356    253.32619    256.29916   -104504.17    104524.36     -2.97297    38.014815 
27328000    295.74046    410.13371    233.35275   -104522.17    104559.26    176.78096     38.01612 
27332000    276.69672    245.82173    326.57839   -104534.78    104565.18   -80.756659    38.014564 
27336000    274.01697    305.40971    340.36949   -104540.83    104567.27   -34.959776    38.017476 
27340000    302.93558     508.1177     353.6199   -104569.97    104584.02     154.4978    38.013719 
27344000    276.70623    436.38565    367.64589   -104578.35    104613.25    68.739761    38.009382 
27348000    272.88361    377.71399     255.5364   -104586.09    104627.02    122.17759    38.011112 
27352000    272.64187    304.35563    273.33364    -104616.2    104647.11    31.021996    38.010495 
27356000    288.40223    245.47922    247.10156   -104635.51    104658.71   -1.6223352    38.012366 
27360000    288.59213     156.3385    289.87642   -104644.04    104662.18   -133.53792    38.011653 
27364000    284.48379    418.59268      287.998   -104652.17    104681.96    130.59468    38.009085 
27368000    295.10678    150.70824    344.51093   -104678.52    104703.49   -193.80269    38.007696 
27372000     288.6801    233.48796    372.34604    -104676.4    104710.55   -138.85808    38.011535 
27376000    260.59155    408.97973    158.35541   -104684.02    104719.31    250.62432    38.010335 
27380000    288.91275    289.95348    280.36762   -104724.69    104737.55    9.5858596    38.011965 
27384000    286.50465    319.74095    394.88253   -104769.12    104765.02   -75.141577    38.015278 
27388000    322.46448     225.7561     383.2398   -104791.55    104793.53    -157.4837    38.014163 
27392000    315.27235    419.90347    355.02886   -104793.61     104814.9    64.874615     38.02099 
27396000    299.35806    287.36623    464.95208   -104835.25    104847.25   -177.58586    38.014738 
27400000    273.79061    199.56796    451.05241   -104846.37    104878.58   -251.48445    38.018627 
27404000    299.96828    348.37002    418.97321   -104862.72    104882.45    -70.60319     38.02105 
27408000    271.26718    420.97596    258.72133   -104888.74    104909.68    162.25463    38.018478 
27412000     307.4637    729.70013    332.62154    -104900.7    104928.26    397.07859    38.022545 
27416000    266.30569    481.81219    359.50933   -104917.87    104951.82    122.30286    38.018961 
27420000    262.54134    347.30242    263.11746   -104927.65    104980.56    84.184961    38.014295 
27424000    290.87316    533.20302    413.09423   -104944.46    104980.81    120.10879    38.010353 
27428000    290.86355    426.99249     176.8733   -104950.56    104980.82     250.1192        38.01 
27432000    292.21986     425.6054    343.67664    -104960.2    104994.39    81.928755    38.009251 
27436000    291.67499    263.59625    300.03452   -104965.27    105005.93   -36.438274    38.012935 
27440000    273.15732    363.97094    387.18474      -104981    105020.67   -23.213796    38.016101 
27444000    275.06429    221.37373    354.74359   -104980.95    105027.28   -133.36986    38.011293 
27448000    267.00613    395.66769    508.04254   -104981.77    105024.06   -112.37485    38.010518 
27452000    305.87532    433.13698    502.32374   -104995.85    105031.92   -69.186766    38.007981 
27456000    268.18605    400.17469    449.84397   -105006.67    105050.23    -49.66928    38.016533 
27460000    287.04561    450.76216    222.34026   -105025.29    105075.34    228.42191    38.022287 
27464000    274.01999    380.12156    366.12423    -105047.1    105087.77    13.997331    38.018972 
27468000    286.42543    251.79602    378.88014   -105052.08    105086.62   -127.08412     38.01868 
27472000    293.34956    297.04554    281.56392   -105063.16    105103.45    15.481626     38.02142 
27476000    300.37113    417.84425    262.51619   -105089.11    105123.02    155.32806    38.018687 
27480000    282.02727    327.71325    398.67332   -105104.02    105145.61    -70.96007    38.015018 
27484000    265.80736    497.83827    370.58677   -105125.63    105170.44    127.25151    38.016445 
27488000    283.08744    394.89086    382.00339   -105162.69    105202.18    12.887469    38.019348 
27492000    292.26132    263.68048    392.61584    -105194.2    105212.28   -128.93537    38.019195 
27496000    260.01314    304.03555    367.84975   -105201.11    105249.61   -63.814201    38.018411 
27500000    267.63214    284.76728     296.0896   -105218.49    105256.37    -11.32232    38.018373 
27504000    284.61029    351.29273    395.99308   -105244.19    105287.08   -44.700344    38.018619 
27508000    281.36415     186.5342    514.53929   -105260.65    105305.83   -328.00509    38.014904 
27512000     285.9019    465.62739    228.09877   -105282.94       105313    237.52862    38.012942 
27516000    303.58148    347.42943    286.96732    -105275.2    105296.19    60.462108    38.003638 
27520000    240.91989    239.03406    319.58695   -105280.14    105321.39   -80.552885     38.00465 
27524000     253.7831    297.97462    269.89731   -105312.06    105363.11    28.077307    37.998611 
27528000    250.74977    223.73516     262.5253   -105329.26    105406.55   -38.790139     37.99808 
27532000    291.53817    479.99896    426.63094   -105379.29    105412.44    53.368019    37.992666 
27536000    273.24779    215.65838    200.05475   -105402.28    105429.36    15.603639    37.994318 
27540000    250.17677     253.8568    276.48939   -105416.42    105455.83    -22.63259    37.992597 
27544000    264.06849    206.96683    368.68182   -105433.23    105481.18   -161.71499    37.987562 
27548000    293.74299    424.75745    263.83627   -105468.89    105489.97    160.92118    37.987127 
27552000    306.72927    287.58944    268.77192    -105504.5     105525.3    18.817524    37.985268 
27556000    282.09407    478.48578    374.18817   -105510.92    105549.95    104.29761      37.9857 
27560000    271.94125    278.68502    308.38062   -105495.33    105551.93   -29.695594    37.975086 
27564000    277.88126    532.98227    262.79259   -105523.91    105556.87    270.18968    37.979005 
27568000     302.5246    515.91946    351.25256   -105535.47    105558.87     164.6669    37.976733 
27572000    260.98048    397.33295    168.28426   -105557.22    105603.28    229.04869    37.976062 
27576000    261.41218    269.84185    380.13656   -105554.09    105607.25   -110.29471    37.973085 
27580000    289.70481    226.87726    292.91972   -105590.65    105628.45   -66.042465    37.974407 
27584000    307.07628      375.836    271.75167   -105606.61    105644.64    104.08433    37.978608 
27588000     282.0389    309.64304    225.52347   -105638.05    105659.79    84.119577    37.984164 
27592000    295.64516    358.74496     418.8591   -105635.54    105671.11    -60.11414    37.979103 
27596000    258.23638    337.55409    451.44722   -105634.29    105681.76   -113.89313     37.98404 
27600000    269.47706    351.41363    206.16386    -105633.5     105686.3    145.24977    37.983146 
27604000    289.56837    360.43301    298.27354   -105671.47    105709.54    62.159465    37.980558 
27608000    284.23395    558.12396    305.02771   -105684.43    105720.82    253.09624    37.976225 
27612000    288.47259    396.91989    331.79189   -105713.29    105745.99    65.128006     37.98057 
27616000    282.46321    418.26572     283.5658   -105716.28    105752.52    134.69991    37.982351 
27620000    280.66334    411.95149    234.16985   -105744.35     105779.9    177.78164    37.986328 
27624000     276.9104    392.87174    351.97882   -105734.61    105766.31    40.892918     37.98842 
27628000    272.59909    334.75041    178.75118   -105765.09    105801.14    155.99923    37.988291 
27632000    285.55938    321.99721    306.65494   -105761.34    105791.85    15.342274    37.987579 
27636000    301.62591    367.44639     269.6655   -105801.61    105807.09    97.780893    37.992041 
27640000    320.16783    379.40163    265.93787   -105813.47    105824.19    113.46376    37.993178 
27644000    287.32802    422.26467    192.88594   -105843.48    105859.97    229.37873    37.993919 
27648000    293.75729    507.05348    180.49145   -105831.51     105869.7    326.56204    37.992166 
27652000    261.14866    294.48678    190.09236   -105858.46    105901.35    104.39442    37.989087 
27656000    246.51662    435.44992    421.70044   -105874.25    105927.65    13.749475    37.984101 
27660000    271.21116    423.28161    258.68202      -105898    105956.79    164.59959    37.983179 
27664000    283.94205    403.93595    243.46473   -105912.78    105947.55    160.47122    37.978827 
27668000    269.89421    428.57829    308.03563    -105938.7    105980.43    120.54266    37.985268 
27672000    276.14755    221.28308    200.48842    -105953.5    105991.89    20.794654    37.985896 
27676000    269.67375    425.69763    318.95102   -105940.86    105992.33    106.74661    37.988237 
27680000    295.85813    582.14157    269.14831   -105956.36    105996.25    312.99326    37.995394 
27684000    302.56206    374.15235    381.34423   -105992.76    106021.68   -7.1918758    37.996326 
27688000    269.54342    338.01407    206.06719   -105997.04    106036.25    131.94688     37.99213 
27692000    255.24288    493.40676    384.05421   -105996.42    106051.16    109.35255    37.994418 
27696000     295.9873    447.34302    194.54633   -106040.37    106066.94    252.79669     37.99243 
27700000    286.02697    330.77869     300.6459   -106052.33    106081.23    30.132785    37.993236 
27704000    312.41261    450.07954    330.48142   -106058.29    106079.88    119.59812    37.993583 
27708000    262.03827    491.24869     344.1801   -106061.95    106097.15    147.06859     37.99244 
27712000    271.73715    347.73463    395.17917   -106077.57    106126.82   -47.444535     37.98933 
27716000     262.6255    250.70171    232.65936   -106089.66    106127.42    18.042353    37.987466 
27720000    270.67156    269.91672    364.24376   -106106.24    106147.07   -94.327038    37.990828 
27724000    307.90242    286.85109    235.45813   -106131.94    106162.95    51.392964    37.989845 
27728000    287.67122    315.29822    525.03039   -106155.69    106174.96   -209.73217     37.98418 
27732000    305.41909    506.27911    480.35407   -106156.81    106175.55    25.925047    37.982238 
27736000    246.85338    353.00301    247.65064   -106151.42    106192.77    105.35237     37.98269 
27740000    278.93552    366.62112     303.2033   -106171.36    106215.29    63.417816    37.984669 
27744000    278.67904    302.95765     287.6558    -106179.2    106219.43    15.301854    37.987928 
27748000    274.12682    500.77238    300.28608   -106206.11    106242.99     200.4863    37.989112 
27752000    305.13945      377.624    441.64859   -106215.38    106239.53   -64.024588    37.988602 
27756000    280.79017    270.47335    217.44693   -106225.03    106267.22    53.026412    37.986562 
27760000     268.1571    242.61891     415.9852   -106243.37     106279.3   -173.36629     37.98415 
27764000     312.1139     479.6187    438.22433   -106250.92    106277.31    41.394362    37.983742 
27768000    284.37071    320.09261    381.88341   -106263.94     106304.5   -61.790798    37.977965 
27772000    285.81109    407.41084    351.02057   -106300.13    106330.74    56.390275    37.977617 
27776000    274.78123    336.20969    308.85396   -106329.92    106355.75    27.355729    37.974832 
27780000    278.96094    380.89387    336.26121   -106329.59    106348.54    44.632666    37.976348 
27784000    278.70657     486.7245    336.57779   -106309.42    106371.58    150.14672    37.976921 
27788000    274.67678    483.24504    321.90824   -106317.06    106363.41    161.33679    37.975254 
27792000    302.80469    337.71375    438.82612   -106353.64    106390.92   -101.11237    37.973324 
27796000     288.0921    555.90014    228.81908   -106354.86    106388.03    327.08106    37.975991 
27800000    308.80387    303.06611    250.31433   -106362.12     106393.7    52.751779     37.98157 
27804000    303.35893    430.37664    371.07787   -106386.47    106393.65    59.298763    37.984261 
27808000    293.42032    245.60624    424.26555   -106378.22    106414.57   -178.65931    37.984558 
27812000    291.96728    481.56714    301.70268   -106410.05    106434.81    179.86445    37.976303 
27816000    276.81484    389.67604     515.9979   -106423.05    106459.91   -126.32186    37.974903 
27820000    301.92271    273.41405    348.74354   -106433.01    106465.74   -75.329485    37.970958 
27824000    297.67301    571.79898    344.92613   -106440.95    106469.08    226.87285    37.971543 
27828000     298.3184    392.91123    322.44805   -106451.33    106466.97    70.463183    37.973862 
27832000    283.61135    195.28611    282.33818   -106472.55    106512.82   -87.052066    37.970387 
27836000    248.81179    297.06068    303.78857   -106500.84    106557.96   -6.7278864    37.976142 
27840000    287.75699    339.89469    353.18802   -106531.35    106577.17   -13.293331    37.980287 
27844000    264.45426    310.85337     226.7101    -106568.5    106605.51    84.143269    37.979517 
27848000     288.2089    175.63638    498.05857    -106592.8     106618.7   -322.42219    37.981547 
27852000    287.15529    401.15164     249.5409   -106608.13    106645.87    151.61074    37.981607 
27856000    303.33331    246.37436    420.45672   -106641.85    106660.36   -174.08236     37.98241 
27860000    267.90069     306.9928    329.76621    -106657.7    106694.11   -22.773406    37.978926 
27864000    266.23013    192.36914    428.92914   -106679.47    106721.26      -236.56    37.980296 
27868000    286.10424     448.1338     319.1871   -106697.99    106716.84     128.9467    37.980548 
27872000    284.69013    362.00264    265.91362    -106703.6    106730.28    96.089024    37.978155 
27876000    268.97106    425.46658    162.92925   -106715.88    106754.56    262.53733    37.976933 
27880000    276.64782    414.37558    326.86807   -106738.34    106775.79    87.507514    37.974974 
27884000    275.05337    213.02061    226.94165   -106740.62    106784.12   -13.921035    37.974437 
27888000    288.87946    405.67676    472.39005   -106765.22    106805.52   -66.713285    37.972772 
27892000     280.9844    370.12671    321.75329    -106789.5    106813.37    48.373425    37.978025 
27896000    280.71972    409.09238    336.39553   -106816.37    106845.25    72.696855    37.973947 
27900000    297.48013    379.09753    160.18223   -106839.53    106864.27     218.9153    37.974046 
27904000    243.94908    251.37786    316.75611   -106842.57    106886.44   -65.378242    37.974319 
27908000    276.60884    270.26207    373.77396    -106859.9     106916.9   -103.51189    37.973012 
27912000    288.03531    386.59341    375.50774   -106896.66    106935.71    11.085671    37.971763 
27916000    288.16551    574.70711    320.98879   -106933.35    106965.76    253.71832     37.96898 
27920000      283.049     310.3803    223.32705    -106956.3    106986.61    87.053253    37.968501 
27924000    303.65638    591.98123    297.74808    -106969.6    107000.14    294.23315    37.965152 
27928000    301.20115    298.02229    458.37672    -107008.4    107019.55   -160.35443    37.961055 
27932000    290.45127    327.36573    401.17741   -107025.08    107054.45    -73.81168    37.960216 
27936000    326.66036    706.60554    350.13432   -107087.55       107074    356.47122    37.960668 
27940000    291.77911    298.55608    302.52029   -107069.51    107104.99   -3.9642069    37.961454 
27944000    270.34678    235.34345    416.93461    -107073.5    107110.75   -181.59116    37.959522 
27948000    276.19397    195.68811     385.8207   -107064.33    107122.87   -190.13259    37.963763 
27952000    261.39467    311.35953    171.00324   -107077.14    107116.64     140.3563     37.97322 
27956000    294.32884    252.99532    360.80065   -107080.61    107100.55   -107.80533    37.975546 
27960000    291.54029    328.93021    404.79362   -107119.96    107155.96   -75.863416    37.977146 
27964000    262.66279    444.28918     372.2617    -107133.7    107174.99    72.027474    37.978503 
27968000     269.2651    588.67656    160.13922   -107136.05    107184.68    428.53734    37.977978 
27972000    281.47881    483.76943    246.87254   -107171.73    107211.56    236.89689    37.973278 
27976000    262.39807    252.80682    243.30012    -107180.8    107218.23    9.5067019    37.969725 
27980000    274.36238    518.42338     320.3426   -107189.56    107229.07    198.08078    37.970308 
27984000    296.91667     276.6461    235.33638   -107208.16    107261.36     41.30972    37.976529 
27988000    246.64422    349.31818    347.13496   -107217.53    107282.81     2.183219    37.977132 
27992000    260.95519    244.30371    338.99983   -107266.81    107304.52   -94.696114    37.978637 
27996000    260.44963    370.45526    220.12168   -107286.14     107321.3    150.33357    37.977691 
28000000    273.10912     205.8034    294.89599   -107294.16     107317.3   -89.092593    37.979703 
28004000    270.70517    388.90798     462.2398   -107307.25    107332.12   -73.331823    37.977153 
28008000    294.65919    405.34115    286.00696   -107320.85    107366.27    119.33418    37.978782 
28012000    274.33681    279.33662    374.68835   -107358.43    107395.51   -95.351733    37.983717 
28016000    284.73006    301.25548    311.30311   -107380.36    107411.68   -10.047625    37.986079 
28020000    278.10132    284.94855    207.04845   -107393.24    107433.88    77.900095    37.990964 
28024000    287.21198    347.76172    142.44539   -107422.47    107455.06    205.31633    37.989472 
28028000    298.34305    524.06261    326.68284   -107449.13    107466.17    197.37977    37.990433 
28032000    269.15053    590.25239    269.38069   -107465.92    107516.07     320.8717    37.989789 
28036000     249.7072     304.6843    303.77267   -107474.19    107505.23   0.91163306    37.984051 
28040000    269.23794    312.15319    368.01491   -107464.91    107515.04   -55.861713    37.986676 
28044000    288.35602    389.93711    402.90731    -107489.7    107526.57   -12.970203    37.980728 
28048000    244.91817    472.59904    289.25119   -107498.03    107544.19    183.34785    37.980367 
28052000    294.35511    260.97796    423.05233   -107524.22    107548.53   -162.07437    37.982443 
28056000    289.28724    320.48601    227.49275   -107554.28    107567.53    92.993258    37.978843 
28060000    288.02485    307.30816    312.18074   -107563.63    107600.05   -4.8725734    37.979484 
28064000    292.28579    334.65252    317.68717   -107580.53    107620.45     16.96535    37.982357 
28068000    273.23876    504.02422    312.73993   -107581.65     107640.3    191.28429    37.979694 
28072000    278.63173    320.11708    227.22515   -107598.67    107634.82    92.891929    37.978152 
28076000    271.18745    365.27551    401.85261   -107620.26    107656.83   -36.577099    37.982749 
28080000     293.5642    318.86455    316.22346    -107615.1    107646.99    2.6410883    37.981706 
28084000     260.9906    458.87443     197.2655   -107637.05    107676.35    261.60894    37.975104 
28088000     280.7538     339.7478    335.10912   -107658.01    107685.65     4.638676    37.973675 
28092000    267.15133    351.23874    216.07275   -107650.52    107713.09      135.166    37.976701 
28096000    280.39324    303.47264    218.17182   -107701.79    107738.01    85.300824    37.970547 
28100000    289.99671    270.93225    296.53935   -107718.54    107749.04   -25.607101    37.965941 
28104000    278.24685     289.6651     300.5611   -107730.38    107771.79   -10.896001    37.971231 
28108000    276.71332    332.11846    308.47886   -107769.63    107805.71    23.639606    37.971862 
28112000    259.63009    216.07942    323.79625   -107773.15    107824.94   -107.71683    37.968967 
28116000    288.80826    353.09831    443.90842    -107822.1    107856.79   -90.810108    37.970331 
28120000    274.69281    296.62872    298.57043    -107846.6    107898.47   -1.9417092    37.965923 
28124000     260.1653    264.01632       270.34   -107876.79    107922.83   -6.3236868    37.967466 
28128000    288.66285    381.20279    358.75907    -107901.6    107930.38    22.443721    37.964735 
28132000    252.47818    271.21678     341.8294   -107917.45     107967.6   -70.612625    37.963442 
28136000    280.93673    413.39592    313.95536   -107936.37    107976.41    99.440568    37.963191 
28140000    277.02767     223.1242     417.6162    -107971.3    107995.03     -194.492    37.965364 
28144000    277.47973    565.31997    258.74186   -108001.24    108029.41    306.57811    37.969097 
28148000    273.29659    262.95425    241.70156   -108005.92    108031.73    21.252693    37.970312 
28152000    290.92129      435.663    357.51213   -108038.66    108072.83    78.150871    37.963884 
28156000    279.77531     322.1779    343.29089    -108036.6     108086.1    -21.11299    37.957815 
28160000    284.80465     439.4327    379.48334   -108063.88    108098.54    59.949361    37.958488 
28164000    276.15607    545.83075    565.66875   -108086.34    108123.48   -19.837998    37.954535 
28168000    303.53497    346.78859    257.14058   -108107.12    108147.69    89.648003    37.950767 
28172000    273.53942     423.7389    188.86329      -108140     108156.3    234.87561    37.950479 
28176000    277.47844     225.7362    377.25443   -108147.13    108185.07   -151.51824    37.952157 
28180000    273.35446    357.02205    356.25831   -108154.13    108204.05    0.7637489    37.954559 
28184000    266.98141    410.04773     340.4189   -108159.71    108218.55    69.628829    37.957348 
28188000    293.93805    416.14194    263.41753   -108183.18    108221.24    152.72442    37.960953 
28192000    307.13705    388.70845    495.73052   -108197.14    108230.89   -107.02207    37.964273 
28196000    305.64182    730.64223    364.06548   -108225.45     108243.3    366.57675    37.964489 
28200000    277.53392    331.95226    293.45069   -108234.45    108294.66    38.501569    37.957511 
28204000    273.69445     448.2263    381.16977   -108278.78    108319.71     67.05653    37.964741 
28208000    272.01134     504.9387    190.21905   -108280.62    108313.17    314.71965    37.963637 
28212000    296.78408    504.23527    381.63915   -108260.68    108311.12    122.59613    37.958153 
28216000       286.12    366.72461    262.70648   -108284.89    108316.19    104.01813     37.96849 
28220000    255.61617    227.94938    332.03399   -108275.92    108333.25   -104.08461    37.967547 
28224000    287.99517    200.77514    194.17886   -108291.68    108332.04     6.596275    37.962452 
28228000    270.90368    269.03581    288.38276   -108312.32    108351.15   -19.346943    37.959582 
28232000    283.68197    367.68204    412.83675   -108313.12    108349.34   -45.154716     37.95894 
28236000    263.54083    390.15258    607.88788   -108322.08    108370.34    -217.7353    37.952433 
28240000    268.01031    430.83706    310.46566   -108346.51    108398.93    120.37141    37.959359 
28244000      243.933    373.18752    247.09092    -108353.9    108408.41     126.0966     37.96069 
28248000    301.94194    252.57622    283.01758    -108391.1    108417.15   -30.441359    37.962822 
28252000    272.66484    369.30581    330.79833   -108414.74     108451.8    38.507486    37.961003 
28256000     283.8439    595.44619    280.75666   -108432.88    108462.03    314.68953    37.959037 
28260000    281.31818     234.8499    271.36509   -108431.56    108474.96   -36.515196    37.955853 
28264000    279.36615    576.85159    171.99591   -108456.55    108488.64    404.85568    37.957005 
28268000    279.98546    226.67394    210.39827   -108473.15    108511.74     16.27567    37.958017 
28272000    294.09368    510.56034    233.03621   -108507.35     108530.8    277.52413    37.953341 
28276000    287.08127    358.47582    225.35645   -108515.38    108542.33    133.11938    37.952369 
28280000    272.87266    261.58156    269.23922   -108512.71    108546.68   -7.6576675    37.951741 
28284000    284.33097    293.36677    520.18668   -108535.05    108578.22   -226.81991    37.950333 
28288000    298.17639     275.4569    541.19791   -108577.83    108592.01     -265.741    37.946865 
28292000    266.98072    194.88924    233.39923   -108586.19    108632.13   -38.509987    37.947553 
28296000    300.88865     480.0429    246.81751   -108608.04    108632.25    233.22539    37.946528 
28300000    273.62136    232.30146    250.03848   -108639.81    108675.91   -17.737019    37.950788 
28304000    317.99754    346.74695    400.48451    -108664.5    108681.43   -53.737561     37.94362 
28308000     306.3079    294.49691    267.23613   -108665.59    108695.96    27.260782    37.943205 
28312000    269.51775    270.01263    441.19698   -108653.48     108693.1   -171.18435    37.944389 
28316000    305.93796    482.83575    405.29542   -108685.89    108707.41    77.540329    37.946582 
28320000    311.76873    514.62318    359.76421   -108726.53    108725.83    154.85898    37.948354 
28324000    274.26225    402.05954    355.84233   -108724.78    108757.92    46.217207    37.953102 
28328000    264.32898    538.40944     307.7428   -108724.56    108778.68    230.66664    37.951287 
28332000    267.92485    236.90149     220.8034   -108750.72    108805.15    16.098093    37.950952 
28336000    265.48515    257.48861    347.92249   -108765.19    108804.39   -90.433884    37.950386 
28340000    307.66773     433.4477    289.10673   -108800.59    108830.11    144.34096    37.947526 
28344000    264.48117    222.29277    226.42462   -108822.23    108857.41   -4.1318513    37.946762 
28348000    300.14918    450.42397    225.16336   -108836.19    108872.64    225.26061    37.949455 
28352000    284.29794    508.78075    310.31579   -108849.17    108868.65    198.46496    37.951728 
28356000    286.47808    280.99615    311.91366   -108838.86     108881.3   -30.917502    37.950355 
28360000    292.90144    392.20552    440.71106   -108857.17    108898.74   -48.505535    37.951551 
28364000    263.21974    375.87757     357.2899   -108878.09    108919.74    18.587671    37.957254 
28368000    289.97006    261.65836     509.4289    -108903.6    108938.76   -247.77055    37.958209 
28372000    271.02626     297.6902    273.47336   -108915.23    108970.59    24.216841    37.960479 
28376000    283.49605    275.07707     400.5692   -108920.77    108961.17   -125.49214    37.955558 
28380000    306.18028    371.64487    448.73923   -108950.76    108979.84   -77.094366    37.955691 
28384000     267.5338    305.07339    416.84927   -108968.54    109019.99   -111.77589    37.955229 
28388000    290.27451     231.0685    463.21723   -108969.67    109005.65   -232.14873    37.953953 
28392000    299.05542    531.42431    227.61689   -108982.55    109011.73    303.80742    37.957321 
28396000    250.71553    446.63571    256.36233   -108999.82    109050.58    190.27338    37.956908 
28400000    286.10048    260.26673    352.59461   -109021.27    109047.36   -92.327875    37.955312 
28404000    290.84559    410.68239    287.89198   -109037.21     109072.1    122.79041    37.961095 
28408000    249.93003    308.84757    224.19196   -109039.98    109100.56    84.655608    37.954175 
28412000    287.06869    430.09678    129.06621   -109070.19    109124.41    301.03057    37.958473 
28416000    275.34136    543.89407    214.03224   -109097.73    109143.86    329.86182    37.957394 
28420000    267.32365    373.76263    240.55373    -109113.6    109157.69    133.20889    37.957767 
28424000    290.37363    412.91811    516.19725   -109120.45    109152.72   -103.27914    37.953886 
28428000    276.68468    368.83549    379.47899   -109155.42    109168.58   -10.643499    37.961547 
28432000    307.20847     401.5582    392.43499   -109170.23    109195.49    9.1232155    37.967432 
28436000    290.67194    374.84852    310.12199   -109187.31    109194.77     64.72653    37.966338 
28440000     275.6815     287.1128     297.8247   -109205.43     109217.1   -10.711906    37.965186 
28444000     282.1444    350.34343    261.01261   -109227.22    109251.12    89.330825    37.964867 
28448000     261.4085    422.10291    242.59335   -109221.26    109275.56    179.50957    37.961697 
28452000    279.23399    383.26383    297.92059   -109258.98    109285.02    85.343248    37.960915 
28456000    283.94047     541.1253    260.46489   -109279.74    109329.19    280.66041    37.961944 
28460000    279.30734    344.19861    269.14891   -109286.98    109320.09    75.049705    37.964913 
28464000    289.78072    402.55178    283.66685   -109301.31    109320.08    118.88493    37.959229 
28468000    268.24042    399.66931     317.6597   -109307.54    109348.29    82.009616    37.956001 
28472000    274.05238    355.03779    379.42469   -109335.27    109374.14   -24.386897    37.960455 
28476000    323.74819    266.09785    393.14742   -109355.53    109351.99   -127.04956    37.960399 
28480000    283.07399    283.25335    509.30582   -109346.35    109383.25   -226.05247    37.959968 
28484000    290.79224    375.79854     326.6221   -109387.59    109406.46    49.176449    37.962967 
28488000    287.49866    402.45382    393.32324   -109411.31    109434.09    9.1305876    37.967914 
28492000    282.31693    507.47946    281.64003   -109412.39    109450.86    225.83943    37.973893 
28496000    292.43936    559.73755     198.4113   -109446.48    109474.74    361.32625    37.973905 
28500000    288.22715    430.05492    377.41231   -109448.22    109471.81    52.642616     37.96993 
28504000    274.01326    281.31989    448.97092   -109473.99    109511.72   -167.65102     37.96696 
28508000    289.53509    488.17253    524.02115   -109498.55    109533.84   -35.848624    37.970958 
28512000    279.72004    252.22178    338.45416   -109525.74    109556.91   -86.232383    37.970337 
28516000    285.49585    275.85791      319.742   -109538.21    109591.78    -43.88409    37.977125 
28520000    278.05825    316.51875    259.15266   -109536.34    109601.08    57.366091    37.975276 
28524000    287.37079    355.56871    367.84276   -109547.73    109594.54   -12.274048    37.976741 
28528000    302.95894    322.19662    415.42402   -109541.27    109580.06   -93.227407    37.976845 
28532000    254.34351    340.55522    291.53256   -109596.33    109629.26    49.022655    37.979183 
28536000    295.63924    520.39504    274.03778   -109628.36    109660.62    246.35726    37.978336 
28540000    292.32537    372.45902     304.5237    -109618.2    109645.96    67.935315     37.97737 
28544000    275.21198    359.08012     263.6296   -109616.51    109669.06     95.45052    37.982776 
28548000    303.57699    511.61956    356.83701   -109651.29    109682.46    154.78255    37.982781 
28552000    304.83584    413.52294    231.22608   -109673.23    109699.61    182.29686    37.989925 
28556000    287.95967    306.92423    254.19803   -109671.18    109720.31    52.726194    37.989802 
28560000    264.79344    529.54331    375.26341   -109693.69    109734.99     154.2799    37.988355 
28564000    277.15944    366.41908    348.93133   -109711.72    109761.85    17.487746    37.987194 
28568000    260.07033    361.20767    205.57921   -109734.74    109779.02    155.62846    37.989591 
28572000    270.22872    408.32992     472.3458   -109741.94    109778.68   -64.015882    37.990654 
28576000    308.79923    375.47678    374.42031   -109784.73    109816.62    1.0564731    37.995815 
28580000    311.35115    427.58607    360.97884   -109823.81    109846.86    66.607231    37.997827 
28584000    265.05533    367.20801    310.89828   -109818.34    109863.83    56.309729    37.995043 
28588000      293.217    565.71542    225.68091   -109844.68    109886.43    340.03451    38.003531 
28592000    308.83335    349.43696    246.28836   -109873.81    109894.99     103.1486      38.0052 
28596000    300.17816    257.04116    408.13329   -109887.62    109920.47   -151.09213    38.000729 
28600000    271.27269    347.58954    410.43371   -109895.15    109938.54   -62.844173    38.008134 
28604000    298.23292    347.53921    265.46058   -109926.83    109949.01    82.078631    38.009962 
28608000    287.19494    382.16286    445.55792   -109940.07    109968.62   -63.395062    38.004222 
28612000     280.6117    219.30319    236.35873   -109949.56    109991.34   -17.055533    38.005707 
28616000    263.98332    447.63439    208.68592   -109978.52    110017.93    238.94847    38.003119 
28620000    272.82199    256.39304    352.58633    -109982.2    110024.08   -96.193284    38.000057 
28624000    264.88512    378.35943     358.5937   -109979.67    110035.53    19.765729     37.99467 
28628000    282.49367    345.14553    303.62795   -110012.32    110048.67    41.517587    37.994091 
28632000     272.3092    257.72325     345.8117   -110019.29    110068.01   -88.088449    37.992442 
28636000    286.35713    291.60161     335.1557   -110040.12    110072.69   -43.554087    37.990942 
28640000    231.89939    148.19299    225.85775   -110048.61    110116.04   -77.664759    37.992835 
28644000    268.36621     242.1089    464.07492   -110089.65    110131.77   -221.96602    37.997571 
28648000    305.91779    387.04601    182.79279   -110122.67    110129.79    204.25322    38.000231 
28652000    280.37151    318.49556    293.43762   -110111.31     110160.8    25.057941    38.000726 
28656000    285.82371    371.03565     388.4363   -110119.86    110149.37   -17.400647    38.006639 
28660000    284.23754    377.62698      260.032   -110156.23    110194.34    117.59498    38.006219 
28664000    271.01914    396.92093    220.70562   -110171.07    110208.41    176.21531    38.008862 
28668000    286.28591    163.18832    317.11447   -110189.32    110227.78   -153.92615    38.014153 
28672000    265.87927    167.07868    283.33498   -110205.41    110263.86    -116.2563    38.011816 
28676000    293.16114    308.78767    305.84556    -110233.9    110250.02    2.9421024    38.015525 
28680000    279.02218    236.09001    346.23236   -110243.07    110258.86   -110.14235    38.012791 
28684000    261.32516    435.50285    247.60954   -110250.71    110297.17    187.89331    38.015094 
28688000    264.81005    375.68125    370.21703    -110274.9    110328.99    5.4642233    38.018382 
28692000    297.85702    753.60114    379.15018   -110308.26    110318.65    374.45096    38.023407 
28696000    290.38469    287.83245    369.44811   -110301.75    110334.59   -81.615662    38.025442 
28700000    274.33133    322.86831    453.73783   -110328.08    110380.42   -130.86952     38.02982 
28704000    274.33989    325.16687    251.99242   -110344.57    110391.49    73.174452    38.029138 
28708000    267.55676    309.31569    203.86166   -110353.72     110389.2    105.45404    38.027678 
28712000    298.64566    408.25809    257.02629   -110385.61    110422.36    151.23179    38.032211 
28716000    273.84235    408.98063    326.90638   -110389.22     110427.9    82.074256    38.039818 
28720000    262.83157    245.82948    359.80197   -110406.17     110449.7    -113.9725    38.037246 
28724000    296.85507    326.27205    361.66344   -110406.66    110447.47   -35.391388    38.034869 
28728000    273.84503     215.5708    223.18043   -110427.72    110460.07   -7.6096346    38.037895 
28732000     297.1269    469.65112    334.69177   -110437.87     110474.8    134.95935    38.042639 
28736000      280.855    230.67316       301.48   -110439.58    110474.41   -70.806838    38.045539 
28740000    301.73747    585.28694    280.25841   -110454.55    110486.45    305.02854    38.048823 
28744000    296.96453    448.45543     258.8418   -110480.69    110509.04    189.61363    38.050202 
28748000    289.49121    490.50966    348.53962   -110508.22    110533.95    141.97004    38.050075 
28752000    302.25043    407.02718    259.01224   -110513.73    110545.66    148.01494    38.049555 
28756000    296.24629    220.99744    215.88076   -110530.26    110572.56     5.116681    38.054903 
28760000    274.67531    315.17352    258.62591   -110551.54    110591.39    56.547609    38.052433 
28764000    278.00354    172.10869    303.14737   -110568.44    110611.35   -131.03868    38.049427 
28768000    309.48717    512.07168    329.25329   -110599.01    110625.85    182.81839    38.049736 
28772000    251.75965     354.7086    443.13889    -110583.4    110634.61   -88.430285    38.049291 
28776000    260.39773    213.93143    258.62894   -110590.39    110630.91   -44.697507    38.052301 
28780000     320.7068    253.85495    345.86036   -110648.39     110639.7    -92.00541    38.049629 
28784000    280.65291    535.99012    317.48532   -110630.44    110667.26     218.5048     38.04504 
28788000    266.78532    330.55001    392.49549   -110634.32     110683.1   -61.945477    38.041347 
28792000    313.51738    428.48353    190.17801   -110681.69    110696.29    238.30552     38.04423 
28796000    280.88862    267.71314    347.77842   -110670.88    110726.19   -80.065277    38.039989 
28800000    313.49905    226.91157    524.52171   -110697.57    110721.98   -297.61014    38.040364 
28804000     273.3978    412.26575    312.87837   -110724.87    110768.44    99.387377    38.041102 
28808000    294.41696    620.30901    566.95414   -110757.59    110797.79    53.354877    38.036562 
28812000    276.26558    509.73735    316.92749   -110761.56    110824.86    192.80986    38.039362 
28816000     257.4672    307.23631    325.69592   -110792.79     110838.8    -18.45961    38.035491 
28820000    304.55428    337.50345    236.36131   -110817.47     110834.1    101.14214    38.035867 
28824000    258.25105    433.03225    273.08512   -110836.99    110871.76    159.94713    38.039287 
28828000    283.70523    282.76867    360.83956   -110829.37    110857.05   -78.070887    38.037527 
28832000    286.81344    290.65555    217.90538   -110821.94    110863.85    72.750168    38.043156 
28836000    318.75267    415.56844    398.37557   -110862.36    110882.11    17.192878    38.043334 
28840000     301.4912    218.78192    412.34578   -110875.73    110891.07   -193.56387    38.040937 
28844000     308.4188    491.54116    216.16325   -110905.83    110922.36    275.37791    38.046202 
28848000    296.76962    290.92832    475.94791   -110915.44    110938.33   -185.01959     38.04508 
28852000    292.06512    431.26591    336.10936   -110930.21    110953.52    95.156549    38.048654 
28856000    277.39133    227.68886     536.6678   -110906.11    110961.31   -308.97895    38.047365 
28860000    269.48326    410.02124     341.1212   -110932.16    110971.42    68.900041    38.047114 
28864000    275.45359     332.9357    327.55026   -110934.64    110984.41    5.3854406    38.044316 
28868000    281.91833    311.02411    456.81098   -110951.45     110978.6   -145.78687    38.043962 
28872000    310.38834    363.78137    277.71984   -110976.59    110998.94    86.061532     38.04597 
28876000    280.47466    405.02952    246.20918   -110969.08    111014.36    158.82034    38.051849 
28880000    280.51837    320.71249    282.53944   -110995.94    111021.48    38.173045    38.052044 
28884000     309.1245    416.02781    189.11519   -111007.75    111027.92    226.91262    38.055077 
28888000    278.19798    373.98795    412.47317   -111016.25    111041.84   -38.485221    38.057248 
28892000    280.76459    420.71592    265.54672   -111025.41    111063.98     155.1692    38.065583 
28896000    283.46595    328.09702    356.60503   -111024.77    111056.39   -28.508011    38.071353 
28900000    293.28949    383.75254    268.80327   -111055.89    111075.01    114.94927    38.064686 
28904000    284.86204    347.57521      222.207   -111083.49    111113.97    125.36821    38.064354 
28908000    297.74701    461.42262    469.08674   -111087.28    111116.92   -7.6641171    38.067769 
28912000    280.12069    269.15146    337.84172    -111102.3    111130.32   -68.690256    38.064763 
28916000    295.89073    372.07791    285.72828   -111126.03    111155.92    86.349627    38.067893 
28920000    305.25436    415.13255    446.23825    -111144.8    111157.18   -31.105698    38.074811 
28924000    277.13723    307.09121    178.26491   -111167.17    111213.25     128.8263    38.076136 
28928000    294.48198    348.43593    393.02001   -111219.07    111238.68   -44.584086    38.075247 
28932000    291.39336    143.74704    351.15471   -111230.98       111250   -207.40767    38.074326 
28936000    289.73147    388.20196    365.07764   -111251.01    111282.74    23.124319    38.069245 
28940000    264.95235    301.79571    189.27878   -111250.66    111296.41    112.51693    38.068758 
28944000    281.95119     427.4628    335.17809   -111266.53    111308.72    92.284711    38.070442 
28948000    267.30865    245.25386    255.78309   -111270.52    111313.22   -10.529232     38.06914 
28952000    278.17599    328.08945    415.61722   -111298.47    111342.45   -87.527763     38.06447 
28956000    263.54758    220.82936    283.87196   -111288.69     111329.2   -63.042594    38.061979 
28960000     283.3812    365.31853    137.84226   -111303.66    111342.85    227.47627    38.061022 
28964000    223.91659    209.20681    173.44812   -111284.55    111340.27    35.758691    38.058235 
28968000     277.0201    448.43875    149.63251   -111306.38     111360.4    298.80624     38.06117 
28972000    289.82606    205.83133    442.57157   -111337.63    111365.46   -236.74024    38.057708 
28976000    235.20605    269.02678     444.8527   -111332.04    111384.99   -175.82592    38.057572 
28980000    308.05145    450.02588    322.95011   -111370.61     111389.9    127.07578    38.055752 
28984000    268.72268    354.80065    227.73822   -111376.76    111423.22    127.06243    38.054795 
28988000    280.81021    303.15533    427.90431   -111392.46    111424.61   -124.74897    38.052642 
28992000    280.76254    265.31785    348.22853   -111404.05    111441.97   -82.910683    38.052297 
28996000     271.8671    253.22176    284.79389   -111428.14    111470.78    -31.57213    38.059381 
29000000    267.04761    378.78992     288.2851   -111460.17    111499.39    90.504819    38.056951 
29004000    292.54673    174.94653    334.01918   -111471.59    111503.67   -159.07265    38.059408 
29008000    282.19717    318.36419    269.09112   -111493.12     111520.9    49.273071    38.061794 
29012000    311.96529    563.10138    478.39381   -111500.21     111522.4    84.707573    38.061611 
29016000     306.7287     350.8242    277.56235   -111513.68    111531.73     73.26185    38.061887 
29020000    287.69615    409.88297    416.32214   -111503.65    111543.46   -6.4391605    38.059701 
29024000    274.83233    243.62784     269.2377   -111542.91    111558.48   -25.609859    38.057629 
29028000    313.54876    358.10581    154.62884   -111547.87    111578.48    203.47697    38.056159 
29032000    261.78219    459.23832    351.74725   -111547.78    111607.62    107.49107    38.060284 
29036000    274.77303    674.69704    343.49139    -111572.1    111615.06    331.20565    38.060867 
29040000      266.401    181.27656    274.29246   -111586.76    111640.99   -93.015902     38.05955 
29044000    305.95446    216.78857    378.69599   -111612.99    111636.37   -161.90741    38.060514 
29048000    298.84737    295.79975    521.82984   -111645.19    111651.16   -226.03009    38.058697 
29052000     292.5648    305.56548    532.03925   -111659.25    111690.97   -226.47377     38.05769 
29056000    271.40866    358.76185    213.16137   -111662.09    111719.25    145.60047     38.05404 
29060000    273.00022    262.51025    483.98638   -111713.58    111731.95   -221.47614    38.056439 
29064000    293.18831    329.20522    249.13969   -111716.95    111750.76    80.065531    38.055075 
29068000    279.87187    329.03876    575.92376   -111725.86    111761.68     -246.885     38.05456 
29072000    289.46052    583.96769    450.05353    -111756.5    111796.94    133.91417    38.048863 
29076000    276.93159    379.15143    314.99878   -111793.68    111837.33    64.152647    38.047052 
29080000    303.14795    154.17368    452.90653   -111801.24    111831.61   -298.73285    38.047424 
29084000    302.61256    181.69728    239.20119   -111818.83    111836.51   -57.503916    38.050498 
29088000    267.87647    364.79489    355.97608   -111818.04     111858.8    8.8188155    38.045197 
29092000    300.36713    376.38928    362.36499   -111848.95    111874.91     14.02429    38.045244 
29096000    300.79861    302.16176     267.9831   -111857.34    111873.41    34.178659    38.043732 
29100000    302.58676    401.38866    312.73886   -111876.36    111886.39    88.649798    38.048394 
29104000    324.19856    411.94272    288.31609   -111866.41    111882.37    123.62662    38.055141 
29108000     307.7241    317.11208    365.65103    -111887.6    111885.01   -48.538958    38.058016 
29112000    303.83073    276.86999    402.73452   -111887.37    111886.39   -125.86454    38.056894 
29116000    280.32577    253.49251    401.85798   -111898.31    111923.67   -148.36547     38.05693 
29120000    287.88692    450.41676    342.11724   -111917.03    111940.85    108.29952    38.054603 
29124000    287.03384    446.73959    274.63215   -111915.44    111949.34    172.10744    38.055363 
29128000    300.59532     309.4983    570.83046   -111942.16    111966.63   -261.33216    38.056198 
29132000    297.82066    473.57422    353.37018   -111962.78    111990.18    120.20405    38.059989 
29136000    305.95371    397.04836    475.59717   -111979.82    112006.39   -78.548808    38.061829 
29140000    277.42973    374.65486    244.38593   -112007.43    112035.41    130.26893    38.065984 
29144000    276.35394    295.09114     374.9932   -112016.74    112052.64   -79.902065    38.061723 
29148000    289.41153    253.16163    510.77992    -112036.9    112069.31   -257.61829    38.061649 
29152000    255.21299    423.61212    264.04228   -112043.08     112111.3    159.56984    38.067702 
29156000     270.0711     466.0424    189.26354   -112068.35    112101.57    276.77886    38.070819 
29160000    301.89646    324.29479    396.37505   -112083.83    112106.03   -72.080255    38.069622 
29164000    284.71255    276.16536    313.66655   -112083.19    112134.21   -37.501189    38.070421 
29168000    278.49119    397.74389    219.80141   -112105.23    112154.99    177.94249    38.069554 
29172000    299.51042    300.49187    271.01648   -112134.46    112162.63    29.475396    38.065086 
29176000    275.55819    347.31203    261.28754   -112146.47    112205.56    86.024492    38.062548 
29180000    280.56059    539.44914    418.70855   -112178.12    112220.03    120.74059    38.070448 
29184000    296.96259    376.81431    273.21297   -112199.73    112229.97    103.60134     38.07188 
29188000    304.59523    283.70597    251.27311   -112207.21    112223.78    32.432854    38.075983 
29192000    302.01612    330.79397    411.75999    -112212.8    112249.53    -80.96602    38.077351 
29196000    256.86963    310.27867    165.12289   -112243.33    112286.48    145.15577    38.075191 
29200000    289.83891    359.96657    327.13721   -112240.96    112273.58    32.829362    38.075624 
29204000    251.31482    357.43632    231.82624   -112230.83    112278.05    125.61008    38.074828 
29208000    274.99762      368.442    457.67025    -112242.5    112269.77   -89.228243    38.071578 
29212000    314.31675     549.9692    504.42314    -112254.8    112267.61    45.546061    38.078056 
29216000     307.4781    445.41958     352.8335   -112268.15    112300.37    92.586078    38.082332 
29220000    274.84175    584.15511    347.96041   -112291.41    112326.68     236.1947    38.084594 
29224000    277.92368    500.59893    461.40259   -112298.56    112335.99    39.196343    38.079912 
29228000    299.73973     354.9135    263.38332   -112328.38    112355.59    91.530181    38.076905 
29232000    275.22146    380.58678    405.91094   -112334.06    112380.67   -25.324162    38.078079 
29236000    282.69269    642.18071    305.91909   -112354.16    112392.14    336.26162    38.080787 
29240000    263.68574    440.72259    360.64193   -112395.02    112420.59    80.080653    38.082465 
29244000     289.9487    247.31973    282.02638   -112405.76    112436.66   -34.706656    38.080414 
29248000    276.64883    215.09942    341.86106   -112425.68    112474.52   -126.76165      38.0846 
29252000    278.82212    309.43572    403.77283   -112443.38    112480.63   -94.337115    38.086238 
29256000    298.51081    483.57062    379.25288   -112455.61    112492.47    104.31774    38.090475 
29260000    257.23334    298.28142     388.0615    -112447.8    112481.01    -89.78008    38.090396 
29264000    260.33392    352.53479    350.73755   -112441.47    112501.72    1.7972427    38.090043 
29268000    272.34748    449.95355     255.8299   -112460.73     112503.2    194.12365     38.09097 
29272000    254.50272    432.57116    346.68085   -112453.79    112513.65    85.890313    38.093569 
29276000    260.55294    528.27858    351.72921   -112480.86    112545.45    176.54937    38.093598 
29280000    276.84838    322.96423    190.18905   -112497.69    112545.05    132.77518    38.093463 
29284000     265.1633    517.41096    214.02936   -112507.43    112565.87     303.3816    38.096206 
29288000    293.10777    254.85519    231.31772   -112531.01    112576.51    23.537474    38.093281 
29292000    281.42331    333.87518    248.12677   -112545.06    112566.97    85.748418    38.092411 
29296000    290.94868    494.28929    350.29895   -112555.32     112593.7    143.99034    38.093112 
29300000    262.93563    377.63647    275.26054   -112568.43    112617.06    102.37594    38.090082 
29304000    274.75514    317.90844    192.10817   -112580.99    112613.63    125.80027    38.093984 
29308000    257.10715    261.09524    242.60921   -112582.33    112635.74    18.486038    38.090623 
29312000    272.70311    300.60592    137.12419   -112606.16    112642.18    163.48173    38.091226 
29316000    295.95452    412.65381    243.66266   -112629.32    112648.47    168.99115    38.092356 
29320000    280.39653    279.50777    258.80042   -112632.04    112676.44    20.707352    38.097956 
29324000    291.53543    384.20899     384.8651    -112670.5    112700.59  -0.65610593    38.100035 
29328000    274.77569    311.86245    415.10692   -112680.98     112723.4   -103.24448    38.095583 
29332000    323.63465    779.59438    350.40519   -112715.98    112735.38    429.18919    38.100423 
29336000    289.48335    205.45231    491.05684   -112709.59    112757.62   -285.60453    38.095701 
29340000    295.79911    551.55403    230.02701   -112742.29    112778.95    321.52701    38.092029 
29344000    273.34587     506.7929    467.52703   -112734.76    112789.04    39.265867    38.093171 
29348000    275.21207    431.21539     284.8849   -112762.53     112806.7    146.33049    38.095473 
29352000    298.03702    353.27253    349.28802   -112792.12    112815.24    3.9845112    38.098409 
29356000    264.96168    280.34554    423.14918   -112791.24    112838.78   -142.80364    38.097065 
29360000    294.25738    434.80096    578.67084   -112797.46    112831.57   -143.86988    38.090859 
29364000      265.649    451.13417     450.7178   -112810.66    112857.97   0.41636464    38.093534 
29368000     270.2044    516.24545    309.15746    -112851.8    112884.16      207.088    38.090019 
29372000    295.69777    338.66798     472.5046   -112875.36    112905.37   -133.83662    38.088513 
29376000    301.46173    531.85203    301.25672   -112901.73     112907.9    230.59532    38.090318 
29380000    291.25896    383.65864    402.84167   -112906.08    112930.32   -19.183032    38.094663 
29384000    300.77023    219.70577    241.80838   -112922.54    112953.45   -22.102613    38.091601 
29388000    270.79259    364.25737    281.06304   -112936.49    112983.78    83.194334    38.100947 
29392000    290.13485      358.043    276.73542   -112975.02    113005.84    81.307574    38.102399 
29396000    274.87119    329.66566    240.93317      -112981    113014.24     88.73249    38.100006 
29400000    262.26532    278.32405    297.36937   -112979.97    113029.43   -19.045315    38.096419 
29404000    307.56803    386.99198    257.38083   -113014.53    113010.85    129.61116    38.095362 
29408000    262.23667    253.58788    327.51245   -112989.07    113037.79   -73.924572    38.101966 
29412000    278.73827    209.89672    258.07525    -113039.1    113052.39   -48.178532    38.102797 
29416000    293.81495    190.48409    298.07369   -113059.59    113089.97    -107.5896    38.099804 
29420000    297.25649    477.65696    299.23235   -113077.81    113117.99    178.42461    38.100551 
29424000    276.70847    249.23929      268.024   -113091.18    113129.45   -18.784705    38.097891 
29428000    304.30826    320.55777    403.79588   -113117.16    113128.89   -83.238105    38.101069 
29432000    287.45688    260.43355    463.84812   -113114.84    113142.35   -203.41457     38.10305 
29436000    261.00811    243.44137    326.75974   -113116.27    113172.55   -83.318368    38.107074 
29440000    272.44746    451.88312    286.56408   -113152.21    113202.96    165.31904    38.113696 
29444000    271.76639    313.89066    214.61106   -113168.16    113223.65    99.279609     38.11846 
29448000    254.85279    317.28951    471.67836   -113181.92    113236.66   -154.38884     38.12084 
29452000    286.69333    281.01165    392.16989   -113227.11    113260.66   -111.15825    38.121242 
29456000    280.82599    292.24697     346.7194   -113228.98     113261.6   -54.472428    38.118928 
29460000    253.11851    365.20509    230.88276   -113225.33    113285.83    134.32233    38.114597 
29464000    263.42893    407.97764    286.34067   -113246.49    113302.31    121.63697    38.120911 
29468000    283.73886    358.49476    516.36763   -113269.48    113298.43   -157.87287    38.124767 
29472000    273.92699     365.4125    580.32638   -113278.58    113318.29   -214.91388    38.126221 
29476000    284.69274    292.05355    448.66869   -113299.15    113334.41   -156.61513    38.124029 
29480000    285.99468    325.67374    263.41018    -113337.8    113360.12    62.263557    38.120639 
29484000    277.60072    348.53195    361.80638   -113358.59    113398.98   -13.274431    38.120352 
29488000    305.33546    480.65963    370.55766   -113378.31    113406.46    110.10197    38.128529 
29492000     264.6785    350.07413    229.94592   -113403.65    113454.58    120.12821    38.127829 
29496000    292.64144    202.72802    285.56163   -113403.68    113432.14    -82.83361     38.12583 
29500000    270.30054    246.36163    275.32037   -113399.47    113450.93   -28.958739    38.127859 
29504000    279.73687    371.55447    271.03247   -113420.46    113458.25      100.522    38.124835 
29508000    273.08929    190.83475    222.79151   -113440.72    113493.43   -31.956759     38.13113 
29512000    266.29116    444.83513    499.01499   -113471.56    113517.38   -54.179864    38.131682 
29516000    270.98331    525.06532     336.0876   -113493.36     113530.2    188.97772     38.12948 
29520000     296.2935    459.62627    272.96611   -113536.46    113552.93    186.66016    38.128311 
29524000    285.92776    340.05873     538.5079   -113549.82    113585.29   -198.44917    38.130838 
29528000    286.49677    210.79381    315.68911   -113582.95     113621.4    -104.8953    38.133635 
29532000    278.45987     437.0369    638.51318   -113622.61     113660.4   -201.47628    38.129107 
29536000    267.32199     610.4215    363.07204    -113670.3    113725.29    247.34945    38.126944 
29540000    293.32793    274.12576    610.52388   -113679.24    113721.28   -336.39812    38.124534 
29544000    302.42357    346.25456    329.01232   -113710.42     113742.1    17.242241    38.126964 
29548000     306.3324    371.79405    395.18577   -113732.16    113755.91   -23.391718    38.125242 
29552000    283.40175    270.61813    244.64942   -113742.72    113786.78    25.968714    38.133427 
29556000    259.43761    260.81892    420.67456   -113749.24    113806.88   -159.85563     38.13489 
29560000    271.48452     248.4609    381.90442   -113792.55    113828.43   -133.44352    38.139593 
29564000    308.95324    514.38303    294.90299   -113802.63    113829.33    219.48004    38.141685 
29568000    267.09164    355.92682    147.77933   -113791.39    113855.87    208.14749    38.144331 
29572000    271.12891    282.19507    260.46455   -113825.86    113857.79    21.730522    38.144727 
29576000    285.94518    401.62496     497.2674   -113860.07     113890.3   -95.642438    38.142211 
29580000    281.85977     351.4959     341.6528   -113889.94    113925.55     9.843102    38.137198 
29584000    295.63661    478.14497    135.73217   -113934.77    113961.63     342.4128    38.136775 
29588000    299.84325     438.1477    457.55948   -113954.58    113968.58   -19.411781     38.13591 
29592000    299.26049    214.46238    307.08453   -113947.49    113991.44   -92.622147    38.135322 
29596000    268.82672    262.91671    295.10877   -113960.01     114001.6   -32.192055    38.135786 
29600000    266.65348    470.91423    265.59695   -113975.51    114026.97    205.31728    38.139153 
29604000    257.42316    413.95721    350.77209    -113996.6    114049.59    63.185116    38.140828 
29608000    298.53712     332.2722    229.83362   -114028.74    114057.99    102.43858    38.140765 
29612000    275.01076    390.42899     200.9305   -114038.01    114078.03    189.49849    38.142193 
29616000    302.17483    305.86467    234.92956   -114072.88    114089.64    70.935112    38.147915 
29620000    269.05261    164.51977    275.83688   -114077.55    114110.01   -111.31711    38.147102 
29624000    272.69359    170.94689     361.6277   -114063.18    114125.38   -190.68082    38.145706 
29628000     266.2341    396.75562    312.60468   -114096.51    114151.65    84.150942    38.146359 
29632000    305.45353    372.20128    422.06859   -114125.07    114150.84   -49.867312    38.149079 
29636000    293.43873    337.02086    360.81179    -114144.7    114188.66   -23.790928    38.153128 
29640000    320.00495    483.15283    261.39842    -114153.6     114186.3    221.75441    38.155537 
29644000    290.35335    204.51311     410.4268   -114159.42    114207.78   -205.91369    38.153568 
29648000    254.66497     230.6647    387.01565   -114160.89     114216.8   -156.35095    38.151138 
29652000    293.41147    429.89463    437.98381   -114204.84    114238.83   -8.0891774     38.15154 
29656000    284.71171    433.25646    396.43162   -114215.08    114266.27    36.824838    38.154024 
29660000      293.558    455.32461    406.64539   -114222.73    114255.78    48.679216    38.152457 
29664000     276.1082    403.47162    268.86421   -114231.77     114282.5    134.60741    38.148955 
29668000    268.55732    321.12868    220.00951    -114255.6     114287.6    101.11917    38.151231 
29672000    287.18654    407.41662    343.66162   -114265.83    114308.69    63.754997    38.155403 
29676000     285.4409    283.39185    326.11127    -114309.1    114344.67   -42.719421    38.155851 
29680000    283.61868    541.90453    340.59709   -114307.89    114360.43    201.30745    38.152585 
29684000    276.16173    388.68983    367.66943   -114333.57    114358.03      21.0204    38.150408 
29688000     306.0268    294.86746    268.69738   -114339.54    114360.49    26.170085    38.154283 
29692000    290.36868    333.45251    416.08405   -114346.89    114370.48   -82.631539    38.149279 
29696000    266.17957    564.07723    324.71529   -114372.49    114412.66    239.36193     38.15679 
29700000    262.50705    477.13306    476.39141   -114390.72    114445.25   0.74165363    38.151807 
29704000    258.59171    285.57674    287.65637   -114403.64     114451.6   -2.0796255     38.15665 
29708000    284.45259    366.70357    328.34355   -114423.67    114464.68    38.360019    38.156759 
29712000    278.18317    210.46038    400.87835   -114437.04    114479.93   -190.41797    38.154797 
29716000    291.57031    328.58465    310.79062   -114468.22    114500.16    17.794038    38.154232 
29720000    248.77974    393.56697    291.74727   -114462.44    114520.27     101.8197    38.153985 
29724000    270.16736    303.78021    342.72298    -114481.5    114527.56   -38.942766    38.151201 
29728000    277.01761    463.57766    324.61502   -114510.67    114549.04    138.96264    38.150522 
29732000    289.61148    678.19482     241.8191   -114525.72    114549.68    436.37571     38.15177 
29736000    277.41219     334.3864    282.67897   -114559.74    114590.56    51.707431    38.152859 
29740000    277.28555    315.07538     211.2565   -114567.01    114600.07    103.81889    38.150545 
29744000    290.25063    265.08329    316.66007   -114579.43    114619.66   -51.576778    38.147985 
29748000    280.36969    319.15267    403.14633   -114606.81    114646.69   -83.993655    38.144843 
29752000    292.77284    220.14508    453.62733   -114629.74     114651.3   -233.48225    38.144033 
29756000    295.60004    232.64023    219.10436   -114633.47    114673.72    13.535861      38.1464 
29760000     286.3138     430.4532    178.99574   -114649.99    114686.48    251.45746    38.140191 
29764000    286.75214    315.96635    287.89751   -114680.62    114716.84    28.068837    38.141702 
29768000    292.81327    484.13476    447.63241   -114705.21    114720.68     36.50235    38.139597 
29772000    277.73983    322.76007    304.33213    -114690.6    114729.57    18.427946    38.143606 
29776000    276.61795     470.2888    383.99395   -114699.04    114742.49     86.29485     38.14329 
29780000    279.82166    286.42047    418.75775   -114705.37    114742.78   -132.33729    38.146404 
29784000    274.02902    596.76246    260.45174   -114729.72    114762.09    336.31071     38.13957 
29788000    298.90112    714.40985    232.21216   -114729.63     114762.4     482.1977    38.139543 
29792000    274.67824     305.0227    300.59347   -114717.89    114757.01    4.4292249    38.143885 
29796000    293.18514    372.47653    452.31499   -114744.98    114769.32   -79.838456    38.137082 
29800000    290.10739     274.0195    390.99379   -114746.82    114791.47   -116.97429    38.136377 
29804000    293.91527    646.20423    297.49112   -114749.58    114795.85    348.71311    38.136587 
29808000    259.99874    414.17886    354.08441   -114747.95    114809.49    60.094444    38.135447 
29812000    299.13822    265.82471    505.50038   -114783.11    114819.76   -239.67568    38.132058 
29816000    311.31732    603.32997     342.9197   -114831.02    114835.37    260.41027    38.129367 
29820000    316.39511    376.24467    305.80804   -114880.44    114853.33    70.436629    38.131792 
29824000    334.16975    570.62688    417.97024   -114890.06    114882.01    152.65664    38.130832 
29828000    286.55049    320.60727    228.28284   -114868.33     114909.3     92.32443    38.133192 
29832000    267.55169    538.22036    244.94996   -114864.54     114914.1     293.2704    38.129622 
29836000     239.5669    381.35316    335.62955   -114877.09    114944.92    45.723611    38.136714 
29840000    292.36807    289.06165    306.57201   -114910.79    114958.85   -17.510354    38.135168 
29844000    287.75744    488.55693    419.56544   -114919.92     114964.6    68.991483    38.131334 
29848000    295.92322    464.22648    261.43967   -114946.51    114981.74    202.78681    38.131323 
29852000    284.51045    267.33906    451.18004   -114955.18    114982.33   -183.84099    38.123312 
29856000    299.26157    243.16878     272.4302    -114967.4    114995.23   -29.261419    38.123753 
29860000    272.32979     327.6647    215.95514   -114963.25    115002.25    111.70956    38.122826 
29864000    284.10568    315.10726    425.90855   -114972.54    115001.63   -110.80129    38.130539 
29868000    266.76791    413.37303    221.41955   -114990.39       115031    191.95348    38.131124 
29872000    289.70633      425.487    183.10029   -115005.41    115048.35    242.38672    38.129068 
29876000    293.24482    324.35039    462.49593   -115033.95    115062.02   -138.14554    38.130868 
29880000    295.14672    336.89657    145.98372   -115067.92    115094.21    190.91285    38.132583 
29884000    286.68043    341.45182    221.29505   -115058.33    115091.66    120.15677    38.130281 
29888000    284.26912     518.9721    423.16812   -115067.67    115089.47    95.803975     38.13047 
29892000    279.04262    295.44201    320.77703   -115084.03    115127.82    -25.33502    38.128316 
29896000    289.33776    433.72942    248.77873   -115086.25    115122.37    184.95069    38.124949 
29900000    284.01084    400.45282    459.88258   -115098.19    115141.05   -59.429755    38.120914 
29904000    284.26838     478.3577    359.19013   -115109.05    115159.04    119.16757    38.122401 
29908000    306.06018      181.574    487.36672   -115107.99    115137.65   -305.79272    38.121694 
29912000    277.73485     337.5271    487.82253   -115100.52    115137.51   -150.29542    38.121636 
29916000    301.07103    465.67946     305.9153   -115108.26    115131.56    159.76416    38.122499 
29920000    307.14842    196.07851    553.14727   -115147.11    115158.57   -357.06876    38.118688 
29924000     326.0963    722.32239    382.93238   -115176.62    115186.75    339.39001    38.121678 
29928000    292.21082    349.78383    253.33054   -115184.39    115217.03    96.453294    38.120094 
29932000    286.97218    371.25609    191.00508   -115191.38    115239.61    180.25101    38.122163 
29936000    277.79105     444.6248     310.3502   -115213.49    115241.74    134.27461    38.124601 
29940000    287.01704    546.75362    340.27149   -115233.48    115283.23    206.48213    38.121725 
29944000    301.19652    237.70702    294.37525   -115256.71    115294.06   -56.668233    38.117163 
29948000    289.84744    429.22977    403.30417    -115280.4    115314.87    25.925599     38.12027 
29952000    286.03938    473.90007    301.96187    -115291.5    115340.48     171.9382    38.121546 
29956000    267.94198    400.96305    434.70901   -115290.42    115342.76   -33.745951    38.120082 
29960000    262.52488     344.8088    295.90821    -115304.2    115343.88    48.900583    38.116383 
29964000    285.59401    316.81745    381.61306   -115340.49    115370.56   -64.795606    38.112188 
29968000    270.40412     335.5577    360.28046   -115357.36    115404.95   -24.722758    38.112993 
29972000    272.72038    365.42498    346.06227   -115363.84    115411.98    19.362707    38.111149 
29976000    261.40892    469.64127    403.05186    -115358.6     115410.3    66.589414    38.115514 
29980000     284.2924    255.20395    198.02784   -115367.94    115407.82    57.176108    38.108196 
29984000    293.74178    354.10685    456.22115   -115382.65    115412.67    -102.1143    38.110145 
29988000    311.08678    239.64748    533.91932   -115418.86    115434.38   -294.27184    38.107214 
29992000     301.2775    412.54865    386.63121   -115418.03    115440.39    25.917447    38.104272 
29996000    300.41789    722.46124    299.61627   -115429.23    115457.56    422.84497    38.106756 
30000000    306.12165    342.51432     301.7818   -115478.67    115496.84    40.732517    38.103501 
30004000     294.8714    154.95659    260.43068   -115461.86    115484.61   -105.47409     38.10587 
30008000    290.51904    408.50129    372.91869   -115505.47    115525.09    35.582597    38.107235 
30012000     298.4158    377.82491    335.46368   -115529.63    115558.58    42.361237     38.10865 
30016000    275.42299    284.72165     297.2895    -115520.7    115581.72   -12.567844    38.111806 
30020000    287.24724    495.73826    316.24062   -115554.67    115600.02    179.49764    38.115581 
30024000    297.23183    360.36503    430.93732      -115563    115596.95   -70.572293    38.115267 
30028000    285.26366    223.83532    380.61807   -115581.63    115628.47   -156.78275    38.113926 
30032000    284.79987    378.82141    336.84307   -115601.22    115639.66     41.97834    38.110847 
30036000    256.41709     402.3252    299.52412   -115596.08    115656.26    102.80108    38.111533 
30040000    293.23667    573.36419    318.06319   -115635.14    115679.87      255.301    38.115869 
30044000    252.84999    358.79412    312.96006   -115663.47    115700.58     45.83406     38.11466 
30048000    265.04584    324.80694    289.26886   -115664.77    115707.59    35.538087    38.111558 
30052000    252.81329    370.55906    204.76125    -115680.7    115730.67    165.79781    38.110875 
30056000    282.97222    169.96576    170.31609   -115719.29    115751.02  -0.35032719    38.100825 
30060000    287.56189      402.556    347.62417      -115736    115766.32    54.931831    38.100015 
30064000    286.65122     443.9623    307.94619    -115744.8    115775.26    136.01611    38.090829 
30068000    271.58478     216.6345    349.36707   -115741.93    115776.48   -132.73257    38.089893 
30072000    252.98578    440.82763    392.13356   -115728.44    115792.27    48.694077    38.090584 
30076000    292.84171    409.63404    339.18674   -115762.42    115793.55    70.447295    38.087328 
30080000    275.74682    280.59864     211.6855   -115775.72    115814.58    68.913141    38.089699 
30084000    268.11396    421.42251    278.27923      -115786    115819.45    143.14328     38.09245 
30088000    302.21599    503.38526    229.37436   -115816.76    115855.29    274.01089    38.095296 
30092000    284.41639    391.66337     480.1976   -115824.47    115862.18   -88.534233    38.093411 
30096000    282.61745    373.64344    279.05655    -115834.8    115864.68    94.586897    38.088209 
30100000     277.8661    326.74419    318.18561   -115840.89    115890.68    8.5585756    38.085558 
30104000    289.82111    345.15518    453.87172   -115858.43    115900.42   -108.71655    38.090157 
30108000    250.42911    286.70306    241.64867   -115881.27    115926.82    45.054393    38.093438 
30112000    291.09323    430.15019    438.79431   -115915.32    115957.42   -8.6441166    38.094555 
30116000    299.69541    733.44967    391.74753   -115958.49    115977.12    341.70214    38.097467 
30120000    284.02217     342.7984    323.67614   -115977.49    116019.71    19.122257    38.101076 
30124000    303.31602    307.37943    602.96971   -116011.45    116043.81   -295.59028    38.102011 
30128000    265.53638    263.49527    605.76069   -116020.95    116079.01   -342.26542    38.098981 
30132000    277.61488    404.05125    366.29143   -116042.56    116081.05    37.759818    38.095674 
30136000    287.28681    290.90407    356.57141   -116063.21    116097.06   -65.667339    38.094205 
30140000    275.19516    404.13976    458.77481   -116081.22    116128.14   -54.635051    38.089421 
30144000    260.31614    265.13573    217.99284   -116093.63    116149.71    47.142894    38.088796 
30148000    282.31605    283.10927    526.85161   -116120.89    116157.89   -243.74235    38.091064 
30152000    278.57843    215.52866    399.48878   -116125.64    116173.58   -183.96011    38.094171 
30156000    291.27614    367.49505    326.53085   -116152.25    116178.49    40.964193    38.095954 
30160000    287.07563     557.4334    291.48622   -116173.36    116204.16    265.94718    38.094139 
30164000     297.5846     358.8775    229.61404   -116186.68    116217.92    129.26346    38.094774 
30168000    256.99328    349.05472    326.80529   -116236.25    116275.78    22.249431    38.097967 
30172000    290.02492    213.42416    396.22509   -116245.73    116283.71   -182.80093    38.099725 
30176000     270.3512    411.43622    412.89762   -116262.29    116306.85   -1.4614011    38.104154 
30180000    274.61093    288.66789    534.81043   -116285.78    116317.28   -246.14254     38.10971 
30184000    276.23345    623.11828    268.60787   -116308.02    116341.36    354.51041    38.114148 
30188000    291.42333    356.70314    523.62224   -116316.24    116369.84    -166.9191     38.10898 
30192000    287.85793    212.90853    340.06127   -116334.43       116376   -127.15274    38.107915 
30196000    266.81832    455.56147    322.21748   -116338.61    116381.64    133.34399    38.110341 
30200000    265.89571    320.12044       503.64   -116370.32     116418.2   -183.51955    38.109137 
30204000    270.60655    163.28035     258.2541   -116381.44    116427.79   -94.973755    38.107239 
30208000    287.46918    279.32819     238.3279    -116390.4    116424.47    41.000292    38.105507 
30212000    282.14065    292.56913    283.95836   -116420.27    116434.94    8.6107633    38.106855 
30216000    301.85824    179.00154    298.73177   -116423.12    116441.83   -119.73023     38.10735 
30220000    288.32305    453.64414    254.85441   -116449.82    116484.89    198.78974    38.104756 
30224000      265.788    387.05803    357.67741   -116443.25    116506.32    29.380626    38.103173 
30228000    272.33197    267.96381    259.34437      -116454    116510.06    8.6194443    38.104985 
30232000    278.19029     300.8561    248.84825   -116463.65    116506.74    52.007849    38.101642 
30236000    280.29025    385.14568    369.54834   -116490.43    116540.66    15.597346    38.094864 
30240000    265.04834    345.76448    263.32606   -116509.59    116550.43    82.438414    38.095183 
30244000    313.28377    417.65712    472.78032   -116545.71    116555.18   -55.123199    38.091724 
30248000    303.72806     320.0631    297.11607   -116553.56    116573.98    22.947024    38.091463 
30252000    296.43598    651.67621    271.51937      -116568       116579    380.15684    38.084461 
30256000    292.31645    415.50581    227.89493   -116569.97    116618.39    187.61089    38.085615 
30260000    288.84764    255.27128    229.44329    -116573.9    116614.62    25.827986    38.079761 
30264000    302.56261    440.56471    363.14536   -116595.41    116622.58    77.419341    38.076701 
30268000    303.33981    251.16525    259.03214   -116616.14    116639.77   -7.8668861     38.07075 
30272000    314.22503    325.86506    395.04824   -116636.16     116640.5   -69.183182     38.06744 
30276000    294.34571    249.21354    234.63786   -116645.73    116680.35    14.575684    38.065112 
30280000    286.26224     401.1416    410.96772   -116663.92       116687   -9.8261187    38.065519 
30284000    276.11765     492.7097     243.9653   -116653.87    116699.04     248.7444     38.06408 
30288000    274.61994    279.58377    219.47957   -116663.43    116713.11    60.104199    38.062289 
30292000    257.35296    302.69054    190.22238   -116683.53    116734.71    112.46816    38.060303 
30296000    304.38205    285.51458     282.5928   -116708.37    116730.36    2.9217792    38.057313 
30300000    307.02791     381.0096    348.80109   -116734.58    116765.44    32.208508    38.052421 
30304000    279.74564    296.07188    388.42851   -116730.46    116781.38    -92.35663    38.052466 
30308000    295.19327    386.37235    340.33406   -116776.72    116808.04    46.038291    38.054255 
30312000    275.69536    291.50027    411.11324   -116769.77    116822.31   -119.61297    38.053745 
30316000    265.70293    497.48211    422.29932   -116788.83    116845.17    75.182782    38.055266 
30320000    244.97025     400.7155    212.63819   -116803.53    116863.21    188.07731    38.059819 
30324000    292.32066    373.55966    382.11424   -116843.61    116866.77   -8.5545864    38.058929 
30328000    264.60824    383.45231    266.59121    -116864.3     116901.9     116.8611    38.060145 
30332000    252.42407    217.43112    322.03491   -116878.98    116937.35   -104.60379    38.058928 
30336000    287.20899    415.19247    386.44495   -116916.44    116950.18    28.747516    38.052704 
30340000    276.31289    454.56155    171.28056   -116934.83    116964.05    283.28099    38.058103 
30344000    286.46945    544.72223    204.00819    -116948.1    116986.41    340.71404    38.059823 
30348000    278.45304    481.04996     331.6151   -116974.32    117003.39    149.43486     38.06267 
30352000    272.90929    412.16644    287.68538   -116996.71    117028.63    124.48107    38.058155 
30356000     273.9602    271.53578    332.07127   -116996.23    117052.52   -60.535492     38.06297 
30360000    289.06585    405.51247    388.06122   -117029.01    117068.89    17.451256    38.062582 
30364000    263.46661    224.18005    285.91984   -117054.53    117093.69   -61.739798    38.057248 
30368000     261.3905    226.53156    232.98322   -117055.53    117109.63    -6.451656    38.061109 
30372000    285.12772    460.44329    444.78452   -117106.79    117138.78    15.658768     38.05912 
30376000    270.16875     261.2815    319.77456   -117106.13    117148.51    -58.49306    38.062094 
30380000    259.21318     263.5652    341.61005   -117098.65    117152.96   -78.044857    38.058761 
30384000    288.08128    390.92025    323.77362   -117090.32    117129.46    67.146627    38.063037 
30388000    277.98325    196.02826    476.13599   -117095.15    117129.65   -280.10772    38.067649 
30392000    295.47326    397.58568     363.6419   -117118.33    117158.88    33.943779     38.06445 
30396000    281.85232    393.88669    151.34997   -117122.05    117175.05    242.53672    38.061038 
30400000    266.83111    377.18268    161.57668   -117129.48    117180.15      215.606    38.057661 
30404000    294.40718    454.70401    213.98129   -117160.84    117196.24    240.72272    38.053403 
30408000    272.69999    284.56118    421.50325    -117159.4    117211.79   -136.94207    38.052338 
30412000    286.46459     269.5694     292.6989   -117202.96    117233.78   -23.129503    38.052743 
30416000    255.24582    274.47002    313.32532   -117195.23    117265.67   -38.855301    38.048767 
30420000    280.45319    228.06417    295.33616   -117209.31    117258.31   -67.271997    38.050715 
30424000    267.92339    415.80221    268.16851   -117230.03    117265.66     147.6337    38.047209 
30428000    297.27334    579.53815    548.80544   -117234.59    117274.51    30.732705    38.045711 
30432000    269.45424    296.83856    367.92387   -117250.59    117300.09   -71.085305    38.043413 
30436000    308.19191     220.9766    501.67503   -117265.82    117288.85   -280.69844     38.04403 
30440000    296.35469    370.95512    234.54419   -117255.02    117298.06    136.41093    38.042992 
30444000    289.71933    546.33268    287.28419   -117255.44    117295.65    259.04849    38.044378 
30448000    276.37095    393.80177    532.90691   -117280.44    117328.98   -139.10514    38.040661 
30452000    271.98897     252.4281    168.67048   -117307.82    117344.58    83.757623    38.043912 
30456000    283.39148    328.52047    195.58295   -117311.55    117355.77    132.93752    38.048119 
30460000    280.87565    311.92402    416.33163   -117331.89    117359.44   -104.40761    38.048874 
30464000    296.52792    476.38555    277.16213   -117332.03    117359.09    199.22343    38.051063 
30468000    286.53086    390.39222    441.80249   -117352.65    117375.76   -51.410271    38.051871 
30472000    288.25354    438.20566    323.70516   -117379.13    117417.79     114.5005    38.053085 
30476000    256.19205    220.25119    281.99155   -117371.31    117439.43   -61.740361    38.053393 
30480000     296.7329    400.21524    496.64038   -117410.01    117437.93    -96.42514    38.054628 
30484000     277.3378    737.39245    108.42802   -117432.06    117472.84    628.96443     38.05509 
30488000    276.91442    247.23914    393.24832   -117418.46    117476.32   -146.00917    38.050188 
30492000    274.35626    166.27279     139.7195   -117437.79    117488.27    26.553289    38.045525 
30496000    292.59966    385.76788    325.33903   -117471.41    117493.37    60.428853    38.043291 
30500000    299.12918    319.49378    352.06292   -117497.75    117522.63   -32.569136    38.045499 
30504000    308.11729    468.55738    424.44902   -117531.37    117559.36    44.108364    38.046855 
30508000    283.90376    278.96452    242.71942   -117553.97    117567.17    36.245095    38.049906 
30512000    283.16838    321.11683    459.41655   -117552.81    117576.67   -138.29972    38.045941 
30516000    292.73441     373.9062    317.22469   -117571.51    117595.73    56.681514    38.046661 
30520000    288.69362    462.00391    311.27443   -117577.12    117616.75    150.72948    38.050074 
30524000    267.43161    280.00139    323.64643   -117579.95    117614.84   -43.645035    38.048619 
30528000     285.3599    529.50147    340.57533   -117596.56    117646.33    188.92614    38.053897 
30532000     284.5516    169.05765     466.6748   -117591.31    117631.02   -297.61715    38.048263 
30536000    275.28434    278.40512     283.5676   -117642.96     117677.4   -5.1624864    38.047408 
30540000    297.29341    460.48315    266.22894   -117636.91    117679.93    194.25421    38.049403 
30544000    298.42668    452.78874     372.3665   -117667.83    117689.98    80.422238    38.041604 
30548000    272.09044    431.07905    228.18367   -117678.14    117720.47    202.89538    38.034702 
30552000    254.87139    305.16429    284.62242   -117679.72    117730.93    20.541875    38.038395 
30556000    249.28835    246.23976    196.15145   -117679.84    117736.92    50.088308    38.039119 
30560000     281.0874    127.83112    362.01539    -117720.3     117760.7   -234.18427    38.034792 
30564000    253.15615    223.14633    342.39206   -117732.36    117779.88   -119.24573    38.034963 
30568000     264.7387    317.53994    296.10321   -117738.16    117805.14    21.436733    38.038341 
30572000    294.82591    507.41354    527.72734    -117777.4     117807.5   -20.313802    38.039459 
30576000    269.11608    273.63355    270.93888   -117792.65    117851.17    2.6946666    38.042167 
30580000     308.1809    325.14642    535.75714   -117818.36    117860.41   -210.61072    38.038393 
30584000    261.98304    277.33536    263.36179   -117819.53    117868.32    13.973569     38.04197 
30588000    297.99396    300.92691    322.56191   -117830.24    117872.14   -21.634998    38.041747 
30592000    307.33873    370.75238    351.10903   -117848.58    117868.92    19.643353    38.038988 
30596000    290.29148    285.61923     204.4579   -117862.08    117899.49    81.161329    38.038203 
30600000    308.77812    399.78848    220.49487   -117869.96    117901.14    179.29361    38.038373 
30604000    280.19817    441.27284    346.54811   -117889.06    117921.44    94.724724    38.038989 
30608000    292.52126    280.52428    365.17306   -117910.43    117941.75   -84.648778    38.042287 
30612000    282.59081    403.69443    295.57775    -117921.4    117960.79    108.11667    38.046565 
30616000    286.18799    398.53823      212.736   -117950.44    117992.88    185.80223    38.041654 
30620000    274.27792    419.86246    227.08111   -117953.28    118021.19    192.78136    38.045258 
30624000    283.57801    261.58801    200.74288   -117971.74     118005.1    60.845137    38.048156 
30628000    287.71909    298.12716    341.87368    -118001.6    118031.37    -43.74652    38.045739 
30632000    292.76632    356.40977    309.21364   -118011.98    118043.13    47.196129    38.042992 
30636000    317.13805    335.19892    297.61078   -118036.56    118062.17    37.588147    38.047036 
30640000    268.42261    416.56818    263.71318    -118044.8    118077.48      152.855     38.04987 
30644000    255.64735    262.76313    172.78275   -118035.39    118101.84    89.980384    38.046804 
30648000    289.06612    412.23268    364.26838   -118049.81    118098.15    47.964298     38.04402 
30652000     274.5648    544.76522     251.3772   -118069.94    118103.39    293.38802    38.046546 
30656000    258.98393    388.40249    237.64631   -118049.56    118134.84    150.75618     38.04766 
30660000    256.35404     294.8434    422.98814   -118099.88    118143.91   -128.14473    38.047016 
30664000    274.91755    285.76933    420.98556   -118131.43    118182.92   -135.21623    38.042367 
30668000    273.03711    186.65372    413.90714   -118155.61    118202.48   -227.25342    38.040934 
30672000    301.04516      812.157    165.41945   -118187.11    118207.23    646.73755    38.041462 
30676000    296.67314    277.22462    343.14457   -118167.51    118196.15   -65.919948    38.046346 
30680000    288.90541    412.48984    349.35069   -118169.83    118199.07    63.139158    38.052115 
30684000    314.18171     386.1622    175.33581   -118166.08    118196.93    210.82639    38.053414 
30688000    329.42841    503.05669    598.63507   -118185.66    118198.16   -95.578382    38.053449 
30692000    273.08279    249.44079    289.76123   -118195.56    118244.96   -40.320431    38.051941 
30696000      309.149     587.1156    221.43083    -118233.9    118250.39    365.68476    38.047992 
30700000    304.75257    214.34714    470.37432   -118237.88    118280.06   -256.02719    38.049876 
30704000    243.27566    269.84123    351.82261   -118238.24     118311.1    -81.98138     38.04616 
30708000    283.46787    317.89659    228.83399   -118280.57    118317.27    89.062603     38.04322 
30712000    277.67835    339.08132    312.93006   -118307.77       118349    26.151263    38.041268 
30716000    280.24417    362.94282     423.4741   -118338.73    118386.28    -60.53128    38.040516 
30720000    267.95672    227.22016    344.35205   -118344.51    118392.97   -117.13189    38.038182 
30724000    301.39758     205.1744    290.53652   -118359.49    118397.11   -85.362115     38.03783 
30728000    274.54009    379.92382    220.29288    -118383.3    118408.24    159.63093    38.037146 
30732000    282.08334    243.96924    419.37705   -118353.96    118399.27   -175.40781    38.039599 
30736000    284.65185    304.34587    221.40503   -118380.88    118421.78    82.940836    38.037695 
30740000    292.24949    324.38553    316.80681   -118393.64    118428.97    7.5787174    38.038409 
30744000      286.545    417.54667    324.13766   -118408.44    118461.37    93.409014     38.03706 
30748000    308.11303    457.37743    429.48544   -118442.17    118467.97    27.891991    38.037961 
30752000    261.07291    311.77817    364.26542   -118451.76       118496   -52.487257    38.038698 
30756000     283.8486    251.56462    292.41719    -118476.5    118517.96    -40.85257     38.03697 
30760000    283.52181    447.56554    396.35906   -118505.61    118538.08    51.206487    38.032962 
30764000    319.93696    442.81548     518.2436   -118553.31    118570.56   -75.428122    38.029659 
30768000    266.07235    178.47223    161.69241   -118560.32    118600.99    16.779826    38.025614 
30772000    272.58355    236.36608    251.39759   -118593.85    118622.25   -15.031505    38.025269 
30776000    303.58976    236.34884    479.94685   -118582.18    118626.36   -243.59801    38.026528 
30780000    238.16669    345.31089    202.68235    -118584.4    118660.88    142.62853    38.029964 
30784000    272.05394    402.49573    340.13608   -118609.08    118652.73    62.359657    38.027286 
30788000    268.83886    199.24328    183.17576   -118635.95    118671.96    16.067527    38.026002 
30792000    288.53692    477.22382    349.51578   -118642.67    118695.65    127.70804    38.026241 
30796000    301.93117    398.85125     244.3007   -118667.28    118703.26    154.55055    38.025418 
30800000    259.61843    274.79443    324.71999   -118692.55    118747.31   -49.925557    38.030235 
30804000    276.13693    348.29845    267.64783   -118727.39    118764.06    80.650625    38.028161 
30808000    279.33007    460.50504    256.34297    -118748.3    118775.46    204.16207    38.026431 
30812000    267.12928    390.14232    334.31876   -118746.98    118797.65    55.823562    38.021094 
30816000    298.03759    239.79872    382.79574   -118771.12    118793.08   -142.99702    38.018909 
30820000     275.7099    348.12232    356.36165   -118776.01     118827.8   -8.2393203    38.021606 
30824000    281.36013    202.12014    308.41047   -118785.74    118839.49   -106.29033    38.019105 
30828000    284.49205    256.25812    437.57873   -118813.74    118854.07   -181.32062    38.017363 
30832000     290.2055    427.34819     317.7953   -118806.58    118838.82    109.55289     38.02017 
30836000    296.73619    278.28045    319.03921   -118841.37    118863.37   -40.758757    38.017847 
30840000    298.52064    421.01728    414.18756   -118854.33    118884.69    6.8297189    38.015054 
30844000    302.12432    249.43812    522.99753   -118899.91    118909.85   -273.55942    38.019812 
30848000      265.461    273.89203    312.58895   -118889.31     118934.3   -38.696922    38.018368 
30852000    312.45434    457.99265     366.8335   -118921.63    118936.05    91.159147    38.019067 
30856000    300.92675    273.66158    282.06222   -118957.85    118973.79   -8.4006409     38.01593 
30860000    278.71132    222.97134     414.8383   -118970.28    118995.07   -191.86695     38.01783 
30864000    290.02937    303.13467    320.97001   -118969.98    119007.61   -17.835337    38.016909 
30868000    286.45988    515.13334    280.76535   -118984.08    119028.53      234.368    38.021219 
30872000    287.86487    393.82423    287.96512    -119002.7    119048.64    105.85911    38.025266 
30876000    297.31726    444.11605    341.42204    -119012.3     119055.4    102.69401      38.0272 
30880000    266.51871    390.66519    296.60395   -119032.48    119075.99    94.061239     38.02785 
30884000    269.00532    330.20546    422.79768   -119024.38    119056.05   -92.592214    38.031755 
30888000    304.64208    289.15415    398.53922   -119050.27    119067.44   -109.38507    38.032431 
30892000    282.95036    208.97058     272.2704   -119055.44    119091.62   -63.299817    38.035411 
30896000    283.25513    541.06313    368.31595   -119081.28    119124.12    172.74718    38.033754 
30900000    284.73065    409.48184    353.02757   -119118.53    119169.75    56.454268    38.035935 
30904000     276.0242    198.38837    328.43171   -119139.01    119190.01   -130.04335    38.038496 
30908000    290.14713    328.17857    452.29232   -119181.61    119213.37   -124.11374    38.036721 
30912000    287.27988    180.27623    321.30085    -119214.8    119266.27   -141.02462       38.037 
30916000    268.02525    309.99019    221.34439   -119212.34    119236.33    88.645805    38.033815 
30920000    287.00555     313.0789    348.75755   -119258.77     119279.2   -35.678652     38.03242 
30924000    292.67871     217.0444    221.43119   -119282.47    119299.23   -4.3867897    38.031158 
30928000    299.67811    440.87006     317.6426   -119290.07    119333.01    123.22746     38.03118 
30932000    287.70819    233.76693    432.23841   -119291.38    119330.42   -198.47147    38.029342 
30936000    280.12707    310.60043    309.34897   -119323.47    119366.59    1.2514684    38.029431 
30940000     280.6674    606.22617    359.22011   -119327.31    119368.72    247.00606    38.027024 
30944000    278.77017    256.89965    280.75374   -119361.83    119383.52   -23.854088    38.030799 
30948000    311.48927    580.59635    511.88764   -119375.68    119399.55    68.708705    38.032549 
30952000    298.84118    389.02302     297.1315   -119375.09    119402.85    91.891526    38.031682 
30956000    292.60031     380.4754    293.93899   -119413.35    119438.61    86.536406    38.033536 
30960000    264.48549    250.70364    241.59326   -119423.44    119471.12    9.1103861    38.034771 
30964000    280.55578    536.46615    362.13602   -119431.71    119484.79    174.33013     38.03633 
30968000    275.29052    399.78843    277.09123   -119442.96    119502.96    122.69721    38.034353 
30972000    273.33163    304.06775    224.60715   -119468.37    119510.17    79.460597    38.030336 
30976000    309.80147    295.61772    322.94069   -119481.83     119504.4   -27.322968    38.030238 
30980000    284.10351    410.20051    478.27527   -119501.85    119545.66   -68.074762     38.02625 
30984000    270.85452    385.29901    343.02177   -119528.79    119560.82    42.277247    38.026058 
30988000    287.54639     189.3013    500.59472   -119541.15    119586.16   -311.29343    38.027407 
30992000    263.16457    307.18007    378.73855   -119544.46    119607.15   -71.558484    38.028293 
30996000    304.30092    492.08082     287.8759   -119578.48     119624.6    204.20492     38.02748 
31000000    284.52325    414.61562    419.43403    -119619.1    119651.63   -4.8184034    38.023052 
31004000    282.17927    477.96983    252.38085   -119645.48    119689.96    225.58897    38.023591 
31008000    264.75657    148.30913    218.43456   -119663.74    119716.24   -70.125438    38.028594 
31012000     252.5158     375.9793    487.78981   -119679.44    119727.75   -111.81052    38.030689 
31016000    248.88543    541.01111     258.1374   -119681.98    119729.94    282.87371    38.035722 
31020000    278.71301    264.77007    229.00657   -119672.38    119727.95    35.763502    38.033159 
31024000    297.31625    386.45413    231.77109   -119701.08    119726.59    154.68304    38.037223 
31028000    280.13755    230.66659    392.43531   -119700.32    119741.53   -161.76872     38.03837 
31032000    306.79341    307.84006     181.7701   -119718.02    119754.29    126.06996    38.036304 
31036000    247.47651    216.12967    270.80847    -119712.3    119771.12   -54.678799    38.041309 
31040000    278.04542    224.14857    389.34118   -119716.13    119768.12   -165.19262    38.036458 
31044000    281.71317    531.12336    273.41303   -119729.79    119762.61    257.71033    38.033413 
31048000    269.02091    221.18623    197.74677   -119709.26     119759.5    23.439461    38.030571 
31052000    297.00021    351.61455    349.41505   -119725.22    119761.37    2.1995002    38.030867 
31056000    293.60099    372.69958    376.35112   -119754.29    119780.02   -3.6515328    38.035174 
31060000    270.64084    333.65093    333.94305    -119768.1    119816.13  -0.29212263    38.035261 
31064000    292.93127    606.31683    530.38349   -119804.35    119840.04    75.933339    38.039108 
31068000    295.22295    379.70123    330.08919    -119806.3    119838.43    49.612043    38.034125 
31072000    292.36335    451.59633    282.50881   -119822.36    119843.51    169.08752    38.036147 
31076000    282.38017    486.59996    416.20436   -119827.46    119863.21    70.395603    38.037621 
31080000    252.17494    399.52263    234.98677   -119854.49     119914.4    164.53586    38.036729 
31084000    271.97145    307.49737    149.25491   -119885.61    119921.58    158.24246    38.038366 
31088000    278.99887     564.1691    374.38422    -119909.9    119938.71    189.78487    38.037015 
31092000    265.44151    254.16717    161.08205   -119906.19    119962.23    93.085119    38.038104 
31096000     268.2875    334.89072    489.61358   -119917.58     119978.9   -154.72286    38.036521 
31100000     274.3482    331.85302    479.12207   -119967.86    120004.07   -147.26905    38.037506 
31104000    259.39184    360.43821    320.82313   -119979.66    120028.68    39.615076    38.032397 
31108000    291.94902    556.53305    132.16548   -120010.68    120047.98    424.36756    38.041705 
31112000    278.57206      552.402    398.46993   -120021.58    120057.55    153.93207    38.046519 
31116000    295.76347    427.14907    302.18449   -120036.35    120079.97    124.96459    38.044324 
31120000    307.94919     447.6471    453.91422   -120082.51       120099   -6.2671197    38.044218 
31124000    281.45177    552.83243    393.63337   -120106.52    120135.73    159.19906    38.050385 
31128000    277.18748     219.1305    318.03815   -120151.06    120171.57   -98.907653    38.053684 
31132000    286.72839    560.44258    368.38741   -120157.05    120212.19    192.05517    38.055329 
31136000    256.46353    424.10747     423.7213   -120178.61    120231.57   0.38616786     38.05786 
31140000    286.09507    310.72389    318.51864   -120207.13    120249.48   -7.7947469    38.057552 
31144000    322.09986    266.69807    558.66449   -120226.28    120253.65   -291.96642    38.058043 
31148000     271.5729    324.36774     100.7889   -120251.67    120290.75    223.57884    38.059031 
31152000    297.65963    400.05082    339.23566    -120265.9       120313    60.815158    38.059931 
31156000    259.29084    463.86368    432.02432   -120290.31    120335.08    31.839364     38.05656 
31160000    284.05045    387.90997    286.15708   -120304.78     120353.9    101.75289    38.055458 
31164000    305.36416     508.8073    320.24606   -120328.19    120347.44    188.56124    38.055876 
31168000    282.49105    292.87806    320.72222   -120326.52    120368.67   -27.844169    38.055463 
31172000    279.13418    372.97596    366.90695   -120332.56    120379.99    6.0690051    38.052929 
31176000    278.09221    479.72842     322.4222   -120346.72    120395.42    157.30622    38.053786 
31180000    251.07977    125.76801    353.21117    -120365.1    120422.52   -227.44315    38.052434 
31184000     305.7922    401.54383    434.35516   -120403.49    120417.15   -32.811333    38.052458 
31188000    259.74383    395.31417    267.16247   -120402.81    120464.98     128.1517    38.059741 
31192000    299.93876      414.255    535.33248    -120430.9    120448.38   -121.07748    38.068095 
31196000    295.43758    402.14313    280.49765   -120436.61    120460.47    121.64547    38.069874 
31200000    288.46484    209.03183    197.18335   -120418.05    120458.38    11.848484     38.06786 
31204000    268.82302    360.53225    465.96625   -120416.84    120457.89     -105.434    38.068545 
31208000    237.84693    322.54868     264.9846   -120446.99       120521    57.564078    38.068073 
31212000    258.23917    394.84643    324.00483   -120492.44    120550.89    70.841595    38.068274 
31216000    276.96482    387.41167    378.80498   -120510.09    120554.35    8.6066902    38.064988 
31220000    282.78931    272.02805    485.59298   -120527.92    120579.78   -213.56493    38.058686 
31224000    263.44562    233.04721    403.23304   -120550.04    120607.51   -170.18584    38.056998 
31228000    252.34098    291.01166    268.59262   -120573.35    120652.19     22.41904    38.054855 
31232000    256.35566    267.87145    516.54193   -120592.83    120654.15   -248.67048    38.054464 
31236000    279.36063    250.79058    190.24887   -120621.35    120651.11    60.541701    38.058062 
31240000    288.13834    284.36524    359.38845   -120626.65    120669.07   -75.023202     38.06389 
31244000    284.51358    192.37298    495.46722   -120654.56    120673.95   -303.09424    38.064767 
31248000    276.37154    337.07666     320.1742    -120679.8    120726.86    16.902452    38.060897 
31252000    305.78223    353.06103    248.65196   -120715.37    120738.18    104.40908    38.059496 
31256000    261.41465    373.39927    394.54857   -120713.58    120746.54   -21.149296    38.065082 
31260000    294.63218    217.11905    256.90002   -120722.79    120770.15   -39.780966    38.063423 
31264000    290.83347    386.01863    249.26347    -120743.7    120775.16    136.75516    38.066261 
31268000    283.70509     455.8579    387.88219    -120748.1    120789.66    67.975707    38.071174 
31272000    265.71482    431.35765    302.08899   -120769.31     120820.2    129.26866    38.071783 
31276000    280.61456    392.01092    356.32541   -120783.64    120814.61    35.685502    38.077274 
31280000    300.66365    486.33701    414.47218   -120798.22    120832.04    71.864837    38.081493 
31284000    266.32452    430.52279    245.60173   -120792.13    120839.72    184.92107    38.078342 
31288000     282.4482    456.47393    342.74729   -120810.23    120846.11    113.72664    38.081482 
31292000     275.4071    312.24552    400.18228   -120804.64    120853.67   -87.936761    38.081342 
31296000    263.84715    209.40432     352.0653    -120801.9    120862.72   -142.66098    38.082107 
31300000    296.71872     352.1223     270.9149   -120823.04    120870.09    81.207394    38.089463 
31304000    273.28597    461.51125    179.69634   -120816.41    120863.74    281.81491    38.089349 
31308000    278.55751    477.38273    296.56776   -120844.45    120887.33    180.81497    38.090137 
31312000    295.63302    301.99337    231.41077   -120886.13    120912.22    70.582598    38.087788 
31316000    291.84383    280.31626    263.88571   -120887.38    120928.87    16.430549    38.086078 
31320000    263.01559    324.90329    309.22549   -120898.78    120948.66    15.677807    38.085105 
31324000    284.76848    573.22676    222.20131   -120925.78    120966.23    351.02545    38.088089 
31328000    287.92255    459.69672    328.77799   -120927.49     120967.6    130.91874    38.089887 
31332000    300.09327    319.84086    112.22648   -120939.31    120970.12    207.61438    38.090246 
31336000    308.41143    436.49736    402.70715   -120975.07    120992.35    33.790211    38.093509 
31340000    299.67644    462.10755    258.06902   -120976.72    121006.71    204.03853    38.099799 
31344000    284.20891    308.53981      259.767   -120994.33    121011.62    48.772804    38.099898 
31348000    277.88557    442.05483    386.84889    -121009.1    121041.37    55.205939    38.099754 
31352000    303.90839    298.90594    457.63243   -121020.17    121062.11   -158.72649    38.099337 
31356000    320.29106    428.83839    238.50051   -121054.72    121084.87    190.33787    38.097453 
31360000    302.28967    273.16082    332.72918   -121078.12    121101.64   -59.568365    38.094799 
31364000    272.86555    345.57012    269.21622   -121079.65    121134.71    76.353892    38.098097 
31368000    283.17417    436.51219    244.67918   -121080.74    121123.72    191.83301    38.104239 
31372000    291.86487    650.03682    227.40594   -121096.19    121135.64    422.63087    38.105955 
31376000    289.35827    285.11074    401.51806   -121120.04    121157.72   -116.40731    38.103969 
31380000    276.02501    320.60381    174.60952   -121146.31    121189.54     145.9943    38.103238 
31384000    280.62006    400.66857     291.1562    -121158.1    121193.65    109.51237    38.101797 
31388000    265.12291    208.75636     346.9368   -121157.16     121212.1   -138.18043     38.10121 
31392000    275.04176    395.18459    171.71181   -121184.11     121209.7    223.47278    38.104294 
31396000    303.99135    532.22892    449.45261   -121210.71    121240.46    82.776311    38.101712 
31400000    280.07494     465.4425    329.30042   -121207.25    121243.38    136.14208    38.107974 
31404000    286.50085    412.77033    283.80052    -121225.4    121261.69     128.9698    38.108927 
31408000    313.32534    191.96943     578.7477   -121249.37    121249.77   -386.77827    38.108201 
31412000    268.48872    499.32792    252.97545   -121244.63    121293.28    246.35247    38.109421 
31416000    286.56627    411.67086    287.19788   -121245.83    121282.59    124.47298     38.10988 
31420000     284.0418    385.12706     199.4979   -121256.35    121309.29    185.62916    38.103883 
31424000    313.52363    372.09218    437.83127   -121299.47    121329.13   -65.739091     38.10035 
31428000    305.32796    450.12589     377.0182   -121327.62    121350.05    73.107694    38.099191 
31432000    293.54971    336.81188    377.05982   -121350.14     121377.1   -40.247943    38.099079 
31436000    260.96999    220.84208     215.3885   -121353.62     121416.9    5.4535716    38.098736 
31440000    286.35044     312.4841    441.16651   -121386.33     121416.8   -128.68242    38.098609 
31444000    275.37391    368.88277    378.29786   -121386.99    121430.83    -9.415085    38.101019 
31448000    283.74632    451.63751    369.55323   -121405.15    121454.92    82.084275    38.101677 
31452000    277.16588    245.51504    248.78697   -121421.55    121458.04   -3.2719302    38.106063 
31456000    293.48898    703.63529    269.02148   -121458.87    121488.96    434.61381    38.102558 
31460000    296.71004    565.95137    394.77882   -121465.45    121511.35    171.17255    38.107118 
31464000    280.99477    365.14264     379.9783    -121489.3    121532.07   -14.835655    38.107107 
31468000    271.77354    292.38611    304.86866   -121505.65    121551.77   -12.482549    38.106953 
31472000    258.45551    437.51396    370.40313   -121523.26    121584.15    67.110833    38.107431 
31476000    238.42896    501.67456    366.74463   -121529.64     121604.2    134.92992    38.110014 
31480000    262.26674    379.28266    275.19592   -121559.89    121607.75    104.08674    38.112239 
31484000    275.59398    517.31389    389.28388   -121571.81    121625.83       128.03    38.111034 
31488000    258.92938    356.55683    283.49818   -121571.87    121645.76    73.058653    38.109409 
31492000     301.7596    467.87883    542.26272   -121618.92    121666.45   -74.383892    38.110243 
31496000    289.16414    351.16494    414.74552   -121649.76    121681.17   -63.580586    38.107972 
31500000    280.48567    240.65807    528.04689   -121666.55    121711.48   -287.38882    38.111884 
31504000    287.79671    626.67508    290.48808   -121704.65    121737.79      336.187    38.117429 
31508000    277.28297    205.75935    446.53618   -121708.81    121746.47   -240.77683    38.116846 
31512000    271.04269    428.34467     214.0901   -121716.72    121771.44    214.25457    38.115413 
31516000    304.38833    375.32022    681.18586   -121754.46    121787.89   -305.86564    38.114288 
31520000    270.97645    359.60983    259.84489   -121772.61    121827.19    99.764942    38.112969 
31524000    262.63876    245.92536    333.54263   -121792.99    121837.28   -87.617276    38.110359 
31528000    314.41113    470.37814    284.92266   -121812.28    121867.52    185.45548    38.106073 
31532000    269.19833    244.85987    273.59063   -121831.51    121884.79   -28.730759    38.109843 
31536000    271.88341    182.63784    275.15266   -121845.97    121884.63    -92.51482    38.107334 
31540000    288.71654    500.52553    226.37114   -121846.81    121898.62    274.15439    38.108311 
31544000    285.76453    259.25713    238.35481   -121852.97    121903.92    20.902312     38.10713 
31548000    282.59417    212.57832    290.40485    -121855.7    121918.67    -77.82653    38.108679 
31552000    267.70848     340.1241    496.38896   -121861.78    121917.64   -156.26486    38.110403 
31556000    333.31478    548.12716    603.32882   -121892.84    121922.73   -55.201666    38.109346 
31560000    311.83464    373.96748     211.3405   -121915.04    121942.45    162.62698    38.108155 
31564000    277.23517    261.55348    373.10347   -121914.13    121952.65   -111.54999    38.108965 
31568000    296.92669    375.71546    295.32226   -121945.31    121963.79    80.393199    38.104805 
31572000    279.12005     217.9274    365.22745   -121948.66    122003.87   -147.30005     38.10259 
31576000    313.36164     511.2979    444.41352   -122002.89    122023.63    66.884384    38.101224 
31580000    258.22704    251.73597     258.4698   -121997.36    122054.48   -6.7338261    38.101948 
31584000    288.12398    273.90233    430.65008   -122016.22    122037.32   -156.74775    38.104041 
31588000    262.18405    431.71745    479.93662   -122010.53    122052.61   -48.219171    38.107335 
31592000    296.19332    520.29847    248.35634   -122023.94    122053.37    271.94213    38.109245 
31596000    272.08777    294.39264    493.46553   -122002.83     122063.2   -199.07289    38.104864 
31600000    306.95041    532.09748     222.0896   -122042.42    122063.21    310.00788     38.10203 
31604000    243.78378    268.19288    304.41069   -122043.31    122091.08     -36.2178    38.105693 
31608000    291.03405    510.14556    250.98354   -122063.84    122100.88    259.16202    38.110139 
31612000     271.2463     240.2101    337.10992   -122073.03    122107.58   -96.899818     38.10967 
31616000    295.12471    514.48469     373.2455   -122114.86    122141.17    141.23919    38.110595 
31620000    287.39974    397.70985    340.80614   -122135.65    122156.91    56.903712     38.11128 
31624000    289.21851    450.31492    436.10419    -122133.5    122178.43    14.210731    38.110293 
31628000    295.47619    211.19929     323.0757   -122149.12    122169.92   -111.87641    38.106975 
31632000    286.94925    456.15333    192.12975   -122152.52    122188.63    264.02358    38.105217 
31636000    317.37163    468.78311    530.50629   -122186.75    122206.59   -61.723173    38.104356 
31640000    267.39359    257.78134    316.61177   -122164.98    122222.76    -58.83043    38.100731 
31644000    287.67044    394.53513    249.38232   -122175.21    122226.33    145.15281    38.102265 
31648000    278.70359    511.09485    269.52628   -122184.39     122228.4    241.56857    38.109678 
31652000    309.21688    706.20277    322.47246   -122211.74    122220.09    383.73032    38.110095 
31656000    267.32185    339.56843    199.45978   -122190.87    122244.67    140.10865    38.113538 
31660000    255.31359     217.2365    341.82039   -122199.63    122264.84    -124.5839    38.115897 
31664000    301.71366    215.22295    272.61873   -122259.22    122297.52   -57.395782    38.118436 
31668000    292.07876      321.398    135.10599   -122290.77    122331.28    186.29201    38.115995 
31672000    296.62466    396.11811    257.45612   -122314.28    122358.23    138.66199    38.111815 
31676000    257.38716    206.65034    318.18399   -122314.06    122375.45   -111.53365    38.113185 
31680000    263.65688     285.5192     341.4803    -122340.7    122383.83   -55.961104    38.114073 
31684000    263.11402    396.15108    290.10646   -122385.58    122435.25    106.04461    38.115813 
31688000    282.57064    341.52767    201.93932   -122404.97    122438.66    139.58835     38.11559 
31692000    268.97671    266.18573    217.16169   -122407.98     122450.5    49.024036    38.113554 
31696000    242.68416     202.0781     374.2096   -122408.06    122481.33    -172.1315     38.11282 
31700000    269.61134    416.31943    416.74263   -122447.97    122501.24  -0.42320856    38.114313 
31704000    262.64973    328.47617    338.57924   -122481.39    122530.05   -10.103063    38.113507 
31708000    293.63091    273.68128    330.68767   -122495.05    122524.44   -57.006384    38.113743 
31712000    308.17419    267.71598    428.64721   -122522.73    122541.92   -160.93123    38.115027 
31716000    302.93065    369.02101    248.85104   -122545.87    122581.45    120.16996    38.110317 
31720000    267.11232    283.85472    185.27921   -122581.97    122640.25    98.575512    38.113458 
31724000    271.45332    370.85491    424.41774   -122589.49    122644.62   -53.562822    38.116758 
31728000    302.13074    547.74177    284.27799   -122625.99    122653.33    263.46378    38.118874 
31732000    283.37411    321.85001    443.80069   -122646.98    122687.74   -121.95068    38.118389 
31736000    277.04779    306.37512    311.98348   -122680.23    122732.45   -5.6083577    38.119507 
31740000    270.87503    320.18354    203.31362   -122680.45    122721.16    116.86993    38.124838 
31744000    277.89833    503.72736    309.74024    -122675.4    122718.22    193.98713    38.124673 
31748000    269.80867    273.60441    200.39084   -122676.06    122739.79    73.213575    38.127934 
31752000    291.41685    364.27065    188.58302   -122706.65    122754.62    175.68763    38.129171 
31756000    263.22739    266.25725    311.45944    -122690.1    122749.35   -45.202182    38.126905 
31760000    282.95653    426.29535    195.73767    -122703.3    122747.53    230.55768    38.123437 
31764000    288.91298    157.32172    430.14081   -122707.15    122750.22   -272.81909    38.120185 
31768000      272.418    274.17252    294.59745   -122697.69    122755.65   -20.424935    38.118183 
31772000    282.07419    547.79185    270.32322   -122716.52    122743.02    277.46863     38.11847 
31776000    277.10599    372.70437    241.66279   -122711.49    122747.86    131.04158    38.117614 
31780000    292.41022    318.20918    298.90498   -122713.72    122746.08    19.304197    38.112452 
31784000    282.94996    431.48791    316.69666   -122720.74    122760.58    114.79125    38.114048 
31788000    285.46498    345.61178    395.18836   -122733.32     122774.9   -49.576571    38.110131 
31792000    301.85415     299.8568    206.04935   -122766.95    122780.65    93.807452    38.103669 
31796000    289.52104    541.57185    197.33733    -122782.1    122815.25    344.23452    38.104498 
31800000    321.04793    504.19134     354.5098   -122814.95    122837.48    149.68154    38.101683 
31804000      317.922    566.48052    369.05289    -122824.6    122841.51    197.42764    38.099564 
31808000    283.56706    483.32924    363.76462   -122833.29     122896.3    119.56462    38.097004 
31812000    294.95829    489.22741    369.59192   -122884.27    122922.26    119.63549    38.094284 
31816000    308.85383    319.66252    411.36315   -122916.35     122944.9   -91.700626     38.09178 
31820000    261.32107    321.66734    326.60771   -122917.34    122982.16   -4.9403696    38.096216 
31824000    280.41713    262.30583    292.60463   -122939.64     122988.8   -30.298797    38.098385 
31828000    259.24448    341.37576    365.03326   -122979.99    123025.66   -23.657499    38.094866 
31832000    266.35693    270.03601    345.99084   -123001.93     123052.2   -75.954831    38.095794 
31836000    316.40915    497.13026    494.18139    -123046.6     123045.1    2.9488655    38.091703 
31840000     289.6111    527.92831    388.07604   -123060.63    123093.81    139.85227    38.092462 
31844000    306.60481    401.77737    385.11412   -123078.07    123112.54    16.663252    38.095277 
31848000    267.41252    386.32193    354.44082    -123105.1    123145.71     31.88111    38.098467 
31852000    257.58132    360.50948    452.54501    -123116.9    123173.81   -92.035522    38.098605 
31856000    259.22106     483.4318    282.15834   -123140.32    123185.64    201.27346    38.102198 
31860000    290.58396    472.97259    335.20329   -123161.94    123205.43     137.7693    38.107233 
31864000    252.08263    221.77473    295.40848   -123166.31     123233.6    -73.63375     38.10312 
31868000    270.04209    440.63313    209.83504   -123167.46    123217.54    230.79809    38.097486 
31872000    280.93064    494.22681    273.17749   -123165.88    123218.89    221.04932    38.100289 
31876000    267.90837    185.34798    297.03567   -123188.96    123238.23   -111.68769    38.101144 
31880000    278.41922    261.43341    364.89434      -123205    123255.21   -103.46092    38.098747 
31884000    300.32098    461.86721    332.53953   -123217.54    123235.22    129.32768    38.100151 
31888000    313.50464     370.0481    407.63987   -123211.39    123248.71   -37.591771    38.099641 
31892000     303.6992    348.75838    396.01082   -123222.07    123256.62   -47.252432    38.098077 
31896000     270.9191    280.46758    274.92856   -123245.75    123302.52    5.5390216    38.100397 
31900000    287.49116    267.15911    347.42471   -123267.27    123316.37   -80.265606    38.100887 
31904000    296.44713    456.60011    405.12057   -123284.51     123334.6    51.479538    38.102723 
31908000    275.93751    479.96829    282.97802   -123283.36    123328.97    196.99027    38.108765 
31912000    299.89055     333.9278    504.73764   -123323.27    123348.47   -170.80983    38.108963 
31916000    290.71446    302.91874    129.83068   -123345.93    123391.97    173.08806    38.112924 
31920000    299.79339    352.44791    298.43955   -123351.72    123389.84    54.008364    38.116293 
31924000    295.18944    658.81968    273.54716   -123373.43    123398.54    385.27252    38.123488 
31928000     303.8067    270.20099    288.23148   -123398.35    123449.49   -18.030492    38.122856 
31932000    278.97931    341.51788    359.77982   -123404.99     123441.2   -18.261936    38.125733 
31936000    273.36552    337.41637    236.41522   -123411.92     123477.4    101.00115    38.127964 
31940000    269.42052    304.48101    413.26249   -123442.49    123508.63   -108.78149    38.124905 
31944000    284.74789    308.49764    417.58633   -123490.38    123528.69   -109.08869    38.117121 
31948000    296.92136    510.69087    269.78887   -123503.69    123534.71    240.90199    38.113404 
31952000     278.5857    398.28215     379.5576   -123513.33    123560.32    18.724548    38.116016 
31956000    269.14513    313.07885    267.23625   -123501.85    123575.01    45.842598    38.116336 
31960000     252.3363    307.80265    132.50511   -123526.22    123596.33    175.29754    38.117606 
31964000    273.78364    368.49718    206.96367   -123535.48    123593.89     161.5335     38.11906 
31968000    274.55163    325.75555    356.26719   -123550.66    123593.72   -30.511637    38.117435 
31972000    334.34823     394.8852    320.04137   -123586.68    123604.07    74.843825     38.11922 
31976000    279.92518    450.48947    409.48833   -123605.13    123650.52    41.001142    38.116611 
31980000    303.65888    407.51064    404.76519   -123601.45    123646.48    2.7454454    38.117246 
31984000    266.67832    325.87758    349.32639    -123623.1    123687.27   -23.448801    38.115344 
31988000    259.72811    319.49974    277.19114   -123683.05    123738.26    42.308597    38.119286 
31992000    297.13205    227.86943    492.30297   -123692.52    123726.81   -264.43354     38.11573 
31996000    283.00844    332.38555    309.87458   -123718.03     123759.1    22.510978    38.115306 
32000000    255.25062    345.93765    259.27931   -123743.09    123792.96    86.658341    38.115623 
32004000     281.4197    504.66529    459.19163   -123771.58    123801.54     45.47366    38.114654 
32008000    278.21223    483.99109    212.31341   -123789.93    123832.54    271.67768    38.114604 
32012000    282.32247    273.70184    300.16985   -123804.91    123854.25   -26.468014    38.117579 
32016000     293.3828    237.00394    228.04486   -123838.55    123866.69    8.9590829    38.114145 
32020000    297.09442    283.70069    209.65479   -123843.97    123881.41    74.045897    38.117307 
32024000    269.48296    381.24756    271.49294   -123843.73    123886.62    109.75461    38.115185 
32028000    290.29626    318.21669    382.55878   -123842.72    123875.24   -64.342092    38.113888 
32032000    281.68172    402.57005    309.40049   -123845.24    123892.48    93.169552    38.116377 
32036000    270.02367    301.01805    254.35136   -123856.67    123907.85     46.66669    38.122716 
32040000    284.01645    425.35703    359.58132   -123895.15    123932.68    65.775712    38.125953 
32044000    299.59633    652.92872    349.21963   -123918.03    123941.75     303.7091    38.128863 
32048000    275.27497    359.01041    295.16214   -123918.27    123963.51    63.848263     38.13243 
32052000    250.60518    336.55413    277.43266    -123911.1    123971.99    59.121466    38.131556 
32056000    273.91633    354.11254    308.38742   -123953.27    124006.05    45.725123    38.127363 
32060000    281.62812    470.18692    457.31921   -123976.19    124024.11     12.86771    38.124835 
32064000    302.46827     624.3919    439.40453   -123983.01    124022.31    184.98737    38.121327 
32068000    270.33536    403.03648     331.8056   -123988.33    124040.44    71.230883    38.125604 
32072000    264.85256    401.27499    282.73977   -124016.92    124076.88    118.53522    38.123245 
32076000    286.04323    404.47627     372.5539    -124036.7    124082.42     31.92237    38.120783 
32080000    272.44858    433.31798    409.91749   -124048.69    124111.23    23.400497     38.11539 
32084000    262.14593    210.44336    418.69052   -124085.29    124145.25   -208.24717    38.114713 
32088000    283.38559     431.2924    192.02321   -124140.54    124178.48    239.26919    38.113346 
32092000     266.3442    462.80091    405.95919   -124152.92     124211.4    56.841719    38.109865 
32096000    323.77464    149.76159    484.10103   -124199.69    124220.33   -334.33943    38.111473 
32100000    296.56254    238.99061    348.26295   -124201.33    124255.68   -109.27234    38.111116 
32104000    285.40517    358.95879    258.96925   -124216.07    124264.78    99.989544     38.10742 
32108000    291.53494    451.35522    307.69071   -124241.47    124286.25    143.66451    38.110425 
32112000    274.91633     234.6177     270.4997   -124273.61    124318.56   -35.882004    38.109118 
32116000    266.29693    276.35664     371.6803   -124281.73    124340.09   -95.323663    38.104943 
32120000    270.92466    527.26373    373.81323   -124294.89    124359.66     153.4505    38.103362 
32124000     296.7456    477.76654    563.68642    -124332.3    124354.17   -85.919886    38.105146 
32128000    291.75376    293.92506    352.43041   -124359.72    124385.54   -58.505351    38.106298 
32132000     279.3359    376.85813    181.24162   -124378.49    124425.13    195.61651    38.108221 
32136000    296.82753    412.41593    284.30178   -124395.48    124437.18    128.11415      38.1127 
32140000    312.09477    286.36746    342.05466   -124419.41    124454.73   -55.687195     38.11514 
32144000    303.25431     364.8581    551.41437   -124415.99    124466.97   -186.55626    38.117026 
32148000    298.43781     277.1761    376.44998   -124409.14    124453.76    -99.27388    38.114521 
32152000     272.6053    401.60304    357.71607   -124442.36    124474.12    43.886973    38.115539 
32156000    258.06914    328.80619    346.70034   -124472.92    124518.71   -17.894145     38.11876 
32160000     302.4514    547.58884    343.45644    -124504.3    124532.19     204.1324    38.118097 
32164000    286.90692    267.18717    268.47625   -124516.08    124550.39   -1.2890779    38.123131 
32168000    277.68857    363.97313    344.66058   -124524.02    124574.26    19.312551    38.125128 
32172000    294.64005    371.01884     171.0864   -124554.27    124590.68    199.93244    38.124147 
32176000    293.27587    312.88078    202.54623   -124577.68    124622.18    110.33454    38.123409 
32180000    260.18206    362.07076    383.82657    -124572.1    124641.13   -21.755812    38.124724 
32184000    260.91767    336.48677    233.64331   -124602.53    124660.93    102.84346     38.12879 
32188000     306.4412    262.13002     391.6855   -124633.76    124660.98   -129.55548    38.126028 
32192000    272.94024    221.82941     258.3114   -124678.45    124699.37   -36.481982    38.131448 
32196000    288.92511    619.72438    423.68874    -124672.3    124699.56    196.03564    38.130163 
32200000     266.5812    371.94533    303.99127   -124664.55    124703.13    67.954064     38.13236 
32204000     321.4565    382.21576    404.63762   -124679.66    124697.83   -22.421861     38.13106 
32208000    266.70489    603.34626    391.58288   -124685.32    124735.22    211.76338    38.130385 
32212000    310.91231    368.91665    332.12685   -124726.51    124751.68    36.789798    38.125109 
32216000    279.18117    333.11199    370.99692      -124706    124754.37   -37.884927     38.12056 
32220000    275.34593    485.63875     166.8605   -124730.28    124776.64    318.77826    38.117372 
32224000    284.25762     552.4206    453.72289   -124742.49    124784.84    98.697712    38.115555 
32228000    285.61162    354.35218    339.84373   -124755.99    124788.67    14.508456    38.113823 
32232000    264.73145    373.61979    312.95457   -124785.39    124838.96    60.665216    38.109452 
32236000    287.89187    313.81372    378.46772   -124783.53    124822.64   -64.654002     38.10916 
32240000    282.69946    166.63742    290.10709   -124785.99    124829.98   -123.46967    38.104328 
32244000    276.14935    410.35461    232.46596   -124797.62    124834.06    177.88865    38.105077 
32248000    254.94667    408.32504    426.52588   -124809.65     124871.5   -18.200842    38.105111 
32252000    281.70726    458.63582    242.89477   -124816.13    124870.92    215.74104    38.107448 
32256000    252.04637    268.36601    293.60117   -124825.59    124885.81   -25.235163    38.108202 
32260000    303.27236     399.2326    233.92512   -124866.04    124897.87    165.30748    38.113044 
32264000    303.33732    484.22957    487.67273   -124885.33    124896.95   -3.4431662    38.114917 
32268000    290.65403     428.0053    380.41319   -124890.79    124916.95    47.592111    38.112817 
32272000    252.36486    209.75597    309.83729   -124884.44    124941.54   -100.08132    38.114544 
32276000    261.73259    300.38603    297.10514    -124890.9    124948.13    3.2808912    38.116449 
32280000    288.38937    443.30464    448.35652      -124912    124940.24   -5.0518765     38.12396 
32284000    295.82934    506.92409    454.10003   -124915.21    124970.12    52.824058    38.125992 
32288000    285.15449    424.79343    297.55162   -124921.77    124962.01    127.24182    38.125353 
32292000    258.72912    426.56246    239.97832   -124934.47    124974.37    186.58414    38.127505 
32296000    293.41833    399.57584    272.56272    -124961.7     124992.5    127.01313    38.129826 
32300000    316.83485    358.20129    260.08028   -125002.47    125019.64    98.121006    38.129469 
32304000    292.09658    344.54933    335.60173   -125019.86    125030.23    8.9475989    38.130293 
32308000    320.37339    513.30609     466.0799    -125026.9    125025.24    47.226185    38.129922 
32312000     282.3144    530.24708    278.36978   -125035.33    125067.08     251.8773    38.134701 
32316000    284.17402    347.12653    263.84096   -125042.23    125090.66    83.285569    38.135381 
32320000    268.02387    296.44141    436.53197   -125047.35     125084.4   -140.09056     38.13063 
32324000    292.76337    403.15821    454.82355   -125064.03    125095.78   -51.665332    38.127147 
32328000    277.99458    510.38342    494.30603   -125080.13    125111.51     16.07739    38.127982 
32332000    271.07322    234.56585    200.22654   -125060.44    125109.44    34.339316    38.130511 
32336000    287.09464     300.5728    209.60216   -125059.57    125094.53    90.970639    38.128435 
32340000    257.64972    395.13623    316.76835   -125075.54    125133.67     78.36788    38.122411 
32344000    269.63808     416.9906    302.91284   -125125.14    125174.02    114.07776    38.121236 
32348000     268.4745    232.72189    415.60203   -125124.53    125180.75   -182.88014    38.121607 
32352000    250.69471    462.29615    325.55596   -125141.89    125207.62    136.74019     38.12283 
32356000    275.08108    387.95414    386.88321   -125163.09    125212.06     1.070926    38.128252 
32360000     291.6747    337.01371    319.38916   -125173.26    125219.03    17.624556    38.125829 
32364000    289.31531    385.82933    275.15521    -125182.3    125225.05    110.67412    38.122606 
32368000    277.85079    516.24109    448.36281   -125190.74    125241.63    67.878279     38.12111 
32372000    260.55399    292.69385    149.45525   -125202.57     125244.4     143.2386    38.124301 
32376000    289.02597     265.9307    280.61754   -125243.45    125283.45   -14.686838    38.120355 
32380000    286.65966    216.75551    403.41644   -125259.71    125297.97   -186.66092    38.121557 
32384000    289.50988    625.30694    268.09943   -125261.43    125288.86    357.20751    38.125807 
32388000    298.06226    418.66021    410.54116   -125282.21    125312.58    8.1190521    38.127133 
32392000     275.8737    147.04314    307.21353   -125296.69    125352.62    -160.1704    38.120923 
32396000    278.81928    337.24241    400.37454   -125306.57    125340.48   -63.132128    38.113163 
32400000    295.31841    382.17384     358.9909    -125337.4     125374.9    23.182941    38.110192 
32404000    284.29754     361.0983    210.22828   -125355.93    125407.28    150.87001    38.110395 
32408000      268.449    430.05617    317.34378   -125349.23    125411.59    112.71239    38.108426 
32412000    269.24158    259.12164    222.36533   -125382.26    125432.32    36.756307    38.104627 
32416000    285.37162    361.99391    241.60764    -125416.5    125448.97    120.38627    38.107316 
32420000    265.03433    392.59306     283.5697    -125456.5    125498.36    109.02337     38.10839 
32424000    260.98234    274.44853    392.69204    -125485.2    125544.76   -118.24351    38.111179 
32428000    300.12419    419.95923    296.23724   -125486.69    125530.12    123.72199    38.112003 
32432000    269.66961    512.08623     271.6934   -125517.53    125558.63    240.39283    38.111051 
32436000    301.44289    254.21996    323.18816   -125548.28    125575.77   -68.968197    38.111061 
32440000    300.71666    639.77991    333.57384   -125569.16    125596.14    306.20606    38.114602 
32444000    258.48379    255.76677    375.07881   -125563.82    125622.95   -119.31204    38.118117 
32448000    283.60868    252.76181    251.45292   -125592.02     125641.3    1.3088928    38.115781 
32452000     291.8698    216.26528    451.00338   -125601.68    125652.21    -234.7381    38.117668 
32456000     296.6078    356.16221    350.18369   -125626.61    125660.21    5.9785242    38.120553 
32460000    310.35996    497.64841    278.69195   -125647.11    125672.43    218.95646    38.128724 
32464000     284.2394    401.15324    292.62277   -125650.62    125695.99    108.53047     38.12616 
32468000    274.98768    328.26293    345.15376   -125678.06    125717.22   -16.890835     38.12467 
32472000    286.98753    298.81867    484.28484   -125709.76    125746.51   -185.46617    38.127532 
32476000    284.01448    367.59617    150.95479   -125724.14    125763.51    216.64138    38.130116 
32480000    268.91478    467.31154    228.40187   -125721.36    125789.55    238.90967    38.134446 
32484000    278.61935    357.88292    298.73168   -125764.74    125809.94    59.151242    38.137179 
32488000    270.85461    311.08863    422.64273   -125760.95     125805.7    -111.5541     38.13713 
32492000    301.34467    445.02171    564.72865   -125761.77    125806.71   -119.70694     38.14164 
32496000      287.495    286.30197    318.28821   -125768.65    125799.58   -31.986244    38.139882 
32500000    280.87062    319.82289    249.60337   -125782.39    125840.59    70.219522     38.14099 
32504000    277.15252    359.48411    213.52157   -125815.17    125850.99    145.96254     38.14104 
32508000    269.41658    400.57556    266.35652   -125828.89    125880.09    134.21904    38.141404 
32512000    274.55023    378.53666    271.23245   -125837.68    125888.31    107.30421    38.146077 
32516000    287.97109    305.83445    392.65815   -125874.53    125906.44     -86.8237    38.143643 
32520000    267.31194    323.87777    362.07165   -125873.19    125924.65   -38.193884    38.143543 
32524000    277.23213     282.2068    317.97165   -125869.34    125933.51   -35.764848    38.139548 
32528000    287.85451    511.82666    252.62837   -125906.27    125957.37     259.1983    38.140037 
32532000     280.6695    484.61731    206.16528   -125925.14    125963.82    278.45203    38.135423 
32536000    265.44046    376.19463    325.35714   -125924.02     125971.8    50.837486    38.136798 
32540000    287.83198    483.23548    363.26204   -125925.11    125969.81    119.97343    38.138095 
32544000    255.44457    364.79662    173.42903      -125932    125987.09    191.36759    38.141236 
32548000    264.10046     316.5219    129.00385   -125955.41    126014.61    187.51805    38.141839 
32552000    309.75064    491.51968    254.13707   -125994.54    126019.25    237.38261    38.137877 
32556000    258.66924    296.97701    388.18761    -125995.3    126049.71     -91.2106    38.132444 
32560000      276.568      347.482    209.76637   -126019.73    126069.93    137.71563     38.13416 
32564000    277.93355    518.76093    307.44896    -126034.2    126084.94    211.31197    38.130163 
32568000    299.25091    354.14292    206.41296   -126061.95    126091.08    147.72996    38.130324 
32572000    279.26519    410.54558    201.68467   -126072.17    126116.23    208.86092    38.129703 
32576000    263.52525    332.83514     234.7365   -126072.84     126125.4    98.098642    38.131486 
32580000     286.5226    254.34139    293.55992   -126073.13    126114.01   -39.218531    38.127339 
32584000     299.3979    317.74624    201.11193   -126101.01    126142.92    116.63431    38.130087 
32588000     292.7688    345.35762    431.87714   -126108.27    126142.81   -86.519518    38.128011 
32592000    271.24727    440.82171    397.86412   -126122.29    126173.29    42.957585    38.126585 
32596000    249.45787    423.62307    216.36526    -126150.6    126200.88     207.2578    38.119854 
32600000    274.17053    510.06738    233.10289   -126171.26    126216.49    276.96448    38.121142 
32604000    281.02701    276.94638     325.8447   -126184.58    126238.31    -48.89832    38.117801 
32608000    265.35798    349.25724    240.53361   -126188.72    126252.03    108.72363    38.116976 
32612000    280.48999    435.63377    134.03674   -126199.23    126237.64    301.59703    38.112878 
32616000    311.88068    360.69088    402.35551    -126233.4    126272.11   -41.664626    38.114159 
32620000    295.48061    368.67439    447.80891   -126240.12    126277.64   -79.134522    38.119324 
32624000    270.53297    323.63691    355.68633    -126245.7     126300.2   -32.049422    38.122561 
32628000    278.21837     456.0417    302.76704   -126286.72    126321.92    153.27466    38.123269 
32632000    294.61803    321.18998    355.00395   -126297.64    126337.64   -33.813977    38.116776 
32636000    305.03523    399.28682    380.64988   -126303.37     126338.5     18.63694    38.114666 
32640000    278.06014     231.6513    207.15308   -126305.67    126353.38     24.49822    38.114774 
32644000    294.19713    354.05837    217.59833    -126316.1    126343.45    136.46004    38.108124 
32648000    307.83791    489.93312    271.66706   -126334.48    126360.22    218.26606    38.107918 
32652000    302.01247    426.03656    267.58902   -126365.39    126384.24    158.44754    38.106487 
32656000    302.47966    500.49885    322.35568   -126378.69    126415.81    178.14316    38.108359 
32660000     287.3133    376.99387    462.99744   -126401.36    126426.36   -86.003573    38.109039 
32664000    266.23695    456.00408    361.01339   -126412.71     126460.2     94.99069    38.106199 
32668000    280.89966    474.21947    315.67222   -126433.16    126465.76    158.54725    38.108227 
32672000    292.64486    396.40304    221.71332   -126439.85    126467.18    174.68973    38.110043 
32676000     290.1937    543.14629    264.47366   -126444.53    126483.87    278.67263    38.110561 
32680000    286.70199    407.52739    268.08225   -126462.02     126501.5    139.44514    38.108236 
32684000    253.86118    194.97106    341.41494   -126448.84    126514.25   -146.44388    38.111137 
32688000    270.25537    300.78875    265.61335   -126468.44    126520.63    35.175402    38.115613 
32692000    306.83843    362.80045    234.28069   -126464.66    126521.74    128.51975    38.117841 
32696000    321.82539    157.41981    324.34631   -126486.94    126512.32    -166.9265     38.11822 
32700000    296.61557    321.03729    250.69001   -126511.36    126533.28    70.347276    38.118315 
32704000    322.58035    311.95932    310.01674   -126511.39    126543.97    1.9425866    38.114236 
32708000    316.42481    393.90125    332.30518    -126519.3    126542.83    61.596068     38.11379 
32712000    296.35078    390.97206    262.36212   -126515.09    126539.91    128.60994    38.114996 
32716000    257.64887    220.51546    269.31038   -126535.22    126585.38   -48.794927    38.118704 
32720000     296.4584    570.56307    426.87394    -126569.8    126587.03    143.68913    38.119775 
32724000    275.20096    340.58581    283.70637   -126576.66    126632.72    56.879438    38.117826 
32728000    259.16781    240.32792    495.28228   -126592.63    126658.09   -254.95436    38.121063 
32732000    292.70572    415.75973    375.81295   -126634.04    126670.71    39.946785    38.123622 
32736000    281.10999    417.63481    409.43044   -126628.19    126675.91     8.204374    38.120994 
32740000    303.66101    232.78534     223.2568   -126675.16    126722.31    9.5285433    38.117323 
32744000    309.79246    404.32044    426.29969   -126686.54    126721.01   -21.979246    38.116979 
32748000    291.83071    308.23264    365.09058   -126720.74    126761.26   -56.857946    38.116898 
32752000    298.66829    304.58228    362.83082   -126765.98    126801.09   -58.248539     38.11956 
32756000    283.91582    317.66816    431.26031   -126762.77    126791.13   -113.59215     38.11477 
32760000    270.02133    440.62299    459.81494   -126787.25    126835.46   -19.191958    38.109357 
32764000    295.25959      311.948    340.63902   -126814.85    126846.29   -28.691013    38.109008 
32768000    297.25818    421.16329    357.88307   -126835.32    126862.21    63.280212    38.109997 
32772000    267.69785    323.08338    203.90943   -126843.77    126883.19    119.17395    38.113349 
32776000    275.67155    391.11385    600.49229   -126855.48    126893.09   -209.37843    38.115976 
32780000    270.47516    173.69359    557.56743   -126862.98    126917.55   -383.87384    38.116362 
32784000    286.01793    434.57018    489.83091   -126867.41    126902.95    -55.26073    38.115382 
32788000    248.03475    335.53879    323.26134   -126884.09    126947.38    12.277451     38.11844 
32792000    269.47278    254.75813    285.30583   -126919.97    126971.16   -30.547698    38.120932 
32796000    262.32797    298.46531    136.48092   -126927.89    126991.39    161.98439    38.117495 
32800000    252.15788    320.70142     192.5707   -126946.67    127007.58    128.13073    38.114953 
32804000    292.98614    294.34832    253.67589   -126971.34     127017.3    40.672426    38.112817 
32808000     272.8712    454.64428    285.34661   -126997.65    127041.92    169.29767    38.114348 
32812000    263.45537    277.87485    234.21253   -126992.31    127060.76    43.662324    38.117231 
32816000    289.27199    445.09104    371.05233   -127034.57    127070.25    74.038715    38.113058 
32820000    297.18857    324.93578    445.91288   -127049.98    127074.78   -120.97711    38.112812 
32824000    285.39198    310.67921    370.61382    -127059.3    127088.07   -59.934604    38.115812 
32828000    294.51333    400.97121    420.71182   -127080.13    127113.65   -19.740616    38.114829 
32832000    252.37919    439.22161    402.47105    -127067.8    127146.44    36.750558    38.115378 
32836000    249.19251    320.61657    157.31196    -127099.8    127179.37    163.30462    38.113154 
32840000    274.27726    557.75013    240.74638   -127146.83    127184.82    317.00375    38.119028 
32844000    285.99438    553.53903    319.01967   -127164.09    127200.45    234.51936     38.12038 
32848000    272.19821    379.87185    457.31107   -127185.67    127217.79   -77.439222    38.125568 
32852000    272.39727    329.70658     308.7207   -127198.58    127240.27    20.985882    38.124524 
32856000    296.26876    383.12565    297.10707   -127218.86    127254.58    86.018584    38.133892 
32860000    270.11543    374.46133    269.63748   -127197.88    127270.46    104.82385    38.136183 
32864000    286.10868    455.98936    391.97602   -127226.57    127264.07    64.013339    38.136489 
32868000    279.94815    316.60386    160.40074   -127231.64    127278.63    156.20312    38.141367 
32872000    262.00162    339.37047    165.15273   -127255.17    127309.15    174.21774     38.14197 
32876000    300.82631    469.60472    340.05686   -127256.62    127302.61    129.54785    38.140093 
32880000    255.16906    329.48496    216.24205   -127274.23    127331.11     113.2429    38.140823 
32884000    298.49262    439.08711    370.76709   -127281.17    127317.17    68.320013    38.141586 
32888000    278.14507    383.51818    388.36358    -127279.1    127335.38   -4.8453987    38.145838 
32892000    287.64914     450.3084    290.32724    -127281.2    127326.13    159.98116    38.150327 
32896000    276.44444    243.40508     367.6113   -127281.27    127336.87   -124.20622     38.15751 
32900000    261.86861    394.93263    276.29467   -127300.53    127356.05    118.63796    38.155823 
32904000    296.73765    307.81966    427.66142   -127313.79    127355.23   -119.84177    38.156411 
32908000    293.78636    443.43203    284.30218   -127328.02    127375.55    159.12985    38.149618 
32912000    257.92573    447.21837    469.95072   -127347.21    127419.01    -22.73235     38.15051 
32916000    258.47631    311.19692    365.85071   -127365.21    127428.12   -54.653786    38.154898 
32920000    268.24869    247.98349    177.67349    -127386.7    127446.87    70.310009    38.153313 
32924000    268.54863    270.91569    347.57062   -127403.22    127469.75    -76.65493    38.153652 
32928000    290.85271    424.01411    546.16464    -127436.2    127483.89   -122.15054    38.149332 
32932000    286.33439    308.49867    318.00161   -127452.43    127502.67   -9.5029382    38.150043 
32936000    261.08258    273.98876    310.14907   -127455.61    127508.04   -36.160305    38.151173 
32940000    294.44081    322.68772     230.1433   -127471.91    127508.77    92.544418    38.148763 
32944000     310.5579    463.12294    366.95678   -127498.45    127516.03    96.166164    38.147795 
32948000    322.02093    566.62952    579.26952   -127506.62    127536.18   -12.640007    38.147842 
32952000    273.78254     466.4755     277.5416   -127516.43       127555     188.9339    38.148632 
32956000    291.88051     400.4066    310.11629   -127528.43    127574.74    90.290307    38.152802 
32960000     285.7926    378.34442    324.51736   -127556.74    127604.05    53.827059    38.155224 
32964000    291.48309    391.82229    290.92383   -127563.89    127607.82    100.89846    38.152213 
32968000    290.61806     257.6662    414.64447   -127577.82    127615.24   -156.97828    38.150959 
32972000    295.00492    460.09196    326.86474   -127581.38    127635.69    133.22722     38.15167 
32976000    256.35806    205.97346    203.17018   -127578.49    127647.22    2.8032716    38.156341 
32980000    242.13849    316.41095    210.03056   -127610.01    127669.99    106.38039    38.155746 
32984000    284.59787    435.36479    301.38963   -127653.74    127707.37    133.97515    38.157266 
32988000    313.82384    414.46727    379.00905   -127692.05     127703.7    35.458219     38.15033 
32992000    300.53107    422.05235    305.15977   -127723.95    127746.17    116.89258     38.14777 
32996000    283.38746    562.44462    186.29372   -127746.97    127780.12    376.15091    38.140697 
33000000    287.91935    320.89916    229.80807   -127753.08    127812.02     91.09109    38.138785 
33004000    265.40087    343.92044    139.82376   -127767.41    127843.64    204.09668    38.138366 
33008000    268.38077    416.15745    288.88012   -127818.63     127854.3    127.27733    38.135646 
33012000     312.0864    348.26261    261.40682   -127826.15    127856.92    86.855794    38.136577 
33016000    299.35654    402.24411    234.22478   -127842.26    127873.69    168.01934    38.143884 
33020000    292.08156    556.13063    326.66014   -127846.91    127887.33    229.47049    38.142575 
33024000     287.9779    427.14798     265.2215   -127853.32    127896.94    161.92648    38.142555 
33028000    278.47121    305.30528     181.6687   -127870.02    127915.14    123.63659     38.14343 
33032000    279.61714    224.06632    492.65331   -127873.05    127929.35   -268.58698    38.140039 
33036000    248.99781    391.64815    272.19954   -127875.87    127948.06    119.44861     38.13931 
33040000    299.68567    498.15959    420.04973   -127904.72    127949.05     78.10986    38.139244 
33044000    280.45372    458.12259    250.92629   -127926.65    127966.94     207.1963    38.137092 
33048000    261.38216    345.64215    311.58255   -127933.92    128000.04    34.059601    38.138809 
33052000    273.14797     376.0147    329.68759   -127953.76    128011.78    46.327112    38.139061 
33056000    282.73886    226.93398    455.07575    -127982.1    128023.04   -228.14177     38.13828 
33060000    267.87793    261.99603    431.49435   -127995.18    128038.88   -169.49832    38.135326 
33064000    252.15846     346.9543    233.56356   -128020.13    128092.27    113.39074    38.133193 
33068000     262.7727    332.75287    351.86627   -128038.28    128106.94   -19.113392    38.138781 
33072000    257.28997    269.39006    313.39948   -128056.12     128116.6   -44.009417    38.140988 
33076000    267.82494    267.01244    493.16226    -128042.5    128086.84   -226.14981    38.138999 
33080000    291.90301      452.784    250.62769   -128058.59    128109.97     202.1563    38.138744 
33084000    277.50077    277.87422    262.98945   -128071.91    128117.79    14.884766    38.140896 
33088000    287.41187    205.40586    336.60781   -128090.55    128133.23   -131.20196    38.139664 
33092000    281.80146     329.7905    348.43687   -128127.34     128159.3   -18.646373    38.140759 
33096000    291.97119    250.03739    230.66417   -128146.34    128182.16    19.373216    38.144127 
33100000    272.03064    282.44247    265.38074   -128190.55    128234.98    17.061733    38.144338 
33104000    294.06386    418.08445     357.6169   -128207.03    128240.37    60.467546    38.143817 
33108000    285.37647    241.44754    332.75799   -128213.04    128275.98    -91.31045    38.146077 
33112000    274.89121    367.09126    292.24645   -128257.74    128299.48    74.844818    38.143909 
33116000    296.10297    367.78206    270.09233    -128267.8    128320.59    97.689728    38.146721 
33120000     281.8748     284.9687     350.4126   -128295.44    128326.91   -65.443903    38.146783 
33124000    292.88943     280.7218    582.71069    -128304.5    128338.56   -301.98889     38.14611 
33128000    269.01728    316.36863    352.84802   -128325.81    128361.97   -36.479395    38.145328 
33132000    260.89269    585.14132    263.66828   -128332.48    128399.34    321.47304     38.14332 
33136000    299.26985    182.72879    341.55331   -128373.04    128388.98   -158.82453    38.143773 
33140000    296.61665    511.02461    226.63291   -128380.29     128430.8     284.3917    38.147883 
33144000    315.93196    423.07597    247.80796   -128407.11    128427.13    175.26801    38.151635 
33148000    268.38267    395.08781     259.3108   -128422.34    128474.88    135.77701    38.151993 
33152000    274.22299    395.38608    402.46011   -128453.13    128504.39   -7.0740303     38.14749 
33156000    269.80146      421.209    358.17906   -128456.56    128504.91    63.029943    38.150294 
33160000    277.40899    409.29877    311.16164   -128495.69    128526.23    98.137138    38.151325 
33164000    305.74322     253.2536    211.26326   -128512.75    128562.68    41.990344    38.153329 
33168000    288.95465     495.1014    253.17228   -128551.18    128595.72    241.92912    38.153799 
33172000    256.99146    481.54964     250.6151   -128538.44    128602.23    230.93454    38.149146 
33176000    257.94256    330.38406    355.84301   -128564.91    128631.46   -25.458951    38.153839 
33180000    293.14577    461.86937    372.01839   -128593.64    128635.74    89.850984    38.153582 
33184000    272.84722    185.29364    202.48905   -128598.23    128648.05   -17.195415    38.150201 
33188000    306.13418    510.80193    467.84015   -128605.61    128646.41    42.961786    38.154536 
33192000    262.76366    288.10174    322.78011   -128628.43    128675.69   -34.678376     38.15958 
33196000    269.80569    486.42172    382.36508   -128634.33    128690.48    104.05664    38.160099 
33200000    261.42174    550.18897    290.15277   -128648.56    128700.94     260.0362    38.165394 
33204000    275.50904    199.71639    332.28184   -128648.92    128713.74   -132.56545    38.164689 
33208000    280.01681     205.2539    465.16366   -128673.74    128723.79   -259.90976    38.164069 
33212000    264.32302    434.69333    280.84456   -128689.37    128748.42    153.84877    38.161113 
33216000    272.74831    432.46925    251.78317   -128714.27    128768.92    180.68609    38.162659 
33220000    265.92679    352.70004    291.73529    -128730.8    128771.86    60.964745    38.161345 
33224000    296.18262    441.40297    309.29861   -128739.52     128791.8    132.10436    38.159496 
33228000    307.09309    441.31847    240.49648   -128766.58    128794.87    200.82199    38.161623 
33232000    270.87418    309.49854    350.95854   -128771.53    128817.66   -41.459996    38.165224 
33236000    275.06049    184.05132    289.40956   -128793.95    128851.03   -105.35824    38.165338 
33240000    247.45288    271.31743    271.24952   -128790.87    128856.29  0.067915043    38.163986 
33244000    279.86004    328.58044    162.30722   -128814.77    128851.64    166.27322      38.1648 
33248000    284.97691    299.13178    221.04532   -128827.74    128869.65    78.086467    38.165349 
33252000    281.93716    260.30064    203.68202   -128839.36    128885.82    56.618621     38.16365 
33256000    291.23221    547.45832    247.06421   -128869.16     128906.5    300.39412    38.173917 
33260000    277.87063    289.05638    279.15497   -128875.82     128921.4    9.9014105    38.172777 
33264000    258.48461    308.48594    322.19188   -128883.95    128951.01   -13.705937    38.174869 
33268000     318.9901    503.85939     433.3336    -128916.3    128962.85    70.525795     38.17478 
33272000    274.37508    223.41814    239.03475   -128930.15    128967.95   -15.616607    38.170518 
33276000    292.54993    471.07986    156.14104   -128951.95    129003.36    314.93882    38.172118 
33280000    288.93778    295.43257    307.06775   -128985.32    128995.93   -11.635172     38.17398 
33284000    292.12093    396.67538    255.60842   -128996.54    129039.52    141.06697    38.174863 
33288000    263.74743    244.66563    289.31082   -129026.87    129075.61   -44.645191    38.172287 
33292000    306.91507    237.47881    427.43113    -129047.1    129084.01   -189.95232    38.173086 
33296000    273.14544    379.22837    296.28976   -129063.46    129094.99    82.938611    38.174348 
33300000      278.391    341.53384    314.28896   -129065.14    129113.68    27.244882    38.171483 
33304000    289.28071    442.23315    337.56818   -129084.48    129127.01    104.66496    38.173263 
33308000    269.82915    311.26407     344.0582   -129105.12    129146.73   -32.794125    38.177934 
33312000    293.75534    251.35919    370.77371   -129101.08    129132.72   -119.41452    38.173075 
33316000    283.37112    315.39727    403.21771   -129126.38    129144.69   -87.820433    38.178571 
33320000     272.7009     148.8418    361.08835   -129153.41    129181.04   -212.24656     38.17632 
33324000    273.67272    156.97289    254.97131   -129153.12    129195.92   -97.998417     38.17694 
33328000    253.05106    355.81532    300.23948   -129174.86    129221.12    55.575834    38.177867 
33332000    302.30075    537.90432     492.4819   -129194.42    129221.79    45.422422    38.178168 
33336000     289.2907    385.78344    282.32928   -129222.95    129249.34    103.45416    38.177389 
33340000    270.43951    264.63165    200.02725   -129245.19    129306.73    64.604407     38.17396 
33344000    270.31987    231.21111    340.46638   -129270.69    129317.34   -109.25527    38.176059 
33348000    269.46614    327.41701    232.55209   -129280.44    129347.51    94.864925    38.175621 
33352000    298.69926    326.77123    202.75177   -129332.65     129350.8    124.01945    38.175685 
33356000    303.52414    345.28147    289.00086   -129366.93    129383.68    56.280606    38.174717 
33360000     291.2133    293.83643    481.91304   -129367.35    129411.75    -188.0766    38.175338 
33364000    291.40157    245.81052     337.6087   -129392.23    129418.15   -91.798183    38.174821 
33368000    276.80768    528.66429    330.97499   -129411.68    129457.22     197.6893    38.168926 
33372000    258.88043    287.33684    235.43019    -129426.1    129482.38    51.906656    38.165194 
33376000    303.84702    258.71158    399.31963   -129426.66    129476.14   -140.60804    38.163091 
33380000    277.97645    492.93058    230.58799   -129440.72    129508.94    262.34259    38.163162 
33384000    273.25973    346.60332    538.83603   -129456.65    129496.81   -192.23271    38.163818 
33388000    287.44721    265.67623    199.48304   -129477.23    129514.53    66.193197    38.162279 
33392000    333.97936    258.74521    481.19661   -129499.27     129507.5   -222.45139    38.158187 
33396000    279.85713    238.36882    431.21534   -129501.27    129547.52   -192.84652    38.152978 
33400000    299.26028    381.43878    273.47103   -129525.82    129570.19    107.96775    38.150888 
33404000    266.82632    369.11885    214.98638   -129539.84    129600.83    154.13247    38.148796 
33408000    257.55402    324.12003    289.57975   -129560.26    129603.98    34.540272    38.147054 
33412000    278.59215    419.18859    172.78659   -129579.66    129616.76    246.40199    38.147425 
33416000    263.42324    287.67734    140.02549   -129577.38    129641.09    147.65186    38.148149 
33420000     276.2552    257.06607    225.81789   -129588.92    129641.53    31.248183    38.148512 
33424000    304.89391    603.68489    434.08493   -129620.14    129668.46    169.59996     38.15255 
33428000    268.67508    277.43135    362.57795   -129618.14    129674.85   -85.146604     38.15498 
33432000    252.42012    235.35835    285.85517    -129643.5    129704.55   -50.496819    38.152163 
33436000    261.98187     250.1223    394.38769   -129684.71    129741.12   -144.26538    38.150835 
33440000    255.00244    354.92561    407.49045   -129708.26    129774.67   -52.564846    38.151554 
33444000    275.50819    256.94679    300.00824   -129750.03    129800.29    -43.06145    38.150858 
33448000    256.73165    262.16638    177.71432   -129753.45    129829.53    84.452057    38.149641 
33452000    275.26836    460.99154    367.69509   -129809.19    129856.27     93.29645    38.155646 
33456000    277.35954    521.81372    300.44455   -129815.46    129866.35    221.36918    38.159511 
33460000    316.60938    450.52904    286.30501   -129824.66    129851.57    164.22403    38.157597 
33464000    274.64539    228.10328    243.91662   -129823.85    129883.14   -15.813338    38.157046 
33468000    274.54027    371.47534    268.45791    -129847.5    129895.41    103.01743    38.159107 
33472000    305.31904    248.16875    136.77243   -129879.15    129916.81    111.39632    38.157132 
33476000    262.69425    358.17383     185.8834   -129900.49    129938.66    172.29043    38.156015 
33480000    276.76736    414.35158    314.70728   -129909.98    129939.57    99.644301    38.156412 
33484000    263.48241    326.27498    208.84093   -129909.19    129972.72    117.43405    38.157997 
33488000     286.5082    351.74551      302.231   -129937.34    129985.16    49.514508    38.152526 
33492000    291.50168    211.29878    405.53145   -129969.79    129989.25   -194.23267    38.149769 
33496000    299.88282    544.28326    420.43816   -129963.13    130020.12    123.84511    38.150623 
33500000    289.39036    437.68869    197.40607   -129984.05    130016.19    240.28262    38.153032 
33504000    307.12927     382.4588    562.68328   -129998.47    130032.23   -180.22449     38.14885 
33508000    261.32244    260.60659    470.58369   -129979.08    130038.91    -209.9771    38.147532 
33512000    270.73465    354.19626    226.74942   -129991.34    130055.29    127.44684    38.151788 
33516000    294.79227    559.38634     226.8324   -130024.19    130073.38    332.55394    38.152927 
33520000    284.43323    410.41035    268.87728   -130029.36    130071.96    141.53307    38.150167 
33524000    306.05029    349.71412    289.12037   -130035.49    130074.21    60.593752    38.148732 
33528000    299.00276    282.27442    332.93609   -130061.32    130094.07   -50.661671    38.148134 
33532000    256.37776    365.93708    280.99569   -130067.55    130131.26    84.941386     38.14619 
33536000    291.24478    279.14889    169.35557   -130114.69    130156.27    109.79332    38.144685 
33540000    272.31598    370.66776    498.31822   -130129.79    130174.84   -127.65046     38.14583 
33544000    288.34212    507.54702     378.1246   -130132.65    130176.12    129.42243    38.145901 
33548000    268.74906     212.0549    265.67427   -130123.49    130187.64   -53.619376    38.141827 
33552000    293.38564    468.93225    390.60611   -130150.05    130190.39    78.326144    38.139262 
33556000    269.01773    545.28753     440.5809   -130150.85    130206.35    104.70663    38.136811 
33560000    263.64345    349.80375    389.55942   -130167.72    130249.38   -39.755673    38.135893 
33564000    273.01411    384.87334    294.37053   -130201.34    130259.35    90.502808    38.133547 
33568000    285.83585    228.41394    275.45726   -130221.31    130248.95   -47.043323    38.137165 
33572000    303.41294    470.53847     185.0852   -130214.97    130246.43    285.45327    38.137241 
33576000    277.31412    231.15974    237.33322   -130218.27    130266.59   -6.1734821    38.142739 
33580000    281.88599    400.80047    175.63004    -130213.2    130254.34    225.17043    38.147633 
33584000    278.06096    207.14878    336.01566   -130218.03    130277.92   -128.86689    38.152765 
33588000    282.77661    409.42358    354.40356   -130243.13    130286.83    55.020023    38.150785 
33592000    295.05482    352.52074    331.46682   -130256.89    130301.79    21.053924    38.149922 
33596000    301.40854    485.70045    249.76735   -130288.48    130321.32     235.9331    38.145234 
33600000    284.57311    257.47573    352.40994   -130301.99    130347.96   -94.934204    38.144591 
33604000    272.28227    305.61423    438.98207   -130317.27    130376.95   -133.36784    38.144429 
33608000    259.89087      270.454    305.96932    -130321.3    130390.97   -35.515323    38.138404 
33612000    278.82094    155.90681     305.9845    -130335.1       130393   -150.07769    38.135534 
33616000    289.41996    425.96378    257.10067   -130343.58    130392.35    168.86311    38.132973 
33620000    282.75868    410.67637    296.72969   -130357.96    130418.74    113.94668    38.134803 
33624000    281.80118    353.41837    334.80669   -130390.14    130454.92    18.611678    38.133807 
33628000    301.65849    396.38541    235.77303    -130415.5    130452.39    160.61237    38.133329 
Loop time of 9951.63 on 1 procs for 32000000 steps with 196 atoms

Performance: 347.280 ns/day, 0.069 hours/ns, 3215.555 timesteps/s
99.9% CPU use with 1 MPI tasks x no OpenMP threads

MPI task timing breakdown:
Section |  min time  |  avg time  |  max time  |%varavg| %total
---------------------------------------------------------------
Pair    | 3082.2     | 3082.2     | 3082.2     |   0.0 | 30.97
Bond    | 4937.6     | 4937.6     | 4937.6     |   0.0 | 49.62
Neigh   | 64.786     | 64.786     | 64.786     |   0.0 |  0.65
Comm    | 20.022     | 20.022     | 20.022     |   0.0 |  0.20
Output  | 7.7935     | 7.7935     | 7.7935     |   0.0 |  0.08
Modify  | 1783.1     | 1783.1     | 1783.1     |   0.0 | 17.92
Other   |            | 56.1       |            |       |  0.56

Nlocal:    196 ave 196 max 196 min
Histogram: 1 0 0 0 0 0 0 0 0 0
Nghost:    0 ave 0 max 0 min
Histogram: 1 0 0 0 0 0 0 0 0 0
Neighs:    3896 ave 3896 max 3896 min
Histogram: 1 0 0 0 0 0 0 0 0 0

Total # of neighbors = 3896
Ave neighs/atom = 19.8776
Ave special neighs/atom = 5.87755
Neighbor list builds = 147658
Dangerous builds = 0

write_restart FINALCONFIG

Total wall time: 2:54:06
