LAMMPS (16 Mar 2018)
# 1. INITIALIZATION
#allows pair, bond, bending and dihedral interactions
atom_style molecular

  # periodic (video game) boundaries in all cartesian directions
boundary p p s

  # uses real units (instead of units based on pair potential parameters).  List of units used in manual
units real

###########
# 2. ATOM DEFINITION
##########

   ##
   # Read in data from starting configuration file
   ##

#read_data chainconfig.dat

 #use to restart
read_restart RESTART
  orthogonal box = (-400 -400 -0.0371672) to (400 400 123.895)
  1 by 1 by 1 MPI processor grid
  196 atoms
  194 bonds
  192 angles
  190 dihedrals
  2 = max # of 1-2 neighbors
  2 = max # of 1-3 neighbors
  4 = max # of 1-4 neighbors
  6 = max # of special neighbors

   ##
   # Specify the nature of the bond interactions
   ##


bond_style harmonic
bond_coeff 1 450 1.54

special_bonds lj 0.0 0.0 0.0 angle no dihedral no

angle_style harmonic
angle_coeff 1 62.1  114.00

dihedral_style opls
dihedral_coeff * 1.4110 -0.2708 3.143 0.0

mass * 14.0

pair_style lj/cut 14.0
pair_coeff 1 1 0.0912 3.95 14.0
#pair_modify tail yes

group twistables type 3
6 atoms in group twistables
group freeze type 2
6 atoms in group freeze
fix startend freeze setforce 0.0 0.0 0.0
fix startend0 twistables setforce 0.0 0.0 0.0

################
# 3.  Simulation Settings
###############

neighbor        2.0 bin
neigh_modify    every 1 delay 0 check yes



# Define some variables
variable Lx          equal xhi-xlo   # Ang
variable Ly          equal yhi-ylo   # Ang
variable Lz          equal zhi-zlo   # Ang

variable dz          equal ${Lz}/30  # Ang
variable dz          equal 123.931948666893/30  

variable zzlo        equal zlo+0.05  # Ang
variable zzhi        equal zhi  # Ang
variable vol         equal ${Lx}*${Ly}*${Lz}  # Ang^3
variable vol         equal 800*${Ly}*${Lz}  
variable vol         equal 800*800*${Lz}  
variable vol         equal 800*800*123.931948666893  
variable TEMP        equal 300.00 # K
variable TThi        equal 320.00 # K
variable TTlo        equal 280.00 # K
variable dt          equal 1.25 # fs

timestep     ${dt}
timestep     1.25

variable zlo1      equal ${zzlo}+2.7
variable zlo1      equal 0.0128327665533126+2.7
variable zlo2      equal ${zzlo}+8.4
variable zlo2      equal 0.0128327665533126+8.4
variable zhi1      equal ${zzlo}+115.5
variable zhi1      equal 0.0128327665533126+115.5
variable zhi2      equal ${zzlo}+121
variable zhi2      equal 0.0128327665533126+121

# heat layers

region          hot  block  INF INF INF INF ${zlo1} ${zlo2}
region          hot  block  INF INF INF INF 2.71283276655331 ${zlo2}
region          hot  block  INF INF INF INF 2.71283276655331 8.41283276655331
region          cold block INF INF INF INF ${zhi1} ${zhi2}
region          cold block INF INF INF INF 115.512832766553 ${zhi2}
region          cold block INF INF INF INF 115.512832766553 121.012832766553
compute         Thot all temp/region hot
compute         Tcold all temp/region cold


# 1st equilibration run
fix             1 all nvt temp ${TEMP} ${TEMP} 50
fix             1 all nvt temp 300 ${TEMP} 50
fix             1 all nvt temp 300 300 50
thermo          100
run             8000
Unused restart file peratom fix info:
  fix style: STORE, fix ID: layers_COMPUTE_STORE
Neighbor list info ...
  update every 1 steps, delay 0 steps, check yes
  max neighbors/atom: 2000, page size: 100000
  master list distance cutoff = 16
  ghost atom cutoff = 16
  binsize = 8, bins = 100 100 16
  1 neighbor lists, perpetual/occasional/extra = 1 0 0
  (1) pair lj/cut, perpetual
      attributes: half, newton on
      pair build: half/bin/newton
      stencil: half/bin/3d/newton
      bin: standard
Per MPI rank memory allocation (min/avg/max) = 9.689 | 9.689 | 9.689 Mbytes
Step Temp E_pair E_mol TotEng Press Volume 
134452000    292.98074   -49.781508    192.12758    312.64346  -0.99427725     79316447 
134452100    322.13144   -53.700978    213.53064    347.07113   -1.0506128     79316447 
134452200    309.73532   -55.588452    216.61612    341.06379    -1.059076     79316447 
134452300    327.28702   -48.586382    219.73192    361.38372  -0.95540265     79316447 
134452400    276.56245   -51.876892    219.14377    328.02101  -0.95192022     79316447 
134452500    314.27243    -55.39857    205.68003    332.95481   -1.0357121     79316447 
134452600    304.17788   -53.876356    217.35091    340.28037   -1.0646611     79316447 
134452700    299.17954   -51.298868    199.30406    321.90568  -0.89340238     79316447 
134452800    312.25165   -50.586723    221.95386    352.86589  -0.96882508     79316447 
134452900     269.0507   -55.730338    208.34139    308.99891    -1.058425     79316447 
134453000    284.90202   -53.454215     206.7442    318.89155  -0.96211648     79316447 
134453100    300.73956   -52.321917      216.373    338.85835   -0.9902994     79316447 
134453200    281.40008   -54.457857    226.89573    336.00392    -1.061539     79316447 
134453300    287.48783   -52.475737    186.91123    301.54008  -0.99283112     79316447 
134453400    295.43624   -49.416029    216.51492    338.82356  -0.97995895     79316447 
134453500    288.71233   -55.369238    215.90313    328.35024   -0.9986092     79316447 
134453600    303.34049   -52.382918    211.03925    334.97541  -0.99257534     79316447 
134453700    311.98775   -50.931188    221.72674    352.14092   -1.0394014     79316447 
134453800    300.91845   -55.934478    196.69412    315.67089  -0.99402237     79316447 
134453900    292.22024   -53.208999    212.94962    329.59597   -1.0601188     79316447 
134454000     318.7579   -46.877539    191.27291    329.67594   -0.8245005     79316447 
134454100     273.6085   -53.600187    210.21238    315.64931   -1.1791906     79316447 
134454200     297.9003   -51.570748    234.22484    355.81102   -1.0469844     79316447 
134454300    274.51869   -54.267422    223.23737    328.53612  -0.92395229     79316447 
134454400    286.79539   -52.389063    211.61102    325.92406   -1.0867322     79316447 
134454500    309.53483   -54.190391    236.63781    362.36701   -1.0318292     79316447 
134454600    307.17931   -51.474344    223.53199    350.60807   -1.1325907     79316447 
134454700    257.67472   -52.610227    226.79606    323.96132   -1.0100149     79316447 
134454800    298.87701   -51.690206    221.02921    343.06365    -0.947789     79316447 
134454900    287.21584   -53.589136     212.3306    325.68795   -1.0845189     79316447 
134455000     337.1164   -54.179285    211.08439     352.8567  -0.96360845     79316447 
134455100    308.90374   -54.288851    210.27562    335.53953   -1.0811942     79316447 
134455200    334.28655   -49.632596    191.73965    336.41377  -0.84592121     79316447 
134455300    252.07626   -53.748622    215.58814    308.36085   -1.1481377     79316447 
134455400    318.64056    -53.72338     210.2885    341.77748   -1.0105505     79316447 
134455500    273.79251   -49.154379    220.12757    330.11726  -0.93159973     79316447 
134455600    315.35425   -53.616253    229.56719    359.25311   -1.1600031     79316447 
134455700     295.2292   -54.571862    208.59236    325.62482  -0.86455878     79316447 
134455800    318.47606   -49.752123    212.00987     347.3745   -1.0376934     79316447 
134455900    280.35497   -54.325507    208.43722    317.07027    -1.071308     79316447 
134456000    288.78042   -52.103681    223.08101    338.83325   -1.0289799     79316447 
134456100    304.22753   -48.866086    223.61781     351.5864    -1.022374     79316447 
134456200     283.7916   -53.612214    208.45083    319.79474   -0.8971318     79316447 
134456300    329.55527   -53.955785    216.84021    354.44105   -1.1258923     79316447 
134456400     297.3369   -51.213518    231.40241    353.01832  -0.99728745     79316447 
134456500    287.53188   -55.727548    206.97989    318.38254   -1.0309062     79316447 
134456600    337.69112   -52.044602    206.63652    350.87756   -1.0366935     79316447 
134456700    282.65627   -53.411318    202.28736    313.17224  -0.89423208     79316447 
134456800    266.75341   -55.057788    220.41862    320.41338   -1.1767361     79316447 
134456900    295.56427   -52.782687    198.95038    317.96678  -0.83426536     79316447 
134457000    329.30236   -52.886193     215.8502    354.37363   -1.0133301     79316447 
134457100    287.88375   -54.357916    205.99824    318.97504   -1.0856141     79316447 
134457200    296.96984   -52.141631    224.82966    345.30411  -0.79212437     79316447 
134457300    281.15419   -49.157382    222.55063    336.81635   -1.1726168     79316447 
134457400      314.555   -56.497117    213.88802    340.22851  -0.88966562     79316447 
134457500     301.6755   -51.874089     211.7932    335.27039   -1.0080331     79316447 
134457600    300.26012   -53.254193    207.03731     328.3117   -1.0588459     79316447 
134457700    317.64269   -53.784608    222.38647     353.2342   -0.9760807     79316447 
134457800    287.62054   -53.248544    197.72457    311.65776  -0.99951922     79316447 
134457900    312.34194   -53.420133    207.76931    335.90042   -1.0083183     79316447 
134458000    262.05995   -52.330158    228.40429    328.39856    -1.057777     79316447 
134458100    280.52859   -53.529084    201.30193    310.83232  -0.92136937     79316447 
134458200     289.9082   -50.071543    222.54597    340.98587   -0.9966319     79316447 
134458300    295.60061   -51.946709    219.09209    338.96559   -1.0275079     79316447 
134458400    304.00057   -53.141601    223.10194    346.66309   -1.0730739     79316447 
134458500    325.75718   -54.118922    214.54852    349.77855   -1.0128004     79316447 
134458600    291.87214   -53.597898    215.37762    331.43272  -0.89751002     79316447 
134458700    238.24317     -52.1033    218.88719    305.26463   -1.0696313     79316447 
134458800    345.69787   -53.452544    200.70277    348.18986  -0.87240174     79316447 
134458900    271.69585   -52.042581    216.00867    321.89146   -1.0584925     79316447 
134459000    291.68996   -55.989744    240.31251    353.86988   -1.1785909     79316447 
134459100    299.49654   -50.118409    200.78365    324.74999  -0.81444475     79316447 
134459200    318.81059   -54.954087    227.37941    357.73651   -1.1022648     79316447 
134459300    279.26539   -54.533976    228.57661    336.36786   -1.0016056     79316447 
134459400    314.13785    -50.79024    202.79475    334.59964   -1.0054287     79316447 
134459500     302.7199    -52.06428    223.36156    347.25564  -0.97448756     79316447 
134459600    305.96009   -56.188954    217.65452    339.30731   -1.0102442     79316447 
134459700    290.70709   -51.439639    212.79512    330.33129     -1.04172     79316447 
134459800    290.69486   -53.001047    219.82792    335.79558  -0.86346207     79316447 
134459900    275.67642   -53.915651     214.0071    320.33057   -1.0579764     79316447 
134460000    311.02821   -51.128056    221.47598    351.13555  -0.95818077     79316447 
Loop time of 1.12831 on 1 procs for 8000 steps with 196 atoms

Performance: 765.744 ns/day, 0.031 hours/ns, 7090.219 timesteps/s
99.8% CPU use with 1 MPI tasks x no OpenMP threads

MPI task timing breakdown:
Section |  min time  |  avg time  |  max time  |%varavg| %total
---------------------------------------------------------------
Pair    | 0.39562    | 0.39562    | 0.39562    |   0.0 | 35.06
Bond    | 0.67046    | 0.67046    | 0.67046    |   0.0 | 59.42
Neigh   | 0.016391   | 0.016391   | 0.016391   |   0.0 |  1.45
Comm    | 0.0022004  | 0.0022004  | 0.0022004  |   0.0 |  0.20
Output  | 0.00056362 | 0.00056362 | 0.00056362 |   0.0 |  0.05
Modify  | 0.035784   | 0.035784   | 0.035784   |   0.0 |  3.17
Other   |            | 0.007301   |            |       |  0.65

Nlocal:    196 ave 196 max 196 min
Histogram: 1 0 0 0 0 0 0 0 0 0
Nghost:    0 ave 0 max 0 min
Histogram: 1 0 0 0 0 0 0 0 0 0
Neighs:    3895 ave 3895 max 3895 min
Histogram: 1 0 0 0 0 0 0 0 0 0

Total # of neighbors = 3895
Ave neighs/atom = 19.8724
Ave special neighs/atom = 5.87755
Neighbor list builds = 77
Dangerous builds = 0
velocity        all scale ${TEMP}
velocity        all scale 300
unfix           1

# Second Equilibration
fix             1 all nve
fix             hot all langevin ${TThi} ${TThi}  50.0 599804  tally yes
fix             hot all langevin 320 ${TThi}  50.0 599804  tally yes
fix             hot all langevin 320 320  50.0 599804  tally yes
fix             cold all langevin ${TTlo} ${TTlo} 50.0 27859 tally yes
fix             cold all langevin 280 ${TTlo} 50.0 27859 tally yes
fix             cold all langevin 280 280 50.0 27859 tally yes
fix_modify      hot temp Thot
fix_modify      cold temp Tcold


variable        tdiff equal c_Thot-c_Tcold
thermo_style    custom step c_Thot c_Tcold f_hot f_cold v_tdiff
thermo          4000
run             1600000
Per MPI rank memory allocation (min/avg/max) = 10.44 | 10.44 | 10.44 Mbytes
Step c_Thot c_Tcold f_hot f_cold v_tdiff 
134460000    298.43442    250.01207           -0           -0    48.422348 
134464000    356.67396    236.12903   -18.810868    36.467477    120.54493 
134468000    454.33312    336.96405   -27.362585    64.782542    117.36907 
134472000    283.43679    422.02524   -85.529461    96.844625   -138.58845 
134476000    196.32065     279.6771   -74.510198    92.196021   -83.356452 
134480000    321.38475    295.87182   -100.39918    118.82033     25.51293 
134484000    402.88728    285.43661   -75.155925    126.13859    117.45067 
134488000    324.73749    328.05671   -133.44041    138.87376   -3.3192225 
134492000    361.99583    237.59863   -165.16312    169.17971     124.3972 
134496000    337.21885    312.23964   -163.45117    189.69346    24.979205 
134500000    330.98814    320.74079   -190.12355    202.41043    10.247352 
134504000    304.79581    429.68605   -198.16209    246.87815   -124.89023 
134508000    136.57843    342.71037   -236.48473    260.04261   -206.13194 
134512000    434.69767    297.01858    -261.3018    295.37588    137.67909 
134516000    386.89919    341.41103   -277.69705    293.22742    45.488161 
134520000    319.50274    347.42172   -283.47336    299.06315   -27.918988 
134524000    319.13491    237.56108   -315.71444    327.07754    81.573836 
134528000    319.20929    288.95338   -311.59092    350.83344    30.255918 
134532000    482.45689    301.28246   -332.42347    367.20393    181.17443 
134536000    205.89551     282.1867   -355.60376    397.92607   -76.291189 
134540000    553.67748    367.50194   -389.13291    414.13411    186.17554 
134544000    504.36545     201.0857   -395.23751    430.23486    303.27975 
134548000    315.45246    265.63174   -438.17926    446.16256    49.820723 
134552000    465.41673    349.84976   -434.69855    462.31097    115.56696 
134556000    270.29254    433.77139   -451.86629    461.22112   -163.47885 
134560000    250.23356    269.87951   -443.65008    469.20382    -19.64595 
134564000    526.77723    342.12276   -453.62159    472.99031    184.65447 
134568000    291.44876     351.2209   -477.86208    483.40048   -59.772142 
134572000     159.3367    508.21605   -483.80655    517.80494   -348.87935 
134576000    294.31254    221.79985   -525.52601    562.04394    72.512691 
134580000    335.60936    305.17133   -541.34049    587.49644    30.438025 
134584000    355.19116     307.8543   -567.58841     625.1339    47.336859 
134588000    423.59468    312.90804   -614.82467    644.36168    110.68664 
134592000    263.59303     175.5067   -661.11328    688.38474    88.086329 
134596000    359.13196    279.88712   -697.76503    708.82116    79.244834 
134600000    281.93767    325.08785   -721.81579    744.83771   -43.150178 
134604000    335.68996     348.7786   -727.51991    762.90688   -13.088633 
134608000    276.58836    303.54328   -757.78738    767.40775   -26.954922 
134612000    293.91367    163.02434   -774.49213    825.32422    130.88933 
134616000    196.13647    247.36902   -773.62582    790.33627   -51.232549 
134620000    524.84742     378.6639   -791.04615    819.09991    146.18352 
134624000    137.94027    244.38809   -796.24525    844.68685   -106.44783 
134628000    417.00465    344.85083   -813.49639    843.15595    72.153818 
134632000    154.06506    329.03428   -828.26144     853.6933   -174.96922 
134636000    323.48154    451.59177   -858.45579    885.32233   -128.11024 
134640000    353.72415     440.9498    -879.6078    896.91738   -87.225649 
134644000    369.08415     343.7054   -908.16946    928.07423    25.378744 
134648000    260.82971    335.90302   -921.65046    940.37593    -75.07331 
134652000    302.87867    299.49029   -956.13463    968.67369    3.3883797 
134656000    320.23536    126.59275   -991.06149    998.48339    193.64261 
134660000    464.30151    410.47082   -1004.5633    1030.7066    53.830683 
134664000    291.21099    273.64543   -1044.3245    1068.6027    17.565563 
134668000    437.71666    211.98288   -1089.6921    1106.5569    225.73378 
134672000    318.13183    378.50941   -1109.8369    1152.7314   -60.377577 
134676000    375.70864    221.85749   -1129.0385     1146.752    153.85115 
134680000    224.72991    308.79809   -1119.4339    1157.5392   -84.068182 
134684000    445.93407    328.77436    -1130.089    1184.6224    117.15971 
134688000    150.45319    533.19848   -1167.5982     1192.683   -382.74529 
134692000    519.21889     472.3813   -1187.3993    1205.9936    46.837589 
134696000    458.20215    316.98366   -1199.4071    1216.1739    141.21849 
134700000    409.50794    345.19231   -1227.1928     1245.787    64.315633 
134704000    293.37854     335.2731    -1250.483    1273.8016   -41.894556 
134708000    253.49785    337.48071   -1281.1081    1292.5433    -83.98286 
134712000    282.01978    389.01732   -1287.5865    1304.1185   -106.99754 
134716000    371.55976    157.05119   -1310.9271    1327.4684    214.50857 
134720000      336.281     167.7016   -1318.2601    1352.7795     168.5794 
134724000    302.88479    261.68093   -1336.5474    1388.9424    41.203864 
134728000    442.79231    455.01398   -1372.8046    1386.3018   -12.221665 
134732000    274.04546    251.14587   -1422.2247    1429.1558     22.89959 
134736000    365.88508    172.08522   -1434.9062    1457.4946    193.79986 
134740000    387.80291    246.31837   -1455.3294    1485.7048    141.48454 
134744000    369.18132     347.2346   -1493.1368     1530.398    21.946726 
134748000    451.52275    298.87449   -1490.1036    1508.8976    152.64827 
134752000    356.37743    343.07071   -1507.4278    1541.2832    13.306724 
134756000     212.0053    270.73018   -1567.9055    1569.9495   -58.724877 
134760000    318.32582    273.53836   -1571.7766    1603.2065     44.78746 
134764000    452.62676    244.47676   -1618.4445    1635.2844    208.14999 
134768000    408.07388    176.79334   -1627.3018    1670.2257    231.28054 
134772000     298.6883    341.82044   -1639.5803    1655.2822   -43.132133 
134776000    171.37862     361.3679   -1659.5715    1685.8819   -189.98928 
134780000    245.38467    580.51093   -1666.2883    1697.9536   -335.12626 
134784000    370.16648    251.91482     -1736.27    1757.5046    118.25166 
134788000     362.5322     338.4978   -1759.1247    1789.6505    24.034406 
134792000    344.72737    266.88779   -1805.5517    1842.7451    77.839582 
134796000    253.10646    261.21371   -1821.6016    1862.3939   -8.1072535 
134800000    131.06673    425.74093   -1860.9263    1881.6755   -294.67419 
134804000    335.53195    323.94948   -1890.9617     1911.511    11.582472 
134808000    399.91751    281.74585   -1916.7894     1964.224    118.17167 
134812000    471.33482    356.08592   -1931.4362    1962.7467     115.2489 
134816000    294.37589    246.93463   -1969.6919    1986.5921    47.441256 
134820000    365.06061    208.09371   -2006.7226    2019.3208     156.9669 
134824000    373.51721    429.38844   -2029.5559     2032.492   -55.871228 
134828000    242.92056    390.86028   -2022.7263    2052.8495   -147.93973 
134832000    321.43284    234.57749   -2046.0693     2089.187    86.855353 
134836000     385.6688    413.14807   -2089.9559     2127.341   -27.479268 
134840000    470.77307    271.45639   -2112.0337    2143.3973    199.31668 
134844000    518.94751    175.29192   -2116.7121    2145.2301    343.65559 
134848000    414.27797    247.92819    -2126.193    2162.7292    166.34978 
134852000    396.43534    266.27743   -2141.1091    2187.3461    130.15792 
134856000    313.30903    265.18879   -2159.6963    2208.7487    48.120235 
134860000    452.27762    370.69429   -2199.0049    2244.3363    81.583323 
134864000    344.01404    277.30011   -2223.2075    2248.7103    66.713932 
134868000    365.60638    358.81775    -2240.753    2271.2221    6.7886304 
134872000    481.30327    391.96576   -2268.6276    2294.1816    89.337508 
134876000    224.20679    390.60096   -2273.2883    2317.0022   -166.39417 
134880000    306.75363    204.11893   -2307.4624    2345.9143     102.6347 
134884000    357.08589    400.44257   -2294.4019    2328.2952   -43.356679 
134888000    265.64752    265.83027   -2307.1336    2328.2807   -0.1827547 
134892000    226.63962    358.19478   -2319.7574    2349.4524   -131.55515 
134896000    273.29912    412.44193   -2361.8753    2364.6122   -139.14281 
134900000    404.80035    323.10154   -2366.3948    2391.5941    81.698812 
134904000    418.56495    371.36097   -2383.9975    2429.7112    47.203981 
134908000    469.40016    356.19341   -2415.2322    2438.2894    113.20675 
134912000    387.56215    278.89591    -2406.962    2455.6854    108.66624 
134916000    351.42712    214.23052   -2451.0606    2476.4647     137.1966 
134920000    246.12929    373.23029   -2506.8326    2500.8566     -127.101 
134924000    334.79274    433.71023   -2504.2445    2539.0293    -98.91749 
134928000    427.97544    360.96387   -2511.7526    2545.4944    67.011565 
134932000    466.42275    352.10695   -2535.1019    2568.4431     114.3158 
134936000    194.11856    317.73034   -2582.0877    2596.2955   -123.61177 
134940000    305.72407    246.53109   -2599.3208    2614.9413    59.192983 
134944000    420.06353    549.36659   -2604.9108    2620.1654   -129.30306 
134948000    335.14277    426.19568   -2625.9147    2648.0688   -91.052913 
134952000    442.21322    348.71118   -2633.8771    2649.4302    93.502043 
134956000    344.40834    367.92657   -2686.5219    2699.7233   -23.518229 
134960000    236.54943    407.40208   -2681.4834    2729.7448   -170.85265 
134964000    156.83023    427.36443   -2714.5604    2741.8757   -270.53421 
134968000    285.84772    187.45459   -2743.1365    2742.2776     98.39313 
134972000    461.17605    360.33929   -2767.9869      2780.94    100.83676 
134976000    362.36275    391.71627   -2769.0392    2801.3131    -29.35352 
134980000    366.77261    259.06464   -2788.8618    2813.6659    107.70797 
134984000     437.1511    349.69065   -2810.7551    2829.0014    87.460449 
134988000    303.96508    166.53239   -2858.0373    2877.8425    137.43269 
134992000    351.35255    315.18464   -2859.6175    2904.5569    36.167914 
134996000     327.4475    305.65221   -2878.4696    2907.6096    21.795292 
135000000    307.13011    408.59265    -2892.152    2917.6324   -101.46253 
135004000    631.18807      426.009    -2936.618    2958.5871    205.17906 
135008000    310.35558    406.52746   -2968.8802    2979.8025   -96.171881 
135012000    265.39281    302.98415   -2982.0073    3008.8209   -37.591338 
135016000    607.01858    291.48325   -3008.6672     3050.693    315.53534 
135020000    479.91201     319.9481    -3028.533     3016.579    159.96391 
135024000    485.18155    343.94076   -3043.5108    3056.3204    141.24079 
135028000    263.97973    295.21221   -3087.8885    3111.2502   -31.232475 
135032000    444.35447    359.14521   -3133.3076    3156.6757    85.209262 
135036000    340.11469    285.61196   -3149.9735    3189.6271    54.502728 
135040000    227.13792      464.184   -3198.8757    3205.0876   -237.04608 
135044000    224.35843    296.74819   -3213.0801    3230.4083   -72.389755 
135048000    214.00295    347.37176   -3208.9474    3237.1863   -133.36881 
135052000    371.44955    333.03424    -3231.594    3275.7026    38.415314 
135056000    511.73336    286.30077   -3241.9571    3273.9901    225.43259 
135060000    193.94151    253.95493   -3265.2473    3305.3258   -60.013419 
135064000    367.30283    360.44946   -3267.8624    3308.6138     6.853371 
135068000    421.27957    293.71223   -3286.5009    3302.2833    127.56734 
135072000    296.69254    345.27445   -3307.2508    3324.3502    -48.58191 
135076000    424.33186    325.71118   -3361.6429    3380.1547    98.620675 
135080000     301.4604    284.33249    -3358.851    3416.8842    17.127914 
135084000    648.80567    457.92657   -3396.7442    3428.1752     190.8791 
135088000    473.31716    423.72141   -3428.9355    3446.4034     49.59575 
135092000    345.78626    397.53511   -3436.8578      3446.44   -51.748852 
135096000    220.14532    196.82456   -3435.7982    3478.7562    23.320764 
135100000    469.87615     403.6777   -3483.3654    3480.0174    66.198453 
135104000     368.5371    462.46787   -3515.3587    3528.7008   -93.930768 
135108000    324.65852    362.82526   -3548.4617    3557.1591   -38.166736 
135112000    310.19302    389.47117   -3534.5378    3564.7458   -79.278144 
135116000    279.47227    270.11686   -3562.2501    3592.3365    9.3554123 
135120000     321.3126     356.5672   -3560.8021    3591.2088   -35.254609 
135124000    397.84405    386.75713   -3593.8242    3607.3424    11.086919 
135128000    291.12579    295.42367   -3619.2029    3648.4261    -4.297888 
135132000    238.83786     360.8233   -3631.3872    3659.3613   -121.98544 
135136000    377.92845    297.16232   -3656.5157    3665.8845    80.766133 
135140000    231.20246    238.76343    -3650.023    3686.4646   -7.5609728 
135144000    268.88069    456.12106    -3681.778    3701.8445   -187.24037 
135148000    293.63378    253.08304   -3699.0859    3728.1741    40.550744 
135152000    573.49949    212.00304   -3705.8892    3742.4841    361.49645 
135156000    533.52187    243.16271   -3729.4651    3765.6057    290.35916 
135160000    244.07115    251.18903    -3762.361     3797.528   -7.1178801 
135164000    315.45754    299.70765   -3779.9366    3798.7525    15.749894 
135168000    327.53251    356.14403   -3819.1132    3850.0125   -28.611521 
135172000    507.10068    305.25299   -3840.2214    3871.3859    201.84768 
135176000    279.10252    242.61763   -3853.9915    3894.8447    36.484889 
135180000    431.09962    406.26847   -3889.1308      3896.57     24.83115 
135184000    337.78004    314.00566   -3912.8887    3928.3104    23.774376 
135188000    227.41414     255.6996   -3914.7014    3932.3081   -28.285468 
135192000    241.51132    345.24152     -3928.66    3959.4387    -103.7302 
135196000      527.005    358.06111   -3948.9839    3986.1726    168.94389 
135200000    307.05757    200.73487   -3960.6985    4010.2915    106.32269 
135204000    224.52526    344.76872   -4000.6015    4012.2304   -120.24345 
135208000    355.72957    296.41208   -4022.8769    4059.3251    59.317487 
135212000    206.58845    345.97715   -4053.0451    4083.6281    -139.3887 
135216000    323.39074    464.90177   -4046.9694    4088.5162   -141.51103 
135220000    341.94843    390.11924   -4071.8046    4105.5878   -48.170816 
135224000    191.26047    315.31193   -4101.6642    4135.6974   -124.05146 
135228000     313.1625    213.64317   -4103.4773    4144.9378    99.519332 
135232000    450.46408    215.78212    -4148.763    4188.4281    234.68196 
135236000    270.49349    412.70961   -4182.8789    4220.8501   -142.21613 
135240000     303.3437    237.35302   -4221.9009    4226.1098    65.990685 
135244000    314.99691    189.14749   -4227.6095    4267.2959    125.84943 
135248000     560.5451    331.17386   -4253.6199    4281.9192    229.37124 
135252000    511.76936    355.40782   -4268.7428    4289.4357    156.36154 
135256000    275.72813    374.71136   -4301.9936    4328.8189   -98.983234 
135260000    450.94333    405.11575   -4339.9018    4357.1884    45.827581 
135264000    239.96061    485.80611   -4355.9357    4383.5535   -245.84549 
135268000    309.98502    341.84876   -4385.5507    4426.8531   -31.863736 
135272000      310.951    392.89202   -4417.2061    4435.7136   -81.941018 
135276000    319.55943    247.03136   -4429.9198    4453.5325    72.528078 
135280000    396.48606    223.48366   -4443.5123    4480.0591     173.0024 
135284000    303.44775    216.64021   -4477.3007     4498.614    86.807542 
135288000    167.53822     338.5763   -4479.1502    4500.8824   -171.03808 
135292000    419.27446    319.19723   -4501.3701    4530.3622    100.07723 
135296000    353.80207    279.63909   -4521.7533    4559.3351    74.162979 
135300000    536.28495    268.20483   -4563.1532    4582.1252    268.08012 
135304000    356.83182    371.71512   -4594.3717    4609.6564   -14.883299 
135308000    504.34167    226.46952   -4627.5877    4663.5708    277.87215 
135312000    487.41006    331.43111   -4673.0406    4692.2907    155.97894 
135316000    391.35047    374.37773   -4683.8955    4727.5712    16.972734 
135320000    198.89788    378.73651   -4707.3598    4739.0003   -179.83863 
135324000    501.72753    189.15238   -4738.7027    4777.7738    312.57516 
135328000    257.95631    192.74953   -4783.5528    4830.6826    65.206777 
135332000    391.32855    451.38504   -4814.3883    4847.4324   -60.056493 
135336000    478.48316    260.27942   -4838.4331    4878.3386    218.20374 
135340000    355.97521    341.81592   -4877.4065    4896.9281    14.159296 
135344000    588.76042    296.11224   -4908.4153    4933.4662    292.64818 
135348000    472.30133    266.15036    -4947.941    4972.4841    206.15097 
135352000    432.34985    344.34784   -4981.9123    5008.3793    88.002007 
135356000    311.49378    246.54296    -5001.414    5037.9045    64.950818 
135360000    264.92013    259.56659    -5024.131     5029.501    5.3535334 
135364000    397.37117    301.03294    -5026.041    5051.5291    96.338228 
135368000    449.60963    293.47627   -5037.2532    5087.8475    156.13336 
135372000    332.01971    381.83233   -5085.1455    5104.3602   -49.812619 
135376000    451.93919    298.37929   -5125.6245    5143.5933     153.5599 
135380000    526.81864    201.10939   -5155.7398      5165.65    325.70925 
135384000    297.90796    251.05722   -5176.6216    5202.5756    46.850744 
135388000    497.78003    384.83171   -5181.4512    5210.1801    112.94832 
135392000    255.95898    303.22707   -5212.1258     5249.801   -47.268081 
135396000    361.55493    278.22296   -5241.2883    5258.8005    83.331967 
135400000     332.0748    282.68851   -5235.4572    5259.7983    49.386293 
135404000    475.53841    383.34912   -5240.1158    5260.1552    92.189293 
135408000    316.07969    284.73093   -5252.2238    5259.0043    31.348759 
135412000    323.92327    270.38416   -5246.9935    5282.4234    53.539104 
135416000    484.00622    325.07312   -5281.7488    5330.1094     158.9331 
135420000     400.2609    387.96685    -5333.382    5354.5303    12.294053 
135424000    774.85946    259.87713   -5359.9874    5405.0188    514.98232 
135428000    351.00174    382.05968   -5387.0177    5413.8203   -31.057938 
135432000    199.67975    296.18168   -5403.3501    5424.0943   -96.501925 
135436000    550.68238    347.57473   -5427.5447    5444.2327    203.10765 
135440000    326.48529    248.01508   -5427.4657    5459.3383    78.470207 
135444000    381.91557    320.91699   -5456.2495    5499.4363    60.998578 
135448000    206.50393    279.96572   -5469.6008    5517.8978    -73.46179 
135452000    439.10391    302.33627   -5507.9197    5533.2928    136.76764 
135456000     460.6079    166.36358   -5551.7405    5566.4975    294.24432 
135460000    257.62134    311.64595   -5549.6124    5596.6662   -54.024602 
135464000    450.30572    251.65792     -5577.85    5590.4457     198.6478 
135468000     259.8395    513.37919   -5648.6551    5672.0501   -253.53969 
135472000    281.25007    262.47131   -5669.8951    5694.2724    18.778765 
135476000    258.75788    281.15661    -5690.979    5717.3403   -22.398725 
135480000    410.89853    318.25761   -5707.2338    5734.0481    92.640921 
135484000    306.05479    361.61143   -5761.8889    5748.7033   -55.556645 
135488000    243.61047    531.97503   -5742.7424    5751.2525   -288.36456 
135492000    305.23044    262.99375    -5725.717     5770.553    42.236683 
135496000    358.58783    198.78999   -5730.5079    5770.3569    159.79784 
135500000    574.63522    276.93639   -5764.6585    5792.5774    297.69883 
135504000    358.64454    346.96199   -5787.7859     5793.064    11.682556 
135508000    335.91982    621.65733   -5776.0564    5803.1487   -285.73751 
135512000    380.82118    509.89273   -5800.7422    5817.4652   -129.07154 
135516000    222.06752    362.68211   -5773.9144    5826.8475    -140.6146 
135520000    274.50301    244.70876   -5792.4744    5845.7792    29.794244 
135524000    377.69807     554.9443   -5811.1664    5856.9656   -177.24623 
135528000    263.23806    199.08623   -5871.7124    5895.5012    64.151827 
135532000    161.20525    355.96927   -5901.0421    5925.0749   -194.76403 
135536000    311.33116    372.89831   -5902.2729    5934.8822   -61.567148 
135540000     555.6584    216.56943   -5934.1609    5962.9549    339.08896 
135544000    405.70383    333.53097   -5939.8959    5987.3197    72.172864 
135548000    324.86422    252.57661   -5955.3928    5989.0048    72.287614 
135552000     296.3651    574.12284   -5967.7376    5983.2853   -277.75774 
135556000     321.6302    408.53971   -6004.1741    6023.0688   -86.909513 
135560000    348.16354    419.99408   -6027.2247    6025.7417   -71.830544 
135564000    350.97585    366.27199   -6022.2699    6052.9603   -15.296143 
135568000    294.25196    332.53241   -6051.2639    6079.7946   -38.280453 
135572000    214.22337    291.74182   -6042.9023    6080.3769   -77.518447 
135576000    171.66881    388.89306   -6059.4743    6072.5641   -217.22424 
135580000    372.57092    183.74994   -6064.7708    6113.8901    188.82098 
135584000    437.21997    175.14546   -6114.6885    6121.0793    262.07451 
135588000    343.61331    315.39508   -6111.8128    6134.7204    28.218231 
135592000    200.70216    256.38658   -6146.0549    6178.4077   -55.684412 
135596000    216.97515     282.2374   -6159.1546    6182.4289   -65.262257 
135600000    270.73494    375.91013    -6181.297    6196.8358   -105.17519 
135604000    407.15144    351.50622   -6200.5568    6229.1256    55.645218 
135608000    402.81348    556.06888   -6234.9256    6248.1938    -153.2554 
135612000    334.78604    360.09619   -6263.9559    6279.0118   -25.310156 
135616000    329.19523    275.17283   -6271.6218    6312.0447    54.022404 
135620000    496.45565    203.79577   -6303.6652    6329.5851    292.65988 
135624000    207.62918    272.74212   -6299.0916    6333.7929   -65.112938 
135628000    263.92631    270.53668   -6336.7736    6359.0907   -6.6103686 
135632000     356.3804    499.98137   -6354.9683    6357.6947   -143.60097 
135636000    309.58716    521.56633   -6365.5502    6390.5953   -211.97917 
135640000    301.75044    397.36405   -6359.1694    6376.4611   -95.613614 
135644000    764.10582    214.62574   -6396.1619    6412.3933    549.48008 
135648000    164.45524    259.57683   -6435.0463    6467.1519   -95.121583 
135652000    244.26285    313.89652    -6470.668    6494.7103    -69.63367 
135656000    297.96872    500.07908   -6507.3738    6521.0094   -202.11036 
135660000    326.98062    225.53289   -6549.1552     6567.818    101.44773 
135664000    279.23097    176.06118   -6580.7152    6607.1227    103.16979 
135668000    489.91096    259.39726   -6583.9866    6608.3563     230.5137 
135672000     286.0746    318.61402   -6612.3784    6638.1122   -32.539425 
135676000    558.64634    290.96903   -6601.3433    6641.4208    267.67731 
135680000    425.77184    505.28986   -6633.2565    6660.0999   -79.518026 
135684000    871.51665    343.30848   -6688.5966    6706.4713    528.20817 
135688000    523.64581    152.16905   -6714.2633    6740.2162    371.47676 
135692000    365.79416    461.67583   -6758.0917    6774.8284   -95.881673 
135696000    395.71047    393.83225   -6754.4702    6790.0053    1.8782233 
135700000    163.26635     284.0915   -6767.0465    6792.4146   -120.82515 
135704000    399.23237    230.09375   -6771.5524    6818.5645    169.13861 
135708000    483.05253    423.94237   -6796.0696    6814.9504    59.110163 
135712000    500.15869    267.43434   -6827.3637    6828.0055    232.72436 
135716000    618.38124    377.50336   -6832.1826    6850.8265    240.87787 
135720000    420.53721    320.57892   -6847.2773    6861.4451    99.958291 
135724000     326.5155    391.53519   -6845.8225    6882.1739   -65.019686 
135728000    376.09887    180.02963   -6847.6959     6885.561    196.06924 
135732000    292.41494    323.88082   -6887.4626    6919.7797   -31.465873 
135736000    302.61204    275.41658   -6910.1836    6941.0294    27.195455 
135740000    416.24587    231.83484   -6969.7544    6995.1683    184.41104 
135744000    386.20916    391.80086   -6979.0753    7017.1075   -5.5917035 
135748000    511.93047    308.97147   -7005.9493    7023.8668      202.959 
135752000    356.06553    218.58064   -6995.4848    7020.5965    137.48489 
135756000     454.0477    348.29259   -6995.2661    7030.1318    105.75511 
135760000    107.90538    264.31049   -7028.6441    7050.9442   -156.40512 
135764000    331.76973    462.06392   -7045.3294    7076.1377   -130.29419 
135768000    317.98221      389.648   -7077.8574    7082.3373   -71.665785 
135772000    204.02484    207.49947   -7089.8807     7122.091   -3.4746283 
135776000     401.6904    468.67955   -7101.8613    7137.1753   -66.989142 
135780000     295.0169    289.03202    -7168.173     7173.841    5.9848703 
135784000    295.21104    364.80962   -7175.7598    7213.9123   -69.598583 
135788000    417.68628    377.24519   -7200.8533    7234.5849    40.441095 
135792000    389.18795    305.17505   -7226.1197    7277.0047      84.0129 
135796000    481.38436    522.18525   -7236.8428    7265.2209    -40.80089 
135800000    530.09442    265.29795   -7273.2157    7291.2694    264.79647 
135804000    503.53804    177.58381    -7282.524    7335.6868    325.95423 
135808000    288.88666    403.51457   -7308.0982    7347.7434   -114.62791 
135812000    419.19795    275.93327   -7351.4892    7384.8435    143.26468 
135816000    221.45601    469.60383    -7359.749     7383.606   -248.14782 
135820000    473.62249    311.13732   -7384.8218    7398.2984    162.48517 
135824000    323.15778    413.70247   -7388.2966    7437.4257   -90.544684 
135828000    213.54531    391.84588    -7402.067     7438.791   -178.30058 
135832000    301.87867    427.87232   -7438.0982     7439.912   -125.99366 
135836000    271.98987     481.8146   -7445.2356    7478.2002   -209.82473 
135840000     350.5482    157.15514   -7466.6412    7493.5933    193.39306 
135844000     372.4735    240.27868   -7489.2805     7529.184    132.19482 
135848000    290.12828    190.32379    -7537.537    7546.9694    99.804492 
135852000    328.77438    359.31212   -7535.5446    7550.1772   -30.537741 
135856000    427.07927    341.37692   -7543.6106    7571.6839    85.702356 
135860000    519.22324    370.13142   -7582.0784      7615.17    149.09182 
135864000    409.40518    438.66147   -7624.2364    7640.3445    -29.25629 
135868000    499.48957    302.75358   -7607.7532    7656.0416      196.736 
135872000     328.8327    401.03363   -7639.4139    7665.4131   -72.200931 
135876000    322.32217    263.30353   -7666.1417     7702.153    59.018638 
135880000    331.90758    202.46655   -7692.9322    7715.7006    129.44103 
135884000    214.26608    183.57968   -7736.2949    7716.4142    30.686403 
135888000    331.69255    365.72302    -7753.348    7776.4722   -34.030466 
135892000    429.32932     243.0853   -7751.4753    7778.5573    186.24402 
135896000    260.96051    317.29254   -7777.4736    7812.3074    -56.33203 
135900000    304.82532     392.6742   -7835.5411    7835.8668   -87.848887 
135904000    252.25908      205.907   -7840.2208    7863.6801    46.352083 
135908000    294.38935    265.64306   -7835.3609    7887.5274    28.746287 
135912000    451.92312     286.6179   -7873.4124    7906.9939    165.30522 
135916000    286.13045     281.2282   -7867.3739    7893.4079    4.9022417 
135920000    432.62365    211.79806   -7908.1752     7939.326    220.82559 
135924000    269.24325     268.0256   -7932.9478    7970.8097    1.2176536 
135928000    336.44428    385.74139   -7968.1447    7999.1391   -49.297113 
135932000    288.67713    281.67178   -8020.3628    8043.4352    7.0053445 
135936000    333.84765    380.17853   -8067.9366    8103.8562   -46.330887 
135940000    310.08578    270.71007   -8075.0332    8102.8206    39.375713 
135944000    380.34303    359.14648   -8079.6817    8120.2509    21.196552 
135948000     482.2617    349.23501   -8090.5788    8136.4136    133.02669 
135952000    319.50322    441.64301   -8109.1325    8147.0534   -122.13979 
135956000    296.68244    294.80783   -8158.3007    8197.6896    1.8746117 
135960000    435.73864    311.35473   -8196.4456    8221.2581    124.38391 
135964000     493.1559    363.56789   -8210.9576    8252.7894    129.58801 
135968000    273.81854    276.57146   -8231.3611    8266.0361   -2.7529181 
135972000    234.48346     346.1743   -8251.8634    8286.1049   -111.69084 
135976000    318.68247    377.17751   -8261.3845    8299.3997   -58.495038 
135980000    413.57078    427.22996   -8284.9564    8298.5849   -13.659182 
135984000     412.5279    113.89455   -8298.3988    8331.1059    298.63335 
135988000    248.53794     381.2193   -8320.1916    8369.0817   -132.68136 
135992000    525.84068    297.68019   -8332.6387    8372.6962    228.16049 
135996000     395.1989    546.51689    -8357.218    8377.1825   -151.31799 
136000000    483.46772    380.99166   -8348.1807    8378.8948    102.47607 
136004000    346.54009    379.12488   -8369.1773    8374.2533   -32.584791 
136008000    234.33919    330.74669   -8381.4053    8413.7135   -96.407498 
136012000    329.07305    235.09585   -8402.8984    8454.3312    93.977197 
136016000    339.56993    400.95996   -8431.5551    8453.8752   -61.390032 
136020000    641.46392    222.63807    -8451.633    8464.1328    418.82585 
136024000    296.84839     467.2906   -8440.9716    8491.3196   -170.44221 
136028000    370.58059    325.70487   -8470.6315    8497.1895     44.87572 
136032000    480.58423    413.40696   -8485.1471     8514.518    67.177276 
136036000    321.20208    260.99899   -8496.4555    8541.7144    60.203094 
136040000    306.51531     429.1512   -8527.2723    8560.6811   -122.63589 
136044000    494.65904    320.27458   -8549.9258    8564.1738    174.38446 
136048000    321.99699    336.81683   -8575.6817    8547.1573    -14.81984 
136052000    385.52752    384.39563   -8566.7429    8577.6909    1.1318957 
136056000    240.19337    260.55741   -8566.6605    8592.8935   -20.364036 
136060000    263.71013    244.11053   -8565.3828    8603.4604    19.599604 
Loop time of 269.24 on 1 procs for 1600000 steps with 196 atoms

Performance: 641.806 ns/day, 0.037 hours/ns, 5942.650 timesteps/s
99.9% CPU use with 1 MPI tasks x no OpenMP threads

MPI task timing breakdown:
Section |  min time  |  avg time  |  max time  |%varavg| %total
---------------------------------------------------------------
Pair    | 79.666     | 79.666     | 79.666     |   0.0 | 29.59
Bond    | 134.31     | 134.31     | 134.31     |   0.0 | 49.88
Neigh   | 3.3082     | 3.3082     | 3.3082     |   0.0 |  1.23
Comm    | 0.47468    | 0.47468    | 0.47468    |   0.0 |  0.18
Output  | 0.0043502  | 0.0043502  | 0.0043502  |   0.0 |  0.00
Modify  | 49.977     | 49.977     | 49.977     |   0.0 | 18.56
Other   |            | 1.499      |            |       |  0.56

Nlocal:    196 ave 196 max 196 min
Histogram: 1 0 0 0 0 0 0 0 0 0
Nghost:    0 ave 0 max 0 min
Histogram: 1 0 0 0 0 0 0 0 0 0
Neighs:    3885 ave 3885 max 3885 min
Histogram: 1 0 0 0 0 0 0 0 0 0

Total # of neighbors = 3885
Ave neighs/atom = 19.8214
Ave special neighs/atom = 5.87755
Neighbor list builds = 15626
Dangerous builds = 0
unfix 1


# PRODUCTION

fix             1 all nve
fix             hot all langevin ${TThi} ${TThi}  50.0 52804  tally yes
fix             hot all langevin 320 ${TThi}  50.0 52804  tally yes
fix             hot all langevin 320 320  50.0 52804  tally yes
fix             cold all langevin ${TTlo} ${TTlo} 50.0 297859 tally yes
fix             cold all langevin 280 ${TTlo} 50.0 297859 tally yes
fix             cold all langevin 280 280 50.0 297859 tally yes
fix_modify      hot temp Thot
fix_modify      cold temp Tcold


variable        tdiff equal c_Thot-c_Tcold
thermo          4000

dump gigo all atom 40000 dump.cords_xyz.dat
dump_modify gigo scale no
dump vfgigo all custom 4000 dump.velo.dat id vx vy vz fx fy fz

# thermal conductivity calculation
# # reset langevin thermostats to zero energy accumulation
#
compute         ke all ke/atom
variable        temp atom c_ke/1.5/0.0019872

fix             ave all ave/time 100 40 4000 v_tdiff ave running
thermo_style    custom step temp c_Thot c_Tcold f_hot f_cold v_tdiff f_ave

#compute         layers all chunk/atom bin/1d z lower 0.05 units reduced
compute         layers all chunk/atom bin/1d z lower ${dz} units box
compute         layers all chunk/atom bin/1d z lower 4.1310649555631 units box
fix             2 all ave/chunk  100 40 4000 layers v_temp file profile.langevin

dump mydump2 all xyz 40000 prod-coord.xyz
dump_modify mydump2 element C S S

run             32000000
Per MPI rank memory allocation (min/avg/max) = 11.82 | 11.82 | 11.82 Mbytes
Step Temp c_Thot c_Tcold f_hot f_cold v_tdiff f_ave 
136060000    282.87368    263.71013    244.11053           -0           -0    19.599604            0 
136064000    248.18923     432.0469    178.35436   -21.773372    18.130001    253.69254    115.84369 
136068000    296.06292     275.8084    467.60293   -56.019087     40.96117   -191.79454    68.930458 
136072000    299.70222    498.71212      217.469   -76.514822    54.201669    281.24312    55.125056 
136076000    289.07551    479.93584    339.26197   -84.075874    81.028318    140.67387    55.880262 
136080000    280.40064    366.02014    252.91006   -114.24386    108.27849    113.11009    53.424625 
136084000    289.61632    324.47878     412.6956   -164.73779    153.25836   -88.216824    48.574581 
136088000    293.42874    698.03096    271.42694   -191.66831    178.96497    426.60402    52.621157 
136092000    300.76817      298.685    428.76311   -227.71428    202.50446   -130.07811    48.809932 
136096000    275.18305    490.33252    251.34831   -194.65745    212.98725    238.98421    46.762285 
136100000    271.64343    544.45686    258.54028   -212.52332    224.37548    285.91658       49.235 
136104000    306.13034    275.86621     416.8168   -237.26058    226.80157   -140.95058    51.281929 
136108000     271.2613    363.02816    266.59176   -251.97902    241.83085    96.436398    48.604504 
136112000    302.59661    277.44043    448.64378   -261.54496    248.22686   -171.20334    45.926005 
136116000    273.73795    288.32601    370.64396   -278.42456    265.19188   -82.317948    42.824551 
136120000    257.53459    245.55691    284.79047   -298.00153    312.53642   -39.233566    43.591296 
136124000    291.93095    267.07778    404.32504   -336.10485    327.24488   -137.24726    43.479452 
136128000    301.08194    473.10768    418.96182   -362.00551    358.98666    54.145866    41.360333 
136132000    280.30414    406.08705     302.3251   -378.59783    376.35562    103.76195    41.381484 
136136000    266.74289    469.88453    338.65774   -410.33308    409.92997    131.22678    41.045072 
136140000    277.28922    333.64363    438.54575   -425.85635    429.65391   -104.90212    40.326468 
136144000    262.84587    406.08836    304.39681   -434.14051    442.04818    101.69155    40.866394 
136148000     270.9824    345.26204    228.35841   -451.96576    465.63943    116.90363    40.887296 
136152000    285.10047    249.98993    436.09574   -451.67121    437.58159   -186.10581    41.343895 
136156000    258.83255     310.6749     209.6648   -462.02974    457.64041    101.01009    41.041727 
136160000    289.83073    370.39622    244.77917   -484.92227    477.43586    125.61705    42.245702 
136164000    287.47638    337.85849    293.03408   -494.99025    499.23605    44.824415    42.222729 
136168000    296.30624      510.742    193.57562   -568.73431    541.38826    317.16638    42.650437 
136172000    287.31293    359.93362    322.38304   -553.12085    546.47288    37.550576    42.164135 
136176000    268.72092    358.74671    493.26991   -577.31984    577.91076    -134.5232    42.424576 
136180000    247.57924    339.45533    251.73796   -569.63325     583.3071    87.717377    43.033168 
136184000    292.38848    447.80383    388.59821   -597.11153    597.32824     59.20562    42.895908 
136188000    276.03989    427.04161    236.76723   -619.34689    616.50296    190.27437    42.650225 
136192000    331.48881     619.0607    282.03206   -631.24506    617.88679    337.02863    42.095372 
136196000    259.86683    286.69992    194.19068   -634.08195    636.39879    92.509233    42.551209 
136200000    316.43273    235.68448    338.36442   -694.00842    661.38267   -102.67993    42.965637 
136204000    264.47933    416.04081    237.40048   -719.24221    719.12316    178.64033    42.986799 
136208000    247.12203    200.48017    217.66339   -744.89037    744.55562   -17.183214    41.738209 
136212000    300.11148      563.878    341.28735   -769.82729    764.38222    222.59066    41.968516 
136216000    260.83053    141.91613    82.001972   -755.10429    781.27664    59.914156    41.126783 
136220000     279.8492    293.46424     286.8557   -780.09746    778.85719    6.6085349    40.669517 
136224000    272.56628    530.37046    174.87466   -782.65027     791.4197    355.49579    39.416405 
136228000      259.833    320.12483    245.41003   -808.44779    814.23567      74.7148    39.701134 
136232000    277.67609     348.8075    222.61408    -845.0627    834.88687    126.19342    40.294036 
136236000    281.14595     311.1456    290.29081   -868.77882    852.53923    20.854786    40.304625 
136240000    287.55053    281.63369    197.47848   -887.83404    886.88312    84.155212    40.459359 
136244000    279.67256    362.65563    360.38693   -903.66087    891.14207    2.2687008    40.756797 
136248000    280.66039    287.42348    326.54066   -903.13413    893.82739   -39.117175    41.275248 
136252000     305.5788    350.66143     326.8102   -932.09937    891.56538    23.851231    40.764941 
136256000    302.00129    306.18281    393.96981   -938.29771    900.34238   -87.787001    41.506394 
136260000    296.38252    462.93029    345.07833   -943.30045    917.44196    117.85195    41.846455 
136264000    294.74028    294.95326    294.29718   -942.81517    922.89314   0.65608077    41.771333 
136268000    300.82431    495.01035    182.22228   -945.69715    923.28504    312.78807    41.499513 
136272000    277.40357    384.37386    339.71979   -950.35512    937.83534    44.654079    41.334936 
136276000    255.67658     247.8305    257.98632   -961.91404      956.984   -10.155826    41.416089 
136280000    294.91027    314.64242    376.79861   -992.76741    986.77391   -62.156194    41.489795 
136284000     289.3732    342.60942    600.66075   -1016.6549    1005.6538   -258.05133    41.346851 
136288000    296.86268    240.92613    419.28783   -1048.9248    1023.7895   -178.36169    41.012572 
136292000    274.66014    256.65179     529.1138   -1066.8784    1054.7832   -272.46201    40.587137 
136296000    299.82985    545.10073    252.91957    -1085.389    1060.5945    292.18116    41.019703 
136300000     309.3668    355.23098    384.09783   -1096.6214    1091.0811   -28.866849     40.52935 
136304000    315.81455    396.92481    334.54698    -1139.693     1100.503    62.377838    40.989929 
136308000    298.51993    470.86919    449.10535   -1146.2594    1128.1557    21.763839     40.62561 
136312000    292.27638    340.57723     396.9922   -1179.1138    1167.2926   -56.414965    40.041028 
136316000     306.9074    343.26628    458.99881   -1214.6842    1201.8114   -115.73253    39.533746 
136320000    280.60179    327.99965    340.66931   -1234.9185    1219.9352   -12.669654    39.090591 
136324000    290.30922    360.04427     359.3358   -1270.6907     1260.118   0.70846314     38.74476 
136328000    299.02949    267.04607    390.60638   -1273.9937    1264.1456   -123.56032    37.838836 
136332000    280.01584    328.08551    376.71264   -1287.3117    1280.9057   -48.627129    37.407203 
136336000    279.52995    497.42648    252.83303   -1290.9105    1284.0032    244.59345     37.28473 
136340000    275.90063    313.10617    243.27207   -1299.5587    1288.0325    69.834101    37.222264 
136344000    296.38888    419.34239    372.42715   -1314.0186    1294.4115    46.915244    37.311942 
136348000    301.03483     377.4707     351.2503   -1330.5979    1291.5827    26.220403    37.251236 
136352000    279.11773    416.56463    280.64566   -1346.3047    1341.6143    135.91897    37.541611 
136356000    280.63988     382.2107    260.51484   -1354.7804    1357.6398    121.69586    37.372309 
136360000    259.46035    287.16701    316.79022   -1351.4369    1364.6448   -29.623209    37.723269 
136364000    267.48156    359.78376    330.62271   -1379.2286     1376.994    29.161051    37.868292 
136368000    270.17843    179.77099    265.02801   -1412.8144    1411.7889    -85.25702     37.55223 
136372000     302.2439    343.91888     333.5179    -1445.328    1421.8165     10.40098    38.437956 
136376000    277.01841     303.3965    377.66086   -1461.3135    1450.5599   -74.264356    38.088581 
136380000    270.03821    538.49213    310.56956   -1507.6227    1497.8034    227.92256     37.90249 
136384000      262.094     514.0107    217.96256   -1522.5429    1521.9482    296.04814    38.226093 
136388000    275.33619    292.21559    379.31431   -1535.3857    1540.0495    -87.09872     38.58611 
136392000    275.65892     365.6334    412.49202    -1578.361    1575.2625   -46.858627    38.137481 
136396000    277.06235    423.27496    419.60744    -1593.109     1587.415    3.6675229      37.4965 
136400000    270.49378    326.98102    150.85641   -1609.5645    1615.3829    176.12461    37.484078 
136404000    291.47896    460.69449    293.21331     -1658.29     1635.167    167.48118    37.711883 
136408000     304.5499    329.98149    408.45284    -1686.828    1654.7514   -78.471352    37.871803 
136412000    282.62804    452.16368    277.84579   -1713.4375    1704.1152    174.31789    37.747224 
136416000    277.71926    240.94293    360.96961   -1729.3883    1735.8088   -120.02668    37.767763 
136420000    273.15325     264.5555    252.04375   -1741.9031    1735.7262    12.511745    37.451476 
136424000    252.11833    451.59419    222.34589    -1763.517    1770.8466    229.24831    37.609683 
136428000    285.47637    453.23291     471.8944   -1790.5029    1776.6767    -18.66149    37.734922 
136432000    310.87817    408.74294    387.72543   -1816.8167    1795.5011    21.017509    37.573537 
136436000     284.2835    288.04275    331.10414   -1834.2282       1808.8   -43.061392    37.909361 
136440000    285.95001     264.2635    326.46235   -1860.5998    1844.6858   -62.198859    37.537102 
136444000    284.27578    298.44184    354.95619   -1893.9027    1875.2081   -56.514349    37.341639 
136448000    291.35133    466.85525    311.72474   -1942.9326    1912.7177    155.13051    37.521098 
136452000    284.02994    341.65817    350.64068   -1969.0787    1957.6975   -8.9825126    37.560617 
136456000     266.0264    181.99022    187.51044    -1988.057    1987.5092   -5.5202227    37.804065 
136460000    280.10717    299.18688    253.40148   -2036.9207    2031.8945    45.785405    38.137458 
136464000    303.54798    323.70202    319.23633   -2071.3668    2049.1406    4.4656898    38.181233 
136468000     261.1785    266.73451    456.37811   -2039.9887    2059.1678    -189.6436    38.341642 
136472000    260.96937    569.60203    354.92498   -2069.4056    2068.8605    214.67705    38.098109 
136476000    286.87315    285.32861    351.74921   -2085.8754    2065.2295   -66.420594    38.002697 
136480000    279.46482    327.24096    395.98013    -2073.007    2076.8104   -68.739171    37.251885 
136484000     277.2956    353.92388    341.76711   -2091.8951    2082.2183    12.156779    37.454707 
136488000    299.28657    415.52398    277.43552   -2110.9182    2101.1372    138.08846    37.834993 
136492000    268.06029    450.15831    282.31199   -2147.9967     2130.534    167.84632    37.860613 
136496000    263.44417    424.15498     515.7102   -2147.9847    2161.2682   -91.555227    37.594302 
136500000    309.57695    543.35556    286.14562   -2193.6026    2169.3755    257.20994    37.554904 
136504000    287.34275    341.03801    277.56111    -2191.277    2180.3472    63.476893    37.371088 
136508000    266.01461    317.84181    298.65958   -2215.8732    2220.2103    19.182231    37.646662 
136512000    291.80995    488.91166    323.90868    -2248.703     2226.296    165.00297    37.900458 
136516000    301.52264    377.55667    265.29372   -2263.4142    2246.4791    112.26294    37.703325 
136520000    263.48074    284.47985    299.01231   -2282.2514    2279.0606   -14.532464    37.631631 
136524000    286.94166    475.44042    437.40538   -2304.3204    2306.3179    38.035031    37.816532 
136528000    286.41564    589.28658    321.43111   -2321.9947    2341.3479    267.85547    38.521085 
136532000    273.30352    448.55406    319.73088    -2352.889    2353.2196    128.82318    38.579368 
136536000    263.93495    305.98962     333.3936   -2381.2857     2367.899   -27.403982    38.051767 
136540000    259.64615    392.13399    222.75844    -2393.998    2404.7921    169.37555    38.083142 
136544000    297.67636     331.7668    271.60598   -2441.4236    2416.9877    60.160817    37.765479 
136548000    276.25436    495.08836    151.11553   -2458.7772    2451.6714    343.97284      37.8686 
136552000    317.11105     408.5325    324.51789   -2515.3687    2477.0251    84.014606    38.075574 
136556000    307.99788    330.09965    437.85268   -2548.3911    2512.6423   -107.75303    38.001124 
136560000    277.56225    536.93528    201.95064   -2585.0126    2572.8552    334.98463    38.344468 
136564000    302.36022    497.77634    216.11955    -2610.981    2580.3505    281.65679    38.563565 
136568000    290.14311    494.61645    418.49046    -2611.615    2603.6437    76.125994    38.484624 
136572000    279.65331    230.21583    271.87789   -2635.9755    2630.5207    -41.66206    38.568092 
136576000     288.6947    398.88526    274.32922   -2664.0989     2635.203    124.55604    38.972724 
136580000    281.41514     361.6759     430.1061   -2675.0119    2671.0661   -68.430197    39.183601 
136584000    288.02196     502.7097     270.4164   -2690.7036     2688.649     232.2933    39.089295 
136588000    279.86413    436.28276    268.12078   -2714.0923    2727.8933    168.16198    39.326087 
136592000    286.30605    363.95792    253.17178   -2723.1207    2716.5185    110.78614    39.176492 
136596000    289.57345    322.93978    299.20862    -2734.189     2734.672    23.731165    39.616844 
136600000    271.80949    374.41865    647.61216   -2762.3655    2755.3917   -273.19351    39.476194 
136604000    267.92525    259.85009    558.82193   -2798.5714    2801.0232   -298.97184    39.251321 
136608000    260.26483    204.99045     407.1123   -2803.5707    2813.7944   -202.12185    39.498458 
136612000    300.73721    331.39789    266.96554   -2823.0254     2809.106    64.432351    39.247329 
136616000    325.22648    421.64187    581.62548   -2856.9182    2814.6553   -159.98361    38.991298 
136620000    290.94119    624.75418    376.34059    -2856.864    2842.2583    248.41359    39.242765 
136624000    294.05259    296.06348    350.17753    -2872.019     2846.292   -54.114053     39.28417 
136628000    274.55243    245.08771     334.4402   -2872.1852    2880.0916   -89.352489    39.001376 
136632000    288.66462    437.41386    234.37193   -2917.2664    2896.7854    203.04193    38.701858 
136636000    320.52667    395.99076    363.75418    -2924.885     2896.928    32.236575     38.92941 
136640000    286.61986    163.89418    228.70439   -2950.5303    2925.3765   -64.810212    38.637717 
136644000    302.83739    266.86115    296.25424   -2978.8284    2946.7951   -29.393098    38.600584 
136648000    298.47428    437.25941     230.5614    -2984.838    2991.6063    206.69801    38.569373 
136652000    315.82077    772.82607    378.40188   -3015.0381    3001.6363    394.42419    38.668131 
136656000    281.95741    314.15533    243.49346   -3044.7875     3027.048    70.661872    38.769799 
136660000    295.66811    204.00872    380.39865   -3095.3757     3062.589   -176.38993    38.981943 
136664000    269.63309    457.60848    162.61105   -3104.9081    3112.6108    294.99743    39.041681 
136668000    291.79622    302.57071    386.47674   -3135.7005    3104.2441   -83.906026    38.945811 
136672000     309.9762    436.42101    186.44517   -3166.7903    3121.5846    249.97584    38.928279 
136676000    302.83157    269.42837    375.13322   -3174.0399    3141.2287   -105.70485    38.772523 
136680000    286.94269    324.75184    268.70381   -3183.4691    3170.0998    56.048032    38.777414 
136684000    273.04112    256.53861    214.02827   -3182.2131    3191.1611    42.510337    38.728687 
136688000     304.7822    642.88417    642.71048   -3201.6267    3181.1793   0.17368889    38.915736 
136692000    297.51005    295.27064    424.22475   -3214.3877    3189.6928   -128.95411    39.038254 
136696000     260.5465    372.08081    161.83077   -3233.5812    3232.6973    210.25004    39.261894 
136700000    285.57729    355.27896    339.14974   -3261.7582    3250.7851     16.12922    39.094495 
136704000    284.98111    280.92253    222.88019   -3255.5875    3248.8777    58.042346    38.997001 
136708000    302.63006    423.02559    377.46893   -3272.1814    3244.7246    45.556656    39.035939 
136712000     285.3714    261.22181    359.19031    -3283.677    3261.2154   -97.968499     38.85098 
136716000    293.39414    259.33843    253.28245   -3295.3877     3264.898    6.0559815    38.854638 
136720000    274.50413    335.48919    188.12252   -3338.2406    3314.8022    147.36667      38.7572 
136724000    279.18826    447.27285     231.6482   -3369.3974    3361.4012    215.62465    38.805878 
136728000    297.46315    552.06364    296.46732   -3375.4112    3350.0874    255.59632    38.719982 
136732000    281.52705    477.48892    506.09651   -3387.1086    3367.2567   -28.607591    38.619299 
136736000    278.55603    209.61644    189.36321   -3424.8938    3405.4987     20.25323     38.59707 
136740000    325.56457    270.14792    391.39935   -3476.3532    3424.0349   -121.25143    38.672843 
136744000    294.37467     212.1971    360.73449   -3512.4929    3476.3159   -148.53739    38.523054 
136748000    304.58136    311.47414    144.71867   -3523.1623    3494.5225    166.75547    38.696505 
136752000    304.07593    366.56169    433.40603    -3540.107    3497.7024    -66.84434    38.879639 
136756000    282.95636    523.77118    236.28961   -3548.3679    3534.2973    287.48158    39.193663 
136760000    289.38592    372.30755    410.34502   -3559.6089    3559.7244   -38.037476    39.230283 
136764000    281.85409     372.6958    373.70235   -3599.9533    3564.5513   -1.0065462    39.386891 
136768000    276.44112    296.75013    288.65169   -3593.6177    3588.7107    8.0984437    39.369919 
136772000    265.48701    336.12544    288.63073   -3634.1395    3634.2127    47.494709    39.586513 
136776000    300.06234    311.49351    422.32063   -3650.1555    3634.5777   -110.82712      39.6357 
136780000    275.19347    454.74084    306.59131   -3682.6621     3671.755    148.14953    39.828923 
136784000    277.08063    446.16503    261.03107   -3718.3216    3716.6042    185.13397    39.862862 
136788000    311.04843    418.59337    287.52007   -3745.9729    3726.9164     131.0733    39.733383 
136792000    295.16868    462.05469    478.25515   -3769.6007    3754.3288    -16.20046    39.868437 
136796000    289.88804    538.84529    533.60867    -3786.886    3783.4432    5.2366243    39.820157 
136800000    313.14296    471.67633    203.21334   -3843.7752    3802.2539    268.46299    39.703359 
136804000    272.13994    330.31452    316.06068   -3837.1481    3823.5398    14.253844    39.653769 
136808000    279.15583    336.76373    285.11609   -3861.8805    3848.6698    51.647642    39.575265 
136812000    280.89348    397.83782    375.45939   -3884.4808    3879.0106    22.378429    39.405543 
136816000    304.05555    342.45019    314.22882   -3898.1682     3884.675    28.221368     39.50752 
136820000    288.91213    337.47064    176.65538   -3913.5395    3897.9628    160.81526    39.429458 
136824000    268.26589    262.81023    290.27191   -3946.5667    3951.9055   -27.461675    39.441122 
136828000    317.22465    320.39212    321.48032   -3967.6237    3937.8425   -1.0881979    39.546764 
136832000    287.51656    441.54963    310.63711   -3952.2481    3946.9692    130.91252    39.614861 
136836000    274.60118    223.85121    322.99929   -3977.1135    3958.6046   -99.148081     39.56757 
136840000    272.27968    378.43866    271.79684   -3982.6575    3980.0086    106.64181    39.733298 
136844000    280.35213     551.9181    357.73928   -4014.1461    4003.4918    194.17882    39.617868 
136848000    278.91971    287.46315     236.7352   -4036.0106    4007.9088    50.727952      39.4777 
136852000    302.56742    242.74595    248.90973   -4035.6747    4024.1306   -6.1637831    39.383255 
136856000    267.01414    313.69282    364.84227     -4040.15    4043.3432   -51.149452    39.315383 
136860000    272.44171    333.12431    373.88042   -4086.5796    4086.6032   -40.756106    39.252466 
136864000    321.36041     472.8679    542.10669   -4144.1727     4088.327   -69.238796     39.27974 
136868000    288.92038    280.41325    522.02912   -4150.3174    4121.8105   -241.61587    39.328396 
136872000    259.48485    278.77299    270.75423    -4163.074    4167.7096    8.0187687    39.245633 
136876000    277.18932     293.1831    372.84795   -4193.1638    4196.7273   -79.664849    39.162895 
136880000    309.83059    457.15071    440.82266   -4228.0474    4197.9098    16.328048    39.277784 
136884000     297.9605    311.52903     279.8401   -4219.7108    4200.3099     31.68893    39.323771 
136888000    319.34717    276.95144    325.34129   -4255.1831    4223.6678   -48.389849    39.178354 
136892000    287.01617    291.39187    483.61101   -4261.0518    4254.6532   -192.21914    39.148073 
136896000    301.25794    372.35576    491.72945   -4310.6631    4289.6607   -119.37369    39.063908 
136900000     307.2572    532.61721    250.21795   -4336.3957    4307.2495    282.39926    38.945771 
136904000    307.38991    330.58736    380.77986   -4347.1586    4336.7475   -50.192502    38.937777 
136908000    289.48954    379.67091    240.44227   -4381.7773    4369.1882    139.22865    39.030112 
136912000    324.63198    251.07093    133.11867   -4434.5537    4409.0744    117.95226    39.026091 
136916000    294.99138    308.15027    301.92866   -4452.1749    4430.3056    6.2216176    38.856238 
136920000    324.14901     530.7095    356.90926    -4495.438    4460.3908    173.80024    38.785993 
136924000    284.18965    227.47513    378.77133   -4497.3332    4490.3078    -151.2962    38.878386 
136928000    264.24873     351.1137    242.82589   -4513.0427    4520.0652    108.28781    38.976583 
136932000     298.7188    458.41812    386.39962   -4530.3841    4521.0091    72.018496    38.872306 
136936000    283.68288    340.33215    242.42465    -4552.281    4552.2201    97.907492    38.745081 
136940000    288.66934    569.72073    335.78583   -4582.4378    4569.1328     233.9349    38.707579 
136944000    266.07239    355.27239    349.32957   -4590.9688     4601.481    5.9428207    38.659943 
136948000    286.27129    453.76766    398.86542   -4620.3711    4618.3259    54.902233    38.693252 
136952000    276.80667    293.84209    297.91202   -4660.5059    4650.9449   -4.0699297    38.621515 
136956000    255.52102    220.49269    289.13045   -4667.5356    4678.3869   -68.637763    38.494841 
136960000     305.8095    405.93037    274.23553    -4699.398    4683.9514    131.69484    38.426706 
136964000    267.85769    213.30776    418.26022   -4715.2262    4712.3258   -204.95245    38.386483 
136968000    307.62484    408.99608    419.36057   -4746.7005    4723.2981   -10.364487    38.327039 
136972000    262.55038    499.58101    193.01774   -4784.3854    4782.7549    306.56327    38.411195 
136976000    273.61781    213.83811    357.35503   -4778.9738    4777.2632   -143.51692     38.28226 
136980000    258.43306     332.2127    321.24481   -4796.7014    4794.4314     10.96789    38.267217 
136984000    255.72687    318.88861    270.99585   -4794.2434    4822.3672     47.89276    38.325413 
136988000     258.0067    407.50566    326.38535   -4824.1731    4831.2397    81.120307    38.211466 
136992000    273.85623    357.33573    351.82415   -4845.3047    4851.7172    5.5115822    38.175161 
136996000    287.16818    310.34894    345.22355    -4889.717    4878.6805   -34.874609     38.05454 
137000000      273.024    212.86936    335.50334   -4916.0962    4906.1658   -122.63398    37.936358 
137004000    315.94915    481.66364    270.58263   -4945.3695    4904.2914    211.08101    37.917689 
137008000    321.32391    565.81763    431.73309   -4971.3149    4939.3949    134.08454    37.961054 
137012000    270.85697    325.11557    227.33899   -4962.9938     4959.106    97.776579    37.914937 
137016000    283.61475    318.81732    199.79414   -4974.2867    4972.1252    119.02318    37.847794 
137020000    279.47122    397.44422    464.60029   -4998.8708    4989.4755    -67.15607    38.002591 
137024000    264.64272    334.11738     229.0216    -5021.555    5029.3573    105.09578    38.002632 
137028000    262.16048    261.17132    244.85631   -5046.8419    5055.8534     16.31501    37.915325 
137032000    286.46262    647.55936    177.24773   -5092.3168    5059.7884    470.31162    38.058037 
137036000    287.93064    442.01573    214.65724   -5119.3106    5102.7831    227.35849    38.065689 
137040000      289.249     333.0449    216.09985   -5126.8799     5124.666    116.94505    38.138159 
137044000    285.76035    390.27461    359.11506    -5151.468    5137.6917    31.159553    38.162297 
137048000    269.89592    271.89458    152.13752   -5196.3088    5185.3509    119.75706    38.193168 
137052000    281.21201    309.89968    330.62795   -5209.6066     5211.898   -20.728268    38.277528 
137056000    286.38468     314.6974    430.40496   -5241.3742    5224.4396   -115.70756    38.133786 
137060000    265.10145    353.83822    261.91275   -5258.5618    5265.8797    91.925475    37.996305 
137064000     287.2881    538.47364    469.12389   -5277.2517    5257.0308    69.349751    37.695218 
137068000    272.98409    309.57619    326.12415   -5278.7376    5277.2775   -16.547962    37.739218 
137072000     295.0388    411.64459    386.88715    -5293.263    5277.7284    24.757447    37.962149 
137076000     264.5683    206.68364    286.34553   -5279.8317    5276.2337   -79.661891    38.108534 
137080000    311.64153    222.23311    225.15021   -5304.3977         5273   -2.9170991    38.060633 
137084000    296.95135    310.45325    389.35149   -5315.3417    5310.9002   -78.898238    37.892589 
137088000    290.86425    322.14308    190.25675   -5355.0925    5329.7862    131.88632    38.012715 
137092000    269.76575    617.88878    297.00467   -5337.2674    5341.0125    320.88411    38.115802 
137096000    276.91413    275.41039    292.72851   -5337.8448    5351.3003   -17.318123    38.124029 
137100000    298.01024    487.61935    440.55605   -5366.1182    5349.7414    47.063296    38.195777 
137104000    253.20859    301.25542    183.27825   -5391.4412    5402.1941    117.97717    38.173012 
137108000    259.06177    180.67726    273.79047   -5403.1992    5415.0538   -93.113209    38.279585 
137112000      275.743    435.77326    327.46441   -5428.5208    5426.1963    108.30885    38.407483 
137116000    290.84586    259.40751    355.17017   -5455.6537    5453.1866   -95.762663    38.443467 
137120000    282.46219    416.61047    365.96698   -5494.1813     5464.529    50.643488    38.304581 
137124000    283.48384    455.45251    220.25125   -5490.7388    5490.9378    235.20125    38.217647 
137128000     254.7852    397.17654    316.88654   -5490.9764     5515.744    80.289998    38.233491 
137132000    274.35705    393.15376     248.6694   -5534.5647    5535.6956    144.48436    38.280871 
137136000    299.97381    416.51454    320.76113   -5557.8237    5550.3286    95.753414    38.233965 
137140000    294.69854    435.32547    260.60464   -5575.0452    5559.1476    174.72083    38.142136 
137144000     279.1203    166.76446    288.47209   -5597.7493    5582.0684   -121.70764    37.922139 
137148000    282.59403    345.42761    291.40468   -5612.9235     5607.429    54.022929    37.904303 
137152000    269.78887     237.5307    469.03232   -5633.7852    5619.7807   -231.50162    37.799694 
137156000    255.96595    283.23553    305.83277   -5674.1815    5668.0181   -22.597231    37.928191 
137160000    284.35438    350.01041     334.4496   -5710.9158    5697.5791    15.560808     37.88827 
137164000    319.40882    403.84931    465.10516   -5736.6811    5704.3384   -61.255849    37.921288 
137168000    277.18034    275.33945    345.26846   -5725.1276    5730.6487   -69.929009      37.8612 
137172000    289.12083    249.23224     378.9375   -5788.2272    5778.0607   -129.70526    37.766425 
137176000     299.1113    322.32788    414.93715   -5794.6828     5804.476    -92.60927    37.808042 
137180000    292.24765    232.54346    438.68807   -5810.8145    5817.9246    -206.1446    37.804979 
137184000    289.27383    307.63627    444.64442   -5869.8629    5844.3857   -137.00815    37.823512 
137188000    269.40982    248.43328    282.26287   -5876.0493    5884.6621    -33.82959    37.862733 
137192000    289.39421    390.97214    288.29975   -5903.8118    5909.7405    102.67239    37.866203 
137196000    293.71169    405.48554    310.99554   -5927.2022    5914.3476    94.490005    37.903867 
137200000    293.18582    458.29013    478.04386   -5943.7437    5929.0319   -19.753733    37.819123 
137204000    259.25443    251.73262    278.32876   -5975.5929    5976.0754   -26.596147    37.914023 
137208000     278.4178    213.65122    374.88277   -5997.7449     5993.618   -161.23155    37.887592 
137212000    251.41176    312.57173    240.27528   -6020.7198    6010.7445    72.296454    37.878109 
137216000    285.03167     452.4632    329.00571   -6043.7986    6031.9701    123.45749    37.893768 
137220000    262.84316    318.84351    420.41639   -6052.2425    6055.6687   -101.57289    37.754557 
137224000    307.08862    331.36379    278.82622   -6090.0142     6079.018    52.537574    37.753484 
137228000    307.01751    327.27369    470.17203   -6126.0272    6098.5716   -142.89834    37.762435 
137232000    314.66649    257.32918    242.50008   -6140.3173     6121.379    14.829097    37.789113 
137236000    278.26685    214.41695    296.12784   -6146.5333    6138.7445   -81.710892    37.747889 
137240000      298.241    329.37439    256.12373   -6180.1986    6178.2012    73.250661      37.7983 
137244000    287.50846    308.25455    309.70419   -6180.1464    6171.8714   -1.4496336    37.803943 
137248000    298.18099    457.59822    406.46919   -6214.5355    6196.4631    51.129031    37.866875 
137252000    297.20867    385.61186    464.79941   -6239.0431    6199.9262   -79.187551    37.906657 
137256000    280.50502    326.00372    340.29798   -6251.0822    6241.4194   -14.294265    37.999977 
137260000     303.4416    472.12474     405.5949   -6309.2458    6284.7353    66.529839    38.152332 
137264000    256.08807    317.00346     245.3339   -6336.9872    6340.3888    71.669556    38.261317 
137268000      286.537    191.18614    312.35108   -6355.8066    6351.7479   -121.16494    38.207259 
137272000    281.96766    152.90618    396.15637   -6369.9829    6367.7272   -243.25019     38.03022 
137276000    279.54035     502.8558    319.72617   -6394.3795    6393.5044    183.12963    38.067593 
137280000    284.84051    385.66659     443.5335   -6405.0724    6381.6766    -57.86691     38.11324 
137284000    325.37572    401.86952     331.7028   -6429.4354    6390.8116    70.166727     38.04502 
137288000    315.14973     613.6406    319.46243   -6436.0788    6402.7018    294.17817    38.046524 
137292000     308.6431    565.99025    263.99451   -6453.8895    6443.0655    301.99574    38.101694 
137296000    285.92639    318.96873    293.99699   -6482.3251    6463.8595    24.971744     38.14704 
137300000    255.85771    353.60832    373.89696   -6474.9062    6485.2453   -20.288642    38.197981 
137304000    288.89091    320.98382    613.30847   -6504.5006    6499.1781   -292.32466    38.292516 
137308000    292.82354     175.1163    523.30573    -6555.046    6539.2554   -348.18943    38.244271 
137312000    288.91024    176.47224    269.40023   -6560.4263    6550.0143   -92.927986    38.205807 
137316000      254.085    223.94262    258.92773   -6550.2524    6571.9396   -34.985108    38.184004 
137320000    274.35795    351.27147     238.3827   -6582.4046    6575.3829    112.88877    38.145135 
137324000    286.20132    214.98089    211.83153   -6617.5234    6621.1996    3.1493643    38.086557 
137328000    258.00833    342.06585    423.95828   -6627.1412    6632.6048   -81.892428    37.925901 
137332000    290.71311    567.85301    431.41079   -6647.9649    6637.8622    136.44222    37.905589 
137336000    276.32412    254.50267    464.13346   -6677.8685    6663.1426    -209.6308    37.880686 
137340000    304.05462    483.31628    319.75015   -6678.7645    6665.5275    163.56613    37.882226 
137344000    303.81612    293.31103     483.3964   -6691.8654    6683.9872   -190.08537    37.993693 
137348000    275.07528    347.90037    320.29586   -6701.9401    6710.4854    27.604512    37.982565 
137352000    287.76704    313.88203    347.27831   -6729.4527    6731.0691   -33.396278    37.953129 
137356000    274.57048    208.75567    256.92412    -6741.957    6742.9305   -48.168446    37.990423 
137360000    286.58469     280.9863    241.36339   -6773.2133    6749.6311    39.622914    38.013529 
137364000    291.01328    326.51241    174.63773   -6779.4518    6796.9736    151.87468    38.055387 
137368000    288.49412    357.81603    300.61128    -6821.292    6823.3415    57.204755    38.011473 
137372000    307.32718    307.01039    211.22516   -6820.1235    6805.7373    95.785238     38.01132 
137376000    288.03948    279.69999    421.39276    -6857.292    6841.3619   -141.69278    38.031878 
137380000    294.39481     480.6734    222.98517   -6906.3604    6891.4228    257.68823    38.129729 
137384000    288.38818    258.02696    472.96666   -6905.5354    6910.0926    -214.9397    38.080963 
137388000    283.77066    351.07942    231.30333   -6961.1043    6949.9878    119.77609    38.007646 
137392000    276.32468    298.55954     255.1024   -7006.2523    7003.2209    43.457133    37.967508 
137396000    275.21925    255.45812    416.51858   -7028.3667    7035.0059   -161.06046    37.881098 
137400000    293.47346    324.27174    338.63429   -7063.1355    7050.2888    -14.36255    37.930635 
137404000    297.07111    569.24678    277.46151   -7092.5435    7077.9999    291.78527    37.907093 
137408000    284.10475    518.07357     279.4256   -7095.0628     7097.616    238.64797    37.812549 
137412000    291.20047     437.9926    406.42408   -7146.7866    7131.0323    31.568526     37.92502 
137416000    292.11513    325.90746    377.72927   -7187.9752    7166.4002   -51.821805     37.94724 
137420000    276.43812    468.28032    221.82311   -7230.3094    7214.2746     246.4572    37.959721 
137424000    297.14107    219.70462    313.72004   -7227.8381    7208.6958   -94.015426     37.99602 
137428000    271.40348    585.25523    351.31648   -7239.8999     7232.636    233.93875    37.939342 
137432000    294.88513    209.13186    504.98424   -7261.4487    7258.4681   -295.85238    37.964428 
137436000    302.99894    392.32684    239.75697   -7301.5421    7274.2523    152.56987    37.911399 
137440000    275.43186    422.42013     156.0698    -7318.627    7325.3326    266.35033    37.957296 
137444000    273.09732    351.41452     182.5039   -7343.3579     7324.091    168.91063    37.960693 
137448000    261.55231     247.2337    519.75078   -7376.7188    7391.9683   -272.51708    38.001905 
137452000    305.06333    514.52393    329.49672   -7411.7896    7394.7167    185.02721    38.008436 
137456000    292.58495    450.17443    305.80797   -7404.3968     7398.305    144.36646    37.951703 
137460000    283.84971    381.98347    514.99224   -7439.0974    7424.5437   -133.00877    37.819589 
137464000    301.63566    464.88783    366.36481   -7454.0883     7424.387    98.523025    37.760605 
137468000    292.29799    324.75681    488.45967   -7492.5085    7480.2263   -163.70287    37.823031 
137472000    288.35478    334.36239    209.03875   -7512.7071    7512.8734    125.32364    37.862318 
137476000     252.8842    214.38291    271.44884   -7541.3731    7546.2391   -57.065928    37.820536 
137480000    280.60301    282.54255    401.76941   -7572.1516    7571.6014   -119.22686    37.851819 
137484000     326.2374     366.2595     446.6914   -7630.9869    7599.1104   -80.431897    37.817136 
137488000    283.14405    307.46417    288.73927   -7661.3036    7640.8871    18.724891    37.877395 
137492000    287.08406    236.59271    286.36153   -7683.7985    7679.0339   -49.768827     37.89296 
137496000    279.67906    447.37051    418.36317   -7721.5096    7722.5423    29.007344    37.823095 
137500000      271.405    396.75217    292.87753   -7757.5117    7755.5308    103.87463    37.724405 
137504000    267.20489    375.36887    164.51811   -7780.4569    7785.9345    210.85075    37.751725 
137508000    274.82962    357.93376    349.24952   -7793.7595    7799.4087    8.6842418    37.816379 
137512000    284.80291     547.8105    262.40818   -7823.4107    7814.3589    285.40232    37.825006 
137516000    293.24611     356.7729    523.12965   -7832.0838    7830.0236   -166.35675    37.726226 
137520000    275.23558    249.55056    288.49584   -7852.0428    7846.9841   -38.945282    37.827794 
137524000    299.15545    498.87312    267.02919   -7856.2157    7847.9439    231.84394    37.803907 
137528000    304.75772    372.52827    352.89583   -7897.8981    7877.4656    19.632442    37.771265 
137532000    271.37603    368.58623    442.58011   -7903.0425    7891.4558   -73.993882    37.788215 
137536000    278.16118    324.04004    302.77053   -7909.1703    7906.8528    21.269508    37.773878 
137540000     260.2698    258.87992    445.55842   -7915.7729    7925.4868    -186.6785    37.767886 
137544000    271.97591    428.90114    289.80778   -7953.6342    7942.6349    139.09336    37.676362 
137548000    322.60148    530.45954    515.08989   -7982.7759    7949.5887    15.369651    37.712559 
137552000    301.67491    398.85841    374.21762   -8014.7137     7976.947    24.640783    37.747796 
137556000    301.23513    449.84244    234.41585   -8026.9418    8010.4212     215.4266    37.792385 
137560000    282.49949    535.20008    265.03699   -8056.1508    8031.2109    270.16309     37.88889 
137564000    298.55253    429.03882    433.01021   -8048.4788    8044.5282   -3.9713893    37.854651 
137568000    292.35314    327.07605    273.36418   -8072.7459      8066.21    53.711868    37.836146 
137572000    288.01516    404.78562     320.7159   -8094.7703    8079.2813    84.069714    37.773141 
137576000    274.81104    478.69747    523.36854   -8132.0758    8106.8163   -44.671072    37.767061 
137580000     269.4743    250.73251    192.28184   -8142.4891    8124.2873    58.450668    37.814899 
137584000    314.73758    377.79531    281.52523   -8172.9916    8160.2266    96.270074    37.790951 
137588000    298.30397     185.9109    244.77178   -8192.0664    8179.0457   -58.860875    37.805438 
137592000    290.31867    356.16586    204.17968    -8232.538    8225.9843    151.98617    37.836415 
137596000    305.16705    451.74865    286.18557   -8259.3897    8240.1812    165.56307    37.828775 
137600000     288.0902    380.04987    209.44414   -8279.1383    8267.0056    170.60573    37.833019 
137604000    273.14242    334.19796     311.6407   -8283.4534    8273.0986    22.557252    37.932887 
137608000    319.58378    209.60879    615.89097   -8308.2227    8288.8123   -406.28218    37.902825 
137612000    276.51448    415.78494    187.16554    -8311.239    8324.0935     228.6194    37.838188 
137616000    281.19802    363.54613     344.0881   -8329.3215    8316.2902    19.458029    37.797405 
137620000    322.61979    318.39946    443.55628   -8348.9046    8314.0194   -125.15682    37.853204 
137624000    271.04024    257.24003    195.52014   -8346.3414    8341.7561    61.719895    37.896889 
137628000    280.54686    624.52614    244.05095   -8380.1322    8360.3048     380.4752    37.957457 
137632000    292.43281    379.33005    371.22106   -8401.8233    8389.5389    8.1089907     37.88432 
137636000    283.72563    305.39072    347.43503    -8427.208    8425.3321   -42.044304    37.871348 
137640000    305.25702     468.3195    310.89542   -8472.0187     8440.728    157.42408    37.806328 
137644000     287.8882    267.37697    374.89012   -8487.6271    8458.5191   -107.51315    37.712006 
137648000    273.98673    508.19714    214.03432   -8502.5869    8511.7743    294.16283    37.738762 
137652000    281.71774    307.96571      414.015   -8510.2334    8520.7148   -106.04929    37.807394 
137656000    263.55233    398.57095    425.47926   -8562.5788    8584.0089   -26.908309    37.840149 
137660000    276.71485    255.73234    379.36683   -8596.9075    8595.5213   -123.63449    37.802396 
137664000     290.8316    443.65014    179.35027   -8639.4524     8622.646    264.29988    37.824985 
137668000    306.35099    330.56993    243.25694   -8645.9034    8624.7993    87.312985    37.782543 
137672000    290.38294    417.79347      173.186   -8666.9862    8657.7463    244.60747    37.857326 
137676000     285.2697    470.45177    338.81406    -8675.417    8667.2225    131.63771    37.800163 
137680000    289.37824    543.91602    383.56532   -8685.4164    8670.5915     160.3507    37.873559 
137684000    296.35339    450.48122    293.08131   -8705.9796    8693.2443    157.39991    37.820598 
137688000    297.75615    351.83521    154.88221   -8731.8863    8716.2986      196.953    37.752253 
137692000    273.29856    279.72373    193.79579   -8750.3272    8751.8303    85.927939    37.638006 
137696000    328.69034     398.3759    391.59086   -8784.3128    8757.0404    6.7850414    37.622805 
137700000    252.89091    347.80297    190.33414   -8780.6406    8781.8449    157.46884     37.62859 
137704000    302.75172    320.06146    207.86815   -8789.4665    8784.7227    112.19331    37.534197 
137708000    297.59174     460.1747    346.68757   -8809.0321    8794.1696    113.48713     37.56724 
137712000    288.95492       366.91    422.90259   -8833.6853    8826.4137   -55.992584    37.524884 
137716000    257.73018    277.82872    318.39565   -8849.0445    8859.5796   -40.566932    37.490917 
137720000    272.45705    495.01107    329.31921   -8886.4421    8873.3316    165.69185    37.496985 
137724000    260.25121    381.84438    410.83258    -8887.828    8900.9693   -28.988199    37.432113 
137728000    285.95392    310.30303    268.91073   -8902.0772    8897.9831    41.392301    37.488698 
137732000    313.09867    539.69964    298.10377   -8926.0701    8919.2079    241.59587    37.497213 
137736000    285.50308    532.62517    304.55333   -8930.7355    8918.1402    228.07184    37.486488 
137740000    266.31509    227.64689    375.59956   -8943.5921    8962.7244   -147.95267    37.469764 
137744000    276.89359    404.16881    286.36528   -9016.1275    9003.6223    117.80353    37.447675 
137748000    300.08417    525.42175    194.78672   -9040.1016    9028.4173    330.63503    37.504843 
137752000    272.41388    436.56501    320.18904   -9029.5568    9035.9373    116.37597    37.593593 
137756000    264.61876    384.40757    489.09129   -9043.5238    9048.4226   -104.68373    37.511407 
137760000    303.12687    276.47792    464.92479   -9054.8226    9041.1025   -188.44686    37.431334 
137764000    262.88327     404.8971    198.53677   -9073.5879    9079.9061    206.36033    37.466126 
137768000    286.39099    406.94134    361.80795   -9101.5081    9092.0403    45.133388    37.453973 
137772000    264.08726    363.86557     274.5843   -9119.5601    9116.5293    89.281268     37.47699 
137776000    284.20042    381.39761    255.82175   -9138.4537    9135.4239    125.57586    37.479347 
137780000    289.26367    386.04422    513.77434   -9174.4164    9145.6203   -127.73012      37.5005 
137784000     296.7973    343.35247    338.63905   -9193.3377    9179.2367     4.713422    37.589192 
137788000    277.20158     357.9925    297.28513   -9221.4808    9212.6908    60.707365     37.53514 
137792000     319.5333    462.69628    357.49137   -9240.0539     9212.219    105.20491    37.650001 
137796000    257.30574    448.70138    146.79948   -9215.7929    9225.5955     301.9019    37.683929 
137800000     251.9214    213.45288    251.27387   -9237.1249    9255.8012   -37.820991    37.687068 
137804000    302.16145    239.22752    330.99321   -9280.2079    9266.3078   -91.765689     37.68463 
137808000    298.13604    361.83463    317.69355   -9282.8964    9275.1715    44.141078    37.699571 
137812000    322.04882    415.92124     455.4288   -9323.3551    9292.1426   -39.507562    37.742324 
137816000    298.62077    419.73575     439.0156   -9334.0117    9327.0471   -19.279849    37.697206 
137820000    270.18251     181.6927    241.97827    -9376.562    9355.7805   -60.285578    37.764595 
137824000    293.74258    379.75389    212.86041   -9391.8795    9395.6277    166.89348    37.657665 
137828000    263.96465    336.87354    400.24123   -9424.8312    9417.8016   -63.367689    37.641097 
137832000     267.2982    292.12312    321.79616   -9449.8397    9448.8053   -29.673037    37.600344 
137836000    238.21806    262.28528    224.83208   -9466.0495    9486.9044    37.453195    37.613144 
137840000    264.41296    386.90909    291.16661   -9484.2629    9479.2233    95.742478    37.578876 
137844000    299.93772    652.03323    334.48679   -9486.2505     9463.539    317.54644    37.625121 
137848000    278.33048    327.81744    266.44708   -9483.8057    9491.7612    61.370365    37.601666 
137852000    286.34188    445.67114    321.45366   -9472.9704    9476.6825    124.21748    37.563197 
137856000    262.26419    324.00544    190.07067   -9494.0837    9493.2419    133.93477     37.58391 
137860000    285.63572    569.55798    290.30593   -9541.6993     9528.689    279.25205    37.702343 
137864000    268.21114    312.17928    339.51504   -9560.2284    9563.6573   -27.335763    37.653003 
137868000    288.85754     320.5531    166.88138   -9604.4026    9570.8493    153.67172    37.671501 
137872000    254.79576     431.9675    283.47751   -9609.2482    9609.2204    148.48999    37.675139 
137876000    266.06577    330.17881    300.61852   -9626.2949    9638.8562    29.560283    37.697688 
137880000    265.17854    649.21261    319.28877   -9671.2805    9682.0692    329.92384    37.703718 
137884000    283.68828    618.30605    296.77658   -9718.4964    9717.6611    321.52947     37.65652 
137888000    272.32936     336.9018    204.44711   -9743.3811    9751.6982    132.45469    37.623931 
137892000    290.05176    483.51914    249.24295   -9784.0288    9776.4687    234.27619    37.587143 
137896000    320.65631    394.93895    288.49522   -9826.5792    9792.7968    106.44373    37.533776 
137900000     278.7282    393.80999    352.18494   -9823.5218    9819.5586    41.625049    37.551844 
137904000    288.31698    196.07252    467.42059   -9833.0748    9840.2427   -271.34807     37.41778 
137908000    269.53464    309.94169    244.65243   -9840.0651    9852.9401    65.289255    37.347745 
137912000    289.86108    268.10941    279.64939   -9844.8035     9829.601   -11.539974    37.322608 
137916000    280.96299    343.92015    429.17414   -9835.7107    9838.7988   -85.253992    37.322542 
137920000    293.71713    566.95849    401.00594    -9858.905    9850.0816    165.95255    37.299584 
137924000    261.50189    241.85518     281.7856    -9871.107    9877.4329    -39.93042    37.212209 
137928000    282.93479    259.90521    434.87293   -9899.4606    9897.7458   -174.96772    37.268653 
137932000    293.62984    308.83659    294.77845   -9921.8304    9897.3375    14.058143    37.220758 
137936000    263.54959    398.24808    231.60123   -9931.4908    9930.0923    166.64685    37.267391 
137940000    264.09855    444.53251     231.6317   -9968.8631    9965.9647    212.90081    37.308748 
137944000    271.49688    305.61913     213.7959   -9981.0669    9975.2222    91.823232    37.316466 
137948000      269.065    263.06662    402.36854   -9987.9718    10007.254   -139.30191    37.234294 
137952000    286.75444    452.89466    355.71832   -10010.843    9994.5079    97.176343    37.284601 
137956000    306.07438    281.28888    465.71085   -10051.973     10020.31   -184.42197    37.296933 
137960000    296.05935     313.0752    230.73463   -10069.227    10064.512    82.340569    37.311647 
137964000    281.06162     300.2677    227.45283   -10086.577    10086.329    72.814865    37.322324 
137968000    297.29222    431.03892    278.18021   -10113.248    10108.613    152.85871    37.278942 
137972000    272.01549    452.63838     225.0858   -10146.436    10138.962    227.55259    37.253947 
137976000    279.98612    416.74433    276.92568   -10165.899    10161.121    139.81865    37.169327 
137980000    270.46832    501.46657    403.96156   -10174.223    10178.347    97.505016    37.199191 
137984000     288.7709    347.29142    463.04244   -10189.787    10188.368   -115.75102    37.203153 
137988000    269.77366    272.98088    321.79039   -10189.979    10197.562   -48.809503    37.244185 
137992000    268.31922    563.09812    264.18805   -10244.317    10259.217    298.91008    37.197161 
137996000    299.95997    333.11138    434.14231   -10268.507    10257.287   -101.03093    37.166371 
138000000    278.06442    385.31025    209.70723   -10289.448    10281.045    175.60302    37.125762 
138004000    280.50545    371.91763    387.35115   -10308.576    10296.735    -15.43352    37.101146 
138008000    292.03422    367.83656    362.93487   -10322.123    10305.706    4.9016861    37.124684 
138012000     279.6565    438.59747    366.22032   -10342.689     10330.44    72.377149    37.159239 
138016000    293.00799    388.74685    287.82221    -10359.79    10361.177    100.92464    37.146994 
138020000    260.90766    261.64325    238.86349   -10372.661    10389.165    22.779766    37.096492 
138024000    326.94076    592.24239    226.82791   -10418.791    10386.025    365.41448    37.155777 
138028000    264.56073    276.32418    186.55817   -10414.274    10417.078    89.766015    37.174171 
138032000    299.28061    316.15789    331.81805   -10436.469    10412.967   -15.660154    37.208312 
138036000    280.09679    294.97858    327.37835   -10434.062    10414.534   -32.399764    37.240939 
138040000    303.02828    329.61836    356.85438    -10456.71    10428.524   -27.236024     37.24131 
138044000    286.28633    295.18701    347.53484   -10484.478    10459.037   -52.347829    37.246207 
138048000    280.40104    260.28047    339.75936   -10465.129    10462.511   -79.478887    37.203814 
138052000     269.3741    358.73261    263.46358   -10475.108    10455.282    95.269039    37.247782 
138056000    286.84126    536.04619    256.48294   -10499.562    10495.478    279.56324    37.263204 
138060000    254.82464    348.63619     228.9139   -10514.075    10519.127    119.72229    37.265053 
138064000    254.98425    338.98698    236.19207   -10565.125    10562.784    102.79491    37.323143 
138068000    295.17678     484.8833     235.4876   -10569.402    10561.586     249.3957    37.297985 
138072000    289.04354     268.9059    292.35812   -10620.319    10587.403   -23.452213    37.319964 
138076000    302.16356    355.74529    148.87558   -10632.178    10600.354    206.86971    37.367144 
138080000    273.19454    552.16698    323.31523   -10646.927    10645.851    228.85175    37.373034 
138084000     278.0377    368.20757     345.9995   -10672.238    10674.278    22.208069    37.379539 
138088000    274.79292    338.34106    357.61973   -10672.496    10677.749   -19.278669    37.454603 
138092000    272.84758     198.0046     403.5938   -10678.684    10685.393    -205.5892    37.409881 
138096000    260.85526    403.08343    241.76992   -10696.819    10696.806    161.31351    37.341701 
138100000     267.5593    263.54646    338.00352    -10699.41    10690.136   -74.457056     37.26561 
138104000    280.26275     227.1518    279.11771   -10725.954    10732.232   -51.965917    37.278824 
138108000    289.80613     344.7528    390.61037   -10761.792    10757.826   -45.857565     37.16259 
138112000    280.89071    240.86817    556.83714   -10781.895    10771.636   -315.96897    37.110876 
138116000    307.26461     451.0443    246.23685   -10820.869    10792.285    204.80746    37.096374 
138120000    301.08887    365.03804    234.00594   -10841.861    10815.955     131.0321    37.216066 
138124000    301.66192    333.38245    154.30956   -10825.223    10824.931    179.07288     37.16576 
138128000    284.48496    336.00021     180.8488   -10868.115    10855.411    155.15141    37.200443 
138132000    257.98942    350.85512    152.71265   -10885.854    10894.415    198.14247    37.148961 
138136000    310.62321    272.02097    420.78633   -10898.851    10896.563   -148.76536    37.135857 
138140000    290.48708    383.52092    246.17865   -10915.245    10896.348    137.34227    37.152566 
138144000    282.31476    472.84274    228.74309   -10930.305    10925.873    244.09966    37.230476 
138148000    290.34275    434.77202    335.08436   -10968.398    10941.954    99.687663    37.209318 
138152000     269.7064    464.50839    414.31861   -10999.978    10980.385    50.189784    37.122084 
138156000    257.29946    281.80724    229.24933    -11024.58    11032.646    52.557907    37.172656 
138160000    294.90871    302.12067    250.85972   -11035.822    11024.189    51.260949    37.096005 
138164000    291.84476    649.14049     276.5637   -11031.209     11023.77     372.5768    37.156704 
138168000    283.04431    287.76738    244.65892   -11043.016    11021.961    43.108457    37.210889 
138172000     278.0553    379.61235     304.0939   -11040.992    11027.119    75.518451    37.226343 
138176000    290.32074     321.1491    311.33661    -11059.98    11054.031    9.8124884    37.285518 
138180000    261.53298    346.57613    349.51035   -11046.464    11063.105   -2.9342138    37.317865 
138184000    246.54741    393.50837    239.05095    -11077.76    11085.118    154.45742    37.318961 
138188000     294.5758    632.19812    281.10238   -11132.214    11107.728    351.09574    37.282391 
138192000    280.26253    281.96009    388.82459   -11147.829    11139.477   -106.86451    37.207821 
138196000    295.85829    466.56558    289.89404   -11169.157     11157.02    176.67154    37.184437 
138200000    273.27827    495.96065    294.27906   -11174.778    11164.048    201.68159    37.180198 
138204000    266.67343    115.24632    378.95036   -11178.253    11185.774   -263.70404    37.141586 
138208000    286.82265    237.90122    263.02659   -11188.294    11183.451   -25.125372    37.121402 
138212000    278.66071    249.39842    345.01878   -11215.329    11218.951   -95.620367    37.119412 
138216000    289.40367    512.67155    409.67905   -11255.682     11251.31    102.99249    37.122278 
138220000    276.97509    262.70294    436.55458   -11286.149    11297.652   -173.85164    37.043211 
138224000    293.75771    344.31923    363.19145   -11334.093    11322.179    -18.87222    37.003037 
138228000    282.41373    323.09547    365.72055   -11367.314    11363.382   -42.625075    37.019121 
138232000    289.98298    416.18214    467.51249   -11382.055    11384.013   -51.330344    36.936334 
138236000    276.14516    285.75166    480.24057   -11402.855    11399.815   -194.48891    36.930216 
138240000    275.27751    314.96689    302.04029   -11438.693    11445.426    12.926599      36.9839 
138244000    312.80388    265.57703    539.44788   -11479.666    11450.275   -273.87085     37.08987 
138248000    298.17668    364.85202    223.90994   -11514.783    11513.611    140.94207    37.145743 
138252000    288.67487    442.35634    299.17158   -11529.104    11530.074    143.18476    37.255414 
138256000    253.99667    375.02283    245.38534   -11542.862    11572.835     129.6375    37.166917 
138260000    269.85882    390.69835    290.26709   -11570.181    11573.294    100.43126    37.115834 
138264000    292.96807    422.50983    306.26495   -11588.102     11574.15    116.24488    37.084786 
138268000     288.5121    469.84585    206.07492   -11615.355    11605.158    263.77092    37.052901 
138272000    264.44096    343.34616    379.61448   -11616.544    11619.141   -36.268315    37.030712 
138276000    273.15846    304.84503    289.91182   -11621.869    11630.893    14.933205    37.044005 
138280000    272.79824    376.36065    331.20688   -11633.869    11644.807    45.153777    37.096633 
138284000    283.70765     438.9589    500.62289   -11661.872    11670.975   -61.663981    36.990924 
138288000    262.63897    337.56711    271.37637   -11690.714    11698.564    66.190742    37.033767 
138292000    288.21456    342.00101     206.2404   -11715.151    11702.281    135.76061     36.98369 
138296000     272.4874    419.27519    378.62192   -11741.801    11730.603    40.653264       37.007 
138300000    294.36951    366.60444    278.22682   -11769.872    11759.329    88.377627    37.054478 
138304000    282.93492    247.44875    408.41082   -11788.404    11769.686   -160.96207     37.05959 
138308000    272.49303    315.58769    219.74365    -11792.88    11786.859    95.844036     37.11312 
138312000     270.7883    457.58393    327.35155   -11797.723    11790.894    130.23237    37.100467 
138316000    259.26241    377.51556    277.88904   -11792.629    11823.143    99.626513    37.094015 
138320000    260.59057    359.46676    367.73121   -11824.701    11828.895   -8.2644512    37.108518 
138324000    299.11664    396.80721    377.84947   -11859.893    11847.377    18.957748    37.202722 
138328000    285.40205    301.55263     455.7726   -11900.382    11914.011   -154.21997    37.194603 
138332000    318.32753    663.28168    578.86774   -11937.208    11916.528    84.413945    37.199988 
138336000    262.68634    184.85166    249.65861   -11947.398    11954.979   -64.806951    37.237449 
138340000    327.91981     392.7404    546.79658   -11958.488    11937.241   -154.05618    37.233889 
138344000    316.40426    443.54628    313.83841   -11997.611    11952.323    129.70787    37.260645 
138348000    298.47085    219.39516    211.68492    -12008.36    11996.214    7.7102387    37.271643 
138352000    258.66692    329.36391    214.54863   -12007.355    12014.843    114.81528    37.218221 
138356000    282.90141    436.93162    355.59642   -12017.206    12006.263    81.335201    37.268355 
138360000    300.98105    313.47819    258.86967   -12078.334    12052.202    54.608525    37.277562 
138364000    272.12719    544.78487    189.37696   -12082.989    12092.597    355.40791    37.290549 
138368000    315.86648    258.00305    290.05459   -12104.658     12081.71   -32.051533    37.306002 
138372000    285.44722    314.73294    244.79475   -12103.078    12093.847    69.938197    37.272707 
138376000    278.77707    382.85133    435.48142   -12129.523    12128.875   -52.630092    37.253938 
138380000    312.72044    330.54062    415.76266   -12155.128    12127.026   -85.222039    37.234676 
138384000    283.53447    290.78801     297.1417   -12176.995    12155.479    -6.353689    37.239644 
138388000    304.20571    225.75566    275.57087   -12227.863    12204.459   -49.815209    37.182499 
138392000    296.43989    200.05747    474.97607   -12255.074     12233.19    -274.9186    37.128954 
138396000    294.71829    317.20941    274.95436   -12251.485    12229.237    42.255054    37.070318 
138400000    286.67942    289.53096    313.61099   -12268.146    12256.106   -24.080036    37.097114 
138404000    250.07807    206.35806    345.74535   -12276.214    12284.968   -139.38728    37.088226 
138408000    270.69736     397.0643    355.84028   -12269.525    12264.002    41.224019    37.103854 
138412000    282.26043    370.44106    206.54949   -12277.159    12272.584    163.89157    37.089202 
138416000    297.99962    288.88813    251.51105   -12295.055    12262.126    37.377084    37.079925 
138420000    311.59981    309.54664    256.75113   -12313.837    12283.956    52.795511    37.104388 
138424000    271.97879    495.91466    301.19263   -12345.642     12332.83    194.72203    37.109719 
138428000    276.13104    426.68389    321.52082   -12363.788    12367.077    105.16308    37.088999 
138432000    287.67729    313.94667    600.48223   -12388.807    12378.525   -286.53556    37.063752 
138436000    295.63764    296.43612      336.532   -12435.145    12419.432   -40.095876    37.112478 
138440000    291.02352    366.71711    294.08046   -12468.931    12441.538    72.636644    37.122335 
138444000    269.95354    426.05233    178.22376   -12468.027    12471.509    247.82856    37.091289 
138448000     277.5628    307.05089    475.59668   -12485.403    12485.618   -168.54578     37.04377 
138452000    282.22675    590.30651    327.18733   -12534.506    12520.727    263.11919    37.068426 
138456000    279.08375    361.33546    273.69568   -12541.496    12539.865    87.639785     37.05333 
138460000    290.44429    351.29189    344.93315   -12566.724    12564.083    6.3587325    36.994427 
138464000    269.73236    311.09473    376.31794   -12613.591    12603.291   -65.223205    36.934846 
138468000    269.67157    232.91246    424.73733   -12604.467     12618.24   -191.82487    36.918658 
138472000    288.33342    285.85911     252.8188   -12634.958    12655.639    33.040305    36.925694 
138476000      279.413    439.79712    209.34632    -12641.98    12649.691    230.45079    36.935159 
138480000    278.44396    281.72717    299.21377   -12671.844    12668.667   -17.486602    36.951825 
138484000    275.13197     329.7647    288.34313   -12687.544    12689.533    41.421569    36.953924 
138488000    284.58774    328.30093    274.42415   -12699.655    12709.136    53.876774    36.959266 
138492000    309.58646     522.4645    384.54121   -12740.404     12721.01    137.92329    36.965652 
138496000    274.95945    298.96145    296.69748   -12747.545    12739.739      2.26397    36.973012 
138500000    299.12341    335.20156    250.23752   -12767.207    12737.603    84.964035    36.957719 
138504000    272.41657    492.09565    374.70816   -12786.535    12782.792     117.3875    36.983678 
138508000    269.38266    213.57278    362.17518   -12799.993     12810.19    -148.6024    36.936312 
138512000    296.89792    349.64791    360.23596   -12812.758    12804.733   -10.588055    36.895545 
138516000    252.90402    611.03689    193.79335   -12806.834     12818.11    417.24354    36.948731 
138520000    275.87843    466.69819    269.60747   -12826.331    12818.691    197.09072    36.992928 
138524000    310.11739    473.12202    209.83232    -12847.04      12827.7     263.2897    36.976734 
138528000    268.44344    339.15563    223.86392   -12839.877    12851.162    115.29171    36.981986 
138532000    268.69572    284.12571    455.84101   -12847.569    12858.693    -171.7153    36.996085 
138536000    287.58599    280.58729    455.41953   -12881.808    12875.652   -174.83224    36.967154 
138540000    290.54647    308.04235    260.11339   -12914.754    12903.925    47.928962    36.958135 
138544000    277.16338    468.53336    255.07564   -12923.777    12925.876    213.45772    36.886617 
138548000     273.0274    415.13711    172.92658   -12946.896    12949.285    242.21053    36.911069 
138552000    290.41025     402.5465    334.73765   -12953.585    12959.712    67.808852    36.883562 
138556000    295.35159    400.74793    360.52034   -12975.721    12956.415    40.227589    36.849383 
138560000    299.32224    299.34898    258.79434   -13002.368    12993.429    40.554643    36.854038 
138564000    265.29761    299.10578    192.88569    -13023.58    13031.085    106.22009    36.856386 
138568000    284.51716    288.74224    244.04194   -13050.291    13045.922    44.700296    36.870761 
138572000    263.86227    231.34239    402.96541   -13064.751    13068.098   -171.62302    36.849928 
138576000    284.73994     382.3305    290.32732   -13083.454    13080.056    92.003188    36.867702 
138580000     259.9845    260.59074    426.36869   -13087.032    13082.156   -165.77795    36.881819 
138584000    271.33271    346.62702    264.34368   -13092.702    13088.246    82.283334    36.925701 
138588000    260.34268    282.56117    233.08687   -13112.062     13128.07    49.474295    36.923198 
138592000    278.49547    468.28104    280.79779    -13149.62    13162.098    187.48325    36.936394 
138596000    309.25776    295.37668     422.8429    -13179.71    13177.484   -127.46622     36.90971 
138600000    308.90989    476.35409    404.48154   -13221.917     13198.11     71.87255    36.846369 
138604000    264.72563     290.8658    271.63847   -13250.624    13239.091    19.227326    36.843578 
138608000    283.76177    448.69574    346.45573   -13278.187    13264.593    102.24001    36.836035 
138612000    271.88605    212.34715    383.09243   -13300.469    13307.114   -170.74528    36.825174 
138616000    298.81056    312.07778    247.15745   -13322.351    13310.717    64.920338    36.830237 
138620000    270.00622    395.91629    463.27797   -13324.736    13344.122   -67.361675      36.7911 
138624000    284.24492    402.08863    270.71235   -13353.458    13354.125    131.37628    36.841429 
138628000    292.75013    362.12007    253.58413   -13371.264    13357.706    108.53594    36.799719 
138632000    292.83882    434.48533    318.91605   -13387.399    13375.627    115.56929    36.833557 
138636000    276.81906    324.20839    269.41557   -13418.939      13420.6    54.792821    36.838241 
138640000    287.16974     271.5521    347.96201   -13464.166    13437.897   -76.409913    36.840429 
138644000    283.65308    330.89323    291.76266   -13470.132    13462.094    39.130571     36.85133 
138648000     252.4448     215.0315      374.808   -13490.275    13485.749    -159.7765    36.832735 
138652000    276.52073    212.25049    552.52922    -13504.67    13502.043   -340.27873    36.838333 
138656000    301.36095    508.68421      386.427   -13531.547    13526.356    122.25721    36.784736 
138660000    273.94708     405.6211    306.68754   -13524.789    13545.122    98.933558    36.799237 
138664000    278.95142    342.02419    369.54614   -13549.432    13539.102   -27.521947    36.769645 
138668000    277.73291    225.08128    330.92484    -13576.98    13565.653   -105.84356    36.696017 
138672000    281.26241    292.80189    286.01063    -13603.55     13575.04    6.7912584    36.641628 
138676000    281.18428    464.89075    348.82243   -13595.918    13586.896    116.06832    36.653242 
138680000    256.34769     331.8875    253.80849   -13593.889    13598.451    78.079013    36.661701 
138684000    277.68379    524.34513    165.22046   -13639.041    13633.085    359.12468     36.72927 
138688000    290.62604    397.03225    353.58084   -13674.046    13649.735    43.451411    36.714241 
138692000    265.18391    213.41704     224.2231   -13661.109    13674.022   -10.806055    36.779986 
138696000    278.90289      362.653    389.21898   -13682.946    13694.051   -26.565977    36.738735 
138700000     284.2592    314.32395    517.27566   -13714.496    13722.296   -202.95171    36.687274 
138704000    301.84001    380.87886    462.67396    -13734.82    13728.816   -81.795098    36.697567 
138708000    261.93174    415.96873    295.43182   -13760.633    13769.329    120.53691     36.60834 
138712000    239.68966    161.51475    303.54402   -13776.689    13813.972   -142.02927    36.587073 
138716000    296.53754     415.3081    400.16486   -13809.283    13814.845    15.143233     36.53656 
138720000     266.2953    435.50687    241.96229   -13836.887    13852.663    193.54458    36.513765 
138724000     281.2366    330.21563     347.6783   -13869.508    13865.661   -17.462671     36.52266 
138728000    302.56642    314.39204    318.72543   -13887.534    13886.718   -4.3333881    36.472633 
138732000    305.69102    481.07536    287.75847   -13909.505     13891.11     193.3169    36.501867 
138736000    263.49382    294.55364     349.5429   -13920.337    13924.857   -54.989269    36.468734 
138740000    301.38232    340.16736    201.71887   -13940.095    13917.547    138.44849    36.412631 
138744000    285.06479    360.03098    258.41155   -13965.103    13965.678    101.61943    36.471433 
138748000    287.75286    347.14033    185.54637   -14012.571    14001.736    161.59396    36.503642 
138752000    305.14489    393.07257    189.77055   -14036.793    14023.968    203.30202    36.536593 
138756000    298.56831    398.09029    367.34916   -14077.382    14059.185    30.741131    36.456783 
138760000    275.42438    319.51176    627.91395    -14093.81    14075.535   -308.40219    36.440886 
138764000    278.91055    408.89455    180.19674   -14108.643    14109.948    228.69781    36.416249 
138768000    274.61803    318.07746    193.43203   -14142.719    14141.491    124.64543    36.392514 
138772000    263.70616    289.67346    362.29396   -14166.258    14181.092   -72.620505    36.351216 
138776000    262.60777    315.35518    144.05334   -14203.579      14219.5    171.30184    36.367323 
138780000    274.15965    350.14182    519.40554   -14236.509    14247.085   -169.26372     36.34496 
138784000    251.30388    232.91348    372.69305   -14244.894    14269.227   -139.77957    36.277375 
138788000    288.31987    351.26143    270.91221   -14300.639    14301.011    80.349221    36.293235 
138792000    284.39896     383.2527    335.62271   -14314.677    14320.148    47.629995    36.252085 
138796000    279.04648     580.8034    420.65827   -14349.949     14343.42    160.14513     36.28341 
138800000    260.53593    298.29608    354.20274   -14384.987    14387.367    -55.90666    36.303731 
138804000    287.98932    225.20688    234.83345   -14411.238    14400.243   -9.6265665    36.281876 
138808000    291.00843    305.87041    481.25732   -14439.423    14424.094   -175.38691    36.281079 
138812000    276.64895     456.0099     305.7682   -14457.848    14452.834     150.2417    36.249721 
138816000    286.44188    335.52927    232.55175   -14474.921     14468.05    102.97751    36.241022 
138820000    271.87973    309.34064    210.67262   -14491.973    14494.679    98.668015    36.235724 
138824000    269.35668    303.14311    215.38283   -14520.958    14525.615    87.760277    36.237231 
138828000    290.57344    352.55704     346.3606   -14551.011    14547.759    6.1964355    36.270121 
138832000    289.33065    380.99778    403.29298   -14605.718    14599.976   -22.295194    36.290799 
138836000    254.76887    425.88092    231.05638   -14619.844    14620.644    194.82454    36.335257 
138840000    314.92786    554.13845    538.64006   -14658.175    14638.752     15.49839    36.311169 
138844000    265.07062    331.14024     445.1881   -14649.941    14665.466   -114.04785    36.392945 
138848000    300.40652    388.61787    376.15847   -14698.942    14665.436    12.459395    36.393762 
138852000    276.25521    414.81427    222.25107   -14713.281    14711.571    192.56319    36.398372 
138856000    304.37348    382.00932    274.02664   -14751.206    14730.801    107.98268    36.391834 
138860000    298.47069    447.02957    285.21752   -14767.897    14747.678    161.81206    36.338544 
138864000    301.56589    363.12991    399.50263   -14768.939    14758.119   -36.372725    36.339272 
138868000    292.08217    320.83495    486.00674   -14779.754     14780.89   -165.17179     36.30491 
138872000    270.22504     360.8973     310.6671   -14811.938    14817.343      50.2302    36.362137 
138876000    295.06814    321.41187     302.4853   -14838.477    14836.243    18.926567    36.347609 
138880000    288.47278    334.12942    320.44743   -14863.036    14866.098    13.681991    36.350363 
138884000    271.68635    195.78241    414.76504   -14880.145    14897.171   -218.98262    36.352784 
138888000    282.27445    466.04662    436.83764    -14926.46    14921.425    29.208977    36.396923 
138892000     324.9316    485.71771    398.96977   -14955.144     14930.07    86.747935    36.397914 
138896000    278.42912    467.61633    465.19274   -14989.118    14980.719    2.4235923    36.437105 
138900000     270.3605      324.887    300.22328   -15015.675    14997.463    24.663724    36.406731 
138904000    290.75742    472.69855    266.84146   -15032.818    15016.535    205.85709    36.392227 
138908000    301.47873    549.58258    314.32919   -15067.059    15060.328    235.25339     36.40182 
138912000    284.45348    276.74284    294.18251   -15092.244    15076.678    -17.43967    36.395846 
138916000    300.45395    319.09395    288.86159   -15085.871    15074.529    30.232361    36.411768 
138920000    294.31447    298.44375    300.14424    -15106.38    15092.477   -1.7004891    36.448099 
138924000     257.9536    288.48637    150.17739   -15118.404    15137.508    138.30898    36.473717 
138928000    294.05412    233.47604    353.76459   -15168.292    15151.327   -120.28854    36.473375 
138932000    312.49033    562.09203     279.4656   -15197.581     15184.02    282.62642    36.471625 
138936000    272.84732    370.60264    376.27188   -15221.546    15241.811   -5.6692372    36.508067 
138940000    294.40135    335.21111    394.33991   -15281.987     15265.76   -59.128796    36.475168 
138944000    265.38526    284.57178     359.5161   -15280.335    15281.206   -74.944324    36.452984 
138948000    276.44334    399.48917    430.40032   -15309.927    15300.184   -30.911143    36.495751 
138952000    280.71876    472.45235    258.73075   -15378.768    15356.202     213.7216    36.484862 
138956000    291.44712    279.29846    389.45793   -15398.577    15398.503   -110.15947    36.481565 
138960000    281.33031    329.10058    209.12244   -15439.783     15441.71    119.97815    36.479312 
138964000    267.25123    523.81193    229.15935    -15468.54    15473.437    294.65258    36.490239 
138968000    287.29377    376.08594    355.10783    -15503.06    15505.565    20.978117    36.475375 
138972000    274.27761    340.57678    378.46942   -15509.032    15510.653    -37.89264    36.488525 
138976000    263.43798    524.97184    247.35013   -15508.793     15524.56    277.62171    36.465398 
138980000    328.42221    579.14368    395.48569   -15554.914     15504.81    183.65799    36.495713 
138984000    284.93771    462.67195    205.24974   -15568.336    15568.066    257.42221    36.458165 
138988000    270.27933      270.634    418.37843   -15598.302    15583.457   -147.74444    36.486832 
138992000    311.27586     388.6353    265.34765   -15652.131    15622.072    123.28766    36.511705 
138996000    254.60104    332.43588     239.8918     -15649.3    15653.847    92.544082    36.465328 
139000000    295.77686    205.47068    318.35123   -15677.224    15662.115   -112.88055    36.499882 
139004000     281.3348    387.57843    335.90251   -15681.205    15676.891    51.675923    36.480893 
139008000    285.49861    319.19496    378.92202   -15697.134    15691.957   -59.727064    36.533167 
139012000    266.98839     431.3438    206.60945   -15686.329    15691.267    224.73435    36.545833 
139016000    288.49728    413.25147    400.54588   -15687.317    15682.491     12.70559    36.536967 
139020000    290.72416    387.70202    396.68211   -15709.885    15696.083   -8.9800887    36.546572 
139024000    285.21682    357.17628    396.28327   -15722.749    15707.637   -39.106989    36.492977 
139028000    285.38727    307.18766    346.76968   -15736.183    15721.589   -39.582018    36.426706 
139032000    301.51407    359.40079    474.30924   -15745.222    15730.643   -114.90845    36.420855 
139036000    287.70063    305.57772     373.7709   -15756.832    15755.772   -68.193177     36.42382 
139040000    274.30416    333.51288    343.94414   -15765.409    15771.007   -10.431266    36.405075 
139044000    306.15785    401.01397     570.6302   -15796.655    15784.076   -169.61623    36.405959 
139048000    277.07696    333.25119     243.1809   -15812.906    15786.242    90.070287    36.381387 
139052000     298.2678    337.78717    300.94611   -15845.958    15821.995    36.841061    36.381234 
139056000    284.01101    273.92205    273.33335   -15873.684    15848.029   0.58870251    36.435104 
139060000    307.89293    504.71716    525.21205   -15897.136    15886.089   -20.494896    36.416773 
139064000    293.97599    396.12009    263.65938   -15913.675    15904.544    132.46071    36.448918 
139068000    277.85885    453.86699    249.95198   -15943.201     15942.51    203.91501    36.455155 
139072000    299.02019    540.59695    326.67488   -15977.724    15956.705    213.92207    36.432047 
139076000     260.1916    354.24572    195.19471   -15990.051    15990.964    159.05101    36.405023 
139080000    282.18238    305.45343     257.2111   -16020.474    16027.593    48.242338    36.371057 
139084000    298.58411    367.80231    433.97332   -16017.625    16017.284   -66.171005    36.336599 
139088000    278.99375    312.08708    297.47934   -16044.032    16048.213    14.607734    36.346027 
139092000    282.97237    507.50334    256.71779   -16069.663     16067.37    250.78556    36.356448 
139096000    297.21107    241.94432    454.33225   -16078.119    16063.716   -212.38793    36.369884 
139100000    277.49265    301.99726    394.39772   -16097.894    16114.454   -92.400457    36.329608 
139104000    272.40332    342.64989    288.79038   -16141.082    16132.267    53.859501    36.329621 
139108000    272.72201    224.43263    277.37136   -16139.955    16136.637   -52.938729    36.313823 
139112000    282.13213    384.08084    445.72437   -16162.875    16168.105   -61.643529    36.318946 
139116000    293.80542     451.1241     300.1558   -16195.426    16175.871     150.9683    36.260135 
139120000     294.8128    260.85637     301.3967    -16238.69    16225.389   -40.540333    36.228777 
139124000    309.76378    217.34611    288.00857   -16276.327    16267.551   -70.662462    36.217414 
139128000    314.93603    436.96657    279.08442    -16296.45    16268.417    157.88215    36.283953 
139132000    284.38338    255.72951    370.43455    -16296.64     16300.92   -114.70503    36.289212 
139136000    309.94921    608.94299    372.18773   -16332.684    16316.476    236.75526    36.273891 
139140000    283.63748    226.56567    181.97655   -16356.742    16343.423    44.589115    36.293711 
139144000    322.06722    347.98382    404.43174   -16371.048    16355.687   -56.447922    36.300351 
139148000    290.23189    436.09106    301.57881    -16381.46    16375.048    134.51224     36.26743 
139152000    294.98938    485.84341    208.88614   -16392.682    16364.436    276.95727    36.282932 
139156000    288.45228    400.61496    519.42765   -16404.305    16397.386   -118.81268    36.272609 
139160000    278.82123    315.88706    279.29389   -16428.862    16432.049    36.593173    36.255279 
139164000    277.60826    627.96724    259.53006   -16487.087    16484.078    368.43717    36.278364 
139168000    272.73307    390.80894    296.93219   -16492.295    16489.291    93.876757    36.272303 
139172000    281.80285    233.41348    339.74218   -16498.934    16497.833    -106.3287    36.272222 
139176000    288.56683    176.39416    466.04512   -16536.714    16522.668   -289.65096    36.273687 
139180000    260.79189    227.89245    270.99538   -16535.517    16555.942   -43.102931    36.282533 
139184000    291.30661    550.48365    411.02188   -16583.281    16574.021    139.46178    36.269794 
139188000    284.03721    327.00541    164.80606   -16585.462    16581.546    162.19936    36.317362 
139192000    258.71058    267.09831    341.36931   -16595.844    16607.954   -74.270999    36.309877 
139196000    272.27008    248.37994    378.18765   -16644.167    16632.196   -129.80771    36.296438 
139200000     307.9092    303.08782    350.86404   -16655.727    16639.615   -47.776221    36.259395 
139204000    293.56666    356.97751    439.97321   -16669.585    16665.924   -82.995697    36.267099 
139208000    311.55537    441.48837    469.25431   -16708.401    16697.501   -27.765941    36.252366 
139212000    275.87781    298.83015    252.42707   -16737.814    16723.263    46.403083    36.264289 
139216000    307.76341    539.76063    316.35778   -16786.832    16771.981    223.40284    36.288306 
139220000    302.56993    460.16796    362.59162   -16780.697    16763.083    97.576347    36.265176 
139224000     281.0832    342.22343    376.20574   -16783.939    16786.464   -33.982316    36.237112 
139228000    294.92957    417.27161    309.59323   -16812.237     16799.44    107.67838    36.212869 
139232000    297.30815     288.3718    340.68591   -16855.041    16854.678   -52.314116    36.193953 
139236000    295.92206     291.7665    669.67241    -16863.56    16852.544   -377.90591    36.205868 
139240000    266.75643    287.28083     275.9787   -16877.369    16870.595    11.302124    36.223097 
139244000     290.2895    309.93398    335.56632   -16923.651    16917.259   -25.632345     36.21427 
139248000    278.42844    309.51665    346.86157   -16918.691    16928.045   -37.344926    36.207819 
139252000    308.60198    383.34854     325.7886   -16954.649    16940.184     57.55994    36.157779 
139256000    260.26324    425.59681    254.12404   -16960.174     16971.54    171.47277    36.129762 
139260000    281.01438    368.74501    239.20419   -16996.678    17000.503    129.54082    36.106336 
139264000    304.54524    401.19345    186.14142   -17025.378    17018.623    215.05203     36.10759 
139268000    311.88539    477.46056    267.04746   -17053.611    17032.296     210.4131    36.111758 
139272000    265.90744    245.85667    212.89979   -17054.148    17067.043    32.956884    36.129299 
139276000    256.13513    342.04775    287.66031   -17071.985    17100.529    54.387439     36.16413 
139280000    286.68154      367.935    226.71403    -17088.31    17096.117    141.22098    36.150942 
139284000    264.90444    556.15709    294.89004   -17121.865     17128.05    261.26704    36.159332 
139288000    282.06832    356.57233    262.54579   -17153.109    17160.319    94.026545    36.108999 
139292000    298.30471    225.48841    308.74142   -17186.074    17170.446   -83.253012    36.114406 
139296000    265.01226    286.49763    218.83591   -17191.807    17192.908    67.661723    36.089736 
139300000     280.6269    557.84825    289.82007   -17198.721    17191.902    268.02818    36.095355 
139304000    271.72931    351.42645    214.86777   -17217.198    17207.185    136.55867    36.116948 
139308000      275.022    335.10918    202.71017   -17222.367    17225.098    132.39902    36.119577 
139312000    285.05889    486.80619    346.81274   -17223.256     17220.23    139.99345    36.128256 
139316000    283.94684     181.2636    278.44629   -17215.009    17228.254    -97.18269    36.139039 
139320000    269.06408    367.57893     478.7711   -17254.602    17266.698   -111.19217    36.126263 
139324000    286.59131     272.7769    494.25702   -17282.935    17272.833   -221.48012    36.134271 
139328000    302.58905    575.93122     119.6774   -17289.451    17279.436    456.25381    36.138636 
139332000     319.7863    583.15265    284.39849    -17302.58    17283.151    298.75416      36.1387 
139336000    282.53022    373.36154    282.44088   -17304.933     17317.16    90.920662    36.151155 
139340000      272.446    193.53588    316.59353   -17309.565    17315.535   -123.05766    36.149913 
139344000    279.47234    360.69745    245.23178   -17340.575    17340.225    115.46567    36.151937 
139348000    280.69628    449.87574    291.74719   -17379.942    17365.033    158.12855     36.19306 
139352000    280.99065    413.47213    329.65478   -17383.387    17380.944    83.817349    36.204227 
139356000    313.84608    299.42027    192.39955    -17402.59    17384.925    107.02072    36.227928 
139360000    326.38357     252.3149     367.1236   -17418.957    17401.398    -114.8087     36.20433 
139364000    309.81163    188.34685    354.01661   -17436.761    17412.066   -165.66977    36.171993 
139368000    303.16662    534.15303     327.4483   -17458.319    17426.016    206.70472    36.192083 
139372000    285.91931    295.88416    381.06284   -17440.029    17440.127   -85.178678     36.16163 
139376000    301.19788    321.35875    164.12321   -17474.611    17451.324    157.23554     36.19381 
139380000    286.70583    395.27496    304.47517   -17487.578    17464.413    90.799784    36.202545 
139384000    298.59053    593.67782    230.00948   -17517.829    17489.057    363.66834    36.226883 
139388000    250.67474    387.56598    257.18806    -17549.15    17553.928    130.37793    36.236139 
139392000     266.8194    334.46846    310.26137   -17579.161    17582.146    24.207095    36.235303 
139396000    260.76992     467.9254     183.2854   -17624.699    17624.349       284.64    36.240694 
139400000    286.00095    210.14669    147.93318   -17658.817    17639.509    62.213511    36.258354 
139404000     290.0466    255.86561    286.03023   -17677.508    17673.397   -30.164624    36.221619 
139408000    314.07507    307.43323    383.34475   -17715.238    17682.653    -75.91152    36.198171 
139412000    286.44964    281.62276     294.8005   -17705.704    17707.704   -13.177742    36.214248 
139416000    285.18465    413.21213    383.25207   -17736.944    17734.898    29.960052    36.217021 
139420000    291.54335    612.37734    216.43334   -17775.199     17764.95    395.94399     36.27308 
139424000    299.11916    436.18365    149.67352   -17780.085    17781.147    286.51014    36.213024 
139428000     292.1581    421.72634    410.63453   -17797.688     17782.49    11.091806    36.192358 
139432000    285.94388    385.47731     190.8038   -17809.546    17808.361    194.67351    36.161347 
139436000    276.80822    396.09595    311.03704   -17832.318    17833.844    85.058914    36.185784 
139440000     287.1199    513.27383    227.00648   -17865.877    17857.252    286.26735    36.211216 
139444000    253.56163     128.2744    401.29233   -17863.523    17866.799   -273.01793    36.241328 
139448000    266.07754    472.38905    258.73895   -17887.036     17868.49     213.6501    36.223766 
139452000    257.89902    529.53419    317.20442   -17899.458    17916.442    212.32976    36.222651 
139456000    296.92375    328.37708    543.60088   -17920.694    17911.603    -215.2238    36.191331 
139460000    290.61551    270.27859    243.53335   -17936.142    17928.186    26.745239    36.215536 
139464000    245.53251    379.21221    151.50667   -17918.479     17945.33    227.70553     36.22647 
139468000    268.69321    235.92247    173.88277    -17947.33    17952.598      62.0397    36.187822 
139472000    267.57798    269.34976    346.25581   -17994.928    17996.515   -76.906058    36.190189 
139476000    280.70752     294.3035    365.30977   -18034.553    18012.364   -71.006276    36.219107 
139480000    295.16966    328.84341    474.14134   -18058.533    18054.025   -145.29793    36.217759 
139484000    269.38454    473.57968    156.53522   -18080.503    18089.096    317.04446    36.258373 
139488000    272.39816    154.06284    293.54693    -18110.03    18116.514   -139.48409    36.236526 
139492000    281.75958    377.73949    182.57881   -18149.974    18145.648    195.16069    36.266787 
139496000    279.10156    247.66163    340.79422   -18164.934    18152.204   -93.132588     36.27072 
139500000    290.35182     506.4618    345.99678   -18182.062    18172.854    160.46502    36.212827 
139504000    279.60924    316.36982     293.4271   -18198.756    18212.628    22.942728    36.202007 
139508000    299.09344    405.21432    557.91122   -18270.304    18247.326   -152.69689    36.172623 
139512000    278.55779      393.678    338.09873   -18256.508    18274.121     55.57927     36.13447 
139516000    272.31525    369.45202    349.17711   -18298.743    18298.312    20.274908    36.180839 
139520000    299.66538    265.68924    333.70419   -18328.477    18324.077   -68.014946    36.185917 
139524000    301.53582    658.03055    379.95985   -18355.499    18343.386     278.0707      36.1512 
139528000     290.6226    409.97599    236.56327   -18367.863    18372.006    173.41272    36.179641 
139532000    275.57457    337.32159    520.65466   -18376.782    18381.825   -183.33307    36.168442 
139536000    290.91134    578.61971    416.57039   -18423.334    18411.662    162.04931    36.141014 
139540000    296.31099    302.80268    344.57809   -18432.304    18436.982   -41.775411    36.106823 
139544000    295.13664    562.19319    245.42432   -18468.815    18456.038    316.76887    36.174951 
139548000     278.3122    222.97802    374.72314   -18481.859    18483.587   -151.74512    36.175077 
139552000    293.84445    447.17079    323.80843   -18531.672     18529.91    123.36236    36.188314 
139556000    300.55624    488.16668    207.39113   -18555.143    18537.389    280.77555    36.159057 
139560000     300.6558    332.29863    424.22949   -18547.791    18551.678   -91.930865    36.137704 
139564000    290.13692    482.25705    375.22138   -18575.764    18559.683    107.03567    36.151223 
139568000    282.09794    209.61487     199.9523    -18584.71    18579.592    9.6625728     36.14671 
139572000    300.42495    194.26616    205.11988   -18591.903    18593.944    -10.85372    36.162489 
139576000    254.63038     180.3703    351.33274   -18598.468    18616.797   -170.96244    36.159329 
139580000    298.32684    252.04389    359.91026   -18647.895    18625.159   -107.86637    36.168886 
139584000     289.7206    351.00709    179.54917   -18650.057    18648.475    171.45792    36.154996 
139588000    270.39801    322.19468    249.75158   -18683.802    18670.522    72.443102    36.181147 
139592000    300.32437    240.02879    307.63872   -18713.321    18694.955   -67.609929    36.201771 
139596000    273.19949    404.90409    319.62181   -18727.058    18726.645    85.282282    36.182159 
139600000    257.48167    317.28636    384.68727    -18747.28    18768.586   -67.400915    36.240273 
139604000    261.57614    386.13958    313.43835    -18764.06    18782.282    72.701239    36.282237 
139608000    262.44416    226.30548    315.28798   -18775.845    18772.118   -88.982498    36.286628 
139612000    276.19744    264.49868    300.78867   -18796.961    18791.823   -36.289991    36.248289 
139616000    276.18794    552.58533    262.39788   -18818.567    18816.556    290.18746    36.257157 
139620000    278.16613    320.60672    379.72261   -18834.599    18834.202   -59.115898    36.282272 
139624000    293.21211    329.46604    362.09149   -18868.132    18854.727   -32.625452     36.24938 
139628000    296.86372    257.62445    276.83917   -18906.392    18897.206   -19.214728    36.263954 
139632000    284.61225    239.12262    544.68615   -18947.474    18923.596   -305.56353    36.253027 
139636000    280.85858    394.87583    255.43387   -18955.184     18968.67    139.44196    36.281591 
139640000    286.70702    375.35171    349.01108   -18975.712    18958.715    26.340634     36.27417 
139644000    299.18871    268.52943    280.30522   -19012.103    18997.995   -11.775794    36.263056 
139648000    333.23185    577.53487    455.15387   -19037.615     19020.96      122.381    36.268491 
139652000    315.40191    502.40968    162.67599   -19048.786    19026.873    339.73369    36.271827 
139656000    291.83052    376.80655    532.18852   -19076.895    19072.257   -155.38197    36.261672 
139660000    281.36169    305.52327    348.71499   -19094.795     19088.49   -43.191718    36.244838 
139664000    293.55817    422.05605    117.27075    -19123.28    19126.088     304.7853    36.277609 
139668000     290.7258    237.35169    245.15271   -19155.122    19154.452   -7.8010223    36.282152 
139672000    282.33155    440.66366    337.25021   -19174.507    19173.174    103.41346    36.305975 
139676000    264.01705    318.81907    250.29058   -19177.855    19180.068    68.528485    36.297371 
139680000     284.7498    561.16458    473.30469    -19221.06    19210.554    87.859888      36.3325 
139684000    278.37771    483.55508    283.02294   -19257.127    19268.103    200.53213    36.319101 
139688000    266.03239    480.00181    187.71556   -19285.603    19291.704    292.28625     36.31197 
139692000     265.0903    412.85368    257.10906   -19284.569    19319.117    155.74462    36.294194 
139696000    255.51617    374.20413    300.02869   -19321.583    19333.808    74.175446    36.243824 
139700000    270.42984    234.11346    252.10702   -19334.413    19339.019   -17.993564    36.244298 
139704000    296.50129    549.16013    246.59767   -19364.895    19348.497    302.56246    36.277938 
139708000    271.01839    309.96788    253.36387   -19390.665    19389.319    56.604005    36.263348 
139712000    280.43981    520.83471    392.93445   -19412.758    19417.045    127.90026    36.278068 
139716000    285.24646    345.83261    321.17991   -19457.203    19457.567    24.652698    36.293312 
139720000    280.06626    331.12611    399.20225   -19480.527    19481.475   -68.076143    36.286161 
139724000    280.04154     502.9581    254.22148   -19501.591    19483.974    248.73662    36.264112 
139728000    283.99682    216.40607     450.7701   -19514.421    19517.554   -234.36402    36.262246 
139732000    277.44317    533.84395    165.86875   -19556.521    19544.322     367.9752    36.305205 
139736000    253.81356    369.89681    261.95811   -19563.244    19563.438     107.9387    36.316048 
139740000    285.60039    368.82879    212.94663    -19587.86    19571.048    155.88216    36.320297 
139744000    304.14751    443.57417    279.70003   -19620.045    19601.031    163.87415    36.322335 
139748000    280.37881    365.17508    226.03716   -19606.675    19608.109    139.13792    36.354846 
139752000    283.92947    381.95605    326.61499   -19670.678    19646.282    55.341063    36.295111 
139756000    297.12401    241.64673    236.94418   -19683.562    19671.789    4.7025441    36.264172 
139760000     320.0317    390.49259    317.36746   -19717.153    19686.212    73.125122    36.250258 
139764000    266.88363     382.2328    249.80993   -19733.448     19719.32    132.42287    36.254721 
139768000    289.66931    415.95041    329.79004   -19746.961    19749.006    86.160371    36.258558 
139772000    282.24299    497.53333    234.78765   -19787.526     19782.03    262.74568     36.28618 
139776000    309.07015    372.70205    343.80987   -19807.371    19799.039    28.892171    36.300908 
139780000    288.45828    293.41906     516.6604   -19816.001    19812.173   -223.24134    36.254918 
139784000    304.92557    302.38315    412.78893   -19858.969    19849.082   -110.40578    36.312788 
139788000    292.13312    369.45196    221.15546   -19888.021    19869.082     148.2965    36.298091 
139792000    268.29772    182.44817    360.05387   -19880.873    19893.806    -177.6057    36.306391 
139796000    271.70163    387.70789     308.5195   -19921.582    19916.791    79.188391    36.338756 
139800000    307.66393    319.93903    438.57017   -19966.963    19944.589   -118.63114      36.3555 
139804000     294.3247    270.35448    162.55149   -19994.891    19978.541    107.80299    36.372062 
139808000    291.40418    400.81714    285.89765   -20043.053    20023.914    114.91949    36.370856 
139812000    298.19846    299.78654    493.15556   -20054.654        20051   -193.36902    36.366474 
139816000    316.89442    447.32152    512.10306   -20098.544    20090.222   -64.781546    36.350748 
139820000    292.04476    301.91835    426.17385   -20111.504     20111.65    -124.2555    36.378085 
139824000    252.99321    191.86293    426.38701   -20150.048    20164.966   -234.52408    36.417777 
139828000    272.15625    364.50141    300.48673   -20185.996    20192.521    64.014678    36.386827 
139832000    289.64117    425.98912    333.44267   -20234.335    20227.123    92.546447    36.393824 
139836000    281.21991    389.87384    259.97525   -20247.488    20254.204    129.89859     36.37039 
139840000     253.8265    190.52849    209.62065   -20240.895    20242.819   -19.092162    36.390596 
139844000    266.86465    512.29487    192.53327   -20241.429    20250.296    319.76161    36.375035 
139848000    301.47966    533.46801    270.92375   -20269.228    20255.729    262.54426    36.377247 
139852000    275.50527     504.3252    279.88146   -20259.945    20258.981    224.44374    36.365116 
139856000    274.99198    463.68466    377.90027   -20265.067    20263.482    85.784386    36.320959 
139860000    290.52186    154.51069    530.20496   -20281.226    20267.872   -375.69427    36.319745 
139864000    298.36406    278.47558    430.69328   -20318.649    20316.008   -152.21771    36.281873 
139868000    306.82288    259.11383    469.03424     -20337.4     20332.02   -209.92041    36.286697 
139872000    318.85552    457.02549     365.1838   -20391.333    20347.576    91.841685    36.275245 
139876000    270.96716    268.85809    410.32712   -20361.608    20382.597   -141.46904    36.256336 
139880000    283.26329     212.5858    337.50355   -20413.358    20420.977   -124.91775    36.252703 
139884000    289.67944    396.58672    339.94437   -20439.579    20441.162    56.642349    36.284588 
139888000    262.83557    452.64335    428.81893   -20467.934    20479.586    23.824417    36.257886 
139892000    269.52634    256.74232    284.93191   -20520.059    20526.024   -28.189592    36.226875 
139896000    296.11936    283.73338    378.66977   -20547.972    20539.502   -94.936384    36.238959 
139900000    264.61128    396.28156    239.55748   -20562.102    20565.458    156.72408    36.248235 
139904000    278.77872    465.12749    281.35528   -20580.712    20589.894    183.77221    36.254287 
139908000      280.172    361.04412    262.50421   -20596.712    20585.578    98.539912    36.241557 
139912000    292.55771    211.53412    347.81205   -20608.744    20601.189   -136.27793    36.236988 
139916000    294.83931    413.49701    433.54608    -20634.81     20634.85   -20.049074    36.212477 
139920000    264.09997    382.64856    318.42503   -20650.879    20662.297    64.223533    36.233387 
139924000    298.99326     433.5031    173.14868    -20697.23    20684.298    260.35442    36.259948 
139928000    281.74539    416.64388    311.40042   -20709.137    20711.463    105.24346    36.277101 
139932000    314.88548    621.71592    220.34991   -20730.179    20724.778    401.36601    36.284057 
139936000    261.37688    293.70123    261.04815   -20739.824    20741.351    32.653077    36.268844 
139940000    300.01503    250.52459     301.8433   -20763.246     20746.17   -51.318716    36.306251 
139944000    277.94371    440.88518    312.57741   -20764.939    20768.924    128.30777    36.246302 
139948000    283.68208    488.01259    276.29326   -20791.113    20797.842    211.71934    36.273991 
139952000    246.62491    390.86172    284.55216   -20818.564      20836.7    106.30955     36.25249 
139956000     290.9092    375.73105    366.31349   -20851.683     20843.32    9.4175509    36.230661 
139960000    274.93754    328.61329    357.04375   -20851.618    20853.216   -28.430457    36.246585 
139964000    291.44714    252.65533     253.6768   -20882.007    20875.711   -1.0214705    36.274733 
139968000    281.15585    478.81975    486.34113   -20892.838    20884.994   -7.5213795    36.293289 
139972000    308.65467    487.37271    374.96814   -20914.318    20880.755    112.40457     36.30843 
139976000    295.81993    283.51057    360.71636   -20924.504    20919.748   -77.205784    36.331816 
139980000    301.62772    284.68664    272.54417   -20964.449    20955.631    12.142464    36.327446 
139984000    268.71577    257.27158      183.661   -20990.463    20984.808    73.610581    36.347659 
139988000    283.65383    276.35429    416.98965   -21015.136    21007.707   -140.63536    36.337013 
139992000    285.76277     568.5124    504.62737   -21031.527    21020.342    63.885034    36.337546 
139996000    287.53911    289.39348    282.94445     -21061.2    21045.079    6.4490315    36.342254 
140000000    296.91996    334.41356    330.71869   -21101.862     21076.96    3.6948631    36.318674 
140004000    275.52989    367.39978    386.46812   -21111.962    21102.517   -19.068347    36.302172 
140008000     327.0245    205.32906    491.78801    -21128.97    21094.667   -286.45895     36.35431 
140012000    291.39887    362.83301    244.47763   -21145.063    21103.298    118.35538    36.391191 
140016000    286.07146    341.32917    592.99999   -21172.202    21159.695   -251.67082    36.386176 
140020000    300.40403    513.18049    299.02309   -21183.325    21178.406     214.1574    36.388337 
140024000    295.96504    202.41432    255.39045   -21198.789    21192.555   -52.976131    36.363846 
140028000    298.54499    344.33431    244.30323   -21242.117    21229.839    100.03107     36.30531 
140032000    291.59385    596.00082    317.82685   -21239.937    21241.335    278.17397    36.345227 
140036000    284.60917    356.73796     290.2044   -21248.112    21244.031    66.533555     36.37292 
140040000    273.61709    473.60747    568.55865   -21290.897    21291.383   -94.951176    36.338987 
140044000    289.72079    458.70349    237.28962   -21306.936    21292.538    221.41387    36.357265 
140048000    289.47289    256.29696    245.71083   -21310.166     21311.63    10.586129    36.338615 
140052000    299.93908    330.56318    317.66189   -21331.586    21324.756    12.901291    36.371581 
140056000    269.14262    440.19531    278.51413   -21354.684    21344.866    161.68118    36.361196 
140060000    303.09837    599.22788    200.49611   -21386.856    21373.073    398.73177     36.40104 
140064000    270.09884    377.44519    354.86524   -21400.877    21410.845     22.57995     36.40484 
140068000    252.89027    295.78793    281.78459   -21425.849    21427.202    14.003339     36.41615 
140072000    268.01221    331.14993    274.25737   -21444.666    21432.952    56.892556    36.425148 
140076000    307.69082    480.57438    344.34481   -21458.713    21441.379    136.22956    36.422349 
140080000    295.63675     340.7874    188.38295   -21476.179    21465.125    152.40446    36.415471 
140084000    297.15311    392.46912    565.22367   -21452.236    21456.459   -172.75455    36.401546 
140088000    298.70246    428.19436    135.85602   -21481.783    21473.483    292.33834    36.424905 
140092000    272.44953    368.88455    442.95737   -21516.927    21503.721   -74.072819    36.395614 
140096000    256.68416    307.85864    207.82399   -21524.998    21535.075    100.03465    36.394147 
140100000    285.30459    260.41825    322.13028   -21559.601    21560.237   -61.712029    36.374022 
140104000    262.66673    187.40538    217.51794    -21583.66    21585.145   -30.112556    36.363105 
140108000     258.8524    232.98003    386.26391   -21607.834    21617.541   -153.28388    36.362932 
140112000    261.33516    434.08264    374.73898    -21624.75    21627.311    59.343669     36.35829 
140116000    311.84438    465.96366    401.65148   -21647.484    21635.799    64.312178    36.353531 
140120000    258.80445    181.82346    284.34687   -21652.424      21663.1    -102.5234    36.363883 
140124000    307.12133    200.95114    272.78198   -21678.754     21651.86    -71.83084    36.332403 
140128000    313.51387    333.45599    285.57288   -21706.823    21682.391    47.883111     36.34675 
140132000    330.31505    507.66292    239.51951   -21732.373    21696.799    268.14341    36.354045 
140136000    265.49413    381.36953    256.47625   -21720.034     21730.81    124.89328    36.348244 
140140000    266.45613    313.16721    297.15848   -21709.727    21720.629    16.008732    36.340724 
140144000    248.65772    230.19452    316.91374   -21728.577    21728.407   -86.719223    36.322102 
140148000    281.51897    578.92115    280.21511   -21759.929    21760.945    298.70604    36.308881 
140152000    271.45427    233.89538    477.24968   -21774.304     21790.73    -243.3543    36.278482 
140156000    266.27983     195.9012     387.6329    -21792.45     21787.86    -191.7317    36.291061 
140160000    269.23867    283.42231    333.91982   -21819.395     21810.95   -50.497509     36.21769 
140164000    285.79698    270.64156     259.5518   -21801.533    21800.593    11.089755    36.209619 
140168000    285.93147    397.03274    349.70111   -21834.983    21824.282    47.331621    36.176447 
140172000    296.92731    293.17609    283.78444    -21861.84    21856.482    9.3916464    36.166438 
140176000    292.03944    251.65366    345.69824   -21901.225    21903.249   -94.044575    36.131234 
140180000    277.27731    292.41693    287.97859   -21939.826    21942.612    4.4383358    36.135346 
140184000    292.97326    218.97321    195.19021     -21967.8    21957.558    23.783002     36.11239 
140188000    281.99952    179.92342    253.21105   -22001.434    21988.041   -73.287632    36.088078 
140192000     293.9763    365.54933    448.72187   -22007.969    22012.148   -83.172534    36.073055 
140196000     303.8176    536.41156    490.89763   -22049.601    22028.822     45.51394    36.064249 
140200000    297.65501    339.10733    328.19092   -22065.952    22063.668     10.91641    36.045687 
140204000      297.048    367.84496    394.25249   -22099.705    22075.748   -26.407531    36.032988 
140208000    312.45586     261.8208    316.87871   -22113.889    22102.542   -55.057907     35.97842 
140212000    274.00442    308.38338    327.59594   -22140.183    22150.924   -19.212562    36.003846 
140216000    265.77283    285.14353    281.26788   -22135.181    22151.484    3.8756565    36.028399 
140220000    278.68836    314.42144    371.16003    -22152.96    22158.111   -56.738588    36.014107 
140224000    314.37057    400.96173    616.34921   -22177.159    22159.824   -215.38748    36.027534 
140228000     277.1741    246.02442    440.43031   -22170.006    22170.002    -194.4059    36.016641 
140232000     299.6372    465.36613    315.13454   -22198.176    22189.749    150.23159    36.061457 
140236000    279.99793    246.19236    313.03489   -22223.713    22226.154   -66.842528    36.096277 
140240000    282.37391    236.20367    197.79285   -22241.616    22246.829    38.410813    36.104997 
140244000    311.57504    530.95317    164.40775   -22289.633    22265.994    366.54542    36.117425 
140248000    265.04484    360.75121    191.66577    -22293.69    22284.707    169.08544    36.101558 
140252000    271.04124    182.89485    298.12031   -22304.091    22310.175   -115.22546    36.117613 
140256000    284.77439    275.71955    182.44708   -22318.258    22330.206    93.272478    36.095368 
140260000    279.10705    284.52659    320.77001   -22356.637     22359.38   -36.243421    36.110735 
140264000    283.26401    310.92042    277.28051   -22369.588    22359.167    33.639912    36.119587 
140268000     292.2254    369.50912    383.68625   -22403.997     22409.71   -14.177129    36.079996 
140272000    260.95906    472.24553    260.94474   -22431.766    22430.205     211.3008    36.083003 
140276000    271.78307    182.17267    530.84579   -22448.234    22451.951   -348.67312    36.077273 
140280000    292.70889    340.68993    273.78933   -22519.421    22495.676      66.9006    36.088085 
140284000    267.13709    268.08781    335.86661    -22545.08    22533.508   -67.778796    36.092994 
140288000    291.67371    252.34788    327.75184   -22564.615    22551.593   -75.403964    36.042329 
140292000    276.88828    338.73685    332.02065   -22569.913    22577.671    6.7161915    36.050474 
140296000    293.66628    516.10315    443.43118   -22605.045    22591.899    72.671975    36.067203 
140300000     295.6637    407.21162    347.25774   -22633.829    22609.275    59.953877     36.07602 
140304000    304.89261    517.89994    352.48507   -22688.359    22656.671    165.41487    36.085996 
140308000    285.28894    381.30769    285.86355   -22667.988    22668.511    95.444142    36.083026 
140312000    285.37399    286.91546    294.66707   -22694.891    22700.888   -7.7516134    36.098586 
140316000     254.2647    437.61836     223.8197   -22681.815    22700.585    213.79866    36.108314 
140320000    285.03026    249.42507     384.9147   -22715.533    22689.728   -135.48963    36.110198 
140324000    281.99229    319.63347    440.37883   -22701.915    22703.542   -120.74536    36.117111 
140328000     289.3292    431.22521    245.04961   -22732.119    22727.796     186.1756    36.111859 
140332000    300.80652     490.9703      370.467    -22751.63    22741.747    120.50329    36.129601 
140336000    289.85803    292.50017    406.72583   -22760.939    22761.918   -114.22566    36.041338 
140340000    284.04676    509.63302    263.17488   -22803.664    22789.164    246.45814    36.032089 
140344000    274.06946    395.44778    224.63281    -22836.14    22821.729    170.81496     36.00858 
140348000    257.30832    471.28244    424.23863   -22835.621     22873.15    47.043808    35.996186 
140352000    283.21699     532.7106    202.29639   -22884.729    22882.256    330.41421    36.008982 
140356000    276.43701      227.737    288.59424   -22893.451     22890.44   -60.857241    35.996504 
140360000    284.48808     286.4815    236.16717   -22940.133     22938.58    50.314333     35.97903 
140364000     280.5484    264.89156    363.61941   -22959.863    22954.388   -98.727852    35.962142 
140368000    289.45003    337.69285    262.61017    -22997.91    22993.387     75.08268    35.972066 
140372000    260.58357    316.65777    183.78787   -22995.198    23004.024     132.8699    35.967537 
140376000    266.19305    225.58587    321.83245   -23018.276    23038.731   -96.246575    35.953499 
140380000    282.25277    466.33476    289.67238   -23061.394     23054.05    176.66238     35.94278 
140384000    319.96441    617.87954    436.12857   -23086.425    23058.263    181.75098    35.949481 
140388000    269.50995    420.11908    239.67649   -23081.135    23078.175    180.44259    35.954019 
140392000    268.00559    305.46695    227.75592   -23092.187     23105.18    77.711027    35.943085 
140396000    247.87107    322.47351    288.51044   -23110.521    23121.558    33.963063    35.984393 
140400000    281.72888    363.50562    189.63396   -23128.081    23135.631    173.87167    35.975896 
140404000    260.17758    238.59453    197.24171   -23140.991      23141.5    41.352822    35.964903 
140408000    267.48457    365.76115    166.16107   -23187.291    23175.987    199.60008    35.951342 
140412000    262.38539    379.89039     402.6703    -23202.03    23208.866   -22.779917    35.940658 
140416000    256.85319    436.46166    347.52436   -23226.341      23246.9    88.937305    35.944888 
140420000    316.82784    292.15376      217.391   -23280.304    23266.872     74.76276    35.932374 
140424000    244.12353    323.44433    319.94932   -23278.715    23290.157    3.4950099    35.955711 
140428000    289.44794     377.1315    460.16628   -23325.876      23305.2   -83.034774    35.945521 
140432000    275.86428     209.4238     242.4882   -23342.185     23342.66     -33.0644    35.970364 
140436000    289.74522    444.49837    236.19122   -23391.187    23388.354    208.30715    35.958406 
140440000    274.06988    313.81026    371.55358   -23399.292    23399.932   -57.743324    35.971927 
140444000    295.45284    396.95039    361.85007   -23409.895    23378.268    35.100319    35.992799 
140448000    279.38344    280.46961    374.05841   -23413.857    23417.481   -93.588799    35.999677 
140452000    272.60494    358.14823    247.34635   -23424.201    23431.866    110.80188    35.990335 
140456000    282.17265    302.36785    379.66451   -23426.889     23429.18    -77.29666    36.007731 
140460000    276.27376    358.38737    201.63684   -23430.471     23454.46    156.75054    35.996421 
140464000    272.95692    394.83978    360.93919   -23462.824    23465.251     33.90059    36.026365 
140468000    275.49836    463.31449      363.945     -23486.4    23483.822    99.369491    36.035411 
140472000    286.96275     299.9528    400.19906   -23507.286     23503.21   -100.24627    35.992028 
140476000     278.6014    388.22451    329.03313   -23542.231    23531.065    59.191377    35.991725 
140480000    291.57142    379.58754    355.82549   -23559.976    23535.509    23.762047    35.956975 
140484000    276.46031     489.4586    288.62775    -23561.32    23571.689    200.83084    35.954246 
140488000    285.95288    334.53847    216.96697   -23617.188    23606.574     117.5715    35.970753 
140492000    298.58652    546.69166    387.75587   -23636.859    23622.172    158.93579    36.001126 
140496000     327.6503    463.00011    406.21036   -23674.996    23652.438    56.789745    35.993636 
140500000    275.42736    366.26109    366.71714   -23707.864    23707.071  -0.45605171    35.969271 
140504000    301.29878    302.33812    414.09608   -23681.982    23686.558   -111.75796    35.952681 
140508000    262.10156    397.38258    457.53816   -23692.998    23713.455   -60.155578    35.961639 
140512000    262.86999    162.37946    353.17758     -23741.7    23750.565   -190.79811    35.932104 
140516000    279.99801    322.33205    209.36061   -23759.642    23757.669    112.97144    35.973343 
140520000    290.38139    230.19088    237.90599    -23760.14    23761.034   -7.7151059    35.958921 
140524000    268.26278    370.53553    480.31794   -23795.758    23805.918   -109.78241    35.958353 
140528000    281.53613     277.3485    431.88068   -23821.739    23816.929   -154.53217    35.942477 
140532000     311.0545    305.24146    283.42095   -23842.358    23834.811    21.820508    35.938886 
140536000    297.40842    379.17725    414.11978   -23865.827     23844.54    -34.94254    35.930929 
140540000    283.61711    410.55391    265.88355   -23880.073    23873.764    144.67036    35.956049 
140544000    278.46483      315.829    345.77971   -23902.945    23902.631   -29.950709    35.998542 
140548000     271.4219    215.38865    364.34507   -23918.639    23914.111   -148.95642    35.991778 
140552000    301.01621    266.39194    324.20927   -23926.616    23938.725   -57.817331    35.966979 
140556000     267.2605    325.52893    309.88678    -23948.57    23946.284    15.642154     35.92166 
140560000    268.23872    290.13256    316.99396   -23972.595    23988.034   -26.861397    35.922924 
140564000    297.56565    381.63901    297.68024   -24006.519    23991.684    83.958767    35.920658 
140568000    322.46623    222.15639    473.59577   -24027.674    23996.937   -251.43938    35.913899 
140572000    275.08394    324.99247    395.20705   -24030.428    24038.224   -70.214578    35.905759 
140576000    266.36803    325.00987    253.01876   -24068.845    24073.177    71.991104    35.895166 
140580000    261.75926     203.4722    439.03546   -24054.374    24070.667   -235.56325    35.913814 
140584000    292.62043    328.56494    357.76681   -24114.796    24098.416   -29.201874    35.897918 
140588000    294.23303    392.82346    223.89571   -24120.212    24103.197    168.92775    35.882443 
140592000    303.28186    450.55088    326.44594   -24110.381    24100.339    124.10493    35.860579 
140596000    287.21737    281.99307     239.1158   -24136.067    24133.217     42.87727    35.858258 
140600000     254.2307    372.54607    248.28662   -24154.211    24188.434    124.25945    35.829152 
140604000    289.82773    371.04994    223.15996   -24211.251    24213.163    147.88999    35.834649 
140608000    267.97246    434.50747    235.69196   -24226.746    24227.822    198.81551    35.827918 
140612000    322.24148    246.63366    445.04435   -24250.154    24222.691   -198.41069    35.844168 
140616000    276.06616    427.53316    257.50124   -24271.783     24269.48    170.03193    35.844153 
140620000      333.441    426.52504    361.14037   -24285.862    24258.114    65.384663    35.842549 
140624000    285.60044    417.51721    343.01998   -24298.652    24298.282    74.497235    35.878215 
140628000    304.24496    380.20446    388.39601   -24351.756    24335.574   -8.1915519    35.868171 
140632000    264.08385    331.17642    507.69406   -24315.221    24336.441   -176.51764    35.872008 
140636000    274.34635     453.6212    299.51782   -24340.892    24347.592    154.10339    35.895795 
140640000    272.32538    289.44833     309.0778   -24388.494    24377.175    -19.62947    35.879278 
140644000    284.18024    470.62276     377.0061   -24411.049    24420.572    93.616657    35.862371 
140648000    283.45266    249.28674    319.05418   -24441.741    24432.872   -69.767436      35.8578 
140652000    277.92793     411.5106     449.3333   -24445.291    24452.439   -37.822701    35.866316 
140656000    302.36802    414.02396    376.04566   -24477.095    24447.078    37.978298    35.898908 
140660000     300.2815    335.52218     247.6101    -24494.93    24484.183     87.91208    35.899274 
140664000    278.27154    316.62767    277.79945   -24528.765    24514.912    38.828216    35.917095 
140668000    271.60028      402.628    296.36214   -24548.012     24547.02    106.26586    35.897743 
140672000    293.34511    522.56597    234.61556   -24571.911    24554.093    287.95041    35.916922 
140676000    295.89385     208.0715    302.94993    -24584.29    24569.914   -94.878429     35.87616 
140680000    297.00392    226.80846    284.56549   -24596.103    24587.669   -57.757027    35.893454 
140684000    263.71906    272.76745    230.88037   -24615.534    24617.522    41.887076     35.92639 
140688000    334.21602    559.30689    347.11699   -24654.031    24616.539     212.1899    35.921915 
140692000    288.87899    361.74533    430.44832   -24651.009    24645.864   -68.702988    35.910765 
140696000    290.63853    270.10144    307.89085   -24667.391    24644.479   -37.789409    35.889186 
140700000    285.51449    344.50702    242.93997   -24677.622    24663.389    101.56704    35.884402 
140704000    279.32865    307.25099    421.62189   -24705.482     24697.11   -114.37089    35.892115 
140708000    262.30427    328.28886    559.96582   -24696.434    24718.605   -231.67696    35.898858 
140712000    293.28429    265.67206    246.94811   -24744.486    24758.782    18.723951    35.897753 
140716000    335.96223    514.56741    347.88506   -24810.768    24785.678    166.68235    35.933538 
140720000    278.65184    256.38833    219.21768   -24794.634    24813.038    37.170657     35.92041 
140724000    286.91161    240.78552    389.34894   -24822.635    24820.475   -148.56341    35.952886 
140728000    262.24003    473.00768    376.07237   -24834.005    24859.201    96.935314    35.963571 
140732000    294.36298    287.37383    398.94321   -24878.879    24869.267   -111.56938    35.951288 
140736000    291.66728    508.54322    225.35056   -24903.401    24883.661    283.19266    35.957604 
140740000    302.22149    514.19943    186.11844   -24914.743    24891.346    328.08099    35.959573 
140744000    278.99457     393.9121     288.3294   -24922.785    24894.933    105.58269    35.970423 
140748000    296.22356    531.02716    444.48388   -24967.548    24921.778    86.543275    35.961339 
140752000    290.36455    348.76678    386.30536   -24970.963    24962.609   -37.538584    35.968834 
140756000    277.14336     313.4889    330.28232   -24983.678     24997.48   -16.793427    35.962963 
140760000    284.19917    344.81809    207.27832   -25011.874    25017.312    137.53977    35.989852 
140764000    261.30232    211.13766    153.41722   -25028.293    25029.805    57.720439    36.001108 
140768000     292.6723     352.6146    250.83618   -25076.259    25053.975    101.77842    35.995718 
140772000    270.77985    299.71974    443.22845   -25099.065    25100.123   -143.50871    35.983545 
140776000    287.32782    236.54936    106.82044   -25128.926    25126.561    129.72892    35.986338 
140780000     307.9132    235.70925    250.95274   -25137.361    25111.985   -15.243492    35.985901 
140784000    279.63444    419.10551    307.03553   -25152.887    25156.292    112.06998    35.980453 
140788000    277.00524    483.30046    346.87924   -25178.923    25184.086    136.42122    35.976633 
140792000    275.21049    302.31555    323.47718   -25217.217    25213.659   -21.161637    35.959882 
140796000    270.22833    354.25077    309.77187   -25261.103     25240.64    44.478901     35.97265 
140800000    259.73464     371.0715    225.16185   -25260.301     25256.18    145.90964    35.968418 
140804000    303.23381    412.30957    228.15675   -25321.633    25295.146    184.15281    35.961512 
140808000     317.7981    374.02127    315.94488   -25348.078    25319.079    58.076388     35.97086 
140812000      280.113    384.17306    220.89782   -25327.139    25318.464    163.27524    35.982259 
140816000    294.60266    240.10156    465.99692   -25311.795    25309.286   -225.89536     35.95245 
140820000    311.39705    290.59559    306.60295   -25342.665    25320.513   -16.007361    35.937452 
140824000    271.58403    380.05566    213.09253   -25337.049    25330.194    166.96312    35.925849 
140828000    280.85251    233.94032    360.66171    -25352.87    25349.262   -126.72139    35.921157 
140832000    291.12069    316.30122    281.06532   -25381.407    25372.068    35.235904    35.920838 
140836000    307.16573    250.08534     284.0291   -25421.217    25395.608   -33.943758    35.903344 
140840000    289.76947    515.76506    527.88865   -25435.811    25419.149    -12.12359    35.889146 
140844000     261.1223    423.58599    223.92923   -25430.232    25450.214    199.65676    35.890612 
140848000    285.54116    495.70757    483.71712   -25464.361    25449.514    11.990449    35.866103 
140852000    302.28065    366.77602    145.71082    -25502.24    25474.566    221.06521    35.879635 
140856000    286.42608    136.37224    281.68483    -25520.06     25518.97   -145.31259    35.869619 
140860000     269.0623     200.0079    340.76526   -25531.456    25530.592   -140.75736    35.872548 
140864000    298.75706    325.48828    463.78632   -25557.199    25551.604   -138.29804    35.822873 
140868000    265.71432    231.44972    256.96837   -25554.043    25562.232    -25.51865    35.823019 
140872000    277.01399    254.19098    242.45551   -25589.141    25580.451    11.735476    35.843665 
140876000    253.87977    249.02552    254.44407   -25623.301    25628.592   -5.4185565    35.823477 
140880000    291.09564    434.51947    455.63649   -25654.502    25640.075   -21.117019    35.824493 
140884000     286.1095    385.94367    412.08827   -25664.328    25656.602   -26.144599    35.800472 
140888000    257.58874    337.97534    239.97177   -25662.854    25682.001    98.003569    35.840074 
140892000    313.85273    354.27804     367.1053   -25700.953    25678.067   -12.827258    35.826896 
140896000     294.2283     443.2499    340.06434   -25722.734    25706.956    103.18556    35.814639 
140900000    253.54434    428.60095    289.16446   -25732.531    25746.093    139.43648     35.81044 
140904000    289.56371    252.13897    229.94995   -25747.365    25730.723    22.189021    35.822985 
140908000    261.26254     187.7763    545.36032     -25749.5    25771.264   -357.58403    35.791018 
140912000    307.15967    510.25354    395.32404     -25788.6     25788.98     114.9295    35.794904 
140916000     309.4377    556.36418     270.7603   -25844.592    25814.582    285.60388    35.799358 
140920000    285.16407    326.30532    381.86074   -25848.961    25851.804   -55.555425    35.809665 
140924000    269.70733    205.06893    280.43426   -25871.725    25866.344   -75.365333    35.815484 
140928000    289.47453    445.95761    265.51033   -25908.749    25887.204    180.44727    35.828684 
140932000     292.1869    450.92798    316.42041   -25911.846    25918.466    134.50757    35.871229 
140936000    257.40363     348.2104    322.76656   -25919.356    25950.323    25.443835    35.876022 
140940000    269.21027    277.83113    441.37446   -25939.883     25973.65   -163.54333    35.859684 
140944000    271.40602    314.86494    338.77235   -25980.478    25992.092   -23.907408    35.858854 
140948000    285.72803    473.16413     347.6413    -26038.31    26023.412    125.52283    35.874426 
140952000    275.27982    249.01101    197.25354   -26050.802    26070.144    51.757465     35.88752 
140956000    275.91264    427.88704    401.03382   -26070.351    26091.758    26.853226    35.895809 
140960000    306.16492    328.74144    504.44102   -26126.763    26118.394   -175.69958     35.88484 
140964000    297.01103    280.62793    312.27578   -26166.155    26160.224   -31.647849    35.870975 
140968000     271.8358    304.30453    236.88946   -26162.231    26180.401    67.415069     35.89229 
140972000    255.69722    355.26393    190.72025   -26177.971    26193.899    164.54368    35.891785 
140976000    271.68713    444.57725    283.94958   -26193.489    26205.097    160.62767    35.898206 
140980000    288.35337    484.96778    369.87106   -26228.216    26216.893    115.09671    35.890109 
140984000    295.39443    380.63204    187.45654   -26255.265    26240.109     193.1755    35.879418 
140988000    286.73257     416.0841    330.54788   -26255.411    26265.991    85.536215    35.855015 
140992000    292.70935    310.98477    315.26464   -26287.687     26280.22   -4.2798721    35.871636 
140996000    295.84004    279.73017    297.62944   -26300.976     26268.54   -17.899267    35.862686 
141000000    312.36877    322.27562    501.52046   -26310.507    26292.794   -179.24484    35.884113 
141004000    281.82045    440.97583    391.90702   -26328.519    26320.183    49.068806    35.882225 
141008000    278.49553    302.73748    310.69663   -26332.493     26329.29   -7.9591468    35.904813 
141012000    259.79829    453.83397     331.8932   -26360.802    26358.634    121.94077     35.90809 
141016000    267.74073    363.93154    431.93855   -26395.969    26399.034    -68.00701    35.900283 
141020000    325.34383    361.57676    301.12822    -26447.84    26431.856    60.448545    35.926129 
141024000    280.76359    236.80491    243.18715   -26492.766    26470.534   -6.3822359    35.927473 
141028000     286.0788     268.1932    410.54872   -26505.118    26502.267   -142.35552    35.906788 
141032000     306.3294     519.1998    270.66598   -26522.797    26531.466    248.53382    35.928938 
141036000    235.38808    151.82481    170.59076   -26523.415    26552.436   -18.765948    35.889966 
141040000    263.65592     292.8926     170.4511   -26538.983    26552.803     122.4415    35.915064 
141044000    284.47576    471.14695    265.09915   -26532.724    26537.302     206.0478    35.902049 
141048000    264.71328    466.89675    153.82675   -26543.849    26536.051    313.06999    35.908319 
141052000    288.18724    411.26908     375.6592   -26570.426      26549.4    35.609887    35.903215 
141056000    288.52875    421.41229    289.50034   -26603.364    26600.166    131.91195    35.901306 
141060000    262.82161    167.94534    242.16281   -26635.619    26645.988   -74.217467    35.874436 
141064000    297.31684    480.40459    210.07891    -26672.22    26649.302    270.32569    35.884763 
141068000    251.50533    281.29135    312.18044   -26662.084    26674.987   -30.889088    35.900047 
141072000    321.16755    235.29645    363.98158   -26711.197     26678.13   -128.68514    35.873573 
141076000    307.75951    298.70366    428.22507   -26708.189    26711.227   -129.52141    35.863159 
141080000    268.05266    380.41542    365.22947   -26759.593    26740.035    15.185955    35.890714 
141084000    282.61455    364.38389    233.76687   -26796.596     26795.63    130.61701    35.883385 
141088000    276.83321    276.17356    266.64741   -26807.119    26803.565    9.5261507    35.850578 
141092000    281.83359    461.39043    385.83657   -26812.369     26824.06    75.553859    35.846064 
141096000    273.61169    401.96737    199.57369   -26823.875    26833.527    202.39368    35.846856 
141100000    282.22348    396.22311    264.60707   -26849.688    26853.717    131.61604    35.854046 
141104000    266.18789    354.62131    226.74008   -26906.132     26914.35    127.88123    35.821665 
141108000    267.44418     334.5526    372.20461   -26939.164    26953.772   -37.652006    35.813876 
141112000    291.40026    228.72681    407.58596   -26970.877    26959.583   -178.85915    35.791297 
141116000    289.96063    307.70526    375.46951   -27017.647    27013.621   -67.764249    35.807086 
141120000    283.79487    346.40203    300.78121   -27047.212     27037.04    45.620824    35.842326 
141124000    276.86172    375.56627    341.39343   -27047.913    27064.791    34.172844    35.843739 
141128000     271.6378    504.09032    256.69344   -27065.009    27067.771    247.39688    35.853154 
141132000     270.4521    279.92188    244.10684    -27089.36    27102.307    35.815038    35.851096 
141136000    272.40061    287.90452    269.01621   -27142.026     27130.15     18.88831    35.861407 
141140000    277.15697    279.74691    319.15914   -27147.653    27144.383   -39.412227    35.850201 
141144000    283.39108    228.90195    365.25551   -27175.739    27173.484   -136.35356    35.833359 
141148000    265.82289    234.95424    379.02562   -27185.121    27194.945   -144.07138    35.822621 
141152000    282.47697    474.28283    282.11331    -27238.75    27218.103    192.16953    35.842233 
141156000    273.91116    205.81586    162.77948   -27261.118    27270.004    43.036374    35.854506 
141160000    286.58293    428.31013    430.76093    -27269.65    27263.889   -2.4507942    35.844807 
141164000    290.67372    280.39668    466.37051   -27299.896    27313.803   -185.97383    35.838519 
141168000    260.25536    184.26474    189.53273   -27326.731    27337.039   -5.2679932    35.862824 
141172000    275.52391    376.12247    343.84547   -27343.415     27344.81    32.276994    35.844822 
141176000    277.48462     354.8546    211.98209   -27374.961    27365.466    142.87251    35.875952 
141180000    276.54766     387.4303    275.53758   -27394.145    27384.673    111.89272    35.868372 
141184000    265.09195    235.50707    236.00183   -27409.129    27401.094  -0.49475412    35.836355 
141188000    278.48533    324.20345    189.72072   -27407.396     27404.14    134.48274    35.854573 
141192000    275.57838    401.22118    209.56779   -27409.737     27426.64    191.65339    35.852382 
141196000    271.49693    174.62602     321.3466   -27435.097     27450.87   -146.72058    35.844402 
141200000     276.3951      298.257    272.56248   -27447.461    27456.964    25.694524    35.810576 
141204000    283.31956    419.39067    318.61537    -27462.32    27456.632     100.7753    35.825879 
141208000    286.80694    294.62131     600.2708   -27477.158    27467.746   -305.64949    35.810535 
141212000    291.87995    241.17463    218.92106   -27486.759    27487.805     22.25357    35.820379 
141216000    300.78264    263.99696    342.94064   -27505.442    27509.697   -78.943683    35.822321 
141220000    278.25577    131.22354    237.99304   -27515.605    27528.259    -106.7695    35.802186 
141224000     278.4891     441.2217    453.13065   -27567.831    27552.809   -11.908955    35.786671 
141228000    271.31273    358.74805    362.77092   -27574.267    27565.032   -4.0228784    35.766805 
141232000    279.02094    381.48994    224.39137   -27572.711     27580.44    157.09857    35.718409 
141236000    265.98292     270.4301    207.68211   -27597.935    27602.194    62.747994    35.718561 
141240000     280.9432    484.91773    294.00333   -27609.339    27614.593    190.91441     35.73743 
141244000    285.58254    702.47372    408.14515   -27646.452     27643.92    294.32858    35.751809 
141248000    278.02373    441.72257    219.54343   -27693.772    27686.576    222.17914    35.774914 
141252000    283.48165    399.25013    161.15039   -27720.461    27716.241    238.09974    35.790566 
141256000    260.63073    477.51543    275.18548   -27730.324     27724.32    202.32995    35.802777 
141260000     279.0782    215.38719    376.46417   -27755.487    27762.463   -161.07697    35.810498 
141264000    300.44077    641.66633    134.74607   -27775.587    27779.111    506.92026    35.823177 
141268000    286.18406    472.00498    474.51286   -27795.375    27792.157   -2.5078843    35.827961 
141272000    257.18273    224.59704    357.24568   -27827.579    27825.649   -132.64864    35.824239 
141276000    265.49009    279.14448    433.61518   -27844.927     27852.93   -154.47069    35.813406 
141280000    266.06584    242.23433    369.60237   -27872.969    27900.055   -127.36804    35.825195 
141284000    265.86318    430.38052    344.00332   -27890.012    27907.799    86.377197    35.824326 
141288000    303.30366    414.85725    353.09916   -27915.646    27886.515    61.758088    35.822032 
141292000    254.84506    217.95335    290.38348    -27902.17    27925.706   -72.430127    35.799428 
141296000    273.08326    358.18268    120.40693   -27926.904    27932.995    237.77575    35.805315 
141300000    279.70103     372.4479    413.00306   -27960.204    27970.361   -40.555164     35.84354 
141304000    278.10557    367.63625    408.50733   -28004.338    27997.374   -40.871079    35.843529 
141308000    292.37457    455.10022     354.3408   -28039.889    28033.655    100.75942    35.859681 
141312000    279.95761     379.1076    229.03765   -28074.546    28078.731    150.06995    35.858156 
141316000    268.95659    329.97647    170.63369   -28106.729    28103.331    159.34278    35.856575 
141320000    289.66141    338.68401    511.65155   -28126.731    28126.124   -172.96754    35.832189 
141324000    298.75357    389.80296    268.03469   -28156.199    28152.983    121.76827    35.836939 
141328000    278.93849    546.85366    404.04485   -28186.123     28177.68     142.8088    35.869543 
141332000    268.27756    523.42479    289.88336   -28199.664    28207.245    233.54143     35.87633 
141336000    274.41511    195.36837    331.81469   -28231.359     28228.39   -136.44633    35.893083 
141340000    293.33192    583.52943    337.26034   -28279.732    28261.732    246.26909    35.879671 
141344000    261.97232    415.72489    252.05342   -28281.601    28293.161    163.67146    35.873761 
141348000    245.27315    307.75216    360.04462   -28286.725    28306.303   -52.292463    35.884732 
141352000    271.43428    252.70981    383.21571   -28326.045    28337.419    -130.5059     35.86718 
141356000     291.0851    188.90153    305.60619   -28377.866    28351.017   -116.70467    35.853251 
141360000    289.11663     324.8647    453.18195   -28392.064    28384.296   -128.31725    35.818247 
141364000    282.83352    292.21588    199.61617   -28428.148    28412.928    92.599704    35.844889 
141368000     278.3874    279.04961    432.36193   -28441.716    28440.234   -153.31232    35.827711 
141372000    270.75041    408.53294    177.96473   -28474.874    28469.485    230.56821    35.825458 
141376000    322.67859    326.63533    283.10813   -28494.954    28459.147    43.527201    35.822549 
141380000    283.44818    400.00728    152.42464    -28490.79    28486.114    247.58264      35.8332 
141384000     288.4669    308.37199    458.06634   -28478.513    28468.838   -149.69435      35.8494 
141388000    308.30396    458.31908    264.04903   -28514.599    28490.816    194.27005    35.855173 
141392000    303.24392    411.49847    563.20547   -28512.703    28495.779     -151.707    35.839679 
141396000    276.76134    241.98489    190.68739   -28534.358    28538.386    51.297491    35.834649 
141400000    265.08519    444.18358    274.46793    -28546.86    28564.551    169.71564    35.817822 
141404000     279.8006    493.69752    384.96582    -28574.15    28577.779     108.7317    35.787458 
141408000    272.77484     209.7672    209.63709   -28591.664    28602.925   0.13011599    35.787149 
141412000    299.97132    514.04119    248.94416   -28624.149    28620.751    265.09703    35.789608 
141416000    287.24594    377.27733     282.6236   -28649.908    28640.998     94.65373    35.778977 
141420000    263.48285    387.24161    346.30673   -28661.337    28660.289    40.934882     35.80117 
141424000    287.89216    377.35301    139.26605   -28692.033    28673.457    238.08696    35.818129 
141428000     286.3139     307.4838    335.53275   -28746.341    28726.962   -28.048952    35.818655 
141432000    276.36775    345.65781    239.68913   -28727.225    28733.936    105.96868    35.802961 
141436000    281.14399    427.41218    456.75531   -28762.082    28737.384   -29.343133    35.799889 
141440000    261.61298    327.46614    327.31499   -28769.854    28765.543   0.15114706    35.769771 
141444000    269.19428    341.43871     360.1749   -28793.969    28803.527   -18.736193    35.771145 
141448000    281.50648    357.06795    224.50009    -28812.08    28793.397    132.56786    35.782716 
141452000    272.05432    341.14764    394.45876   -28843.282    28833.947   -53.311122     35.78149 
141456000    276.95988    270.61126    411.98288    -28856.94    28854.547   -141.37161    35.805125 
141460000    259.12428    306.47167    364.86547   -28877.994    28876.836   -58.393794    35.838211 
141464000    272.31482    237.34413    265.86239   -28898.298    28900.441   -28.518262    35.837953 
141468000     273.5464    399.32987    375.06383   -28919.666    28911.556     24.26604    35.821726 
141472000    282.24564    333.07759    278.33587   -28935.737    28938.338    54.741715     35.83907 
141476000    250.73698     399.3758    341.05179   -28954.601    28973.368    58.324013    35.843811 
141480000    275.84695    493.54765    554.27764   -28989.363    28999.385   -60.729991    35.837934 
141484000     247.6272    224.95353    298.78141   -29015.354    29026.847    -73.82788    35.840802 
141488000    287.27772    243.52995    407.34542   -29043.104    29031.661   -163.81547    35.814833 
141492000    271.64718    244.15839    266.12736   -29057.522    29068.976   -21.968969    35.813395 
141496000    273.53715    581.68342    207.05818   -29059.537    29078.809    374.62524    35.820742 
141500000    292.52971    313.92589    290.09733   -29060.342    29066.438    23.828559    35.815324 
141504000    287.85421    320.55974    486.97585    -29117.64     29086.77   -166.41611     35.80861 
141508000     302.1323    337.50339    277.66685   -29135.766    29123.908    59.836539    35.810102 
141512000    278.72951    303.84818    282.30497   -29163.435    29159.938    21.543209    35.806957 
141516000    278.16908    288.66079    488.42881   -29194.282      29181.6   -199.76803    35.800882 
141520000    314.37177    285.86565    540.24116   -29215.677     29200.82   -254.37552    35.802715 
141524000    284.12953    322.85545    375.27802   -29229.612    29231.526   -52.422568    35.837756 
141528000    266.55763    485.38222    247.45802   -29247.169    29261.309     237.9242    35.824728 
141532000    301.81175    328.39042    321.90056   -29264.733    29258.893     6.489868    35.858603 
141536000    301.57925    603.27841    430.16928   -29301.952    29294.942    173.10913    35.851697 
141540000     272.6956    139.22997    203.59569   -29318.341    29306.502    -64.36572    35.874658 
141544000    275.98292    376.97643    386.09526   -29319.981    29341.277   -9.1188312    35.877226 
141548000    270.35007    356.69677     386.2256   -29377.213    29389.105   -29.528822    35.874183 
141552000    277.62915    528.54735    239.30398   -29425.296    29403.261    289.24337    35.886654 
141556000    270.29178    319.39695    284.59564   -29444.562    29425.363    34.801315    35.897993 
141560000    295.62775    332.70033    300.19611   -29448.834    29425.412    32.504224    35.888979 
141564000      316.782    343.74328    311.96349   -29439.438    29420.473    31.779789    35.864751 
141568000     301.4759    204.86536    274.67295   -29451.687    29442.081   -69.807588    35.848861 
141572000      301.624    527.14425    304.45461   -29461.977    29440.006    222.68964    35.867658 
141576000    297.75279    425.55246    350.20222   -29466.552    29450.968    75.350238    35.899138 
141580000    277.03886    564.75163    314.51202    -29465.64    29460.564     250.2396     35.93897 
141584000    295.67991    315.77417    220.25899   -29485.866    29464.965    95.515183    35.943177 
141588000    303.99873    383.91216    256.36589   -29502.768    29475.489    127.54628    35.941182 
141592000    318.10545    560.74771    337.97152   -29533.971     29505.52    222.77619    35.922742 
141596000     276.5494    382.61387    448.61179   -29525.797    29537.629   -65.997919    35.925391 
141600000    264.10714     330.3939    463.18261   -29534.538    29555.442   -132.78871    35.954769 
141604000    301.78716    322.70481    281.48001   -29563.164    29553.167    41.224808    35.944635 
141608000     290.0817    316.56289    368.87823   -29583.262     29572.29   -52.315334    35.937258 
141612000     300.2807    439.07637    337.67292   -29613.586    29606.875    101.40345     35.91181 
141616000    288.67732    376.95992    270.12316   -29637.744    29624.276    106.83676    35.884231 
141620000    289.81622    231.46965    314.64048   -29655.807    29652.646   -83.170829     35.88172 
141624000     305.2407    349.95412    405.42693   -29693.731    29681.592    -55.47281    35.877876 
141628000    274.13424    287.32154    497.96901   -29712.983    29707.207   -210.64747    35.906434 
141632000    276.53744     336.7768    339.31061   -29712.269    29700.505   -2.5338098     35.93587 
141636000     283.5734    466.48962    277.27932   -29742.412    29740.512     189.2103    35.934518 
141640000    293.84403    382.57172    290.67187   -29760.704    29744.707    91.899853    35.958417 
141644000    285.20425    350.73566     194.2953   -29765.082    29765.168    156.44036    35.964489 
141648000    260.22798     364.3254    337.44876   -29764.437    29783.467    26.876637    35.973822 
141652000    289.22456    439.06294     294.2719   -29815.673    29799.474    144.79104    35.988196 
141656000    305.06897    421.11452    363.14927   -29830.228    29807.662    57.965249    35.987972 
141660000    283.83913    348.72454    356.31732   -29842.407    29842.701   -7.5927757    35.995233 
141664000     291.5322    491.60663    341.30266       -29854    29835.003    150.30397    35.995077 
141668000    299.63017    586.52431    503.75636   -29863.934    29843.726    82.767948    35.987819 
141672000    300.74253    272.27944    255.42555   -29902.026    29895.413    16.853888     35.99849 
141676000      265.424    317.55685    367.81369   -29890.674    29901.651   -50.256834    35.986704 
141680000    308.42426    410.66972    249.63188   -29928.148    29893.995    161.03784    35.966228 
141684000    308.91137    317.69679    284.26774   -29963.721    29944.382     33.42905     35.98949 
141688000    288.52129    461.31672    356.28693   -29983.209    29977.038    105.02979    35.973905 
141692000    286.26712    256.08627    229.13696   -29983.119    29979.425    26.949313    35.984939 
141696000    268.60686    236.20691    161.18471   -29979.546    29995.338    75.022196    35.983358 
141700000    261.43608    280.84557    297.45162   -30035.558     30042.67    -16.60605    35.993088 
141704000    288.67501     548.5385    478.66634   -30099.466    30084.865     69.87216    35.991088 
141708000    261.64157    213.77512    277.20392   -30111.391    30119.426   -63.428796    36.004059 
141712000     265.6102    250.93036    469.50194   -30125.687    30160.731   -218.57158    36.010067 
141716000    300.51656    320.93998    264.97259   -30171.532     30156.32    55.967384    36.017298 
141720000    282.27164    252.07984    391.81257   -30176.471    30172.401   -139.73273    36.019015 
141724000    266.29323     273.2002    282.05708   -30207.388    30220.674   -8.8568786     36.01825 
141728000    250.50333    301.82526    251.66363   -30212.157    30231.814    50.161625    36.001608 
141732000    268.07477    311.83818    149.88195   -30252.812    30253.239    161.95624    36.025086 
141736000    310.22638     341.6299    282.44866   -30262.753    30254.916    59.181235    35.996339 
141740000    290.06692     391.3725    253.20097    -30298.64    30287.022    138.17153    36.008232 
141744000    264.70963    275.08757    280.30833   -30304.615    30337.046   -5.2207672    35.991528 
141748000    261.74995    340.22832     260.7754   -30317.838    30331.164    79.452922    36.012354 
141752000    287.38437    296.03602    391.15735   -30342.965    30329.818   -95.121332     36.00317 
141756000     282.1264    383.47021     157.9867   -30339.239    30343.483    225.48351    36.026562 
141760000     275.9351    422.38965    324.29869   -30356.835    30353.776    98.090968    36.008113 
141764000    287.88528    201.36974    321.52892   -30383.838    30366.839   -120.15918     36.02467 
141768000    305.11848    203.57199    386.31236   -30418.234    30394.716   -182.74037     36.04508 
141772000    253.64235     409.0413    482.36055   -30416.071    30434.718   -73.319247    36.046117 
141776000    284.09949    351.38177    536.33756    -30445.86    30462.924    -184.9558    36.024591 
141780000    290.45818    289.41728    330.76974   -30466.906    30475.312   -41.352456    36.017493 
141784000    266.26209    335.61509     287.9812   -30498.623    30507.263    47.633888     36.02893 
141788000    315.97839    567.34856    201.81679   -30529.709    30515.231    365.53177    36.032731 
141792000    286.20502    421.94794    284.56679   -30542.795    30542.578    137.38115    36.057324 
141796000     259.8433    268.12845    403.94905   -30559.506    30564.431    -135.8206    36.065597 
141800000     251.2958    316.00086    271.89688   -30593.287    30614.775    44.103978    36.049015 
141804000    286.54938     813.3831    408.82294    -30630.08    30619.276    404.56016    36.040378 
141808000    295.17201    367.18956    331.19127   -30657.694    30652.785    35.998288    36.054161 
141812000    287.79477    400.62243    306.29678   -30705.292     30680.62    94.325653    36.028281 
141816000    280.63346    364.45831    224.43098   -30688.156    30688.419    140.02733     36.01649 
141820000    271.89241      430.821    400.37816   -30705.042    30713.213    30.442845    36.027311 
141824000    279.66079    215.75501    332.04383   -30746.563    30749.406   -116.28882    36.043368 
141828000    278.19581    531.72111    276.41509   -30771.219    30782.129    255.30602     36.04746 
141832000    279.23607    313.44381    246.30429   -30805.195     30815.72    67.139517    36.058099 
141836000     295.9614    503.53236    480.73004   -30838.668    30815.722    22.802315    36.076566 
141840000    295.26363    354.21046    292.16236   -30867.108    30867.222    62.048102    36.089014 
141844000    258.34451    250.17163    168.73954   -30867.996    30896.535    81.432081      36.0818 
141848000     295.8469    315.73128    119.38901   -30923.178    30890.822    196.34228    36.090195 
141852000    283.14479    459.52488    299.70698    -30922.75    30927.326     159.8179    36.137282 
141856000    268.07973    439.45625    160.99444   -30956.601    30954.965    278.46182    36.133349 
141860000    275.67179    322.83099    178.44649   -30989.431    31000.901     144.3845    36.156779 
141864000    310.38758    378.00186    394.51971   -31034.296    31012.838   -16.517848    36.159309 
141868000    284.05443    380.42355    333.06898   -31054.654     31053.59    47.354568    36.156684 
141872000    254.20267    268.04543    262.09572   -31062.433    31081.133    5.9497102    36.155313 
141876000    300.65271    336.82468    300.55434   -31105.651    31085.212    36.270337    36.158648 
141880000    321.44279    488.26797    306.70595   -31141.778    31130.056    181.56202    36.126524 
141884000    275.62032    404.62562    238.28091   -31148.189    31142.383    166.34471    36.123262 
141888000    262.91102    318.47946     190.8509   -31159.489    31185.909    127.62856    36.138481 
141892000    278.01909    399.34914    263.35581   -31205.813    31171.142    135.99333     36.13572 
141896000    299.29751    253.12944    397.57033   -31238.493    31201.957   -144.44089    36.154449 
141900000    287.85696    104.49393    356.88986   -31238.139    31247.284   -252.39593    36.151132 
141904000    266.69549    451.98401    262.26384   -31253.702    31275.028    189.72017    36.133564 
141908000    286.76651    416.19415    287.63041   -31309.428    31302.733    128.56374    36.115239 
141912000    295.50535    318.90863     325.6348   -31321.616    31307.863   -6.7261755    36.119391 
141916000    305.55467    638.86834    406.05999   -31363.159    31339.621    232.80835    36.114617 
141920000    291.72627    498.99518    464.63459   -31386.242    31388.651    34.360591    36.121793 
141924000    285.31513    323.45758    373.53938    -31443.97    31429.029   -50.081799    36.112319 
141928000    292.13891    309.58268    240.89302   -31457.821    31451.392    68.689664    36.112681 
141932000    290.66486    276.81542    348.21439   -31476.913    31478.337   -71.398968    36.090275 
141936000    298.51971    480.48072    195.05675   -31503.854    31477.529    285.42398    36.103998 
141940000    290.30322    379.81438    449.71601   -31484.709    31476.659   -69.901634    36.108071 
141944000    267.84409     444.0639    354.31641   -31501.928     31519.71    89.747492    36.075592 
141948000    263.22669    168.00408    279.25887   -31539.473    31561.994   -111.25479    36.024603 
141952000     279.1882    395.62428    210.08878   -31583.333    31586.857     185.5355    36.030282 
141956000    310.90498    334.26357    236.61765   -31621.518     31611.42    97.645914    36.020539 
141960000    295.51356    401.19581    281.66309   -31617.406    31612.047    119.53272    36.050302 
141964000     271.1554     434.6708     272.3678   -31631.326     31634.73      162.303    36.069573 
141968000    300.22129    214.38732    434.66294   -31677.538     31653.01   -220.27562     36.07603 
141972000    263.27043    265.97747     337.7833   -31682.852    31698.628   -71.805832    36.090441 
141976000    268.21966    255.03954    433.75995   -31682.312    31694.505   -178.72041    36.114924 
141980000    306.59521    434.82197    380.51685   -31737.449    31728.295    54.305124    36.112819 
141984000    304.00486    306.91068    253.12663   -31770.138    31752.635    53.784049    36.112829 
141988000    305.44407    491.04504    314.61622   -31822.096    31781.783    176.42882    36.107831 
141992000     234.4921    278.58856    187.18318   -31810.797    31839.348    91.405384    36.119957 
141996000    280.96087    332.67594    349.02846    -31804.69    31813.312   -16.352523    36.102837 
142000000    274.84185    422.21167    188.30666   -31833.975    31828.123    233.90501    36.106033 
142004000    275.57039    275.60282     383.3836    -31842.56    31838.764   -107.78078    36.089399 
142008000    284.14805    228.78729     298.3291   -31870.677    31854.771    -69.54181    36.108364 
142012000    281.23697    503.16155    253.79845   -31887.226    31894.647     249.3631    36.136687 
142016000    279.35839     467.6235    310.07084   -31886.074     31895.24    157.55266    36.144627 
142020000    276.76418    250.63304    180.02962   -31908.051    31903.566    70.603415    36.133791 
142024000    290.01436    438.93573    400.83733   -31906.886    31891.755    38.098397    36.131101 
142028000     260.4877    307.18346    341.30374   -31911.917    31912.982   -34.120281    36.124676 
142032000    260.97911    179.81754    386.96295   -31922.184    31942.559   -207.14541    36.118215 
142036000    261.02261    190.09918    224.73759   -31950.687    31949.624    -34.63841     36.10567 
142040000    269.60516    465.27408      416.876   -31966.252    31971.131    48.398083    36.110912 
142044000     283.6748    325.63673    260.91838   -31978.932    31974.585    64.718352    36.114269 
142048000    279.69739    422.65536    415.92192   -31998.151    31996.309    6.7334348    36.116754 
142052000    272.04026    572.46457    265.44745   -32024.152    32028.448    307.01712    36.150311 
142056000    295.41331    398.54355    243.38256   -32055.236    32032.586    155.16099    36.171645 
142060000    289.85958    414.54233    448.57443   -32067.736    32057.291   -34.032108    36.153889 
142064000    266.88404    338.96843    275.40048   -32076.241    32063.735    63.567949    36.169784 
142068000     255.3736    408.47348    295.11846   -32086.062    32098.105    113.35502    36.158259 
142072000    298.26737     324.1744    444.34372   -32113.246    32105.796   -120.16932     36.16143 
142076000    324.56291    394.09394    325.54662   -32139.412    32113.388    68.547317     36.15882 
142080000    267.54034    359.19748    172.88344   -32131.521    32134.751    186.31404    36.148651 
142084000    280.83598    336.06553    298.96027     -32168.7    32156.777    37.105255    36.154196 
142088000    260.53259    160.18754    255.93577   -32155.729    32155.457   -95.748226    36.161322 
142092000    287.13701    432.30685    465.00794   -32209.201    32205.142   -32.701084    36.153076 
142096000    288.90234    268.17594    260.17746   -32235.945    32226.078    7.9984858    36.161528 
142100000    289.43312    397.01155    293.86325   -32252.027    32247.737     103.1483    36.172381 
142104000    243.89276    502.09614    178.23595   -32249.043    32277.875    323.86019    36.173498 
142108000    266.11018    406.43185    323.08602   -32286.416    32308.705    83.345829     36.17143 
142112000    269.15542    297.80217      255.095   -32297.734    32318.324    42.707163    36.161063 
142116000    290.77224    275.58969    219.51778   -32313.984     32309.55    56.071906    36.157948 
142120000    283.57707    349.35785    227.93266   -32319.043    32327.638    121.42519    36.147226 
142124000    280.08536    369.63126    477.96461   -32326.004    32333.095   -108.33334    36.147416 
142128000    277.28409    303.40419    256.94139   -32330.965    32339.668    46.462798    36.131251 
142132000    250.46879    421.48667    299.01553   -32360.291    32376.483    122.47114    36.134376 
142136000    304.04467    416.79711    404.11735   -32390.482     32381.17    12.679766    36.147274 
142140000    298.29267    458.53144     292.8436   -32418.447    32411.617    165.68784     36.12065 
142144000    278.60419    277.54825    365.14467   -32446.249    32456.001   -87.596417    36.116309 
142148000    325.08256    445.04064    336.50512   -32508.382     32468.14    108.53552    36.092719 
142152000    309.25158    295.60714    382.90014   -32516.269    32493.601   -87.293002    36.092677 
142156000    272.11725    265.34519     327.1286   -32530.567    32530.619   -61.783407    36.103877 
142160000    286.00121    595.48088    248.97488   -32542.095     32546.06      346.506    36.115453 
142164000    295.33249    410.92842    281.38338   -32557.505    32556.046    129.54505    36.114335 
142168000    313.91578    324.99072    410.77125   -32582.778    32566.498   -85.780529    36.116838 
142172000    305.25237    551.44894    323.92053   -32596.834    32583.248    227.52842    36.102903 
142176000    272.36678    205.90115    448.02648   -32623.936    32629.082   -242.12533    36.091452 
142180000    300.24433    278.91991    308.95137   -32642.857    32646.477   -30.031458    36.074762 
142184000      290.758    436.32359    189.97635    -32674.29    32670.189    246.34724    36.080665 
142188000    275.86609    436.51807    294.55112   -32705.825    32704.422    141.96695    36.047162 
142192000    269.98484    445.94034     281.1611   -32709.938    32724.993    164.77924    36.030906 
142196000    296.93477    402.79517    314.69204   -32740.467    32746.726     88.10313    36.023402 
142200000    282.61113    373.19653    474.10965   -32749.573    32751.133   -100.91312    36.058983 
142204000     293.3391    188.21188    601.30369   -32767.682    32763.438   -413.09182    36.041722 
142208000    277.46704    146.45244    488.29891   -32805.656    32797.734   -341.84647    36.048881 
142212000    266.01842    326.07369    207.76484   -32837.991    32860.018    118.30885    36.039256 
142216000     230.4198    374.73549    190.88076   -32870.232    32906.557    183.85473    36.065575 
142220000    286.15026    274.15002    341.17546   -32915.835    32923.546   -67.025441    36.050125 
142224000    279.21437    350.70159    321.60365   -32957.612     32941.75    29.097943    36.065141 
142228000    254.70176    346.82332    359.38815   -32989.949    33005.203   -12.564827    36.049368 
142232000    284.83421    342.82474    301.64179   -33021.591    33011.058    41.182951    36.030786 
142236000    277.02814    363.09248    342.00087   -33047.478    33038.497    21.091607    36.023729 
142240000    273.06745    399.89541    295.52973    -33033.04    33045.841    104.36568    36.023315 
142244000    285.99489    183.94446    449.87004   -33055.828    33069.497   -265.92559    36.027823 
142248000     275.6761    375.86012    312.89962   -33078.714    33087.236    62.960499    36.028078 
142252000    268.81309    224.53145      380.987   -33106.831    33115.376   -156.45554    36.012173 
142256000    272.61461    529.22764    314.20186   -33136.141    33145.193    215.02578    35.991936 
142260000      303.955    401.77266    327.83117   -33159.836    33157.917     73.94149    35.986073 
142264000    262.62811    452.68707    232.03037   -33190.631    33202.725     220.6567    35.976322 
142268000    295.06895    230.37823    297.21443   -33199.431    33195.116   -66.836194    35.965308 
142272000    297.90674    332.96541    235.88269   -33212.306    33205.084    97.082719    35.967551 
142276000    311.67914    242.78749     397.7228   -33239.601    33223.644   -154.93531    35.951341 
142280000     270.0865     172.6001    232.22694   -33239.712    33257.222   -59.626849    35.928863 
142284000    316.52198    231.82892    411.25343   -33278.001     33252.88   -179.42451    35.959665 
142288000    284.96499    329.17029    409.09724   -33265.041    33256.477   -79.926953    35.951656 
142292000    279.03082    527.67464    343.82042   -33268.925    33258.331    183.85422    35.941173 
142296000    266.27594    390.54597     385.8301   -33267.976    33286.987    4.7158709    35.916474 
142300000    287.07199    385.50244    260.41176   -33315.889    33306.762    125.09068    35.936721 
142304000    270.97606    236.53126    326.61881   -33340.611    33351.883   -90.087548    35.927359 
142308000    299.66801    279.85574    335.83689   -33384.022    33373.419   -55.981144    35.954942 
142312000    275.77589    396.41945    305.65613   -33423.265    33429.772    90.763317    35.945789 
142316000    302.71185    390.85626    399.26102   -33482.525    33477.435   -8.4047602    35.942752 
142320000     277.4631    380.41637    217.24656   -33502.491     33502.51    163.16981    35.960269 
142324000    286.77149    270.71128    263.76749   -33531.657    33527.345    6.9437857    35.946677 
142328000    277.92214    371.19197    269.34353   -33565.457    33545.111    101.84844    35.953911 
142332000     291.3882    588.58441     451.1104    -33575.08    33574.574    137.47402     35.93135 
142336000    280.46375    353.37617    358.04179    -33598.08    33599.398   -4.6656231    35.944947 
142340000    283.32215    373.46466    271.00738   -33603.065    33606.622    102.45728    35.958485 
142344000    276.81432    340.94456    378.32685   -33632.595    33635.895   -37.382294    35.954291 
142348000    276.98561    470.36234    285.46287   -33650.078    33657.289    184.89947    35.952513 
142352000    277.53874    468.32892    229.15494   -33670.116    33679.932    239.17398    35.954656 
142356000    229.21363    192.36416    320.64056   -33669.009    33717.498    -128.2764    35.951377 
142360000    277.72885     463.1653    428.11716   -33694.803    33705.106    35.048137    35.925349 
142364000    275.05194    280.09429    319.84467   -33709.347    33704.198   -39.750379    35.916447 
142368000    250.79755    320.03385    210.99403   -33708.078    33724.097    109.03982    35.917126 
142372000    310.09322     435.4448     281.6907   -33753.303    33733.568     153.7541    35.915155 
142376000    281.41782    324.37393    301.19969   -33791.629     33784.29    23.174237    35.907871 
142380000    246.11955     362.7674    214.52123   -33814.878    33828.104    148.24617    35.896009 
142384000    256.21121     302.3178    323.07551   -33843.678    33862.999   -20.757709     35.87657 
142388000    306.63005    465.52518    530.84715   -33873.608    33866.784   -65.321967    35.879853 
142392000    263.34536    199.34188    205.23704   -33863.482    33871.284   -5.8951608    35.870493 
142396000     283.6925    544.91976    322.26151   -33891.303    33883.675    222.65824    35.889205 
142400000    288.25957    299.95957    477.97449   -33926.029    33935.557   -178.01492    35.861369 
142404000     272.0634    430.30851    275.92705   -33962.377    33962.787    154.38146    35.860817 
142408000    313.35223    382.74995     312.3564   -33984.599     33959.56    70.393543    35.873067 
142412000    269.82185    258.91434    320.08645   -33988.886    33977.129   -61.172107    35.871503 
142416000    284.54215    316.57094    275.86718   -33991.012    33987.019    40.703755    35.885747 
142420000    286.87719    410.73393    225.08129   -34005.405    34002.595    185.65264    35.878626 
142424000    286.17807    336.22047    392.49852   -34049.375    34038.743   -56.278047    35.898711 
142428000    266.83553    312.73654    336.81384   -34072.194    34073.326   -24.077299    35.936771 
142432000    301.85528    397.17472    271.79338   -34112.617    34092.328    125.38134    35.940554 
142436000    307.18195    331.77909    500.65651   -34143.525    34118.728   -168.87742    35.954601 
142440000    287.67688     299.7217    505.57602   -34142.148    34149.835   -205.85432    35.939795 
142444000    282.66113    395.28412    262.12809   -34177.678    34179.491    133.15602    35.954371 
142448000    293.58496    354.13701    361.24554   -34210.133    34190.206   -7.1085272    35.957667 
142452000    292.02722    539.07665    158.41738   -34207.432    34209.794    380.65927     35.96706 
142456000    276.49739    365.88479    299.15838   -34221.394    34222.171    66.726407    35.955008 
142460000    249.46675    404.59438    212.74675   -34235.855    34242.473    191.84763    35.955338 
142464000    281.31687    310.49028     252.4165   -34243.065    34244.971    58.073776    35.955687 
142468000    320.83377    175.00622    201.28692   -34299.269    34259.802   -26.280696    35.942763 
142472000    287.46636    285.16122     311.6752    -34294.24    34288.201   -26.513979    35.918344 
142476000    279.21328    344.99426    296.09212   -34310.772    34320.152    48.902145    35.952085 
142480000     284.0157    255.93882    378.33537   -34339.939    34344.678   -122.39654    35.967856 
142484000    243.40881    278.53681    204.03885   -34362.766    34383.646    74.497959    35.977599 
142488000    310.74733    268.42674    474.53763   -34400.608    34377.242   -206.11089    35.952459 
142492000    298.25665    308.71808     408.8017   -34421.912     34398.69   -100.08362    35.960929 
142496000    281.73313    316.95007    315.24827   -34437.532    34442.402    1.7017916    35.969189 
142500000    283.92191    463.04321    362.04971   -34475.925    34463.422     100.9935    35.974925 
142504000    287.40106    445.02233    264.96984   -34493.836    34495.629    180.05249    35.964362 
142508000    266.93795    278.06905    294.13731   -34506.248    34513.112   -16.068256    35.953606 
142512000    254.64978    308.77803    332.98344   -34522.422    34537.032   -24.205408    35.957524 
142516000    258.81587    394.76416     471.7933   -34531.643    34575.477    -77.02914    35.946894 
142520000    271.12689    405.95428     255.3648   -34564.621    34580.927    150.58948    35.951052 
142524000     304.4751    454.00946    307.26637   -34624.007    34603.864    146.74309    35.930379 
142528000    268.89735    386.62224    332.90005   -34619.804    34632.569     53.72219    35.920573 
142532000    279.12101    376.20534    182.80383   -34664.374    34655.606    193.40151    35.945847 
142536000    291.73508    364.14821     509.2732   -34690.003    34706.161   -145.12499    35.952673 
142540000    284.72109    278.04884    448.24148   -34713.141    34726.854   -170.19264    35.957277 
142544000    303.11235    245.80097    409.37155   -34754.219    34718.191   -163.57058    35.937438 
142548000    254.84089    406.26253      344.967   -34734.371    34740.894    61.295525    35.943375 
142552000    284.30606     332.5741    407.48485   -34777.442    34767.334    -74.91075    35.968116 
142556000    321.44091    446.76562     399.9599   -34778.105    34758.308    46.805715    35.968841 
142560000    308.98352    444.44435    281.79213   -34788.386    34767.978    162.65221    35.970061 
142564000    276.18708    318.78964    543.05618   -34784.038    34787.424   -224.26654    35.970686 
142568000    251.13051    328.45357     198.2759   -34780.398    34810.643    130.17767    35.979756 
142572000    262.40223    424.55881    341.03974   -34799.122    34816.941    83.519067    35.994754 
142576000    273.80434    233.46173    195.08093   -34826.961    34828.652    38.380807    35.984022 
142580000    275.43362    276.40992    271.22606   -34829.654    34814.148    5.1838525    35.990389 
142584000    298.16318    432.67946    410.45329   -34858.806    34841.489    22.226173    35.993528 
142588000    256.66548    231.80891    353.67799   -34857.988    34866.757   -121.86908    35.987886 
142592000    266.84707    224.11712     207.1484   -34863.334     34875.06    16.968721     35.98091 
142596000    288.78957    262.53547    331.01932     -34906.8    34889.086   -68.483848    35.986303 
142600000    275.33803    345.75191    307.84869    -34940.91    34932.176    37.903219    35.993034 
142604000    295.61754    396.37371    384.70266   -34974.974     34970.58    11.671047    35.975827 
142608000    252.47308    236.02517    278.53569   -34952.241    34991.742   -42.510517    36.006213 
142612000    286.21802    578.80562     243.7482   -35008.052    34999.389    335.05742    35.997258 
142616000    297.38604    294.73201    203.22134   -35052.568    35060.121    91.510663    35.996809 
142620000    290.69437    333.90539     228.5301   -35104.819    35093.106     105.3753    35.993249 
142624000    293.01815    548.79276    489.30339   -35124.242    35103.448    59.489369    35.978972 
142628000    269.94782    295.67052    294.52355   -35118.879    35130.792    1.1469671     35.98117 
142632000    259.35507    183.55814    524.76604   -35137.645    35151.454    -341.2079    36.005015 
142636000     284.2779    243.50588     308.0849   -35161.254    35174.561   -64.579017    35.989512 
142640000    308.62244    649.98568    290.46447   -35205.853    35194.404     359.5212    35.969243 
142644000    284.37431    219.40779     308.8824   -35207.536    35224.449   -89.474607    35.963416 
142648000    283.47767    414.64394    288.77723   -35261.795    35249.479    125.86671    35.969314 
142652000    284.43917    264.24616    306.17591   -35275.778    35258.393   -41.929743    35.979132 
142656000    305.51333    383.58351    296.61621   -35286.788    35285.451    86.967292    35.990091 
142660000    286.89947    406.55123     364.7017    -35286.53    35293.106    41.849526     36.00063 
142664000    254.73944    376.96149    278.21728    -35295.68    35309.443    98.744212    35.995148 
142668000    292.03204    370.84699    443.44245   -35308.045    35322.723   -72.595458    35.991592 
142672000    274.85486    328.48177    263.60008   -35356.568    35344.665    64.881686    35.991795 
142676000    308.22358    159.94406    284.13812   -35389.381    35370.407   -124.19406    35.961753 
142680000     288.6769    444.18011    455.57799   -35411.499    35412.325   -11.397878    35.978309 
142684000    281.14208    492.22962    416.69688   -35420.421    35426.057    75.532733    35.977226 
142688000    278.07322    293.54069    308.10491   -35455.189    35453.008   -14.564224    35.972801 
142692000    305.81602    523.62421    236.72946   -35499.025    35483.509    286.89476    35.966929 
142696000    297.12474    506.30343    362.10855   -35489.925    35501.363    144.19488    35.960376 
142700000    290.86046    714.83346    149.89499   -35523.913    35521.615    564.93847    35.941127 
142704000     286.2784    328.25953     295.8358   -35535.635    35548.465    32.423729    35.947532 
142708000    306.02652    485.22258    146.28126   -35552.338    35557.776    338.94132    35.955054 
142712000     314.4032     478.5105    259.52735    -35572.96    35543.396    218.98315    35.973579 
142716000    331.66636    462.03003    231.09164    -35569.13    35528.305    230.93839    35.974417 
142720000    308.28929    457.06481    224.19646   -35567.928    35541.736    232.86835     35.98287 
142724000    283.51929    402.47423    266.58934   -35542.766    35543.439    135.88489    35.996492 
142728000    290.68191    298.67387    310.80002   -35574.656     35573.08   -12.126146    35.979948 
142732000    272.61374    204.47365     406.7582   -35598.566    35590.073   -202.28455    35.976123 
142736000    264.97317    294.94258    457.45685   -35630.375    35633.928   -162.51427    35.982707 
142740000    273.65283     263.0673    329.83758   -35668.452    35671.208   -66.770285    35.980527 
142744000    275.46921    313.13877    599.87994   -35704.208    35709.462   -286.74117    35.968622 
142748000    276.71525    321.48922    446.74203   -35739.617    35741.096   -125.25281    35.974624 
142752000     266.2886    169.87903    283.56255   -35779.611    35793.782   -113.68352    35.958847 
142756000    286.64415    356.93543    345.01037   -35823.536    35811.418    11.925058      35.9729 
142760000    330.90763    465.78767    302.24658   -35833.313    35808.201    163.54109    35.953101 
142764000    267.07615    576.27447    285.25559   -35839.895    35827.378    291.01888    36.002932 
142768000    276.57439    396.66732    301.83863   -35840.883    35835.403    94.828688    35.987899 
142772000    266.79872    412.54049    315.14047   -35840.859    35836.869    97.400011    35.980276 
142776000    286.41129    159.31588    416.17742   -35883.638     35875.71   -256.86154    35.962295 
142780000    298.58005    390.74484     372.1602   -35923.536    35904.468    18.584642    35.980904 
142784000    270.39675    199.87232     378.1032   -35910.202    35910.981   -178.23088    35.991322 
142788000    264.98892    395.13103    189.11471   -35927.801    35939.627    206.01632    36.003583 
142792000     291.5398    317.48032    299.41411   -35935.634    35938.526    18.066214    35.985119 
142796000    254.61784    435.42263    325.64299   -35943.749    35951.013    109.77964    35.982622 
142800000    299.93629    413.22648    226.94873   -35979.845     35978.41    186.27775    35.966947 
142804000    286.28192    395.62977    400.31922   -35986.027    35995.564   -4.6894545    35.965239 
142808000    255.25765    434.78746    404.52812   -36020.229    36040.862    30.259332    35.934985 
142812000    296.77575    199.82228    205.81497   -36048.182    36036.297   -5.9926899    35.953691 
142816000    287.74679    269.37571    420.73004   -36064.751    36063.524   -151.35433    35.923994 
142820000    289.07317    383.24395    311.56917   -36076.252    36086.709    71.674784    35.926019 
142824000    264.84872    449.62184    286.22375   -36082.404    36095.562    163.39809    35.909372 
142828000    274.11334    344.37147    163.56725   -36080.851     36092.64    180.80422    35.908234 
142832000    282.28099    384.72912    246.76956   -36110.079    36116.317    137.95955    35.915452 
142836000    249.24702     276.0547    355.91672   -36132.396    36156.259   -79.862024    35.891554 
142840000    278.93991    462.85403     361.7073   -36166.019    36173.487    101.14674    35.912711 
142844000    302.08204    590.77464    296.54358   -36187.185    36165.513    294.23105    35.910293 
142848000     262.6579    259.16218     290.8208   -36185.828    36195.554   -31.658619    35.908104 
142852000    293.01666    383.59888    357.20482   -36207.356    36186.136    26.394061    35.926483 
142856000    252.80037    255.56724    266.42577   -36217.565    36211.784   -10.858527    35.917758 
142860000    254.98949    277.83667    299.66366   -36211.216    36239.316   -21.826988    35.921339 
142864000    280.50642    255.24429    418.88444   -36241.731     36250.77   -163.64016    35.916394 
142868000    267.63836    279.58547    236.00225   -36262.512    36282.512     43.58322    35.902495 
142872000    274.47309    298.55093    459.04057   -36276.819    36294.415   -160.48964    35.887138 
142876000    284.21578    429.11202    354.56752   -36307.727    36324.102    74.544495    35.910276 
142880000    265.30816    285.27921    238.69666   -36306.264    36326.134    46.582547    35.900521 
142884000    325.13862    269.10029    440.16535   -36335.761    36313.827   -171.06507     35.89853 
142888000    278.77116    441.19304    215.55526   -36356.769    36339.403    225.63778    35.919688 
142892000    300.25176    256.80642    476.19427   -36365.108    36346.319   -219.38785    35.910201 
142896000    290.83968    271.86078    165.91392    -36363.88    36372.416    105.94686    35.904238 
142900000    270.77151    320.30621    255.50995   -36383.503     36402.46    64.796262     35.91415 
142904000    290.87287    440.76594    278.73164   -36453.311    36431.314     162.0343    35.923539 
142908000    274.14306    183.68107    256.52475   -36489.193    36497.483   -72.843676    35.939935 
142912000    298.75824    325.22568    320.85734   -36568.525     36539.01    4.3683328    35.945914 
142916000    274.88385    354.36244    538.76568   -36568.535    36576.333   -184.40324     35.92783 
142920000    248.72222    372.00706    244.02817   -36593.036    36609.175    127.97889    35.949419 
142924000    282.49206     513.5467    315.62498   -36627.226     36633.23    197.92172    35.949949 
142928000    306.17585    354.84707    313.29474   -36661.611    36656.449    41.552326    35.940305 
142932000    310.28682    282.37118    547.58376   -36679.325    36675.776   -265.21258    35.931832 
142936000    267.34083    173.71337    248.58456   -36703.252    36716.309   -74.871193    35.952015 
142940000    281.91312    335.77846    371.60668   -36714.304    36709.064   -35.828225    35.926524 
142944000    277.36566     523.6829    236.52367   -36722.604    36723.077    287.15923    35.923076 
142948000    287.48204    262.69139    497.12116   -36721.868    36732.867   -234.42977    35.909455 
142952000     281.1326    408.91721    221.38616   -36736.792     36745.16    187.53104     35.92056 
142956000    293.96675    355.46853    283.02915   -36772.035    36767.643    72.439376    35.935207 
142960000    307.19067    353.95907    452.68852   -36792.874    36779.202   -98.729444     35.92935 
142964000    265.56806    500.58834    358.35988   -36801.398    36820.132    142.22846    35.922349 
142968000    280.20541    454.27684    300.34583   -36829.355    36832.828    153.93101    35.940318 
142972000    265.37021    450.83012    256.74825   -36842.542    36859.452    194.08187    35.943763 
142976000    271.01795    314.55907    405.74193   -36865.586    36875.288   -91.182855    35.947749 
142980000    255.52117    400.71261    248.02774    -36884.73     36884.55    152.68488    35.953408 
142984000    254.93328    359.19619    291.20604   -36914.399    36918.562    67.990148    35.932177 
142988000    282.90707    424.57697    386.15536    -36935.89    36940.689    38.421605     35.92017 
142992000    279.43177    237.25378    378.80824   -36960.009    36960.962   -141.55446    35.909956 
142996000    291.22309    371.23075    495.81415   -36965.455    36976.865   -124.58341     35.89363 
143000000    291.89228    405.65893    330.54038   -36997.312    36993.382    75.118556    35.905014 
143004000    263.83648    508.86011    212.76097   -37017.639     37035.42    296.09914    35.898375 
143008000    289.89178    418.93234    222.71593   -37040.569     37034.19    196.21641    35.906005 
143012000    258.43119    523.88543    175.82794   -37049.866     37046.73    348.05749     35.92318 
143016000    272.87469    272.37657    548.39254   -37063.886    37071.962   -276.01596    35.918239 
143020000    268.40074    392.95321    228.97804   -37102.104    37105.571    163.97517    35.893644 
143024000    286.47818    446.65527    301.08831   -37118.477    37103.644    145.56696    35.891903 
143028000    273.09185    368.11305    226.83342   -37131.952    37148.487    141.27963    35.914696 
143032000    263.73399    222.53915    376.61499   -37151.307     37152.35   -154.07584    35.926174 
143036000    270.07772    461.35297    281.62431   -37185.046    37196.452    179.72865    35.916725 
143040000    271.60355    508.92906    301.13284   -37230.496    37222.669    207.79622    35.927512 
143044000    305.14283    347.86253    659.08262   -37264.287    37235.589   -311.22009    35.918569 
143048000     265.6419     283.3705    170.35941   -37242.993    37256.884    113.01109    35.904158 
143052000    307.71576    381.38995    410.20847   -37269.029    37254.465   -28.818516    35.904142 
143056000     308.9423    422.53248    371.66793   -37269.301    37261.546    50.864547    35.922225 
143060000    268.40057    407.53655    157.61389   -37273.945    37269.038    249.92266    35.922514 
143064000    301.13027    706.11309    353.79456   -37306.121    37278.692    352.31853    35.893538 
143068000    269.40929     378.0865    358.45761    -37306.91    37287.972    19.628889    35.915461 
143072000    309.88609    546.93173    330.19442   -37340.204     37325.48     216.7373    35.954368 
143076000    269.15203    271.87259    291.82644   -37336.686    37339.238    -19.95385    35.951068 
143080000    272.13559    198.93995    223.38337   -37351.784     37355.21   -24.443416    35.927904 
143084000    295.01069    408.57987    280.89162     -37360.1    37364.846    127.68824    35.907182 
143088000     280.4471    415.34489    259.48165   -37387.057    37393.016    155.86323    35.908169 
143092000    330.28385    265.80214    442.05101   -37423.027    37394.779   -176.24887    35.918391 
143096000    288.50454    403.45785    350.49546   -37440.842    37433.786    52.962387    35.927991 
143100000    293.72756    291.00221    392.32367   -37474.692    37480.134   -101.32146    35.938061 
143104000    278.48033    544.85395     359.2671   -37463.274     37471.33    185.58686    35.937208 
143108000    312.35706    241.17742    469.02871   -37484.689    37484.268   -227.85129    35.940332 
143112000    281.46335    481.14035    309.33933   -37521.039    37515.392    171.80103    35.946848 
143116000    249.10556    339.17153    349.24774   -37516.156    37529.845   -10.076209    35.947897 
143120000      290.019    239.22385    368.51689   -37551.683     37523.11   -129.29304    35.977027 
143124000    285.46413    381.05082    295.36259   -37576.323    37558.415    85.688227    36.005783 
143128000    304.28387     497.2925    373.05291   -37596.437    37582.656    124.23958    36.021171 
143132000    298.27994    211.47942     347.1845   -37634.576    37622.151   -135.70508    36.031478 
143136000    286.40904    276.46067    290.68507   -37661.587    37648.595   -14.224406    36.006101 
143140000    298.84805    271.88655    314.59235   -37687.362    37664.981   -42.705804    36.008973 
143144000    286.14324    315.11146    396.62989   -37709.781    37693.535   -81.518429    36.009909 
143148000    276.45956    304.28397    299.79823   -37704.357    37702.901     4.485737    36.012095 
143152000    259.87855    259.67342    287.79528   -37723.125    37721.196    -28.12186    35.995363 
143156000    290.31292    381.77336    246.67084   -37753.325    37743.146    135.10252    35.978871 
143160000    292.22462    301.74027      260.403   -37784.862     37779.37    41.337266    35.966295 
143164000    300.64162    427.21198    167.35221   -37832.375    37811.621    259.85976    35.956219 
143168000    257.17442    248.40778    349.29885   -37839.262    37861.988   -100.89107    35.958516 
143172000    308.78051     378.4263    524.51993   -37854.989    37868.473   -146.09363    35.958679 
143176000    279.72143    495.00671    420.77791   -37885.766    37875.075    74.228798    35.970134 
143180000    293.55403    323.89511    481.57059   -37890.522    37880.224   -157.67548    35.961469 
143184000     265.8841    145.67787    238.86805   -37877.166     37889.83   -93.190179    35.986095 
143188000    290.19348    437.80845    542.26755    -37921.88    37897.592    -104.4591     35.99299 
143192000    275.71131    205.73571    523.19634   -37968.303    37949.489   -317.46063    35.985785 
143196000    288.94835    380.42796    594.25772   -37967.329    37968.944   -213.82976    35.979043 
143200000    272.92913    408.95433    192.95721   -37993.936    37998.482    215.99713    35.992185 
143204000    278.23479    418.10037    307.68955   -38019.176    38014.004    110.41082    35.996386 
143208000    303.17366     235.2086     351.6918   -38043.302    38027.595   -116.48319    35.995985 
143212000    291.97614    433.25723    315.92275    -38087.35    38062.373    117.33448    36.008845 
143216000    292.48407    509.59598    190.24141    -38101.63    38086.126    319.35457    36.002369 
143220000    236.09144    277.31179    222.62691   -38101.571    38134.416    54.684876      35.9763 
143224000     266.8173    376.93398    376.76426   -38148.323    38158.111   0.16972211    35.956469 
143228000    253.40578    197.64463     210.8546   -38168.286    38176.825   -13.209973    35.946241 
143232000    269.53299     400.7132    287.78308   -38180.172    38184.662    112.93012    35.972332 
143236000    294.23542    384.72015     348.3285    -38203.76    38197.943    36.391643    35.968765 
143240000    272.38902     290.6749    461.22935   -38206.028    38202.521   -170.55445    35.954896 
143244000    248.74627    414.30278    234.03971   -38205.471    38218.706    180.26307    35.939863 
143248000    289.46636    278.35255    381.63377   -38250.046    38239.271   -103.28122    35.933655 
143252000    273.51118    219.43039    369.06553   -38288.097     38292.24   -149.63514    35.912907 
143256000    261.65907    264.49536     364.1105   -38293.472    38326.026   -99.615138    35.922677 
143260000    261.49275    339.18605     182.8161   -38329.971    38334.612    156.36995     35.92496 
143264000    270.29718     262.5645     285.8569   -38363.495    38355.921   -23.292403    35.942162 
143268000    299.69705     307.9148    292.25346   -38368.365    38354.805    15.661335    35.964383 
143272000    285.17768    259.78051    202.27455   -38394.278     38370.08    57.505958    35.941947 
143276000    280.55275    409.93665    406.21815   -38389.256    38372.954    3.7184997    35.943752 
143280000     302.7145    487.93325    308.02984   -38421.694    38403.268     179.9034    35.946255 
143284000    296.39836    402.90625    261.69839   -38456.367     38437.39    141.20787    35.951367 
143288000    287.83918    254.25212    379.18488   -38474.861    38465.209   -124.93276    35.934705 
143292000    300.61006    506.70317     391.1621   -38484.868    38482.114    115.54107    35.928122 
143296000     277.6393     412.8372     455.1706   -38502.167    38518.823     -42.3334    35.926731 
143300000    276.16306    368.83137    164.06709   -38518.143    38523.633    204.76428    35.941414 
143304000    283.09558    239.44939    394.82167   -38532.717    38528.745   -155.37228    35.950794 
143308000    274.84914    536.89106    213.57184   -38557.145    38567.022    323.31922    35.991565 
143312000    276.32808    169.26862    227.27292   -38565.567    38574.884   -58.004305    35.986873 
143316000    270.98389    331.39047    314.68173    -38582.07    38581.547    16.708739    35.956268 
143320000    291.36638    286.38878    265.89717    -38588.38    38599.217    20.491611    35.943815 
143324000    279.80204    243.41908    393.51143   -38622.099    38625.142   -150.09236    35.925955 
143328000    293.08768    406.46255    320.33004   -38678.843    38667.969     86.13251    35.933196 
143332000    258.28559    318.58862    304.16845   -38688.894    38709.918    14.420173    35.934404 
143336000    293.32816    351.32424    221.35518   -38738.036    38733.717    129.96905    35.925221 
143340000    298.80407    312.78355    357.22153   -38762.043    38758.988    -44.43798    35.944821 
143344000    298.05185    569.71297    298.91686   -38801.274    38771.055    270.79611    35.943334 
143348000    259.95911    361.79916     339.7345   -38782.741    38796.689    22.064665     35.95546 
143352000    267.75901    432.46671    328.61055   -38822.812    38825.016    103.85616    35.949825 
143356000    288.23187    688.69438    313.22692   -38831.467    38834.074    375.46745    35.940098 
143360000    284.96896    566.18533    274.03809   -38859.519    38837.122    292.14723    35.957299 
143364000     260.3877    262.85367     456.8566    -38878.95    38884.349   -194.00293    35.960659 
143368000    289.50519    261.43932    240.42681   -38914.459    38911.884    21.012514    35.973773 
143372000    242.46637     291.2311    292.66457   -38919.951    38934.484   -1.4334725    35.983121 
143376000    312.14807    356.38058     306.8233   -38956.733    38924.486    49.557278    35.975382 
143380000    288.41568    174.94154     362.2658   -38975.027    38974.649   -187.32426    35.973312 
143384000    285.13798    406.40288     252.7151   -39017.394    39023.555    153.68778    35.973709 
143388000    309.90007    537.41155    377.58476   -39042.204    39025.181    159.82679    35.953491 
143392000    307.93061    334.43771    367.29495   -39087.212    39067.336   -32.857238    35.948529 
143396000    278.99622    511.86824    338.67831   -39102.916    39107.871    173.18992    35.946004 
143400000    305.48357     333.9945    323.92373   -39129.924    39107.881    10.070768    35.945863 
143404000    324.10755    773.82092    411.70904   -39150.976    39100.924    362.11188    35.965494 
143408000    307.48047    284.58318    309.25643   -39167.243    39146.844   -24.673244    35.966777 
143412000    290.54802    216.29564    142.91476   -39189.821    39161.186    73.380879     35.97055 
143416000    294.73048    246.71214      422.668   -39228.803    39206.462   -175.95585    35.964129 
143420000    276.61103    437.64334    297.36733   -39239.867    39247.414    140.27601    35.964054 
143424000     288.6125    479.75182    360.75573    -39272.13    39263.455    118.99609    35.962652 
143428000    268.26623    393.99746    221.27448   -39281.013    39280.593    172.72298    35.972819 
143432000    261.93651    328.41506    484.83065   -39298.058    39311.722   -156.41559    35.974172 
143436000    261.35462    348.68926    202.99109    -39323.28    39327.939    145.69816    35.963906 
143440000    266.28147    339.59243     317.9762   -39357.392    39361.303    21.616231    35.965866 
143444000    293.62301    241.89921     325.5339   -39416.467    39394.873   -83.634685    35.957012 
143448000    286.18334    217.88656    307.55322   -39455.951    39459.235   -89.666663    35.940201 
143452000    270.54146    525.92718    402.07868   -39479.802    39469.288     123.8485    35.941683 
143456000    308.84433    277.12626    375.49263   -39505.892    39498.211   -98.366363    35.944541 
143460000    292.46664    541.81654    205.26147   -39527.178    39513.739    336.55508    35.950529 
143464000    256.31784    315.53645    245.47026   -39536.826    39557.967    70.066185    35.977815 
143468000    303.21676    131.24027    340.08204   -39587.277    39563.767   -208.84176    35.959826 
143472000    274.14775    246.66512    200.69012   -39601.747    39617.654       45.975    35.981608 
143476000    284.92096    311.67428    374.15857   -39635.477    39646.657   -62.484286    35.961836 
143480000    256.25253    272.31503     359.1048   -39651.623    39675.196   -86.789767    35.963846 
143484000    265.70976    386.30481    451.29864    -39688.55    39706.824    -64.99383    35.965717 
143488000    260.72003    229.71845    281.56074   -39698.191    39720.508   -51.842292    35.971058 
143492000    288.90301    499.81987    207.25557   -39750.725    39734.675    292.56429    35.958512 
143496000    264.95872     255.8727    390.32707   -39749.381    39764.883   -134.45436    35.957071 
143500000    290.12865    374.99239    265.49647   -39778.902    39771.021    109.49593    35.968772 
143504000    262.95508     403.0047     304.6121   -39796.349    39792.013    98.392598    35.959096 
143508000      290.487    230.99283     428.6375   -39819.264    39816.708   -197.64467    35.960279 
143512000    283.70339    263.23804    361.49673   -39834.641    39823.277   -98.258691    35.950229 
143516000    297.06966    262.22648    361.76891   -39864.909    39850.409   -99.542427    35.934885 
143520000     279.6173    417.68105    258.74061   -39880.048    39881.372    158.94044     35.94323 
143524000    264.73452     419.7066    289.38359   -39901.303    39921.246    130.32301    35.948605 
143528000    285.27436    379.03017    322.37659   -39917.501    39903.962    56.653574    35.934444 
143532000    275.32914    231.36727    246.44717   -39918.554    39921.165   -15.079898    35.933751 
143536000    323.41996    241.44287    317.24321   -39944.962    39921.875   -75.800345    35.924186 
143540000     268.9085     454.2513    179.65317   -39944.111    39959.749    274.59814    35.964697 
143544000    279.10598     298.9969     272.6449   -39965.395    39969.822    26.352001    35.977068 
143548000    284.84905    461.90749    507.60033   -39987.484    39983.945    -45.69284    35.982857 
143552000    271.89439     545.0105    304.17422   -40007.739    40022.463    240.83628    36.008501 
143556000     302.4595    351.38378    499.67045   -40032.142    40017.368   -148.28667    35.994847 
143560000    304.32468    265.61828    262.15707   -40077.241     40052.53    3.4612191    35.973061 
143564000     301.4197    463.73921    312.74664   -40091.205    40079.144    150.99258    36.002565 
143568000    256.15844    234.77002     161.9761   -40100.096    40123.517    72.793921    36.043412 
143572000    306.97963    600.86276    327.02741   -40157.058    40145.209    273.83535    36.035973 
143576000    311.18387    368.33655    395.22167   -40169.395     40142.67   -26.885123    36.019372 
143580000    285.95162    411.37911    154.41353   -40189.513    40188.446    256.96558    36.029641 
143584000    303.26467    320.94002    374.44059   -40194.551    40174.325   -53.500568     36.03043 
143588000     273.9219    339.42583    316.00817   -40199.799     40200.85    23.417665    36.038976 
143592000    294.93756    220.95197    162.20962   -40220.226    40223.388     58.74235    36.050742 
143596000    257.25697    282.17821    336.34547   -40223.729    40233.433    -54.16726      36.0546 
143600000    287.36944    493.73834    340.22771     -40226.1    40223.309    153.51063    36.093394 
143604000    276.42141    424.95653    396.88767   -40254.856    40257.728    28.068856    36.095127 
143608000    292.67389    265.70721    299.72684   -40285.413    40284.295   -34.019634    36.082778 
143612000    287.45517    340.79957    355.80464   -40277.778    40286.759    -15.00507    36.066691 
143616000    293.76983    314.15128     442.2097   -40300.254    40283.452   -128.05842    36.054683 
143620000    303.87296       367.12    352.74451   -40310.571    40312.902    14.375491    36.055433 
143624000    286.82642    514.76775    376.80787   -40344.219    40332.031    137.95988    36.072614 
143628000    283.39332    283.31766    206.68369   -40350.548    40362.643    76.633969    36.076368 
143632000    280.65956    258.98396    392.17577   -40397.222    40400.931   -133.19181    36.055136 
143636000    288.25153    391.27226    299.12821   -40407.845    40402.672    92.144049    36.054609 
143640000    284.31615    393.00184    228.52967   -40428.576    40459.155    164.47217    36.056506 
143644000    281.41013    360.22788    352.64692   -40449.553    40457.461    7.5809657    36.056705 
143648000    273.35766    244.44404    292.00992   -40479.814    40496.193   -47.565886    36.070712 
143652000    282.68548    249.38413    338.38361   -40493.684    40506.839   -88.999477    36.073144 
143656000    282.96286    373.36068    380.50167   -40506.916    40507.808   -7.1409838    36.077652 
143660000    296.81737    335.18975    286.25027   -40508.007     40511.45    48.939482    36.089632 
143664000    278.30914    205.02733     333.9014   -40531.724    40536.205   -128.87407    36.092848 
143668000    277.51885    355.58776    615.48336   -40554.695    40553.485   -259.89561    36.086296 
143672000    279.58079    195.73941     281.9887   -40565.104    40563.447   -86.249286    36.071341 
143676000    273.21415    282.27117    368.36996   -40572.815     40593.75   -86.098797    36.061745 
143680000    280.22401    275.16007    325.97684   -40614.656    40604.009   -50.816766    36.076989 
143684000    276.50198    365.67357    192.95361   -40641.546    40630.526    172.71996    36.073662 
143688000    299.91257    387.96981    375.53945   -40674.243     40660.05    12.430355     36.08406 
143692000    303.86742    273.65799    269.16611   -40674.221    40672.246    4.4918822    36.084569 
143696000    279.74021    374.22453    192.39117   -40702.724    40699.201    181.83336    36.101385 
143700000     312.3058    323.07942    332.90677   -40759.291    40739.754   -9.8273536    36.095641 
143704000     272.9766    256.91933    423.60103   -40780.282    40751.217    -166.6817     36.11456 
143708000    293.05782    368.55754    365.99986   -40828.796    40807.034    2.5576786    36.101209 
143712000    266.66196    217.69991    331.47963   -40859.166    40864.979   -113.77972    36.091719 
143716000    302.40205    520.84532    251.52724   -40889.174    40891.245    269.31809    36.081038 
143720000    281.58921     320.0456    383.96325   -40894.202    40904.108   -63.917644    36.062611 
143724000    261.72364    267.96956    434.26669   -40898.605    40907.004   -166.29714    36.059364 
143728000     273.4469    271.48813    476.26352   -40922.133    40920.654   -204.77538    36.079243 
143732000    248.68108    330.62451    422.99971   -40923.938    40945.256     -92.3752    36.087034 
143736000    275.84876    263.40243     210.8569   -40937.706    40946.795    52.545526    36.084504 
143740000    266.10561    416.84452    279.55718   -40968.794    40974.665    137.28733    36.112163 
143744000    253.17697    356.91344    407.60317   -40988.434    41017.672   -50.689725    36.103545 
143748000    275.34512    328.43249    386.55114   -40998.896    41024.637   -58.118643    36.116856 
143752000    298.68818    393.38435    392.35498     -41028.7     41025.38    1.0293742    36.109974 
143756000    272.90384    301.06765    223.15504    -41029.74    41035.852    77.912607    36.109983 
143760000    261.32648    370.70263    271.28187   -41088.885    41084.112    99.420762    36.108114 
143764000    292.01092    382.87523    319.46006   -41130.934    41116.259     63.41516    36.096928 
143768000    269.97973    271.12298    312.41235   -41111.787    41129.831   -41.289374    36.107127 
143772000    274.34713    425.54955    211.63705   -41113.205    41119.304    213.91249    36.108774 
143776000    270.15015    299.34903    329.47616   -41136.238     41126.07   -30.127136     36.11832 
143780000    279.82649     361.8559    354.75317   -41157.861    41153.053    7.1027321    36.113795 
143784000    301.18787    345.24268    335.00567   -41153.704    41160.935    10.237011    36.102929 
143788000    297.84922    435.12023    406.25591   -41192.287    41159.384    28.864323    36.112604 
143792000    305.51988    359.06626    541.71991     -41218.7    41193.265   -182.65365    36.120732 
143796000    270.95627      340.891    298.63447   -41205.104    41229.218    42.256527    36.111234 
143800000    298.06556    465.57511    374.49166   -41228.765    41226.446    91.083457    36.108778 
143804000    295.78837    240.80043    407.94111   -41278.345    41274.487   -167.14068    36.106476 
143808000    256.36628    261.93075    157.45765   -41299.869    41302.621    104.47309    36.122324 
143812000    273.30775    476.72004    291.57981   -41295.826    41307.844    185.14023    36.136247 
143816000    301.51463    405.87606    393.37621   -41335.917    41322.113     12.49985    36.133824 
143820000    284.41539    335.63484    362.79433   -41359.065    41350.704   -27.159489    36.132162 
143824000     288.5256    735.41615    241.16166   -41410.988    41391.742     494.2545    36.140071 
143828000     307.8366    399.64129    439.84398   -41415.742    41391.174   -40.202695    36.134063 
143832000     277.5486    514.54353    209.07907   -41430.038    41436.742    305.46446    36.123357 
143836000    285.52034    227.91113    371.95381   -41441.445    41443.063   -144.04268    36.113373 
143840000    308.31167    345.34893    319.36134   -41487.742    41467.511    25.987592    36.098341 
143844000      322.137    478.74604    352.34512   -41507.048     41483.42    126.40092    36.088714 
143848000    298.03805    409.39181    582.13712   -41518.882    41501.236    -172.7453    36.079911 
143852000    280.39353     302.9975    249.19454   -41542.436    41552.712    53.802954    36.088982 
143856000    290.89149    322.72452    242.14292   -41575.431    41565.981    80.581601    36.091415 
143860000    297.87159    251.06011    273.63125   -41613.313    41590.826   -22.571136    36.093431 
143864000    298.68937    334.41114    464.65039   -41636.818     41620.96   -130.23925    36.089318 
143868000    275.65912    221.65774    367.42373   -41648.606    41653.234   -145.76599    36.080351 
143872000    286.70347    165.19132    450.62129   -41662.913    41653.229   -285.42997    36.065499 
143876000    262.92918    400.68934    220.20506   -41659.186    41692.146    180.48428    36.068516 
143880000     281.5102    316.44813    209.77157   -41702.582    41697.567    106.67656    36.088365 
143884000    274.66533    426.08704     156.6202   -41733.376    41746.859    269.46684    36.101198 
143888000    281.09263    350.15803     347.8486   -41741.682    41744.847    2.3094275    36.099196 
143892000    280.77741    404.30504     174.6665   -41761.252    41769.747    229.63854    36.096369 
143896000    284.77298    279.54724    352.23323   -41787.287    41779.203   -72.685987    36.103804 
143900000    274.30768    314.41228    466.88276   -41832.384      41820.7   -152.47048    36.102066 
143904000    283.95309    317.36486    355.43527   -41833.043    41837.071   -38.070403    36.105214 
143908000    297.75813    375.11981    213.17853   -41867.762    41867.982    161.94128    36.121815 
143912000    276.02937    259.94378    317.99136   -41881.869    41889.847   -58.047586    36.127533 
143916000    263.06812    300.18583    418.61542   -41889.618    41900.582    -118.4296    36.125136 
143920000    263.24343    288.82089    241.27644   -41922.521    41923.496    47.544446    36.121284 
143924000    330.64643    394.11335    390.94756   -41938.777    41923.319    3.1657882    36.133928 
143928000    273.86486     243.5974    511.96356   -41964.079    41979.168   -268.36616    36.126298 
143932000    238.15282    413.01869    282.69749     -41998.3     42018.07     130.3212     36.11679 
143936000    281.01168    515.49715    304.62525   -42025.509    42042.715    210.87189    36.130819 
143940000    256.46861    189.14332    238.63309   -42031.552    42049.196    -49.48977    36.140647 
143944000    297.66744    408.50028    319.87554   -42065.607    42055.829    88.624747    36.133638 
143948000    292.81776    322.05322    436.20261   -42067.606    42073.865   -114.14939    36.134811 
143952000    272.28555    328.90219    222.67695   -42082.986    42082.511    106.22524    36.127335 
143956000    259.98993    261.91598    288.59789    -42086.29    42102.876   -26.681905    36.140655 
143960000    286.79234     259.1343    367.45528   -42087.344    42103.735   -108.32098    36.143545 
143964000    295.93998    341.81246    473.94007   -42103.144    42114.499   -132.12761    36.143229 
143968000    280.30394    315.02781    282.56335   -42155.541    42142.896    32.464454    36.143897 
143972000    290.92434    374.62511    220.10244   -42166.147    42163.498    154.52267      36.1394 
143976000    294.94363    258.18077    431.14508   -42190.006    42176.073    -172.9643     36.12782 
143980000    266.72679    457.12441    260.80805   -42212.494    42233.097    196.31636    36.128422 
143984000    300.77512    379.00793    519.85576   -42243.709    42223.428   -140.84783    36.135776 
143988000     290.7479    403.59563    365.26522   -42255.623    42247.614    38.330408    36.144561 
143992000    265.76628    442.83108    373.92946   -42278.725    42300.408     68.90162    36.159196 
143996000    281.37655    561.95235    317.18204   -42316.411     42324.38    244.77032    36.144052 
144000000    277.37004    483.02886    258.28237   -42333.799    42349.651     224.7465    36.153327 
144004000    289.94459    497.48958    216.78756   -42377.468    42366.853    280.70202    36.158168 
144008000    278.31853     390.2465    310.05167   -42374.004    42381.281    80.194832    36.160337 
144012000    260.70577    327.98992    283.12701   -42394.288    42415.536    44.862901    36.171193 
144016000    249.73388    382.17236    323.58732   -42435.991    42430.687    58.585042    36.168483 
144020000    291.23882    473.08545    433.30775   -42469.719    42465.118      39.7777     36.15981 
144024000    278.56178    348.19691    485.87605   -42506.383     42506.41   -137.67913    36.139511 
144028000    283.62416    312.95474    254.78434   -42530.024     42521.08    58.170402    36.135208 
144032000    291.12907    265.50188    546.95664   -42560.115    42546.444   -281.45476    36.116028 
144036000    268.66054    408.12759    413.28171   -42559.719    42573.814   -5.1541216    36.103556 
144040000    289.07889    241.68096     222.6219   -42582.132    42572.823    19.059061     36.09908 
144044000     271.6028    433.79674    299.28306   -42604.472    42611.069    134.51367    36.093499 
144048000    254.74273    518.26131    226.13678   -42636.991    42661.601    292.12453    36.105236 
144052000    284.47545    390.68987    265.41335   -42649.508    42661.762    125.27652    36.093603 
144056000    280.09775    299.47724    383.72557   -42665.064    42660.653   -84.248323    36.083725 
144060000    260.61482    225.61059    365.64044   -42673.884     42671.74   -140.02985     36.09611 
144064000    255.33334    280.52111    411.19171   -42679.971    42683.732    -130.6706    36.095007 
144068000    283.76835    264.40085    309.28884   -42701.697     42713.96    -44.88799    36.070025 
144072000    316.66294    419.52887    491.23088   -42754.813    42729.585   -71.702008    36.074916 
144076000    260.17051    179.84351    376.39354   -42756.565    42780.821   -196.55004    36.066118 
144080000    271.96046    711.66163    201.01826   -42793.795    42812.891    510.64337    36.058039 
144084000    277.36427    320.44407    305.84873    -42801.77    42816.336    14.595337    36.039817 
144088000    262.52279    226.03522     383.3812   -42825.068    42843.257   -157.34598    36.041355 
144092000    271.44908    262.53878    261.81092     -42825.9    42846.634   0.72786074    36.046403 
144096000    278.61975    360.66681     279.2824   -42867.133    42863.465    81.384417    36.058479 
144100000    293.17041    304.37317    539.44682   -42886.934    42878.185   -235.07365    36.042936 
144104000    273.29635    286.36795     477.8391   -42901.043    42907.586   -191.47115    36.039957 
144108000    279.02517    296.28855    267.47339   -42936.873     42924.16    28.815169    36.018845 
144112000    306.76448    492.97105     187.4959   -42942.462    42935.695    305.47515    36.016441 
144116000    293.21671    225.22503    342.31078   -42958.668    42955.225   -117.08575    35.997625 
144120000    253.57557    318.56677    343.34285    -42977.05    42996.126   -24.776084    35.984728 
144124000    299.79856    501.19744    359.47063   -43033.976     43017.32    141.72681     35.98858 
144128000    286.93936    268.48194     250.9123   -43060.876    43065.106    17.569636    35.974232 
144132000    296.78602    445.43583    408.51733   -43065.706    43052.349    36.918492    35.975487 
144136000    255.35363     319.2415    333.99453   -43081.421    43087.887   -14.753026    35.978741 
144140000    276.90898    199.29027    278.74557   -43112.661    43113.787   -79.455295     35.97301 
144144000    289.60587    292.62211    521.38717   -43140.338    43137.128   -228.76506    35.990268 
144148000    260.70078    358.12087    253.90474   -43162.144    43186.562    104.21612    35.988259 
144152000      281.131    615.10532    356.05817   -43217.248    43217.488    259.04715    35.990676 
144156000    301.79268    419.96204    496.44952   -43234.562    43216.556   -76.487474     35.99275 
144160000    276.55863    400.53552    445.43992   -43231.886    43217.593   -44.904394    35.991365 
144164000    273.07122    365.55907    272.28342   -43238.165    43239.112    93.275656    35.970053 
144168000    305.95615    250.43589    436.17193   -43274.536    43277.301   -185.73604    35.950039 
144172000    260.59985    380.08939    177.60451    -43303.99    43307.458    202.48488    35.926701 
144176000    258.91315    339.29725    327.42925   -43346.308     43349.08    11.868001    35.924161 
144180000    303.40957     494.2472    306.39407   -43380.443    43355.582    187.85312    35.923459 
144184000    289.52011    293.50394    320.59328   -43368.255    43369.133   -27.089341    35.926397 
144188000     283.0342     331.4144    226.55712   -43401.803    43408.149    104.85728    35.925487 
144192000    282.90761    410.26071    396.02192   -43433.501    43448.312    14.238783    35.914457 
144196000    294.19919     481.9045    252.64017   -43446.657    43449.959    229.26433    35.903444 
144200000    282.01011    313.49434    303.28414   -43456.401    43466.874    10.210197    35.891122 
144204000    283.04845    456.43671    312.68668   -43492.666    43496.047    143.75003    35.894774 
144208000    248.51334     409.6904    318.16451   -43504.507    43508.583    91.525891    35.892436 
144212000    297.59723    390.32206    239.33234   -43512.346    43504.447    150.98972    35.882443 
144216000    247.85428    262.22263    358.51778   -43491.583    43500.493    -96.29515    35.891033 
144220000    271.78771    312.61129    602.25489   -43531.284    43533.308    -289.6436    35.876601 
144224000    290.60884    545.92493     309.0642   -43594.142    43585.659    236.86073     35.88143 
144228000    274.52249     384.3019    393.59745   -43605.689    43608.346   -9.2955552    35.894206 
144232000    278.61644     475.9875    354.63622    -43610.35    43608.648    121.35129    35.883673 
144236000    266.77328    455.34844    336.11692   -43636.367    43640.393    119.23152    35.907743 
144240000    296.19156    603.80636    341.47186   -43672.253    43679.675     262.3345    35.919923 
144244000     304.6987    289.97703    286.88463   -43682.915    43674.135    3.0924004    35.925436 
144248000    295.46389    191.61618    594.15952   -43713.702    43703.201   -402.54335    35.912555 
144252000     309.1214     419.2352    349.63513   -43731.877    43725.824    69.600066    35.912221 
144256000    264.53595    197.96568    314.28787   -43754.734     43768.32   -116.32219    35.897079 
144260000    292.13794    273.73725    383.04998   -43804.221    43788.606   -109.31273    35.899735 
144264000    287.01594    242.07818    291.35127   -43815.966    43819.654   -49.273087    35.897358 
144268000    290.52519    131.82627    328.26325   -43865.051    43849.363   -196.43698    35.881324 
144272000    305.25268    300.32275    351.11911   -43893.026    43877.722   -50.796362     35.89581 
144276000    286.90103    365.83725    322.23644   -43923.409    43906.318    43.600806    35.878078 
144280000    235.94895    185.85145    136.17112   -43907.857    43932.214    49.680331    35.855933 
144284000    287.18861    263.59923    434.92776   -43920.609    43917.693   -171.32854    35.868407 
144288000    312.84425    367.48509     458.6078   -43939.487    43923.249   -91.122713    35.856931 
144292000    293.17945    371.00206    186.98916   -43948.347    43932.326     184.0129    35.851319 
144296000    259.10396      276.814    351.37113   -43944.125    43957.163   -74.557136    35.849936 
144300000    276.57386    383.41428    268.24749    -43967.62    43975.632    115.16679     35.84905 
144304000    294.64759    506.45054    431.66977   -44001.031     43996.68    74.780768    35.865232 
144308000    310.41056    342.99467     508.5908    -44030.88    44014.049   -165.59613    35.850945 
144312000    260.43307      260.797    372.78321   -44032.274    44044.845   -111.98621    35.844977 
144316000    269.60388     446.0079    210.92862   -44045.659    44062.907    235.07928    35.856024 
144320000     282.4024    626.21313    304.95585   -44073.914     44071.02    321.25729    35.850309 
144324000     284.6958    321.31052    360.51298   -44109.862    44097.138   -39.202464    35.842838 
144328000    282.91032    218.67729    452.58279   -44134.022    44125.138   -233.90549    35.818561 
144332000    280.89361    283.26311    263.74168   -44134.203    44130.553    19.521428    35.820457 
144336000    311.44166    310.87465    393.58584    -44163.06     44148.66   -82.711184    35.815643 
144340000    252.84955    351.25944    278.08076   -44162.067    44176.492    73.178675    35.815865 
144344000    309.48737    501.99854    262.39862   -44182.627    44180.694    239.59992    35.827015 
144348000    313.14115    392.30728    427.49543    -44203.79     44189.27   -35.188151    35.832496 
144352000    269.30401    555.22649    261.46193   -44254.009    44251.298    293.76456    35.840614 
144356000    268.25131    399.82894    149.80453   -44259.952    44264.201    250.02442    35.848605 
144360000    271.02727     299.4755    417.04599   -44279.221    44285.323    -117.5705    35.850529 
144364000    289.22674    360.96691    297.56552   -44315.011    44306.467    63.401388    35.834262 
144368000    278.31329    244.75988    343.03344   -44331.944    44333.669    -98.27356    35.841795 
144372000    297.21306    383.72258    366.82963   -44350.393    44347.252    16.892951    35.829677 
144376000    282.78499    352.87356    238.44926   -44349.302     44354.92     114.4243    35.837966 
144380000    307.28019    410.99354    287.08122   -44366.349    44364.308    123.91232    35.855958 
144384000    288.72097    378.54349    281.91839   -44399.567    44391.218    96.625101    35.838967 
144388000    299.81006      406.928    312.89796   -44439.853     44405.19    94.030043     35.84922 
144392000     289.5703    272.32071    333.73658   -44454.381    44440.094    -61.41587    35.847211 
144396000    264.85115    190.50426    198.26444   -44462.226    44474.443   -7.7601791    35.850859 
144400000    254.44903    281.10558    341.16089   -44466.045    44488.404   -60.055309    35.844699 
144404000    292.98608    416.50485    441.57625   -44487.949     44486.94   -25.071395    35.825853 
144408000    327.57765    382.31353    477.33634   -44526.601    44498.568   -95.022811    35.813791 
144412000    283.20618    339.68979    347.42218   -44539.619    44555.952   -7.7323864    35.813882 
144416000    312.90747    365.85078    156.87593   -44545.902     44553.02    208.97485    35.834312 
144420000    278.06108    596.48033    316.55987   -44562.984    44571.832    279.92046    35.847328 
144424000    265.27708    276.55791    217.54311    -44607.33    44614.149    59.014808    35.837863 
144428000    266.84262    516.35283    367.62926   -44640.812    44644.169    148.72357    35.840542 
144432000    296.09577    488.17656    418.94003   -44655.963    44648.481    69.236529     35.84614 
144436000    272.75429    198.76273    296.07609   -44679.514    44706.645   -97.313364    35.844442 
144440000    285.58375     596.1122     232.8787   -44719.073    44708.144    363.23349    35.841011 
144444000    287.79801    350.33228     218.5379   -44727.892    44726.738    131.79438    35.836766 
144448000    279.80487    461.44577    366.78571   -44749.425    44753.252    94.660063    35.834957 
144452000    294.16816    363.14634    327.62099   -44792.587    44771.188    35.525354    35.819185 
144456000    270.51468    403.93687    226.55273   -44799.665    44806.848    177.38415    35.814762 
144460000    278.79502    329.33899    238.09042   -44809.936    44818.281    91.248566    35.799091 
144464000    287.18334    352.40309    228.79924   -44826.607    44808.224    123.60385    35.800798 
144468000    291.13554    299.14992    415.10286   -44824.513    44821.888   -115.95294    35.787637 
144472000    316.23451    329.81573    357.99361   -44852.026    44838.056   -28.177884    35.798332 
144476000    346.27841    436.52536    283.74264   -44869.541    44834.117    152.78273    35.779506 
144480000    278.07484    260.84396    248.39842   -44882.627    44891.941    12.445544    35.793105 
144484000    278.97893    290.21487    333.73692   -44919.328    44926.541   -43.522057    35.795742 
144488000    260.99833    203.50244    293.95508   -44934.156    44933.313   -90.452632     35.78611 
144492000    289.42362    331.12566    444.66658   -44961.414    44940.664   -113.54093    35.773876 
144496000    295.67134    506.32609     254.7551    -44997.29    44982.004    251.57099    35.775276 
144500000     302.1331    344.67222    386.13254   -44998.641    44984.391   -41.460317    35.767829 
144504000    303.31268    396.29491    381.70384   -45038.091    45013.421    14.591074    35.766847 
144508000    275.11778    227.63348     296.5294   -45063.931     45048.87    -68.89592    35.741663 
144512000    292.25753    462.19064    208.93882   -45099.087    45101.029    253.25183    35.739915 
144516000     297.8026    304.95795    204.83666    -45105.01    45117.255    100.12129    35.726735 
144520000     282.2675    303.31499    384.56562   -45156.998    45154.702   -81.250631    35.736975 
144524000    289.63277    366.14462    224.65756   -45183.861    45176.344    141.48706    35.734061 
144528000    297.89487    417.70887     202.6073   -45196.527    45187.313    215.10157     35.74663 
144532000    257.29564    214.41821    286.66267   -45216.808    45222.004   -72.244466    35.724899 
144536000    292.31842    473.29873    314.46288   -45233.438     45226.31    158.83586    35.722967 
144540000     293.6984    504.63403     251.8014   -45278.535    45270.741    252.83263    35.743143 
144544000    277.00097    327.18946    370.26911   -45296.023    45298.257   -43.079647    35.728821 
144548000    291.42127    446.08358    311.11035   -45281.692    45283.563    134.97324    35.730741 
144552000    265.69965      481.174    263.00015   -45302.102    45302.877    218.17385    35.736099 
144556000    275.39814    579.76183    270.88021   -45346.998    45340.371    308.88162    35.735503 
144560000    283.63066    445.02826    224.51153   -45351.175    45351.242    220.51673    35.732871 
144564000    278.88405    393.53177    292.33656   -45359.198    45365.123    101.19521    35.741219 
144568000     277.3665    428.98572    373.22222   -45370.683    45367.014    55.763507    35.749675 
144572000    277.10802    280.94245    505.58831   -45388.218    45389.333   -224.64586    35.772094 
144576000    298.42526    307.90359    469.96293   -45417.095    45415.038   -162.05934    35.754735 
144580000     291.7466    298.31762    335.01671    -45453.83    45426.073   -36.699095    35.756902 
144584000    298.36466    269.29477     340.9446   -45481.408    45471.088   -71.649827    35.743231 
144588000    278.67623    407.26273    346.55629   -45494.505    45506.864    60.706436    35.741863 
144592000    282.45805    330.19727     414.6482   -45536.029    45533.178   -84.450925    35.745367 
144596000    272.32944    363.66662    285.00326   -45541.875     45548.17    78.663361    35.750305 
144600000     248.5812    313.17847    386.21287   -45560.041    45579.545   -73.034395    35.753449 
144604000    275.58689    430.85129    321.49271   -45585.634    45590.864    109.35858    35.747616 
144608000    289.30756     363.1995    179.31755     -45609.9    45606.498    183.88195    35.755167 
144612000    302.72376    306.85653    229.12634   -45630.818    45627.792     77.73019    35.759268 
144616000    284.75984    323.98679    262.43599   -45647.742    45630.918    61.550799    35.767666 
144620000    273.99043    292.18138     277.9208   -45659.209    45654.688    14.260584    35.769062 
144624000    322.07358    297.53925    254.24024   -45688.439    45659.567     43.29901    35.771584 
144628000    281.27544    317.00091    394.57665   -45688.456    45681.575   -77.575733    35.793225 
144632000    272.43861    418.97835     198.2928   -45712.519    45690.129    220.68555    35.789964 
144636000    288.39376    511.47575    298.28164   -45727.698    45717.242    213.19411    35.792584 
144640000    266.43046    291.80281    257.15869   -45757.103    45757.906    34.644129    35.792767 
144644000    288.58002    451.45072    230.89648   -45783.102    45769.523    220.55424    35.776957 
144648000    298.73622    227.90098    405.96528   -45811.632    45796.062    -178.0643    35.757771 
144652000    291.57535    266.34582     216.7636   -45864.305    45838.263    49.582227    35.760418 
144656000    299.32409    267.20854    178.96819    -45867.62    45859.535    88.240349    35.753709 
144660000    338.46396    229.99244    462.05293   -45903.033    45854.763   -232.06049    35.742636 
144664000    272.30348    466.89545     322.5743   -45893.699    45883.408    144.32115    35.753958 
144668000    281.45934    420.30408    270.06096   -45906.258    45905.545    150.24312    35.748337 
144672000    270.14129    282.37954    337.58364   -45933.116    45917.572   -55.204094    35.731438 
144676000    320.01964    525.61573    310.34627   -45971.281      45952.2    215.26946    35.721362 
144680000    277.19767    273.34629    307.98973   -45985.856    45996.799   -34.643436    35.713539 
144684000    279.44444    257.97135    437.16316   -46006.709    45994.515   -179.19182    35.724996 
144688000     272.0182    399.30767    357.10226   -46008.367    46003.516    42.205406    35.728837 
144692000    288.22895    566.67825    413.58234   -46023.579    46012.174    153.09591    35.743994 
144696000    274.84944    320.03235    265.31069   -46036.311     46054.92    54.721659    35.739571 
144700000    251.15005     295.5603    408.44475   -46063.523    46058.961   -112.88445    35.730046 
144704000    283.58761    253.42456    232.14191   -46103.139    46125.476    21.282648    35.716865 
144708000    276.41182    340.28729     440.9705   -46145.091     46134.27   -100.68321     35.71572 
144712000    243.39662    309.51156     204.7775    -46140.84    46185.121    104.73406     35.71548 
144716000    261.09258    409.37411    201.61487   -46205.304    46205.519    207.75924    35.715608 
144720000    260.42953    314.25926    244.12526   -46236.411    46245.064    70.134001    35.721263 
144724000    312.81963    212.72411    430.45834   -46272.103    46257.749   -217.73423    35.714657 
144728000    265.79904    427.28638    391.33185    -46271.81    46294.293    35.954538    35.689507 
144732000     294.4906     275.0897    249.45643   -46279.275    46267.808    25.633268    35.688794 
144736000    309.09136    420.36755    295.22363   -46295.781    46275.396    125.14392    35.714537 
144740000    272.07598    258.14927     189.5502     -46286.8    46284.949     68.59907    35.709035 
144744000    281.71186    412.50278    193.99036   -46327.616    46339.984    218.51241    35.714264 
144748000    273.55596    326.23958     300.5303   -46386.467    46387.388    25.709281    35.724128 
144752000    271.33739    371.42787    235.70988   -46408.508    46433.741    135.71799     35.71356 
144756000    304.10021    284.80257    427.40517   -46436.294    46428.681   -142.60259    35.727271 
144760000    259.34406    113.72992    432.48747   -46438.953     46455.14   -318.75755    35.706765 
144764000    286.45094    397.21555    295.95589   -46476.878    46482.004    101.25966    35.698995 
144768000    286.99073    364.60096    243.96974   -46509.084    46512.032    120.63123    35.702107 
144772000     260.6595    327.94301    328.60827   -46509.691    46519.947  -0.66526026    35.716113 
144776000    299.63161    336.16194     496.0484   -46566.786    46527.261   -159.88646    35.703442 
144780000    288.41292    386.97957    233.59171   -46584.484    46558.231    153.38787    35.700634 
144784000    299.39379    381.03626    298.91875   -46570.973    46556.362     82.11751    35.690692 
144788000    282.61368    240.35529    208.95741    -46610.33     46605.29    31.397876    35.682357 
144792000     274.0873    205.29223    229.20508   -46622.311    46625.238   -23.912849    35.679335 
144796000     283.8098    356.44928    394.33814   -46641.912    46625.813    -37.88886    35.660915 
144800000    285.37405    249.00577    319.43213   -46656.845    46653.752   -70.426362    35.668024 
144804000    276.19762    290.47951    315.94153    -46698.34    46714.521   -25.462019    35.670637 
144808000    282.46422    545.16114    231.57542   -46743.738    46753.291    313.58572     35.67481 
144812000    294.25746    264.70999    469.52832   -46750.471    46722.559   -204.81833    35.677221 
144816000    296.51153    562.17624    300.27159   -46741.673    46738.686    261.90465    35.683985 
144820000    269.81957    504.91214    210.33026    -46774.48    46760.719    294.58188    35.660138 
144824000    249.82899    522.91038    474.93497   -46769.489    46783.366    47.975404     35.65687 
144828000      291.523    372.86933    448.46713   -46792.481    46774.621   -75.597798    35.641059 
144832000     317.1646    544.62363    277.06502   -46802.475     46782.74    267.55861    35.659504 
144836000    261.61615    260.25461    366.48136    -46792.67    46784.743   -106.22675    35.670008 
144840000    301.22315    419.69164    228.29971   -46803.109    46773.251    191.39193    35.651993 
144844000    290.23263    354.90851    301.88827   -46802.312    46789.889    53.020244    35.648925 
144848000    240.86643    252.80343    247.29157   -46801.248    46827.192    5.5118572    35.639537 
144852000    233.36541    182.06405    226.70752   -46833.189     46847.18   -44.643467    35.648297 
144856000    274.08851    438.34343    263.58923   -46842.783    46846.301    174.75421    35.645036 
144860000    310.11543    280.18753     469.8398   -46876.505    46858.562   -189.65228    35.643174 
144864000    261.82686    439.05112    315.53455   -46868.726    46874.702    123.51657    35.651289 
144868000    274.44357    499.68895    301.92636   -46888.896    46889.955    197.76259    35.651727 
144872000    269.84858     271.0241    166.58257    -46889.84    46910.918    104.44154    35.651887 
144876000    269.55677    286.33471    585.49827   -46890.262    46905.079   -299.16356     35.63946 
144880000    280.32443    396.47559    280.90778   -46930.078    46934.147    115.56781    35.655764 
144884000    291.41073    410.08063    327.61502   -46948.605    46947.351    82.465608    35.657181 
144888000    296.00009    375.35319    305.64608   -46989.809    46978.587    69.707111    35.649051 
144892000     291.9927    434.42854    396.04528   -47009.418    46999.635    38.383268    35.634253 
144896000     293.0911    328.30751    282.89977   -47028.062    47025.481    45.407734    35.648754 
144900000    288.24544     359.8194    405.12681   -47057.619    47050.142   -45.307405    35.642949 
144904000    274.91138    497.07465     329.3959    -47066.29     47076.04    167.67875    35.658262 
144908000    297.48035    629.82633    349.40581   -47097.161    47099.227    280.42053    35.670214 
144912000    283.04331    269.79058    484.25108   -47138.892    47127.657    -214.4605    35.669407 
144916000    283.37438    339.10958    266.22956   -47161.866    47158.766     72.88002    35.682945 
144920000    294.32596    365.44557    353.61753   -47174.859     47163.53    11.828041    35.674141 
144924000    308.25398    504.91173    520.51322   -47183.823     47171.96   -15.601485    35.668582 
144928000    292.35526    322.30542    288.63272   -47208.106    47189.891    33.672699    35.667573 
144932000    305.92278    340.82751    354.77638   -47258.527    47248.018   -13.948871    35.662537 
144936000    290.51315    219.80183    435.48059   -47282.836    47274.725   -215.67876    35.667385 
144940000    276.62798    183.90306    299.15481   -47293.186    47297.114   -115.25175    35.670455 
144944000    265.02512    366.88795    557.27411   -47351.167     47372.12   -190.38616     35.67563 
144948000    285.14329    446.36119    427.99699    -47379.88    47372.737    18.364207    35.676755 
144952000    268.55944    238.04299    271.45356   -47402.245    47414.778    -33.41057    35.674503 
144956000    279.37044    285.56939    292.80676   -47451.959    47446.179   -7.2373658    35.692336 
144960000    288.46692     262.6673    208.59113   -47452.785    47455.881    54.076168    35.701902 
144964000    307.18794    354.93115    528.54344   -47471.077    47457.529   -173.61229    35.706861 
144968000     283.1946    294.59114    369.33652   -47499.885    47496.832   -74.745386    35.707937 
144972000    300.80823    423.32907    347.55756   -47517.233    47507.742    75.771518    35.715062 
144976000    271.83309    283.01241    243.79495   -47564.555    47554.917    39.217463    35.721016 
144980000    297.25831    279.64282    424.18703   -47576.946    47584.993   -144.54421    35.712922 
144984000    285.24379    473.51158    251.87889   -47615.096    47605.907    221.63269    35.709206 
144988000    286.25046     290.1252    378.71448   -47621.061    47613.703   -88.589272    35.710307 
144992000    287.00549    483.47399    280.88996   -47647.887    47655.504    202.58404    35.704654 
144996000    276.04417     256.4486    363.50591   -47689.347    47685.358   -107.05731    35.714451 
145000000    282.21959    240.27389    401.99393   -47742.145     47723.46   -161.72003    35.711451 
145004000    298.05192    375.29381    367.14317   -47754.068    47750.742    8.1506404    35.714777 
145008000    291.21828    470.88997    182.24866   -47762.932    47751.424    288.64131    35.719627 
145012000    276.55614    340.04464    392.15106   -47779.066    47781.643   -52.106419    35.719568 
145016000    283.58484     281.0797    431.16475   -47812.075    47814.934   -150.08505    35.716444 
145020000    294.42715    404.59527    283.21944   -47830.385    47822.175    121.37583    35.721435 
145024000    274.72401    368.23123    301.04039   -47842.859    47843.624    67.190842    35.721741 
145028000    266.05806    346.59978    450.13496   -47866.607    47869.552   -103.53517    35.712023 
145032000    287.68003    661.97262    526.76696    -47872.45    47871.153    135.20566     35.72285 
145036000    277.55336     417.1905    258.24227   -47907.817    47909.783    158.94823    35.739368 
145040000    286.02009    515.91455    321.66189   -47928.219    47924.064    194.25265    35.736649 
145044000    276.26119    404.18811    479.93392   -47942.581    47957.879   -75.745809    35.728293 
145048000    260.82004    351.07575    243.98363   -47963.469    47970.547    107.09213    35.740017 
145052000    276.52868     444.6533    391.84117   -47976.227     47987.43    52.812123    35.729529 
145056000    274.99383    448.20282    358.91567    -48011.51    48013.987    89.287159     35.74941 
145060000    308.07929    358.97915    259.86786   -48035.212    48019.208    99.111294    35.746585 
145064000    282.73309    312.86298    234.43806   -48062.631    48050.918    78.424923    35.756745 
145068000    276.17064    381.33236    294.81199   -48084.506    48087.462    86.520368    35.758706 
145072000    257.01965    310.05078    196.67068   -48097.864     48108.14     113.3801    35.748015 
145076000    313.11965    325.94265    414.62542   -48099.453    48088.072    -88.68277    35.759266 
145080000    307.86262     441.5649    435.55761   -48123.048    48106.616    6.0072894    35.755914 
145084000    293.50238      222.372    236.85164   -48110.773     48113.34   -14.479647    35.760121 
145088000    297.22785    142.21198    421.06191   -48119.505    48100.004   -278.84993    35.768981 
145092000    304.59781    255.00816     205.1439   -48136.079    48120.742     49.86426     35.77745 
145096000    277.18923    323.82855    250.15387   -48153.038    48149.587     73.67468    35.771491 
145100000    279.35284    609.41948    276.56531   -48189.454    48188.331    332.85417    35.762568 
145104000    283.26017    311.42261    250.04035   -48206.933    48196.627    61.382255    35.761045 
145108000      285.961    217.01626    262.15731   -48202.559    48198.746   -45.141051    35.762404 
145112000    313.03642    453.48083     394.6818   -48215.333    48203.672    58.799028     35.75369 
145116000    281.34061    551.06561    216.49197   -48242.245    48248.071    334.57365    35.767886 
145120000    285.83516    187.68364     323.0579   -48257.923    48271.892   -135.37425    35.775369 
145124000    308.78602    275.01105    313.79567   -48303.084    48297.252   -38.784623    35.777212 
145128000    304.03691    354.97787    517.35525    -48329.27    48320.718   -162.37739    35.781524 
145132000    282.61637    367.38588    400.34554   -48366.021    48336.401   -32.959662     35.76884 
145136000    290.78717    268.09857    291.69813   -48406.126    48380.799    -23.59956    35.761965 
145140000    291.74569    286.02087    292.84641   -48445.175    48420.827   -6.8255423    35.752599 
145144000    288.56882    243.91366    201.14675   -48443.053     48451.82    42.766905    35.757577 
145148000    316.06162     415.1739    574.81871   -48502.482    48462.676   -159.64481    35.775412 
145152000    285.72008    352.32941    470.75317   -48534.272    48510.567   -118.42375     35.76319 
145156000    263.88686    303.09151    241.19124   -48513.876    48515.633    61.900272    35.756864 
145160000    291.84528    460.62152    314.23154   -48543.094     48537.11    146.38998     35.76279 
145164000    308.67954    435.84199    255.59318   -48564.301    48535.569    180.24881    35.777875 
145168000    298.76664    387.11535    245.41692   -48593.083    48576.193    141.69843    35.778484 
145172000    289.22472     350.0203    265.26565   -48607.099    48603.406    84.754654    35.768266 
145176000    290.88738    347.42885    371.94544    -48629.12    48626.036   -24.516592    35.765055 
145180000    265.46923    311.81185     227.8168   -48635.879     48637.69    83.995048    35.761065 
145184000     263.8783    356.69077    220.77724    -48626.53    48652.369    135.91353    35.757358 
145188000    273.95063    316.90046    297.02394   -48675.181    48677.118     19.87652    35.760932 
145192000    255.49502    450.29747    388.14375   -48682.378    48701.551    62.153722    35.761644 
145196000     262.7172    305.70819    411.77119   -48695.969    48715.239     -106.063    35.764136 
145200000    282.54883    201.93362    394.23566   -48701.766    48727.688   -192.30204    35.759557 
145204000    270.14729    218.67085    413.72922   -48722.568    48745.237   -195.05837      35.7697 
145208000    271.69887    206.12554    320.86407   -48757.029    48762.617   -114.73852    35.766155 
145212000    252.74541     448.5194    470.45436   -48775.817    48794.023   -21.934963    35.761131 
145216000     279.2224    302.08177    321.32713   -48800.641    48815.161   -19.245355    35.767956 
145220000     282.5905    517.09991     505.2534   -48805.916    48821.791    11.846506    35.761228 
145224000    293.85029    327.37516    335.91448   -48811.837    48796.358   -8.5393169    35.775535 
145228000    305.70548    271.47681    315.35049   -48831.275    48825.673   -43.873678    35.791521 
145232000    281.94137     381.7667    232.92386   -48848.117    48834.476    148.84284    35.803786 
145236000     279.4987    261.76798    536.64977   -48877.284    48891.519    -274.8818    35.807796 
145240000    308.85201    386.30032    463.65282   -48936.491    48917.629   -77.352496    35.794987 
145244000    311.45373     291.0941    214.42017     -48962.3     48948.39    76.673927    35.795179 
145248000    295.54607    414.78397    222.07869   -48983.568    48967.929    192.70528    35.805501 
145252000    297.31486    413.32746    392.81033   -48987.703    48980.375    20.517131    35.814358 
145256000    299.88065    468.58919    515.12181   -49049.829    49026.276   -46.532619    35.819854 
145260000     289.2085    375.17695    241.07271   -49053.343    49048.901    134.10423    35.822912 
145264000    278.47301    556.76869     349.0227   -49095.272    49103.416    207.74599    35.813066 
145268000    296.79055    342.74403    399.96676    -49098.25    49097.926   -57.222725    35.810193 
145272000    250.71161    280.31608    419.13234   -49109.576    49128.976   -138.81626    35.810003 
145276000    290.10933    514.23337    250.14498   -49145.039    49141.193    264.08839    35.803828 
145280000    280.95789      302.327     499.9826   -49152.077    49163.894   -197.65561    35.797369 
145284000    283.17692     341.4206    393.11919   -49195.913     49196.72   -51.698595    35.804445 
145288000    297.64096    387.33083    449.26644   -49218.373      49216.8   -61.935616    35.807346 
145292000    274.41876    365.90654    266.38517   -49245.528     49249.49    99.521372    35.810947 
145296000    273.88824    348.53519    345.73355   -49273.913    49301.527    2.8016366    35.800934 
145300000    285.31598    420.57026    511.52858   -49311.732    49307.846   -90.958318    35.793517 
145304000    270.22642    458.67377    263.51007   -49293.574    49324.504     195.1637    35.798214 
145308000    272.11457    513.56634    318.03903   -49329.859    49335.141    195.52731    35.809102 
145312000    275.10286    278.09809    300.32026   -49328.296    49335.137   -22.222173    35.804537 
145316000    293.72168    222.82268     367.5973   -49345.005     49350.67   -144.77462    35.798763 
145320000    277.10897    693.36542    340.00734   -49350.003    49364.778    353.35808    35.782529 
145324000     303.3693    423.21014    278.12024   -49365.233    49365.932     145.0899    35.777963 
145328000    269.82541    247.62014    377.29524   -49387.639    49384.703    -129.6751    35.788463 
145332000    312.87039    415.43337    333.79283   -49425.632    49404.837    81.640542    35.806996 
145336000    309.64873    449.45168    150.26924   -49428.153    49419.901    299.18245    35.803711 
145340000    295.35877    447.04145    414.28364    -49415.29    49399.057     32.75781    35.790422 
145344000    283.61693    307.41752     256.2828   -49433.381    49433.763    51.134729    35.799155 
145348000     328.0825    506.87018     485.0661   -49468.882    49421.825    21.804073    35.799755 
145352000    289.10119    634.26184    364.37675   -49495.541    49469.236    269.88509    35.814307 
145356000     278.7091    369.88906    175.32591   -49510.506     49499.78    194.56315    35.816441 
145360000    256.78861    205.65701    167.78621    -49517.21    49533.404    37.870801    35.817771 
145364000    255.41965    370.04669    218.48873   -49524.729    49531.556    151.55795    35.808715 
145368000    248.05443    304.13667     275.6892   -49537.484    49540.876    28.447461     35.80468 
145372000    282.30641    239.70844     253.4252   -49592.993    49586.428   -13.716761    35.804212 
145376000    283.11532     317.0915    237.95652   -49624.755    49621.214    79.134989    35.793615 
145380000    260.96205    507.42171    397.11534   -49662.271    49661.004    110.30637    35.803151 
145384000    286.08422    278.78988    328.13088   -49696.413     49708.78   -49.341001    35.801632 
145388000    278.72877    251.17699    229.28191   -49732.148    49732.506    21.895077    35.811523 
145392000    300.94083    392.98592     208.6769   -49756.759    49756.688    184.30901    35.800188 
145396000    234.74387    282.08421    182.89715    -49761.99    49795.899    99.187065    35.809624 
145400000    271.43053    289.68512    358.12234   -49781.236    49795.371   -68.437223      35.8091 
145404000    291.74714    409.49415    313.60004   -49795.795    49809.245     95.89411    35.808307 
145408000    262.06635     287.9421    303.59509   -49780.091    49806.145   -15.652988     35.80025 
145412000    296.47047    343.21557    356.01754   -49815.488    49803.223   -12.801967    35.800545 
145416000    286.18532    663.40394    261.00146   -49833.842     49838.08    402.40248    35.802527 
145420000    296.98808    472.15963    350.24009   -49872.415    49852.463    121.91954    35.789607 
145424000    303.98357    479.06907    433.77022   -49887.827    49879.688    45.298854    35.798687 
145428000     295.3235    242.42729    422.88047   -49900.313    49886.427   -180.45319    35.802066 
145432000     288.5356     298.3853    583.96944   -49906.318    49897.394   -285.58415    35.796957 
145436000     268.9369    293.36172    285.86326   -49922.082     49932.57    7.4984612    35.779019 
145440000    281.48221    444.57084    222.83334   -49956.618    49961.095     221.7375    35.783954 
145444000     279.4457    394.85683     393.3648   -49991.414    49996.811    1.4920291    35.774956 
145448000    281.56681    716.22435    221.68705   -50030.622    50027.066     494.5373    35.771757 
145452000    254.76809     427.7078    399.56686   -50037.471    50054.722    28.140934    35.770898 
145456000    284.16128    257.90852    332.23248   -50044.268    50049.009   -74.323957     35.76485 
145460000    299.30559    305.84845    209.12052   -50045.283    50051.347    96.727928    35.763576 
145464000    282.81676    599.26422    489.29037   -50041.133    50043.275    109.97385    35.775029 
145468000    244.27978    351.75673    468.83124   -50046.717    50062.378   -117.07451      35.7738 
145472000    289.76307    314.84096    217.93751   -50066.385    50077.704    96.903449    35.786219 
145476000    279.73021    333.90205    375.99199   -50118.823    50089.584   -42.089938    35.776892 
145480000    292.72591    492.81261     280.9638   -50087.786    50092.022     211.8488    35.766335 
145484000    261.07331    227.93203    285.97406   -50088.041    50096.267   -58.042036    35.786987 
145488000     252.7532    285.01045    271.67996   -50109.621    50115.385    13.330494    35.787656 
145492000    273.54854    315.03865    385.39602   -50132.368    50139.313   -70.357371    35.782317 
145496000    256.57413    258.04161    360.25746     -50169.2    50185.555   -102.21585    35.768905 
145500000    287.41239    460.41548    298.18496   -50220.053    50210.494    162.23053    35.763952 
145504000    277.48831     326.4685     232.4509   -50220.943    50230.996    94.017603    35.766631 
145508000    311.03555    461.82278    277.26589   -50241.042    50222.859    184.55689    35.774638 
145512000     290.4094    285.76325    342.87308   -50253.406    50260.222   -57.109834    35.777264 
145516000    317.19031    618.27534     244.1419   -50277.074    50265.378    374.13344    35.775679 
145520000    293.82539    209.36197    367.62028   -50279.939    50276.376   -158.25831     35.78847 
145524000    275.05314    242.37513    295.71923   -50282.472    50274.647   -53.344096    35.777688 
145528000    278.45709    454.91829    233.38606   -50294.279    50309.113    221.53224    35.768123 
145532000    270.10904    319.64048    266.34236   -50325.397    50335.425    53.298127    35.747483 
145536000    291.53085    512.52355    241.61082   -50355.854    50349.933    270.91272    35.778088 
145540000    257.06691    488.65379    283.25576   -50369.676    50394.166    205.39802    35.793558 
145544000    258.23284    318.87324     285.8782   -50401.457    50420.611    32.995044    35.792888 
145548000    314.00034    510.62943    246.03422   -50440.209    50423.424    264.59521    35.791012 
145552000    327.24858    464.99005    472.38601   -50465.477    50441.014   -7.3959581    35.788414 
145556000    258.15616     135.3367    300.02063   -50453.712    50478.014   -164.68393    35.783833 
145560000    263.28196    227.77748    305.72507   -50488.648    50519.904   -77.947597    35.796897 
145564000    263.77484    226.67707    273.85883   -50507.641    50511.413   -47.181762    35.799555 
145568000    295.02231    282.27623     297.0895   -50513.267    50502.013   -14.813278    35.791108 
145572000    322.27644    471.79978    334.41326   -50555.185    50522.749    137.38652    35.785825 
145576000    294.88973    487.12711    293.33798   -50551.988    50544.642    193.78914    35.786462 
145580000    263.27095     322.0737    338.47743   -50540.855     50560.69   -16.403731    35.800802 
145584000    281.32461     536.5969    289.01255   -50602.726    50609.717    247.58435    35.806059 
145588000    297.86644    422.62801    479.34645   -50599.816    50611.236   -56.718447    35.806735 
145592000    258.34649    477.29549     282.6438   -50617.537    50645.668    194.65169    35.806489 
145596000    295.72464    344.84735    359.22631   -50656.154    50653.295   -14.378957    35.809487 
145600000    314.50232    383.10017    403.05957   -50692.377    50668.723   -19.959399    35.817443 
145604000    289.41582    408.94745    238.03665   -50703.136    50690.299    170.91081    35.819858 
145608000    292.79143    280.34296    379.33824    -50727.03    50718.377   -98.995278    35.823597 
145612000    268.17884    417.68929    356.83728   -50731.601    50737.302    60.852019    35.819026 
145616000    265.51407    418.29193    228.07587   -50743.929    50761.319    190.21606    35.825702 
145620000    277.80499    432.39335     304.3233   -50789.045    50788.488    128.07005    35.820523 
145624000    286.58909    407.18741    250.78205   -50806.784    50797.581    156.40536    35.816989 
145628000    303.40034    474.17738    506.01832   -50799.147    50810.054   -31.840939    35.810778 
145632000    258.96478    341.35336    261.62226   -50824.614    50832.534    79.731098    35.806992 
145636000    277.91005    301.20012    308.18595   -50850.012    50862.788   -6.9858318    35.783697 
145640000    276.69379     425.6553    219.71247   -50888.985    50901.613    205.94283    35.781486 
145644000    274.34656    653.87667    269.20435   -50907.447    50907.908    384.67232    35.797625 
145648000    327.41046    356.15886    288.20192   -50948.567    50929.053    67.956946    35.790956 
145652000    282.05915    234.84179     339.4621   -50970.921    50961.673    -104.6203    35.781425 
145656000    278.21688    386.96236    174.73494   -51006.193    50995.118    212.22742    35.771258 
145660000    289.74916    226.71433    442.04702   -51022.956    51014.191   -215.33269    35.764538 
145664000    311.08257    388.31104    260.68264   -51017.188    51004.012    127.62841    35.770534 
145668000    313.37225    291.02806    496.04403    -51061.94    51039.745   -205.01597    35.766189 
145672000    282.88766    471.26561    357.11664   -51072.493    51058.764    114.14897    35.775858 
145676000    251.45864    314.43913    150.57246   -51061.107    51092.696    163.86667    35.783994 
145680000    287.63195     288.1188     184.3363    -51105.01    51085.123     103.7825    35.770282 
145684000    314.06621    453.34872     436.4494   -51118.796    51105.172    16.899323    35.775978 
145688000    309.30818    325.98904    381.35656   -51146.364    51113.652   -55.367525    35.792369 
145692000    268.59714    288.02554    384.51525    -51147.21    51163.868   -96.489708    35.789512 
145696000    265.64076    302.91722    412.41329   -51168.168     51178.07   -109.49607    35.775747 
145700000    264.43298    257.75397    327.76089    -51190.78     51207.23   -70.006923     35.78255 
145704000    270.13129    382.13627    287.98385   -51226.647    51222.821    94.152422    35.800709 
145708000     290.8009    546.78026    304.09567   -51250.403    51260.116    242.68459    35.802238 
145712000    287.79768    308.94971    621.37406   -51268.726    51276.459   -312.42435    35.806051 
145716000    269.72915    295.83237    505.92251   -51270.438    51286.866   -210.09014    35.789688 
145720000    293.25922    473.60519    375.50331    -51326.01    51323.254    98.101878    35.774136 
145724000    300.50292    457.51932    200.28682   -51362.682     51354.16     257.2325     35.76926 
145728000     316.5516    296.51388    398.55354   -51398.719    51372.079   -102.03965      35.7656 
145732000    313.20257    548.79036    237.50043    -51399.97    51377.281    311.28994    35.768934 
145736000    273.05804    407.36056    457.46252   -51412.435    51420.286   -50.101963    35.763624 
145740000    302.29133    232.00214    333.05876   -51441.025    51427.955   -101.05663    35.765104 
145744000     261.7508    327.44102    267.86926    -51460.57    51466.733    59.571756    35.773507 
145748000    294.64064    179.85595    272.11242   -51473.223    51469.292   -92.256472    35.782938 
145752000     301.9499    412.58301    504.73644   -51498.201    51480.096   -92.153431    35.804294 
145756000    296.23319     358.1325    191.41266   -51542.553    51527.117    166.71984    35.807782 
145760000    295.94858    253.65158    301.43375    -51561.88    51538.931   -47.782172    35.804659 
145764000    290.54005    399.49036    400.32836   -51560.434    51559.373  -0.83799937    35.809051 
145768000    294.02384    419.76756    393.37783   -51569.688    51561.636    26.389731    35.821491 
145772000    303.57606    524.33383    214.21564   -51616.838    51599.281    310.11819    35.811511 
145776000    280.29353    234.00489    200.75729   -51616.014    51608.277    33.247595    35.809874 
145780000    282.22584    296.46102    310.07498   -51626.774    51634.289   -13.613965    35.831237 
145784000    260.79212    315.51026    346.94818   -51656.055    51656.816   -31.437914    35.825022 
145788000    278.68904    422.16159    253.56769   -51677.427    51687.361     168.5939    35.812991 
145792000    291.81227    363.51509    430.53946   -51710.723     51711.69   -67.024363    35.810373 
145796000    297.75234    358.55218    333.06283   -51742.602    51741.314    25.489351    35.799609 
145800000    258.82056    310.47957    318.35766   -51735.001    51768.357   -7.8780977    35.812305 
145804000    282.38127    262.23245     294.3767   -51773.734    51786.158   -32.144248    35.828458 
145808000    307.84341      513.062    436.09974   -51807.352    51800.202     76.96226    35.822699 
145812000    264.74138      473.364    293.48613    -51808.48    51836.638    179.87787    35.809497 
145816000    314.43235    241.92835    621.07033   -51857.121    51841.196   -379.14198    35.816547 
145820000    318.69016    390.97011    316.34067   -51891.026    51871.348    74.629434    35.837817 
145824000    272.24933    411.22105    300.19616   -51881.161    51892.587    111.02489    35.839355 
145828000    256.39444    250.76166    348.89197   -51890.569    51898.598   -98.130317    35.844899 
145832000    263.50431    488.13276    249.94181   -51914.857    51918.545    238.19095    35.849703 
145836000    248.31949    414.14767     219.1621   -51923.736    51951.274    194.98557    35.855278 
145840000    288.63025    395.21922    147.52898   -51980.693    51957.379    247.69024    35.861155 
145844000    273.23408    264.34627    416.87752   -51996.104    51999.349   -152.53125    35.853629 
145848000    278.24931    498.86621    265.85865   -52029.872    52019.813    233.00756    35.847579 
145852000    296.16875    210.89561    213.38184    -52045.85    52048.685   -2.4862322    35.837482 
145856000     296.9795    266.05277    334.04129   -52064.514    52047.077   -67.988516    35.842443 
145860000    284.79908    317.91545    320.17083    -52069.81    52079.427   -2.2553707    35.824872 
145864000    264.39387     275.9023    294.68441   -52082.423    52097.899   -18.782111    35.828233 
145868000    280.22968    412.22264    190.33331   -52128.953    52125.704    221.88932    35.827691 
145872000    296.38327    377.29416    234.28809    -52146.96    52150.513    143.00608    35.835353 
145876000    268.25713    262.72801    369.82764    -52155.68    52166.323   -107.09962     35.83241 
145880000    274.08191    243.79147    337.99795   -52179.433    52168.906   -94.206486    35.830469 
145884000    289.50401    479.14985    314.44366   -52193.679    52185.201    164.70618    35.832387 
145888000    261.23726    236.98115    254.44901   -52189.679    52196.957   -17.467858    35.835745 
145892000    279.00515    571.68529    295.33112   -52231.257    52226.111    276.35418    35.835773 
145896000    291.10433    351.56621    321.31014   -52257.361    52268.407    30.256076    35.835828 
145900000    276.76078    294.38394    379.55808   -52259.797    52270.697   -85.174136    35.834221 
145904000    245.96628    201.01342    320.18092   -52292.935    52307.845    -119.1675    35.841313 
145908000    253.88831    349.77021    327.23159   -52321.052    52333.727    22.538617    35.839201 
145912000     272.5667    604.08888    277.94414   -52333.258    52333.889    326.14473    35.843731 
145916000    300.15805    240.39925    554.26969     -52382.1    52362.213   -313.87044    35.843239 
145920000    289.78881    319.00503    229.28717   -52405.298     52398.39     89.71786     35.83688 
145924000    307.93784    274.68724    331.67572   -52416.628    52403.114   -56.988482    35.850758 
145928000    309.18102    612.57571    205.90143   -52417.789    52413.606    406.67429    35.847499 
145932000    311.44999    383.27429    487.07983   -52470.179    52435.687   -103.80554    35.845791 
145936000    288.74258    350.61339    222.62502   -52481.693    52461.928    127.98837    35.843181 
145940000    304.97477    252.19699    353.65918   -52489.453    52480.461   -101.46219    35.832959 
145944000    262.37722    446.49342    325.94204   -52513.308    52521.135    120.55138    35.851313 
145948000    276.77787    455.04479    243.13043   -52519.859    52538.886    211.91436    35.848616 
145952000    302.63417    481.65028    612.89489   -52523.545    52521.066   -131.24461     35.84581 
145956000    283.99176    439.37035     295.8581   -52522.163    52540.644    143.51225    35.847753 
145960000      284.739    415.84755    392.01648   -52514.448    52514.402    23.831067    35.848075 
145964000    277.21678    330.21758    283.33855   -52521.856    52524.572    46.879029    35.852215 
145968000    272.63958     326.2785    290.88474   -52514.005     52524.69    35.393756    35.837978 
145972000    269.52726    233.59904    269.75476   -52543.314    52549.364   -36.155716    35.828143 
145976000    292.24043    505.42347    264.70345   -52575.862    52571.826    240.72002    35.836104 
145980000    257.51004     383.8121     393.1477   -52601.237    52608.774   -9.3356019    35.829833 
145984000     270.1094    424.07193    249.88999   -52640.815    52651.294    174.18194    35.839838 
145988000    279.13851    380.03291    396.65877   -52666.491    52672.751   -16.625854    35.820631 
145992000    280.30376    296.42333    472.97413   -52696.254    52695.851   -176.55081    35.821812 
145996000    277.61265    394.34633    373.66704    -52727.07    52729.096    20.679295    35.817996 
146000000    276.77839    355.71599    167.11197   -52755.303    52761.347    188.60402    35.831067 
146004000    314.44483    210.08268    366.83475   -52774.117    52758.153   -156.75207    35.824211 
146008000    299.43466     381.8924    258.88539    -52785.84    52772.342    123.00702    35.816378 
146012000    286.61547     299.0659    342.40735   -52806.329    52805.194   -43.341449    35.818719 
146016000     286.0316    410.79729    287.57907   -52843.988     52859.54    123.21821    35.801683 
146020000    322.42243    499.83734    595.78889   -52898.208    52881.798   -95.951551    35.793702 
146024000     311.4126    478.04833    427.22449   -52932.088    52917.497    50.823839    35.776049 
146028000    256.10794    254.63533    337.74987   -52936.373    52947.839   -83.114539    35.797922 
146032000    271.77185    212.91971    393.25314   -52971.922    52977.074   -180.33343    35.787449 
146036000    269.02574    353.33269    297.23124   -53000.172    53004.951    56.101449    35.796117 
146040000    268.31799    223.26015    209.44004   -53034.109     53044.83    13.820105    35.786479 
146044000    280.49804    311.89219    333.82691   -53050.429     53060.22    -21.93472    35.782151 
146048000    269.85582    124.61624    230.11287    -53063.37    53082.949   -105.49663    35.769684 
146052000    288.68626    344.66921    432.02352   -53086.882    53088.351   -87.354301     35.75074 
146056000    296.36984    432.36106    359.06895   -53115.573    53121.641    73.292111    35.741434 
146060000    282.94684    426.17476    364.63456   -53140.278    53135.645    61.540197    35.742937 
146064000    310.08023    429.90696    367.83181   -53165.873    53150.879    62.075152    35.733625 
146068000    282.11158    358.82061    445.40105   -53177.206    53184.539   -86.580439    35.745784 
146072000    285.38022    364.91697     201.5624   -53197.472    53208.068    163.35457    35.741643 
146076000    296.17236    228.15564    267.16804   -53226.834    53207.725   -39.012405    35.748683 
146080000    297.35666     570.0489    454.58283    -53275.03    53265.127    115.46607    35.766453 
146084000    282.65567    426.34841    322.03959   -53275.192    53286.687    104.30882    35.767754 
146088000    290.66352    336.59923    329.42509   -53303.035    53307.027    7.1741391    35.758025 
146092000    293.94936    381.49789    338.55906   -53309.576    53316.686    42.938831    35.744692 
146096000    256.72748    440.92466    269.82647   -53320.415    53332.238     171.0982     35.73304 
146100000    297.99447    454.33195    407.48314   -53357.276    53355.044    46.848813    35.744124 
146104000    283.66076    371.93096    378.97557   -53356.725    53378.475   -7.0446176    35.748975 
146108000    294.18199    623.45024    281.07508   -53391.943     53394.21    342.37516    35.747812 
146112000    264.84631    315.65332    246.26077   -53403.898    53407.246    69.392548    35.747549 
146116000    280.55158    291.81203    195.53951   -53427.848    53438.817    96.272526    35.739137 
146120000    276.62665    262.63398     429.7048   -53443.514    53457.197   -167.07083    35.747392 
146124000    263.55318    207.58273    428.14413   -53453.556    53471.979   -220.56141    35.744583 
146128000    290.29406    343.32408    335.97767   -53491.642    53489.619    7.3464101    35.742129 
146132000    288.64298    543.45887    276.41107   -53518.634     53490.76    267.04781    35.738565 
146136000    323.87504    429.00024    333.92967   -53542.168    53518.917    95.070569    35.730358 
146140000      283.164    246.56341    385.28146   -53600.108     53576.22   -138.71806     35.73493 
146144000    295.51759    491.91047    412.38129   -53633.385    53607.181    79.529181    35.731972 
146148000    293.88406    518.21999    283.76609   -53658.971    53653.573     234.4539    35.716461 
146152000    313.09024     363.7308      375.266     -53693.4    53680.826   -11.535204    35.735653 
146156000    275.02247     446.7152     444.8066   -53713.134    53717.124     1.908597    35.749303 
146160000    273.30174    485.08287    347.46568   -53749.626    53761.388    137.61719    35.757965 
146164000    274.81653    230.09381    328.58044   -53768.526    53769.786   -98.486622    35.743133 
146168000    268.85012    457.78754    275.52206   -53799.986     53799.51    182.26548    35.742101 
146172000    290.15407    367.83238    490.48081   -53801.358    53799.267   -122.64844    35.750166 
146176000    261.50502    424.56315    476.95761   -53831.838    53834.893   -52.394462    35.750575 
146180000    276.85539    321.98344      219.507   -53862.611    53872.434    102.47644    35.742087 
146184000    280.40317    270.82208    226.61274   -53873.482    53875.278    44.209337    35.747633 
146188000    262.88717    271.49127    233.14493   -53902.367    53901.767    38.346347     35.75343 
146192000    292.03421    235.21979    485.40716   -53922.555    53940.498   -250.18737    35.725822 
146196000    274.62848    537.59585    243.57406   -53952.158    53944.828    294.02179    35.733233 
146200000    265.32614    372.96314    313.16274   -53975.722    53982.377      59.8004     35.72492 
146204000    262.57369    302.63934    344.56525   -53982.783    53995.988   -41.925916    35.735988 
146208000    274.32721    593.68963    323.23419   -54011.303    54028.667    270.45545    35.747873 
146212000    283.43174    485.99495    171.88407   -54041.915    54034.209    314.11089    35.744581 
146216000    275.36706    343.00723    102.85408   -54062.269    54079.248    240.15315    35.740533 
146220000    266.63931    506.86397    262.71891   -54081.216    54083.661    244.14506     35.73758 
146224000    275.79011    525.98586    380.18094     -54099.7     54105.31    145.80492     35.73073 
146228000    280.68435    249.21127    425.77894   -54155.241    54147.242   -176.56767     35.73029 
146232000    307.67455    410.01892    308.25824   -54205.619    54188.664    101.76068      35.7279 
146236000    261.21821    402.50277    300.83778   -54205.516    54224.674    101.66499    35.735613 
146240000    281.37694    262.53451    316.35201   -54228.005    54233.732   -53.817501    35.741492 
146244000    283.63575    308.00613    315.30793   -54266.365    54262.828   -7.3018022    35.732173 
146248000    297.59573     598.2293    431.59481   -54305.983     54273.33    166.63449    35.724938 
146252000    274.84531    342.29352    335.88449   -54316.282    54339.187    6.4090333    35.724753 
146256000    267.85613    299.54343    277.26053   -54371.178    54367.928      22.2829    35.723071 
146260000    270.63525    406.50283    514.65723   -54380.282     54404.73    -108.1544    35.717338 
146264000    296.50021    284.44212    249.36146   -54419.286    54400.418    35.080662    35.727713 
146268000     287.8107    436.09709    385.38209   -54394.776     54415.16    50.715003    35.726744 
146272000    271.76332    367.71987    350.15722   -54445.694    54453.583    17.562647    35.735291 
146276000    287.12009    622.59878     242.5255   -54491.056    54472.118    380.07328    35.744509 
146280000    277.31605    371.46248    378.07738   -54522.433    54512.965   -6.6149046    35.736918 
146284000    272.79185    311.16702     406.5771   -54548.456    54547.165   -95.410078     35.73191 
146288000    283.93109    386.85599    205.71171   -54545.447    54562.454    181.14428    35.740218 
146292000    300.95292    444.60401    341.45435   -54581.999    54559.764    103.14966    35.743226 
146296000    310.34945    432.92138    416.51341   -54606.634    54590.838    16.407967    35.730135 
146300000    275.11179    402.91368    351.00486   -54630.541    54624.423    51.908821    35.734425 
146304000    294.17975    246.59059    260.90957    -54675.17    54678.768   -14.318978    35.742976 
146308000    272.93207    377.26361    274.36722   -54699.478    54702.045    102.89639    35.754975 
146312000    316.42345    628.94024    466.10035   -54741.225    54726.659     162.8399    35.742847 
146316000    275.13094    307.69609    347.14699   -54746.982    54763.159   -39.450906    35.735746 
146320000    292.12714    435.29811    383.11948   -54783.104    54775.197    52.178633    35.727188 
146324000    304.37148    355.50823    349.06782   -54782.956    54782.332    6.4404057     35.73242 
146328000    276.75176    247.52782    381.02509   -54789.164    54781.931   -133.49728    35.722712 
146332000    315.10547    336.96279    320.99975   -54810.907    54790.001    15.963038    35.717958 
146336000    310.04773    375.44526    367.64508   -54817.162    54804.602    7.8001721    35.716315 
146340000    270.47062    290.34217    251.75619   -54818.969    54832.758    38.585976    35.714933 
146344000    289.50401    251.48784    193.95325   -54860.714    54853.159    57.534593    35.688788 
146348000    283.03414    291.31749    280.27478   -54893.233    54917.093    11.042708    35.689412 
146352000    295.50808    525.03455    273.00384   -54971.213    54933.972    252.03071    35.695292 
146356000    294.28898    563.00836    317.72395   -54975.607    54965.818    245.28441    35.700518 
146360000    290.27922    395.29696    453.31969   -55010.081    55014.669   -58.022738    35.685259 
146364000    282.31689    225.68592    392.58655   -55029.885    55034.549   -166.90063    35.676897 
146368000    298.92261    467.21195    249.18426   -55050.231    55044.205    218.02768    35.681333 
146372000    298.51514    706.35823     280.0998   -55089.172    55064.131    426.25843    35.695389 
146376000    283.51708    466.42636     300.7374   -55133.132    55117.437    165.68897     35.69679 
146380000    267.66676    310.43905    321.71275   -55122.572    55126.745   -11.273706    35.694553 
146384000    292.96085    339.48322    415.64055   -55149.817    55158.164   -76.157337    35.702121 
146388000    276.56742    449.93028     155.3134   -55179.894    55174.038    294.61687    35.705758 
146392000    289.93462    437.81552    281.25489   -55223.086    55204.237    156.56063    35.716812 
146396000    299.01418    374.74616    471.43071   -55253.295     55233.35   -96.684552    35.707074 
146400000    286.34889    443.20758    271.40183   -55259.378    55256.333    171.80575    35.709663 
146404000    291.42709    233.91579    533.91777   -55265.914    55258.715   -300.00198    35.701776 
146408000    293.32948    299.97095    237.50092   -55305.033      55298.8    62.470031    35.701309 
146412000    299.05415    280.69183    382.27178   -55318.684    55308.892   -101.57996    35.705117 
146416000    264.48392     231.8933    296.24303   -55341.939      55350.3   -64.349737    35.706283 
146420000    275.04757    455.08919    519.70916   -55380.071    55381.342   -64.619971    35.707719 
146424000    285.93749    312.21559    270.49869   -55378.757    55379.898    41.716893    35.695864 
146428000    267.33532    359.09524    223.14714   -55393.949    55382.658     135.9481    35.686294 
146432000    261.38082    277.82621    225.62957   -55402.759    55408.226    52.196632    35.696043 
146436000    283.30888    445.65653     413.8934   -55418.999    55403.732    31.763131    35.714407 
146440000    275.04081    297.19302    338.15835   -55457.038    55457.923   -40.965326    35.709825 
146444000    287.32133    469.84048      356.028   -55477.107    55483.531    113.81249    35.716287 
146448000    287.55631    259.13253    225.19459   -55504.241    55503.725    33.937934    35.707959 
146452000    270.13058    495.82366    367.31944   -55501.821    55509.987    128.50423    35.708883 
146456000    273.15422    458.19517    361.65358   -55541.411    55535.952    96.541593    35.707571 
146460000    277.98002    343.59076     173.5242   -55570.612     55576.58    170.06656    35.709184 
146464000    281.96547    518.90352    464.00485   -55611.648    55608.292    54.898669    35.686514 
146468000    285.39605    485.95936    330.92674   -55634.707    55628.601    155.03262    35.689039 
146472000    287.54859    292.03782    246.12302    -55651.42    55637.266    45.914794    35.689949 
146476000    263.02986    232.77123    436.67168   -55644.047    55640.798   -203.90045    35.697901 
146480000    302.85299    429.76642    328.55681   -55658.579    55650.078    101.20961    35.706915 
146484000     290.3082       296.97    150.76116   -55659.588    55658.767    146.20885    35.716534 
146488000    293.83634    264.10737    258.38954   -55663.875    55657.698    5.7178319    35.725056 
146492000    269.64311    234.55839    260.08522   -55669.927    55688.379   -25.526829    35.723305 
146496000    307.83299    536.50833    318.75165   -55720.809    55713.841    217.75668    35.718789 
146500000    287.76962    364.45059    255.39089   -55720.997    55723.875     109.0597    35.710825 
146504000    280.31083    304.70538    360.20532   -55750.366    55754.133   -55.499947    35.714032 
146508000    283.71042    427.06234    280.94236   -55765.585    55771.189    146.11998     35.70769 
146512000    286.57307    390.41448    362.21898   -55774.968    55763.524    28.195491    35.702536 
146516000     274.8904    589.55116    225.36351    -55772.32    55774.815    364.18765    35.699562 
146520000    314.50097    524.65761    292.54274   -55814.673    55779.596    232.11486    35.696415 
146524000    301.72572    300.19174     302.4005   -55834.236     55811.51   -2.2087667    35.689537 
146528000    290.42044     337.3853    361.90468   -55848.394    55842.423    -24.51938    35.686751 
146532000    276.74085    399.90972     212.7463    -55867.13    55880.613    187.16342    35.689084 
146536000    269.90341    303.32665    349.62622   -55892.409    55895.386   -46.299567    35.694851 
146540000    244.92102    225.87167    286.70016   -55910.041     55939.22   -60.828484    35.698001 
146544000     264.1625    279.54367    324.87502   -55914.902    55933.947   -45.331349    35.692593 
146548000    257.55221    484.38775    308.10734   -55925.198    55942.971     176.2804    35.698977 
146552000    294.24277    439.23616    310.06985   -55975.321    55959.344    129.16632    35.709865 
146556000    312.80842    209.05684    321.07884   -55999.806    55984.774   -112.02199    35.718731 
146560000    274.40499     276.9513    475.67976   -56022.314    56021.999   -198.72845    35.712678 
146564000    279.79788    367.77905    342.99145   -56051.283    56052.766    24.787604    35.715208 
146568000    273.27961    331.70872    323.92923   -56067.035    56062.277     7.779486    35.708158 
146572000    317.01398    292.80645    279.66341   -56075.543    56074.551     13.14304    35.704236 
146576000    276.39644    504.50479    215.44559   -56088.318    56083.352     289.0592    35.711749 
146580000    282.88937      213.821     344.4774   -56101.278    56105.338    -130.6564    35.691987 
146584000       277.28    433.86025    180.41116   -56110.923    56121.075    253.44909    35.675853 
146588000     267.9938    273.69481    364.69567   -56121.865    56126.241   -91.000862    35.660384 
146592000     299.5333    438.98544    226.50095   -56185.907    56137.925    212.48449    35.661013 
146596000    255.00266    438.20182    200.50905   -56197.551    56211.947    237.69277    35.663246 
146600000    300.42407    440.55787     287.3555   -56239.325    56218.833    153.20237     35.66043 
146604000    313.97905    357.31099    290.14218   -56267.903    56251.184    67.168813    35.666121 
146608000    316.01188    313.66484    387.36536   -56298.758     56281.13   -73.700521    35.651833 
146612000    282.92737    698.76794      365.505   -56305.167    56306.967    333.26293    35.659019 
146616000    304.95308    216.33242    231.24081   -56362.646    56322.698   -14.908387    35.655286 
146620000     281.4677    501.79702    230.13919   -56371.203    56358.068    271.65783    35.649521 
146624000    253.01309    228.96315    293.30747   -56386.698    56392.125   -64.344326    35.645631 
146628000    288.21697    370.43704    219.42378   -56422.525    56425.318    151.01326    35.651478 
146632000    300.16144    292.02072    311.93858   -56462.909    56451.525   -19.917856    35.644929 
146636000    308.80253    242.81472    262.09264   -56460.434    56441.199   -19.277917    35.644343 
146640000     265.2887    319.52956    193.22291   -56469.878    56472.548    126.30665    35.647887 
146644000    279.48465    425.19022    379.04779   -56459.521    56465.441    46.142425    35.650257 
146648000     290.1164    333.43542      261.811   -56495.529    56479.505    71.624417    35.649649 
146652000     315.6265      286.538    264.04074   -56521.113    56480.521     22.49726    35.662211 
146656000     281.4144    367.57778    306.60208   -56523.568    56516.444    60.975705    35.662743 
146660000    297.86896    252.68473    214.83876   -56557.912    56540.488    37.845967    35.664887 
146664000    252.31317    369.70542    313.63354   -56582.283    56583.397    56.071877    35.684401 
146668000    260.47618     424.5579    447.97513   -56603.283    56606.613   -23.417232    35.681733 
146672000    281.52663    291.22387    187.52795   -56636.156    56637.845    103.69592    35.692262 
146676000    293.76857    370.66897    277.02281   -56676.741    56665.968    93.646167    35.689678 
146680000    276.65619    402.46447    417.91038   -56700.167    56677.417    -15.44591    35.704074 
146684000    284.06967    510.84328    384.68571   -56710.036     56703.55    126.15757    35.708782 
146688000    314.54999    389.17159    340.68394   -56749.542    56736.502    48.487658    35.705779 
146692000    271.84553    334.69353    364.40429   -56764.934    56776.932   -29.710757    35.694444 
146696000    292.54067    365.93128    396.71627   -56786.361    56768.292   -30.784986    35.699097 
146700000    297.41206     541.8286     445.6402   -56801.386     56792.88      96.1884    35.704649 
146704000    282.81804    329.53915    286.16533   -56823.899    56832.785    43.373821    35.716743 
146708000    267.25736    305.65077    375.09143   -56837.293    56839.289   -69.440658    35.724944 
146712000     260.3596    405.28931    221.26938   -56874.538    56876.526    184.01992    35.733499 
146716000    263.93954    468.18918    198.35807   -56912.264    56913.752    269.83111    35.729035 
146720000    270.70052    415.71517    356.47161   -56960.597    56953.551     59.24356    35.724736 
146724000    245.86359    300.11842    327.98273   -56968.048    56978.161   -27.864305     35.71352 
146728000     271.3794    243.90551    286.39175   -56971.338    56970.657   -42.486239    35.722516 
146732000    295.17346    601.19535    224.69329   -57007.989    57006.987    376.50206    35.735444 
146736000    293.88408    263.88738    452.85808   -57020.466    57003.773   -188.97069    35.736283 
146740000    296.29311    329.94695    297.54985   -57020.178    57015.583    32.397106    35.746398 
146744000    298.29608    450.06747     358.8518   -57035.112    57026.544    91.215672    35.756828 
146748000    260.46703    330.38515    320.31133   -57031.867    57050.313     10.07382    35.751112 
146752000    287.35017    407.96514    268.82257   -57082.458    57072.892    139.14256     35.73604 
146756000    312.02372    313.75326    328.92207   -57113.299    57089.324   -15.168811    35.744022 
146760000    288.23217    353.72573    362.02464   -57126.762    57114.131   -8.2989132    35.733481 
146764000    270.94936     516.9351    319.97883   -57150.826    57156.931    196.95627    35.731927 
146768000    263.70701    317.57631    380.43788   -57157.935    57168.946   -62.861566    35.729802 
146772000    278.41084     305.1375    370.32694   -57189.244    57179.527   -65.189446    35.738894 
146776000    301.53854    459.15717    278.20446    -57200.49     57194.23    180.95271    35.738037 
146780000    318.50714    551.75033    506.31461   -57220.939    57203.363     45.43572    35.727884 
146784000     305.8915    536.22228    376.13792   -57245.628    57225.319    160.08437    35.728271 
146788000    279.69043    408.05001    487.80313   -57271.679    57269.844   -79.753121    35.724537 
146792000    288.41092    241.00717    236.91242   -57287.156     57298.24    4.0947462    35.723553 
146796000    291.30719    221.67853    323.50375   -57317.266    57305.219   -101.82522    35.723618 
146800000    288.31782    406.27759    387.84114   -57319.053     57314.08    18.436455     35.72952 
146804000    260.96894    206.12155    250.47172   -57334.967    57338.415   -44.350168    35.721914 
146808000    270.04226     395.7501    285.32817   -57350.598    57348.038    110.42193    35.726472 
146812000    305.40254    466.18629    322.83618   -57386.398     57372.08     143.3501    35.721935 
146816000    290.74339    390.15182    398.03779   -57409.522    57405.649   -7.8859711    35.718406 
146820000    298.49945    266.30435    397.02792   -57418.738    57424.736   -130.72357    35.716571 
146824000    283.44928    275.93245    200.39095   -57444.554    57454.363    75.541504    35.717674 
146828000    295.49754     438.7664    198.30191   -57473.927    57473.062    240.46448    35.719381 
146832000    302.13091    263.15076    255.68848   -57513.192    57496.208    7.4622783    35.718326 
146836000    271.33121    271.86263    374.23408   -57531.253    57516.931   -102.37146    35.718522 
146840000    280.65984    434.50629    403.43205   -57516.223    57530.622     31.07424    35.737368 
146844000    246.44667    398.35369    234.58438   -57528.025    57556.716    163.76931    35.736993 
146848000    279.12338    239.15793    144.34426   -57542.595    57545.254    94.813665    35.729967 
146852000    294.33984    285.57232    206.10171   -57562.982    57559.223     79.47061    35.726327 
146856000    288.97483    311.84264    333.26164   -57575.779    57570.201   -21.418997    35.729195 
146860000    278.46305    214.39058    291.24381   -57585.532    57571.947   -76.853233    35.731648 
146864000    287.95466    278.40006     199.3116   -57624.659    57615.424    79.088461    35.731559 
146868000    264.43812    313.81801     190.6226   -57620.031    57643.251    123.19542    35.724065 
146872000    298.59321    527.43249    364.74235   -57660.041    57650.533    162.69014    35.709453 
146876000     295.2882      374.862     351.6468   -57690.589    57681.895    23.215206     35.72395 
146880000    271.32472    185.56572    342.15146   -57704.923    57690.307   -156.58573    35.716257 
146884000    283.88314    374.67333      448.885   -57714.493    57695.386    -74.21167    35.704712 
146888000    281.30059    249.80612     402.1004    -57749.23    57741.573   -152.29427    35.703558 
146892000    319.02865    265.18665    245.64672   -57767.908    57760.883    19.539932    35.694587 
146896000    262.23197      254.435    292.48991   -57793.223    57802.971   -38.054909    35.684574 
146900000    259.30283    225.38856    292.59741   -57802.332    57822.905   -67.208848    35.681767 
146904000    261.42062    224.91075    395.52561   -57822.025    57854.743   -170.61486    35.681732 
146908000    267.60524    238.26423    284.33359   -57872.613    57874.999   -46.069365     35.67968 
146912000    293.87386      388.126     515.0968   -57896.385    57888.756   -126.97079    35.682751 
146916000    280.68664     481.6956    199.21477   -57912.508    57931.107    282.48083    35.684241 
146920000    282.83686    462.43681    501.92748   -57932.219    57925.476   -39.490674    35.682237 
146924000    278.00738    352.10336    375.75549   -57964.864    57967.235   -23.652133    35.669832 
146928000    274.12621    317.67552    318.42525   -57990.818    58004.762  -0.74972592    35.658588 
146932000    266.85516    363.53688    428.53589    -58005.73    58018.153   -64.999008    35.661866 
146936000    271.74501    246.99956    248.64949   -58033.576    58037.013   -1.6499269    35.660563 
146940000    277.15977    307.61679    475.53005   -58060.676    58070.088   -167.91326     35.66513 
146944000    279.85897    449.84915     397.1498   -58101.168    58094.082    52.699357    35.652967 
146948000    281.10059    352.02639    174.37511   -58127.858    58112.155    177.65128    35.640487 
146952000    310.50503    454.71883    460.67738   -58180.562    58148.049   -5.9585507    35.640351 
146956000    275.69173    256.19268    316.56814   -58176.242    58172.167   -60.375457    35.642435 
146960000    286.24554    665.23186    199.51131   -58194.021     58188.74    465.72056    35.644876 
146964000     289.7397    465.51266    356.93582   -58204.643    58201.187    108.57684    35.641964 
146968000    293.18768    329.79496    167.03543   -58225.969    58215.226    162.75953    35.632187 
146972000    290.10925    604.08756    302.26184   -58228.945    58232.161    301.82572    35.620403 
146976000    284.28642    517.09456    339.70894   -58275.271    58278.077    177.38562    35.620715 
146980000    274.83749    404.97841    238.06777   -58275.838    58291.063    166.91064    35.628653 
146984000    255.55128    284.04466    282.44263   -58280.983    58309.699    1.6020257    35.621358 
146988000    272.82325    242.09687    338.27095   -58328.238    58330.101   -96.174082    35.613316 
146992000    279.48553    318.25539    327.03259   -58336.506    58332.567   -8.7772028    35.620741 
146996000    296.44859    406.63972     270.7477   -58351.939    58365.971    135.89202    35.611974 
147000000     278.0139    446.14471    235.83994   -58376.779    58374.343    210.30477    35.608513 
147004000    299.91061    335.30812    403.20785   -58400.986     58408.07   -67.899725    35.615134 
147008000    279.58709    495.77074    331.38104   -58437.126    58441.506     164.3897    35.603339 
147012000    282.64483    411.35581    302.26714   -58432.868    58437.337    109.08867     35.61093 
147016000    288.13665    247.71251    438.52346   -58486.124    58474.272   -190.81095    35.606566 
147020000    247.33281    532.47971    237.04567   -58503.443     58517.17    295.43403    35.608325 
147024000    270.78353    238.29485    495.73188   -58536.785    58552.835   -257.43702    35.608773 
147028000    269.24526    352.28017    305.01193    -58557.33    58551.261    47.268239    35.599778 
147032000    270.13878    473.30268    449.13698   -58566.142    58581.621    24.165698    35.624035 
147036000    288.43601    325.31924    271.36321   -58615.916    58614.773    53.956032    35.637354 
147040000    291.01243    537.60218    459.58868   -58642.009    58643.469    78.013495    35.643718 
147044000    274.54587    571.85755    242.79204   -58670.997    58685.147     329.0655     35.64207 
147048000    260.80243    421.84094    309.13243   -58692.633    58710.436    112.70851    35.650513 
147052000    265.73885    352.14896    439.78254   -58733.045    58746.704   -87.633572     35.65137 
147056000    287.81242    614.20441    335.87512   -58768.029    58753.799    278.32929     35.65788 
147060000    311.54187    268.51385     239.1788    -58780.87    58761.942    29.335048    35.661736 
147064000    294.36843    390.73047    300.29013   -58788.721    58760.989    90.440348      35.6539 
147068000    299.57097    106.86642    401.44262   -58811.816    58790.036    -294.5762    35.662228 
147072000    255.92169    368.14942    396.41943   -58842.874     58841.48   -28.270007    35.665299 
147076000    308.89589    418.75906    289.23123   -58888.678    58870.147    129.52783     35.66441 
147080000    274.91576    230.30443    270.15302   -58879.953    58883.815   -39.848599    35.665072 
147084000    285.36286    357.99063    274.14572   -58909.743    58891.616    83.844901     35.66954 
147088000    252.74611    391.00261    278.92852   -58912.673    58927.178    112.07409    35.666731 
147092000    277.88947    226.37378    327.53664   -58911.614    58919.392   -101.16286    35.664199 
147096000    279.66927    344.61732    413.64791   -58920.699    58918.764   -69.030588    35.671306 
147100000    294.71752    429.11462    479.32043   -58962.885     58940.94   -50.205805    35.669608 
147104000    334.76279    377.59646    360.87133   -58970.798     58941.33    16.725131    35.663788 
147108000    294.94293    319.09597    205.21028   -58980.111    58944.933    113.88569    35.671761 
147112000     279.0933    499.27501    306.98933   -58980.546    58984.309    192.28568     35.66965 
147116000    265.94281    336.59038    279.37779    -59001.34    59000.304    57.212589    35.672811 
147120000    274.17108    572.05796    399.27549   -59024.963    59038.794    172.78247    35.678396 
147124000    302.12892    372.99729    232.89695   -59063.141    59057.536    140.10034    35.673541 
147128000    268.16128    285.74595    494.37813   -59086.534    59092.897   -208.63218    35.671951 
147132000    300.42926     355.4704    376.89027   -59101.448     59087.22   -21.419872    35.679814 
147136000    262.22038    492.49889    168.35845   -59110.366    59107.492    324.14044    35.671263 
147140000    288.40093    410.19764    306.05018   -59131.638    59126.432    104.14746    35.666791 
147144000    296.89902    487.64621    355.51752   -59133.648    59152.052    132.12869    35.666059 
147148000    309.23135    532.33532     341.8992   -59189.039    59177.726    190.43612    35.680116 
147152000     296.5223    448.82232    231.94065   -59212.051    59205.386    216.88167    35.685802 
147156000    267.19065    329.24525    253.01101   -59260.743    59239.129    76.234239    35.678375 
147160000     292.9205    497.61732    268.32029   -59273.395    59262.068    229.29703    35.679523 
147164000    287.80947    311.95375    243.59212   -59265.954    59260.228    68.361635    35.672105 
147168000    291.07939    243.20732    236.57247    -59273.83    59259.684    6.6348476    35.664329 
147172000    320.53817    418.32529    377.59362   -59271.327    59253.485    40.731664    35.675772 
147176000    277.95424    358.99534    440.35488   -59282.841    59278.495   -81.359536    35.695842 
147180000    285.96699    533.02822    403.67377   -59326.536    59319.306    129.35445    35.683007 
147184000    303.63999    235.61609    327.11002   -59356.282    59322.454   -91.493922    35.680076 
147188000    304.08957    413.89957    368.08535   -59365.103    59351.047     45.81422    35.691659 
147192000    300.92004    284.92055    422.97553   -59398.126    59373.908   -138.05499    35.692106 
147196000    325.95879    619.37624    351.91143   -59426.064    59386.222    267.46481    35.699139 
147200000     285.7544    466.74793    570.25774   -59407.082     59396.02   -103.50981    35.697704 
147204000    289.03331    293.81947    142.42711   -59421.855    59416.785    151.39236    35.689669 
147208000    285.34456    384.98939    350.89813   -59430.145    59439.066    34.091259    35.690966 
147212000      291.049    802.56197    292.08675   -59451.455    59438.809    510.47521    35.697621 
147216000    278.85502    411.31066    255.76966   -59457.234    59462.632      155.541    35.711952 
147220000    279.78038    503.48903    333.42652   -59461.633    59466.045    170.06251    35.701332 
147224000    294.52578    261.86018     200.1481   -59484.247    59475.148    61.712078    35.700361 
147228000    287.36015    382.18739     255.7203   -59511.411    59507.653     126.4671    35.690292 
147232000    267.93758    232.19128    455.04419   -59531.052    59547.097   -222.85291    35.691867 
147236000    275.44642    406.60998    312.86126   -59578.703    59585.767    93.748722     35.68075 
147240000    264.96983    289.02287    347.59592   -59608.064    59612.423   -58.573042    35.694006 
147244000    294.37721    387.32712    423.61322   -59638.738    59633.591     -36.2861    35.720194 
147248000    274.84216    328.51856    293.25243   -59647.605    59647.769    35.266121    35.727124 
147252000    309.34143    446.19283    314.91896   -59653.648    59640.416    131.27386     35.72419 
147256000    288.86084    287.76343    306.03871   -59643.079    59643.241   -18.275286     35.71102 
147260000    265.73895    163.66958    270.88868   -59652.296    59667.062    -107.2191    35.705717 
147264000    254.19008     382.5253    365.40965    -59644.67    59682.936    17.115645    35.711042 
147268000    248.59524    361.78836    321.23843   -59683.436    59691.608    40.549933    35.727252 
147272000    276.30804     311.7225    287.29622   -59688.198    59695.387    24.426279    35.712695 
147276000    273.15603    342.05088    417.99268   -59719.962    59717.072   -75.941802    35.711652 
147280000     288.4992    477.92019    301.05848   -59753.743    59747.546    176.86171    35.715575 
147284000    264.99543     294.3007    214.41764   -59760.502    59783.093    79.883067    35.701543 
147288000    299.97354    325.53976    204.72479   -59832.783    59823.429    120.81497    35.697428 
147292000    285.31385    363.72808    511.70345   -59845.141     59833.35   -147.97538    35.692615 
147296000    302.20012    463.32426    408.47247    -59873.39    59852.383    54.851796    35.694335 
147300000    280.97247    468.67873    457.02098   -59905.041    59908.259    11.657755    35.688005 
147304000    278.64004     471.4505    269.66605   -59923.631    59917.099    201.78445    35.691816 
147308000    285.69329    291.28709    491.07016   -59927.569    59932.473   -199.78307    35.689383 
147312000    283.17877     329.3238    228.71334   -59951.168    59948.553    100.61046    35.690966 
147316000    314.94094    406.08964    444.92208   -59974.532    59948.006   -38.832441    35.680743 
147320000    326.80401    354.44876     352.4006    -60005.21      59976.1    2.0481549     35.68043 
147324000    295.99508    411.89109    224.81769   -60049.804    60030.724    187.07341    35.695831 
147328000    308.87652    557.05884    425.00219   -60067.202    60065.799    132.05665    35.700342 
147332000    260.29327    191.62215    296.58005   -60095.425    60105.436    -104.9579     35.69491 
147336000     271.9057    314.03107    602.33263   -60100.696     60116.03   -288.30156    35.689075 
147340000    253.67066    413.81146    292.90626   -60111.748    60126.618    120.90519    35.693303 
147344000    288.30419    235.00189     245.3739   -60116.546    60117.684   -10.372004    35.692692 
147348000     273.8065     376.5032    238.54788   -60122.429    60128.718    137.95533     35.69529 
147352000    292.79625    514.67309    379.43656   -60136.407    60129.502    135.23653    35.691795 
147356000    293.54872    208.30144    455.21841   -60130.594    60122.624   -246.91697    35.700632 
147360000    277.00747    422.07306    263.29128   -60157.814    60160.658    158.78178    35.688422 
147364000    276.61623    338.35123    459.24798   -60192.833    60201.231   -120.89675    35.690007 
147368000    289.84256    457.08065    403.28908   -60217.506    60217.759    53.791572    35.686601 
147372000    254.74898    236.23466    387.49338   -60217.245    60234.402   -151.25871    35.697182 
147376000    277.12923    337.13891    275.59371    -60231.52    60231.288    61.545201    35.698818 
147380000    294.71669    412.63808    312.53166   -60269.388    60253.288    100.10642    35.710061 
147384000    263.78364    331.35501    378.62653   -60273.331    60271.901   -47.271517    35.709469 
147388000    264.98459    293.28059     175.0492   -60300.665    60299.996    118.23139    35.709485 
147392000    301.23631    258.86188    243.09625   -60288.911    60282.354    15.765631    35.720276 
147396000    249.34828    215.79111     389.0978   -60277.667     60299.82   -173.30669    35.711051 
147400000    253.72913    194.71194    110.82929   -60286.227    60307.726    83.882647    35.706374 
147404000     261.7492     314.6824    411.08845   -60338.374     60353.18   -96.406053    35.692413 
147408000    280.49169    407.48821     272.5303   -60346.539    60360.254    134.95792    35.697667 
147412000    278.22202    553.60157    273.61708   -60363.644    60371.942     279.9845    35.704441 
147416000    296.99321     365.1502    403.65042   -60370.875    60385.534   -38.500219    35.711135 
147420000    261.83017    328.65056     260.9231   -60376.206    60403.101    67.727461    35.713872 
147424000    272.15774     381.6233     406.3998   -60397.103     60388.28   -24.776498    35.714318 
147428000    284.19636    440.77978    250.39432    -60395.77    60402.135    190.38546    35.723263 
147432000    303.07224    537.66857    204.16672    -60426.18     60428.74    333.50185    35.724252 
147436000     268.7332    487.20463    262.78211   -60443.029    60457.697    224.42252    35.731308 
147440000    301.85174    463.58939    374.31852   -60483.941    60480.287    89.270867    35.732248 
147444000    269.71817    276.67858    311.77179   -60507.579    60495.196   -35.093207      35.7216 
147448000    268.42458    367.28681    273.09124   -60515.824    60536.824    94.195575    35.715293 
147452000    283.29585    553.31437    180.90019   -60567.815    60569.624    372.41418     35.71555 
147456000    264.71968    242.76918    235.84195   -60576.444    60602.978     6.927224    35.723685 
147460000    262.21942    263.66802    318.81464    -60610.54    60626.451   -55.146617     35.71797 
147464000    277.70845    407.61404    260.02995   -60655.898    60664.673    147.58409    35.734958 
147468000    284.02275    456.84961    284.39705   -60680.666     60692.96    172.45256     35.73848 
147472000    286.24578    262.06216    404.93784   -60705.356    60702.737   -142.87568    35.756789 
147476000    290.11009      479.017    303.78514   -60762.294    60754.091    175.23187    35.772318 
147480000    291.94371    324.41131    375.70356   -60770.939    60758.907   -51.292249    35.774488 
147484000    272.21164     326.9798    559.37385    -60785.94    60789.555   -232.39405    35.769028 
147488000     300.5239    358.26732    265.47209   -60822.527    60811.116    92.795221    35.755234 
147492000    282.75421     433.5929    314.61263   -60843.113    60840.486    118.98027    35.750355 
147496000    258.80017    243.02107     222.3822   -60851.362    60870.519    20.638868    35.754568 
147500000    258.65375    449.40666    188.77653   -60885.168    60905.909    260.63013    35.754703 
147504000    313.76206     343.0329    222.69961   -60926.292    60911.573     120.3333    35.759948 
147508000    270.01247    320.22583    300.97633   -60935.491      60952.9    19.249508    35.774288 
147512000    304.11627    269.71155    423.64315   -60994.353     60984.62   -153.93159    35.779353 
147516000    275.47983    236.77699     442.1787   -61019.152    61018.388   -205.40171    35.781039 
147520000    266.05446     254.4971    308.97478   -61027.121    61038.487    -54.47768    35.790531 
147524000    270.83845    556.18796    220.50867   -61043.418    61053.249    335.67929    35.785567 
147528000     278.6271    455.84322    308.43554   -61062.494    61067.193    147.40768    35.802226 
147532000    293.76236     439.4948     459.7039    -61083.98    61094.612   -20.209106     35.79737 
147536000    266.17851    383.45274    227.16978   -61100.993    61105.633    156.28296    35.804067 
147540000    264.58594    351.50265    384.06335   -61106.432    61121.148   -32.560698    35.796716 
147544000    286.52232    281.45014    307.17346   -61146.386    61146.032   -25.723318    35.787152 
147548000     281.2013    386.56861    321.60298   -61166.432    61171.206    64.965632    35.788908 
147552000    286.41636     379.1554    273.53783   -61195.965    61180.147    105.61758    35.788695 
147556000     317.4273    376.76763    306.95307   -61227.154    61197.285    69.814557    35.778843 
147560000    278.27134    423.60194    200.02851   -61240.042    61223.111    223.57343    35.770272 
147564000    283.41726    307.02877    238.99851   -61254.933    61258.047    68.030265    35.754364 
147568000     286.1767    492.79047    313.81168   -61318.613    61323.341    178.97879    35.759198 
147572000    273.15378    456.27717    293.54651   -61333.695    61334.808    162.73067    35.766766 
147576000    272.09184    312.06781    253.56916   -61356.896    61356.658     58.49865    35.764148 
147580000    286.13021    222.29624    375.98713   -61388.222    61367.423   -153.69089    35.759528 
147584000    276.32437    582.83331    225.88443   -61406.006    61392.578    356.94888    35.772956 
147588000    278.59325    448.03742    309.86898   -61410.969    61425.424    138.16844    35.779854 
147592000    265.77445    511.82028    267.26356   -61462.137    61469.135    244.55671    35.771027 
147596000    280.01278    360.08513    487.07731   -61471.168    61458.122   -126.99218    35.766057 
147600000    264.23451    372.58909    228.88201   -61473.095    61476.902    143.70707    35.765285 
147604000    282.37974    297.65391    365.31546   -61482.062      61476.1   -67.661556    35.769304 
147608000    307.47798    387.91571    234.31549    -61521.01    61504.627    153.60022    35.770315 
147612000    283.36146    200.82899    235.62424   -61557.864    61552.058   -34.795249    35.769186 
147616000    303.69767    265.51572    312.35929   -61580.474    61565.536   -46.843568    35.767944 
147620000    270.30161    231.24482    173.10139   -61595.471    61619.702     58.14343    35.769209 
147624000    251.64296    177.46954    196.41056   -61617.444     61619.19   -18.941019    35.751857 
147628000     313.8086    302.76961    686.59828   -61644.465    61628.158   -383.82867    35.751559 
147632000    294.43508    226.68501      232.711   -61692.638    61676.286   -6.0259933    35.742226 
147636000    289.77249    433.91117    277.80615   -61716.857    61717.926    156.10502    35.738188 
147640000    248.85799      290.895    196.34024    -61718.35    61736.728    94.554759    35.737863 
147644000    289.52419    288.24981    231.51078   -61762.583    61756.727    56.739028    35.744312 
147648000    269.77375    289.03328    224.35497   -61775.654    61786.879    64.678312    35.745505 
147652000    274.36961    512.25684    436.25473   -61805.437    61801.815    76.002107    35.741099 
147656000     296.3445    177.41041    282.84793   -61843.596    61839.284   -105.43752    35.744506 
147660000    281.82349    428.27978    451.50504   -61870.252    61871.533   -23.225254    35.744975 
147664000    269.42851    414.27471    259.75423   -61882.188    61892.272    154.52048     35.74761 
147668000    244.36043     401.4278    124.39116   -61890.176    61900.364    277.03664     35.74782 
147672000    280.08969    327.21301    340.32043    -61916.99    61922.466   -13.107411    35.739349 
147676000    269.15018    235.82529    431.19516    -61949.81    61939.144   -195.36987    35.737265 
147680000    277.95095     336.7492    702.45477   -61965.772    61968.676   -365.70557    35.736997 
147684000    284.72478    275.34649    460.39792   -61984.299    61982.536   -185.05143     35.74052 
147688000    311.16482    478.37697    388.51319   -62007.826     62010.82     89.86378    35.727504 
147692000    272.76622    212.85238    278.57493   -62029.331    62028.631   -65.722558    35.716305 
147696000    301.30269    171.44595    369.22506   -62056.239    62036.064   -197.77911     35.70401 
147700000    285.39125    245.37045    395.26258   -62039.995    62044.036   -149.89212    35.698879 
147704000    293.71707    560.67439    385.34663   -62044.692    62048.588    175.32776    35.708776 
147708000    320.88276    477.21776    176.87657   -62098.511    62074.503     300.3412    35.719454 
147712000     292.0807    358.12645    386.72501   -62135.129     62108.84   -28.598555    35.720923 
147716000    293.49907    215.30967    399.05207   -62153.653    62146.783    -183.7424    35.725694 
147720000    243.97278    390.83177    239.99941   -62155.793    62178.862    150.83236    35.732642 
147724000    271.20361    441.63102    372.53678   -62165.207    62196.327    69.094244    35.721934 
147728000    294.26072     359.4122    315.85657   -62204.844    62189.273    43.555629    35.715538 
147732000    265.42327     162.1972    345.22459     -62221.5    62232.313   -183.02739    35.718872 
147736000     284.9088    249.07247    251.53715   -62273.486    62263.242   -2.4646815    35.725106 
147740000    262.89084    208.09877     319.5123   -62296.621    62318.323   -111.41353    35.714206 
147744000    314.20789    349.48223    198.39844   -62318.597    62297.719    151.08379    35.720551 
147748000       293.55     506.6336    216.03441   -62313.861    62322.258    290.59919    35.712442 
147752000    290.46945    493.91145    271.17512   -62323.387    62312.098    222.73633    35.722335 
147756000    280.31074    340.50583    464.43881   -62357.955    62341.991   -123.93298    35.720187 
147760000    293.35178    341.64963    304.46823   -62376.079     62367.56    37.181402    35.709317 
147764000    243.68553    403.24477    307.63939    -62403.09    62407.363     95.60538    35.719466 
147768000    263.65657    236.64594    381.66171   -62403.735    62427.492   -145.01577    35.719664 
147772000    266.82079    449.43084    367.94771   -62403.528    62421.447    81.483131    35.726362 
147776000    277.26465     588.6944    320.40689    -62439.93    62445.701    268.28751    35.735044 
147780000    269.00295    187.50319    352.67602   -62479.761    62483.583   -165.17283    35.735433 
147784000    254.07003    333.37115     213.2073   -62480.181    62522.611    120.16385    35.742721 
147788000    256.57909    308.65117    232.64382   -62535.422    62544.179    76.007349     35.74994 
147792000     278.1487    238.30081    405.64492   -62560.779    62570.026   -167.34411    35.744818 
147796000    273.83603    303.97865      275.068   -62583.505    62590.603    28.910655    35.739311 
147800000    294.12559    562.89441    532.73256   -62613.333    62609.032    30.161845    35.738628 
147804000    284.68009    301.31517    318.75479   -62669.108    62651.042   -17.439619    35.735088 
147808000     293.6675    180.89021     399.4018   -62698.467    62686.363   -218.51159    35.730538 
147812000    269.43145    254.53871     271.2944    -62699.63    62710.429   -16.755689    35.738027 
147816000    298.54784    333.43915    322.06365   -62722.762    62722.897    11.375491    35.733385 
147820000     264.1947    431.77072    350.35555    -62752.83    62756.427    81.415168    35.737485 
147824000    257.16723    468.21207    200.68003   -62759.049    62769.034    267.53204     35.74633 
147828000    278.67726    516.59139    312.88359   -62787.775    62787.625     203.7078    35.750579 
147832000    303.86286    429.97259    170.26572   -62823.454     62807.81    259.70687    35.750832 
147836000    300.98237       443.28     365.6799   -62854.696    62829.827    77.600097     35.74572 
147840000    271.98392    530.76632    276.12987   -62870.155    62884.016    254.63645     35.74329 
147844000    273.92723    311.88883    352.19248   -62908.573    62912.528   -40.303651    35.751376 
147848000    287.94335    390.78464    312.80493   -62959.691    62955.909    77.979706    35.750552 
147852000    264.91757    283.61152    243.36554   -62982.352    62992.588    40.245977    35.761197 
147856000    308.30667    499.77301    251.21167   -63043.652    63025.976    248.56134    35.767215 
147860000     267.4388    231.20522    499.93146   -63060.184    63066.964   -268.72624    35.768241 
147864000    277.45338    379.70524    335.49804   -63092.585    63098.866    44.207196    35.766186 
147868000    291.45348    473.68883    156.11379   -63120.988    63087.601    317.57504    35.776239 
147872000    286.70084    667.31395    433.79283   -63113.218    63113.218    233.52112    35.778872 
147876000    279.19331    358.06758    434.47331    -63123.67     63130.65   -76.405727    35.776746 
147880000    274.02303    270.17978    306.40888   -63140.407    63134.538   -36.229105    35.787309 
147884000    278.51501    394.06792    179.99637   -63186.833    63192.115    214.07155    35.782018 
147888000    274.63334    343.68837    195.84913   -63210.066    63211.209    147.83924    35.788829 
147892000    277.85814    471.40613    347.57666   -63213.988    63221.097    123.82948     35.78908 
147896000    286.15155    319.50093    377.48001   -63232.977    63225.663   -57.979084    35.789949 
147900000    303.94757    379.38152     236.3205   -63238.436    63222.401    143.06102    35.776559 
147904000    314.06371    419.83424    297.13679   -63266.657     63249.53    122.69745    35.785937 
147908000    300.54215    222.77512      322.014    -63281.73    63246.494   -99.238882    35.780517 
147912000    264.49313    301.84663    266.63368   -63279.565    63286.781    35.212948    35.767273 
147916000    277.17165    255.88178    457.38011   -63307.722    63300.105   -201.49833    35.751467 
147920000    320.45261     266.3847    334.72615   -63332.347    63320.641   -68.341445    35.742654 
147924000     275.9936    287.72987     376.2336   -63338.933    63347.081   -88.503729     35.74357 
147928000    288.66921    323.93861    201.16041     -63358.4    63367.042    122.77819    35.735821 
147932000    283.59862    260.34209    420.23627   -63364.256    63374.544   -159.89418    35.730169 
147936000    279.25617     177.8323    275.44153   -63379.684     63388.76   -97.609233    35.722231 
147940000    265.45228    327.80659     360.9617   -63408.854     63418.81   -33.155118    35.705493 
147944000    307.55273    334.57351    637.45629   -63453.499    63435.514   -302.88278    35.702387 
147948000    269.32039    345.35981    329.48032   -63440.044    63450.579    15.879491    35.696161 
147952000    272.38621    515.32691    383.37408   -63468.322    63477.713    131.95283    35.692062 
147956000    271.58398    431.65842    235.07375   -63510.322    63512.263    196.58467    35.702627 
147960000    291.83046    232.94649    311.65781   -63526.731      63518.7   -78.711324    35.697794 
147964000    328.05655    459.08086    373.40223   -63552.474    63524.609    85.678627    35.694047 
147968000    282.08709    262.98338    390.26474   -63525.165    63536.725   -127.28136    35.693522 
147972000    265.58767    225.41976    318.05806   -63533.816    63549.943   -92.638299     35.71028 
147976000    273.61995    416.36864    280.46482   -63527.475    63548.067    135.90382    35.721215 
147980000    261.30819    457.79244    503.64843   -63552.533    63551.079   -45.855996    35.732007 
147984000    278.37499    306.70339    407.78082    -63555.03    63551.824   -101.07743    35.728855 
147988000    270.91306    308.50795     507.7084   -63568.722    63565.736   -199.20045     35.72318 
147992000    283.76889      509.249    321.52458   -63592.314    63580.974    187.72442    35.726473 
147996000    303.06104    468.72816    457.77558    -63621.95    63599.581    10.952577    35.721567 
148000000    270.31879    389.81857    385.03126   -63618.068    63620.048    4.7873068    35.724753 
148004000    284.24934    290.32848    380.97286   -63649.739    63678.019   -90.644374    35.715261 
148008000    287.47025    314.05999    528.79994   -63681.386    63677.196   -214.73995    35.713414 
148012000    279.62269    420.28848    333.31203   -63705.697    63704.051    86.976449    35.714203 
148016000    294.05217      609.539    340.75058   -63747.654    63719.838    268.78842    35.724957 
148020000    276.75168    386.85268    374.98071     -63738.2    63740.121     11.87197    35.722901 
148024000    272.05627    361.83887    393.73443    -63774.26    63756.669   -31.895562    35.735029 
148028000    250.04116    313.51634    341.10264   -63770.551    63790.281   -27.586303     35.74709 
148032000    287.31311    324.87721    480.92474   -63811.245    63821.149   -156.04753    35.731789 
148036000    324.12755    271.91075    480.48203   -63846.722    63820.352   -208.57128    35.729191 
148040000    269.17828    361.84577    655.25929   -63862.991    63863.062   -293.41352     35.72779 
148044000    289.20506    290.17972    288.48676   -63886.353    63878.674    1.6929588    35.724668 
148048000    266.14448    325.44305    339.81526   -63902.019    63912.533   -14.372208    35.729307 
148052000    279.00406    235.93256    251.93968   -63939.719    63936.645    -16.00712    35.726122 
148056000    290.35529    289.17983    344.63999   -63967.832    63957.602   -55.460156    35.728064 
148060000    294.43591    353.36257    311.53166   -63995.331    63989.084    41.830904    35.727843 
148064000    292.29857    402.46423      372.561   -64000.685    63998.193    29.903227    35.733049 
148068000    303.37549       466.22    296.68481   -64006.707    64006.811    169.53519    35.731478 
148072000    303.88308    548.28021     309.6774   -64039.658    64024.053    238.60281     35.74268 
148076000     273.5325    298.94534    273.69464   -64033.993     64036.07    25.250697    35.737403 
148080000     282.9348    439.92246    309.85328   -64043.482    64053.793    130.06917    35.735504 
148084000    243.57745    150.75549    310.86118   -64075.511    64072.857   -160.10568     35.72159 
148088000      260.265    388.03227    228.15761   -64113.033    64116.229    159.87466    35.732663 
148092000    288.69595    317.14127    285.78707   -64133.422    64133.979    31.354195    35.731032 
148096000    276.46761    281.99714    216.24847   -64136.288     64138.65     65.74867    35.731136 
148100000    277.93583    616.48054    256.14119   -64152.842    64173.469    360.33934    35.733235 
148104000    295.96171    180.04424    382.62963   -64181.424    64184.124   -202.58539    35.729143 
148108000    317.72526    289.14635    212.91675   -64213.937    64209.864    76.229599    35.726856 
148112000     305.1657    568.81819    233.57165   -64226.787    64223.307    335.24654    35.728393 
148116000    279.39835    278.61364    408.44914    -64226.16    64246.985    -129.8355    35.733361 
148120000    286.27578    221.22873    266.33209   -64245.176    64255.313   -45.103363    35.725005 
148124000     312.1645    413.13957    349.09798    -64301.27     64278.66    64.041589    35.728177 
148128000    325.06647     462.8119    362.77209   -64333.943    64296.921    100.03981    35.733963 
148132000    268.74068    211.64856    487.42966   -64307.909    64334.426    -275.7811    35.733208 
148136000    277.22766    463.94269    224.13488   -64336.542     64367.59    239.80781     35.72617 
148140000    284.94663    557.75193    407.51245   -64354.636    64367.059    150.23949    35.733913 
148144000    288.49901    282.94161    268.63069   -64398.612      64384.6    14.310923    35.730901 
148148000    255.24237    548.64547    376.11848   -64392.296      64409.4    172.52699    35.717444 
148152000    275.54026    401.72481    204.71508   -64396.079    64399.084    197.00973    35.721692 
148156000    305.14752    337.15612    339.75916   -64431.496    64417.132   -2.6030447    35.712365 
148160000    270.29014    424.79406    371.71818   -64467.722    64458.466    53.075878    35.714573 
148164000    279.67044    341.53354    372.49139   -64481.158    64478.044   -30.957851    35.711925 
148168000    260.97018    285.15174    204.73578   -64507.121    64510.118    80.415956    35.718176 
148172000    258.90152    458.01169      292.921   -64517.473    64528.245    165.09068     35.70748 
148176000    295.73938    298.34005    321.25301   -64542.356    64547.153   -22.912968    35.699958 
148180000    278.96557    235.88698    412.53904   -64551.089    64552.723   -176.65206    35.688841 
148184000    298.18541    547.99049    225.50907   -64583.504     64578.57    322.48143     35.69632 
148188000    268.49138    295.46956    232.91858   -64595.303    64603.137    62.550987    35.708588 
148192000    262.78883    464.83178    172.95152   -64639.811     64645.12    291.88025     35.71875 
148196000    277.06185    229.86416     293.0402   -64672.803     64667.49   -63.176038    35.713886 
148200000    268.88655    305.79319    247.45507   -64690.243    64708.459    58.338119    35.700692 
148204000    277.88778    291.80343    398.14093   -64708.141    64706.021   -106.33749    35.691818 
148208000    300.38345    534.51732    492.67911   -64714.925    64716.499    41.838217    35.693854 
148212000    305.11037    394.38593    245.58512   -64740.872    64717.815    148.80081    35.700537 
148216000    316.32021    425.25118    229.37433   -64759.741    64726.438    195.87686    35.709567 
148220000    274.49719    317.57525    330.78332   -64750.387    64757.885   -13.208064    35.698666 
148224000    297.18756    471.07365    292.75078    -64767.93    64752.468    178.32287    35.708048 
148228000    271.91721    479.03292      367.072   -64764.879    64781.357    111.96093    35.707364 
148232000      271.823     374.7285    274.36363   -64770.459    64778.098    100.36486    35.714241 
148236000    274.09019    206.29355    234.94133   -64793.148      64808.6   -28.647781    35.719613 
148240000    288.59825    378.56275    287.66465   -64834.541    64828.113    90.898097    35.717132 
148244000    295.09568      389.426     330.8084   -64846.816    64828.207    58.617605      35.7033 
148248000    296.31649    328.41148    374.81979   -64839.829    64828.087    -46.40831    35.704935 
148252000     287.2607    413.16779     322.2903   -64870.783    64860.459    90.877493    35.697278 
148256000    280.86369    616.89022    234.69087   -64888.306    64892.079    382.19935    35.713753 
148260000    304.91595    259.92373    354.76552    -64913.57    64910.873   -94.841787     35.70409 
148264000    241.79763    296.02621    202.88824   -64941.631     64967.88    93.137963    35.711923 
148268000    273.06979    541.45034    366.91418   -64964.186     64978.79    174.53616    35.710017 
148272000     283.6537    506.63572    483.24225   -64975.604    64973.471     23.39347    35.713682 
148276000     285.2091    373.48684    421.31716   -64983.404    64996.721    -47.83032    35.713835 
148280000    291.21749    270.32373     371.9631   -65018.779    65018.796   -101.63937    35.706709 
148284000     290.4407      314.302    329.86277   -65021.392    65013.982   -15.560776    35.707165 
148288000    282.52061    451.72895    384.58691   -65018.292    65028.337    67.142032    35.702057 
148292000    297.21494    364.57058    302.19349   -65054.075    65061.049    62.377085    35.698168 
148296000    293.90786    515.66566    426.36397   -65092.925     65093.33    89.301683    35.690625 
148300000    279.23758    412.56078    272.59421   -65108.733    65120.992    139.96657    35.690792 
148304000    277.62016     191.1862    359.30503   -65122.762    65128.704   -168.11882    35.685042 
148308000    280.53448    349.61187    117.03994    -65136.72    65142.027    232.57194    35.694857 
148312000    255.11052     363.0546    250.81269   -65156.069    65139.945    112.24191     35.69307 
148316000    259.90377    460.41001    238.81338   -65161.588    65167.367    221.59663    35.694081 
148320000    285.09449    480.33863     467.3106   -65190.748    65195.295    13.028025    35.683813 
148324000    285.64712    306.50341    245.17226   -65191.523    65201.157    61.331148     35.69742 
148328000    262.47394    172.57527    246.78989   -65224.449    65226.685   -74.214628     35.69375 
148332000    295.76575    439.18534    306.31563   -65264.394    65262.143    132.86971    35.695352 
148336000    285.93985    357.43941    192.62469   -65306.413    65302.374    164.81472    35.694218 
148340000    270.40798    361.65221    529.85459   -65344.701    65339.587   -168.20239    35.691706 
148344000    260.51131    121.26184    583.89249   -65364.286    65388.489   -462.63065    35.692385 
148348000    308.48996    315.83663    560.47099   -65422.237    65404.073   -244.63436    35.694949 
148352000    262.56605    408.93872     198.8787   -65438.754    65453.133    210.06002     35.70092 
148356000    299.47998    450.91196    267.16436   -65470.721    65461.223     183.7476    35.708034 
148360000     270.3547    490.50065    328.49204   -65487.163    65482.346    162.00862    35.689404 
148364000    257.08443    193.79642    184.86363   -65492.548    65485.429    8.9327883    35.688462 
148368000    237.13921     289.5699    298.58532   -65491.805    65512.236    -9.015427    35.697472 
148372000    287.96117    379.41556    355.01458   -65531.906    65531.976    24.400974    35.694108 
148376000     272.6038    249.55383    325.24386   -65551.505    65547.425   -75.690026    35.685351 
148380000    282.30222    355.55226    250.06863    -65586.06    65583.143    105.48363    35.683387 
148384000    299.90536    477.71968    376.67372   -65620.366    65597.336    101.04596    35.688622 
148388000    301.63357    390.14996     424.0815   -65622.649    65630.078   -33.931539    35.687174 
148392000    276.17681    296.80802    196.36598   -65632.836    65647.986    100.44204    35.690599 
148396000    273.93794    283.03236    261.50488   -65663.334    65678.145    21.527479    35.691409 
148400000    289.52951    400.32065    349.20346   -65693.561    65695.332    51.117192    35.702833 
148404000    273.23841    277.04613     292.8683   -65722.675    65739.696   -15.822175    35.701337 
148408000    294.07041    479.69233    530.18741   -65727.223    65718.495   -50.495082    35.695438 
148412000    276.62391    289.68609    353.21066   -65739.178    65743.844   -63.524571    35.704794 
148416000    276.84526     221.3974    222.14917   -65748.664    65761.789  -0.75177028    35.688299 
148420000    267.43583    351.33605    248.28485   -65744.914    65753.287     103.0512     35.69269 
148424000    262.22251    271.31282    446.84524   -65736.634    65759.184   -175.53242    35.690899 
148428000    276.20423    414.28683    330.55317   -65779.295     65771.74    83.733659      35.7017 
148432000     285.0343    299.57812     306.4961   -65812.352    65814.517   -6.9179824     35.69881 
148436000    263.72257    179.15427     212.7314   -65835.547    65846.866   -33.577126    35.711908 
148440000    285.25767    430.67576    329.18581   -65870.442    65884.496    101.48995    35.717752 
148444000    251.06322    411.94205    221.84942   -65899.142    65915.579    190.09263    35.723374 
148448000    281.75362    495.72297    277.37932   -65934.797    65947.166    218.34365    35.724447 
148452000    297.56689    247.99862    311.34772   -65983.284    65982.196   -63.349095    35.722475 
148456000    277.30733    359.27104     281.5565   -66022.591    66010.417    77.714537    35.721875 
148460000    267.48476    341.38533    248.62623    -66040.83    66054.547    92.759098    35.724171 
148464000    273.27844    330.53725    329.21067    -66073.11    66068.375    1.3265762    35.716876 
148468000    302.92343    450.39293    259.56656   -66100.311     66069.74    190.82637     35.71762 
148472000    269.98549    337.70239    323.00401   -66105.454    66110.799    14.698379    35.734119 
148476000    296.85112    520.48449    366.51808   -66124.647    66123.177    153.96641    35.734184 
148480000    296.07764    282.02228     412.0919   -66159.754    66142.899   -130.06962    35.731078 
148484000    312.72205    427.75715    343.55378   -66175.198    66131.943    84.203373    35.721688 
148488000     292.0027    271.70474    389.43913    -66160.21    66166.966   -117.73439    35.718067 
148492000    293.19701     326.2058    313.36685   -66172.482    66163.085    12.838958    35.733306 
148496000    261.72273    247.94902    338.26736   -66175.024    66181.947   -90.318336    35.731419 
148500000     278.9721    265.64221    432.57594   -66227.954    66235.462   -166.93373    35.734461 
148504000     267.8821    239.80525    335.56819   -66245.446    66260.974   -95.762933    35.729498 
148508000    270.52393    261.36474    290.68322   -66276.379    66282.509   -29.318473     35.73877 
148512000    263.47538    372.22165     267.1396   -66293.285    66316.656    105.08205    35.736638 
148516000    269.68867    482.22513    306.53896   -66311.857    66316.993    175.68617    35.740328 
148520000    241.71819    494.09773    198.09655   -66333.209    66349.883    296.00118    35.745343 
148524000    258.92639    359.67203    234.40847   -66361.968    66376.382    125.26356    35.747743 
148528000    285.76391    571.29508    326.07438   -66381.318    66368.007     245.2207    35.752146 
148532000    271.32394    369.03354    248.05527   -66354.388    66382.629    120.97826    35.750584 
148536000    292.72418    408.81813    378.18526   -66403.574    66380.401    30.632872    35.747222 
148540000    307.49904    497.52917     398.1004   -66428.476    66406.545    99.428775    35.751092 
148544000    277.33451    252.87072    250.54646   -66444.667     66441.79    2.3242641    35.746089 
148548000    287.93669     416.7925    255.44405   -66490.094    66469.322    161.34844    35.756701 
148552000     304.2313    269.12895    287.97053   -66488.306    66491.674   -18.841574    35.766814 
148556000    251.87939    320.53292    243.95743   -66502.499    66523.741    76.575485    35.771033 
148560000    282.09526    343.92188    466.77417   -66529.106    66539.431   -122.85229    35.764223 
148564000    299.31177    465.00575    324.01137   -66553.306    66539.036    140.99438    35.772006 
148568000    309.88794    425.60167     363.1716   -66568.978    66539.573    62.430062    35.764869 
148572000    291.38813    263.40283    353.46985   -66566.196    66567.705   -90.067026    35.767732 
148576000    288.87311     332.7779    344.84973   -66593.097    66583.179    -12.07183    35.764294 
148580000     274.5476    306.79574    326.50636   -66635.549    66622.112   -19.710624    35.761292 
148584000    265.67594    306.65541    311.48931    -66646.79    66662.445   -4.8339033    35.765192 
148588000    287.70999     521.0738    356.34056   -66708.554    66689.578    164.73324    35.769802 
148592000     282.8061    517.43583    457.06362   -66723.129    66717.662    60.372212    35.755468 
148596000    306.14005    345.02886     291.4457   -66770.337    66770.728    53.583161    35.746169 
148600000    287.46181    424.38557    210.12164   -66774.079    66769.803    214.26393    35.752343 
148604000    276.98451     364.3686     338.2051   -66783.131    66788.831    26.163502    35.757322 
148608000    282.21023    439.08155    596.62076    -66814.87    66817.574   -157.53921    35.762392 
148612000    272.60027    346.52503    393.76166   -66837.078    66854.031   -47.236626    35.754877 
148616000    285.12398    225.56165    313.27042    -66872.45    66878.697   -87.708769     35.75012 
148620000    275.87738    321.21391    297.19113   -66868.921    66877.585    24.022785    35.740973 
148624000    308.79544    469.62646    353.06057   -66898.701    66872.673    116.56589    35.728144 
148628000    295.33457    418.11428    294.96561   -66917.643    66911.718    123.14868    35.716156 
148632000    267.94742    319.53668     452.0726   -66917.867    66927.037   -132.53592    35.720057 
148636000     310.0561    452.62072     295.3061   -66941.359    66911.806    157.31462     35.72258 
148640000    269.87583    417.36136    272.01954   -66949.031    66965.409    145.34182    35.726115 
148644000     294.9406    354.54053    230.12329   -66967.214    66959.982    124.41725     35.72177 
148648000    302.75885    705.25367    206.17442   -66993.798    66970.666    499.07926    35.724364 
148652000    271.75665    237.04649    395.95608   -66980.803    66995.171   -158.90959    35.717049 
148656000      279.758    489.54896    240.20671   -67043.865    67050.097    249.34224    35.724994 
148660000    301.67802    435.36901    398.83773   -67070.626    67064.735    36.531281    35.734381 
148664000    294.70298    344.40775    390.33309   -67101.158    67083.717    -45.92534    35.725713 
148668000    266.68248    284.37147    254.62468   -67113.805    67131.795    29.746786    35.710498 
148672000    270.80229    229.47633    266.40883   -67147.271     67157.08   -36.932501     35.70469 
148676000    264.03644    339.96798    324.57184   -67192.628    67178.591    15.396146    35.690079 
148680000    270.13064    497.45433    235.97744   -67187.276    67203.449     261.4769    35.700045 
148684000    258.12783    361.87542    382.00881   -67193.825    67221.918   -20.133384    35.689857 
148688000     259.8631    450.56629    107.71125   -67214.184    67226.262    342.85503    35.688273 
148692000    279.47089    313.04091    355.43843   -67243.732    67252.855   -42.397523    35.694466 
148696000    301.13521    271.27619    269.55831   -67277.265    67268.843    1.7178804    35.695323 
148700000    275.27795    326.28649    344.41044   -67277.404    67286.342   -18.123947    35.681183 
148704000    300.63347    444.27146    390.68261   -67320.333    67302.297     53.58885    35.687083 
148708000    298.07644    354.16037    287.85528   -67321.152        67320    66.305096    35.692138 
148712000    286.45748    291.86411    178.55449   -67336.898    67337.731    113.30962    35.708012 
148716000    264.53922    317.60321    317.38108   -67331.393    67336.117   0.22213028    35.722134 
148720000     329.5821    433.61903    406.25114    -67384.06    67337.929    27.367887    35.731614 
148724000    281.68972    456.84089    311.47935   -67406.623    67408.111    145.36154      35.7342 
148728000    267.29786    485.98711    254.36312   -67436.415    67441.966    231.62399    35.735825 
148732000    248.92852     402.3926    319.86231   -67430.071    67456.359    82.530293    35.721728 
148736000    288.13948     517.2691    229.05395   -67472.356    67457.724    288.21515    35.718085 
148740000     301.7679    414.83363    311.84815   -67488.913    67485.661    102.98548    35.730618 
148744000    269.54777    435.58111    286.11886   -67521.954    67528.866    149.46225    35.721699 
148748000    276.32941    253.48715     599.2363    -67547.95    67542.161   -345.74916    35.718006 
148752000    266.32681    401.05473    300.89795   -67547.678     67557.25    100.15678    35.715761 
148756000     290.6675    372.13822     409.5077   -67558.656    67553.082   -37.369486    35.716703 
148760000    282.43825    418.39177    313.43393   -67556.535    67559.328    104.95784     35.71958 
148764000    325.86783    303.24099    466.10881   -67616.254    67574.575   -162.86783    35.716347 
148768000    278.99903    383.85448    355.61062    -67600.14    67586.711    28.243868     35.71953 
148772000    291.44548    280.75791    209.59338   -67650.269    67637.301    71.164522    35.718205 
148776000    286.92509    299.53018    274.49783    -67657.72    67651.597    25.032345    35.713235 
148780000    300.97136    404.64066    618.76127   -67697.152     67666.61   -214.12061     35.71568 
148784000    257.13028    425.57954    389.31944   -67666.826     67689.47    36.260099    35.714004 
148788000    278.15775    435.00763    314.48996   -67689.664    67698.587    120.51766     35.70931 
148792000    258.44992     334.7694    418.68057   -67717.033    67732.353   -83.911167     35.70459 
148796000    277.90577    453.51479    166.51472   -67743.741    67742.133    287.00006    35.714562 
148800000    284.46984    375.89927    286.38026   -67770.608    67774.972    89.519009      35.7205 
148804000    290.59558    315.81794    409.84331   -67784.902    67777.988   -94.025369    35.732036 
148808000    267.65923    253.59572    397.28403   -67787.625    67785.309   -143.68831    35.745616 
148812000    324.30483    402.41611    228.48671   -67832.997     67808.74     173.9294    35.752541 
148816000    276.19987    575.54629     337.1624    -67823.37     67822.02     238.3839    35.755029 
148820000    279.15905    429.42103    467.74989   -67805.917    67802.218   -38.328855    35.765117 
148824000    291.83961    342.14384    579.74583   -67815.107     67798.23   -237.60199    35.754946 
148828000    272.38486    344.27483    429.65195   -67819.102    67843.882   -85.377125    35.747859 
148832000    262.81399    286.93752    354.73072   -67832.994    67837.022   -67.793204    35.747351 
148836000    272.96695    309.68977    287.18251   -67826.558    67845.433     22.50726    35.738103 
148840000    294.39896    397.48704    387.05882    -67840.28    67848.818    10.428216    35.742966 
148844000    242.86321    450.82814    254.81912   -67850.869    67878.366    196.00902    35.738383 
148848000     268.5115    270.77698     252.0103   -67892.922    67886.395     18.76668    35.741879 
148852000    271.65762    298.12056    335.06051   -67920.537    67926.322   -36.939953    35.738279 
148856000    271.99194    366.19334    219.74065   -67949.456    67950.955    146.45269    35.746368 
148860000    281.37154    354.90239    394.54392   -67952.648    67960.507    -39.64153    35.736575 
148864000    293.34701    361.98883    294.88409   -67967.024    67970.789    67.104733    35.720194 
148868000    291.66168    484.85038    346.21174   -67989.712    67985.841    138.63864    35.723188 
148872000    274.39024    335.34552    436.40712   -68004.808    68010.956    -101.0616    35.714596 
148876000    267.86618    299.03735     423.1061   -68011.616    68026.152   -124.06874    35.713624 
148880000      257.031    435.37495    156.86193    -68017.39    68034.838    278.51303    35.712669 
148884000    326.29565    390.96604    408.22959   -68057.107    68043.081   -17.263556    35.715343 
148888000    275.94153    353.52834    271.89185   -68094.828    68080.316    81.636499    35.707797 
148892000    295.22486    399.85005    280.03798    -68098.03    68074.104    119.81206    35.702044 
148896000    298.09833     535.6951    345.72842    -68117.01    68102.288    189.96668    35.696904 
148900000     274.1257      303.063    233.09838   -68148.696    68154.938     69.96462     35.69851 
148904000    270.73443    263.62205    511.30633   -68171.792    68154.194   -247.68428    35.692248 
148908000    252.00138    210.47517    339.18799    -68184.39    68196.457   -128.71281    35.689121 
148912000    299.55822    473.70371    304.29313   -68222.852    68216.796    169.41058    35.698507 
148916000    271.21506    352.55073    283.27681   -68247.163    68243.718    69.273924    35.694849 
148920000    269.64961    232.90728    186.93426   -68251.295    68272.058    45.973019    35.694172 
148924000    300.70159    498.66895    407.52863   -68278.114     68267.18    91.140326    35.686857 
148928000    302.74816    564.41844    299.72481   -68298.882    68280.252    264.69363    35.690225 
148932000    298.37466    337.96423    351.29161   -68307.365    68309.693   -13.327379    35.688156 
148936000     272.5376    252.55945    191.17824   -68316.568    68340.263    61.381202    35.679919 
148940000    279.17361    196.09875    450.88845   -68330.306    68323.416    -254.7897    35.677752 
148944000    272.13233     501.1293    315.85217    -68356.97    68354.326    185.27712     35.67989 
148948000    287.21529    303.54192    245.45515    -68364.91    68362.779    58.086768    35.678364 
148952000      255.428    402.37744    227.61187   -68381.324    68401.907    174.76557    35.692445 
148956000    272.16702    472.95827     350.2703   -68398.185    68412.125    122.68797    35.696462 
148960000    294.67059    505.61742    255.76211    -68422.41    68421.894    249.85531    35.704128 
148964000    291.54823    502.88764    315.18537   -68485.559    68481.775    187.70227    35.704928 
148968000    282.34555    329.08071    320.94191   -68511.995    68514.962    8.1387979    35.708286 
148972000    300.53069    591.50906    237.71418   -68527.198    68504.384    353.79487    35.710086 
148976000    282.34841    337.70908    208.42984   -68528.924    68527.957    129.27924    35.713702 
148980000    267.93681    263.48372    287.67396   -68554.224    68549.571   -24.190237    35.720372 
148984000    296.33846    454.91121    331.81422   -68571.349    68579.427    123.09699     35.73426 
148988000    265.91439    343.00795    323.58189     -68574.8    68583.882    19.426052    35.736722 
148992000    240.17103    242.24731    291.81892    -68569.44    68601.721   -49.571605    35.735905 
148996000    297.68074    336.74112    224.76574   -68588.283    68585.928    111.97538    35.745317 
149000000    313.71919     381.1418    444.21429   -68629.147    68596.698   -63.072491    35.751173 
149004000    297.86901    351.71321    347.12289   -68607.812    68614.979    4.5903194    35.742664 
149008000    269.29324    440.95187    238.52439   -68632.623    68644.391    202.42749    35.746055 
149012000    269.69394    258.66488    311.00109     -68644.4    68664.772    -52.33621    35.750187 
149016000    260.31509    289.52649    332.28859   -68676.999    68698.387   -42.762105    35.737914 
149020000    285.49243    248.95652    512.71885   -68703.662    68695.378   -263.76233    35.733455 
149024000    277.44228    477.85298    260.27522    -68705.32      68710.8    217.57776    35.744263 
149028000    297.84556    373.37053    401.86243   -68729.372     68713.97   -28.491905    35.741751 
149032000    273.71229    391.55201    396.47552   -68737.829    68739.713   -4.9235036    35.739141 
149036000    267.67244    279.58179    235.21178    -68760.76    68764.163    44.370006    35.729915 
149040000    271.11114    589.04677    197.56453   -68772.561    68771.351    391.48224    35.724588 
149044000     292.8416    326.56993    227.63498   -68782.964    68772.726    98.934949    35.729789 
149048000    309.54003    450.90123    506.28906   -68825.869    68809.227    -55.38783    35.728028 
149052000    276.17386    390.91836    208.67155   -68838.746    68850.963    182.24681    35.736323 
149056000    269.98001     335.1322    368.82025   -68868.029    68875.695   -33.688053    35.738123 
149060000    299.56121     449.7359    350.71683   -68893.618    68882.002    99.019063    35.736372 
149064000     258.4933     233.2796    331.74161    -68901.82    68921.053   -98.462015    35.732946 
149068000    313.72082    267.62548    567.39108    -68959.07    68930.753    -299.7656    35.724066 
149072000     289.9954    485.43482    369.67006   -68958.728    68954.364    115.76476     35.72626 
149076000     300.8994    496.52732    500.60416   -68998.603    68968.826   -4.0768453    35.725246 
149080000    305.99676    361.14575    402.73002   -69019.373    69000.637   -41.584269    35.727969 
149084000    280.50111    328.11702    497.76124    -69053.19    69039.995   -169.64421    35.725413 
149088000    277.91884    233.53214    440.33882   -69065.856    69061.931   -206.80668    35.741156 
149092000    274.17586    422.26974    297.06724   -69076.038    69078.504    125.20249    35.742102 
149096000    309.24583    420.96068    449.33364   -69069.931     69066.14   -28.372956    35.737365 
149100000    279.15311    435.08186     216.8529   -69072.965    69075.681    218.22896    35.733332 
149104000     267.1637    393.45946    342.97047   -69062.893    69090.243    50.488989    35.720976 
149108000    266.60026      415.299     440.8995   -69093.897    69108.729   -25.600506    35.711263 
149112000    291.66584    395.27418    271.86162   -69131.562    69101.357    123.41257      35.7068 
149116000    268.29642    231.71993    237.84602   -69130.827    69134.591   -6.1260898    35.691443 
149120000    290.59606    311.18357    309.81955   -69148.485    69145.265    1.3640207    35.693767 
149124000    277.78807    345.85686    229.78339   -69166.476    69173.655    116.07347     35.68256 
149128000    271.16942    610.74705    282.49708   -69204.417    69227.014    328.24997    35.693002 
149132000    305.40198    461.85601    315.48001   -69261.241    69243.855    146.37601    35.687852 
149136000    269.28593    322.99797    429.24944   -69261.992    69278.987   -106.25147    35.699436 
149140000    258.91583    315.02874    434.95423   -69305.071    69308.378   -119.92549    35.694352 
149144000    251.00651    182.41086    173.02306   -69330.663    69345.238    9.3877967    35.690002 
149148000    279.68992    330.18446    371.97624    -69345.21    69351.991   -41.791788    35.692943 
149152000    250.67887    253.19405    317.33969   -69368.647    69390.561   -64.145639    35.689711 
149156000    263.34078    222.44124    345.72296   -69393.838    69393.619   -123.28172    35.686647 
149160000    271.85305    376.78678    278.99357   -69416.156    69409.536    97.793205    35.683712 
149164000    277.53149      375.781    407.72439   -69438.831    69430.861    -31.94339    35.681214 
149168000     284.9943    499.60046    341.99179   -69466.563      69449.8    157.60867     35.69633 
149172000    257.46271    295.88038    254.27134   -69450.492    69467.914    41.609045    35.693446 
149176000    299.08466    451.12398    393.65214   -69500.232    69483.317    57.471842    35.689364 
149180000    255.43369    407.32805    235.29233   -69493.777    69509.768    172.03572    35.681089 
149184000    297.16069    311.92971    566.05937   -69500.218    69496.785   -254.12966    35.674513 
149188000    253.68818    232.32435    368.45749   -69490.373    69514.761   -136.13313    35.673085 
149192000    310.46528    339.13267    402.27984   -69515.772    69496.377   -63.147174    35.660736 
149196000    324.69554    283.66854    355.51508   -69542.042    69519.505   -71.846535     35.65063 
149200000    289.45942    278.02575    373.65132   -69566.808    69565.071    -95.62557    35.645641 
149204000    277.21843     424.7593    388.67281   -69585.761    69597.602     36.08649    35.641823 
149208000    312.62007    287.52432    229.70988   -69626.576    69589.877    57.814437    35.650657 
149212000    313.78743    365.21985    352.29124   -69641.064     69622.02    12.928614    35.649432 
149216000    271.87065    408.10699    316.64447   -69669.094    69674.073    91.462524    35.650609 
149220000    288.21562    347.68523    267.11886   -69705.906     69713.58    80.566362    35.648053 
149224000    241.24393    243.15064    179.79913   -69721.589    69742.912    63.351505    35.651553 
149228000    261.70062    419.86421    387.54222   -69762.677    69765.072    32.321987    35.646679 
149232000    276.86442    258.85884    364.43359   -69781.436    69782.994   -105.57475    35.638925 
149236000     313.3586    336.24539    358.87346   -69822.964    69798.675   -22.628066    35.644283 
149240000    273.21336    381.35296    382.01211   -69832.998     69831.92  -0.65914798    35.639619 
149244000    308.61124    317.65594    434.83374   -69843.509    69829.423    -117.1778    35.635652 
149248000    268.95973    278.30749    359.77996   -69862.535    69857.515   -81.472471    35.637062 
149252000    248.76663    213.19713    405.43297   -69879.347    69896.654   -192.23584    35.636136 
149256000    260.29855    291.46309    199.09809   -69897.539    69896.985    92.364996    35.624158 
149260000    291.51638    420.23115    234.71252    -69924.56    69916.918    185.51863    35.627527 
149264000    274.22027    406.99739    432.84945   -69937.381    69947.367   -25.852056    35.624872 
149268000     276.1247    512.88996    298.56069   -69951.143    69968.142    214.32927    35.621481 
149272000    295.24902    127.37224    461.31658     -69997.7    70002.255   -333.94434    35.616835 
149276000     253.3829    323.40257    170.83994   -70040.787    70050.907    152.56263    35.640241 
149280000    266.08196    400.82175    284.18652   -70038.865    70044.543    116.63523    35.652156 
149284000    292.88826    243.29599    327.50062    -70079.46    70063.869   -84.204631    35.657379 
149288000    295.81495    376.64424    285.02546   -70122.992    70093.716    91.618776    35.655508 
149292000    290.89121    509.61822    237.43617   -70113.821    70112.638    272.18204    35.657254 
149296000    275.03896    172.54534    290.51004   -70126.443    70134.374    -117.9647    35.648564 
149300000    277.01301    282.83907    456.41471   -70143.648    70150.129   -173.57564    35.644299 
149304000    260.79384    288.98407    149.10649    -70152.66    70162.922    139.87758    35.639017 
149308000    266.95555    561.18105    287.36879   -70171.966    70177.413    273.81226    35.644885 
149312000    266.26371    270.13333    187.72617    -70187.95    70210.529    82.407162    35.637621 
149316000    259.12062    261.67878    288.50585   -70193.636    70203.084   -26.827071    35.646788 
149320000    291.27357    580.84136    236.96889    -70211.04    70217.636    343.87246    35.643172 
149324000     300.0604    313.18008    399.62872   -70238.323    70230.277   -86.448633    35.629854 
149328000    298.53348    360.10086    384.40204   -70227.754    70227.222   -24.301178    35.621223 
149332000    271.48606    270.34247    193.10186   -70257.241    70261.488     77.24061    35.626674 
149336000    262.25376    361.95055     371.4939   -70260.929    70266.644    -9.543352    35.622197 
149340000    279.32165    255.83058    256.45569   -70275.958    70282.665  -0.62510601    35.614535 
149344000    266.33007    277.30737    221.97289   -70300.215    70296.436    55.334485    35.621253 
149348000    276.04189    351.21435    293.17263   -70323.738    70323.266    58.041719    35.622478 
149352000    280.27397       283.86     277.4774   -70320.373    70326.257    6.3825924    35.621425 
149356000    294.82096    281.99425    302.10805   -70345.131    70341.747   -20.113804      35.6196 
149360000    285.64842    373.56854    342.44546   -70356.137    70365.792    31.123075    35.624874 
149364000    273.39323    565.08484    279.22963   -70380.142    70384.048    285.85521    35.621692 
149368000    265.71022    293.93981    350.44346   -70415.487    70424.711   -56.503653    35.619418 
149372000    268.37985    403.79698    300.02997    -70459.64    70455.421    103.76701    35.612231 
149376000    300.63835    183.50643    270.60976   -70481.304    70452.195   -87.103335    35.595354 
149380000     279.2451    187.71554    329.59685   -70491.096    70505.387   -141.88131    35.587124 
149384000    246.02517    328.47431    140.39772   -70503.384    70524.052    188.07659    35.594181 
149388000    288.34653    381.79728    271.41689   -70532.745    70529.671    110.38039    35.591276 
149392000    268.36047    390.08951    407.55636   -70557.181    70577.532   -17.466853    35.587857 
149396000    318.68122    443.36644    340.64567   -70585.533    70557.414    102.72076    35.590141 
149400000    276.24651    394.50617    452.13372   -70599.535    70591.715   -57.627549    35.589624 
149404000    284.77206    272.40737    390.79922   -70600.422     70598.51   -118.39186    35.589599 
149408000    287.13034    503.19234    278.49595   -70618.912     70630.63    224.69639    35.594544 
149412000    277.75131    473.40999    373.82003   -70647.712    70654.189    99.589961    35.595649 
149416000    260.56819    220.16422    266.45211   -70655.532    70647.256   -46.287891    35.587785 
149420000    286.73798    344.34671    492.08702   -70689.798    70676.286   -147.74031    35.591022 
149424000    287.00731    555.63033    347.20988   -70746.003    70738.095    208.42045     35.58017 
149428000    284.37894    328.04504    341.21038   -70762.439    70758.726   -13.165335    35.581647 
149432000    318.81889     620.6943    343.38815   -70777.444    70768.021    277.30615    35.585903 
149436000    295.47106    301.20611    400.45075   -70798.693    70799.958   -99.244643    35.593731 
149440000    299.46283    503.08209    339.77285   -70834.166    70833.059    163.30923     35.59762 
149444000    274.99244    268.04476    383.33948   -70849.152    70862.012   -115.29473    35.612664 
149448000    278.26003    191.92054    230.31602   -70853.372    70860.875   -38.395485    35.602713 
149452000    312.24893     509.6837    400.49296   -70871.966    70869.498    109.19074    35.606237 
149456000     279.6349     300.0771    232.21404   -70910.595    70890.929    67.863067    35.599543 
149460000    290.15416    512.71747    314.63321   -70917.078    70916.171    198.08426    35.596159 
149464000     280.0197    585.52073    239.74574   -70922.776    70928.966    345.77499    35.590985 
149468000    298.24746    305.92553    361.60924   -70963.157    70952.252   -55.683714    35.596699 
149472000    266.15147    332.50162    161.02389   -70984.805    71002.373    171.47773    35.600211 
149476000     250.2836    225.39434    369.76661    -70994.68    71011.852   -144.37227    35.606038 
149480000    270.21652    362.84453    217.87547   -71025.101    71028.628    144.96906     35.60086 
149484000    261.16273    317.00462    231.38871   -71035.652    71051.186    85.615915    35.593868 
149488000    296.34426    424.70324    318.78341   -71040.519    71037.649    105.91982     35.59466 
149492000    238.99666    343.11497    237.65102   -71030.298    71056.327    105.46396    35.592829 
149496000    279.58889    200.92161    302.76723   -71053.702    71066.228   -101.84562    35.583713 
149500000    270.70581    320.88649     306.9529   -71051.949    71059.562    13.933587    35.584267 
149504000    291.36007    406.02058    187.42218   -71081.754    71075.914     218.5984    35.587036 
149508000    308.04233    374.27345    389.89009   -71095.479    71078.581   -15.616644    35.583113 
149512000    307.93967    242.22173    302.10431   -71116.603    71087.216   -59.882584    35.578693 
149516000    314.38435    482.54857    390.07216   -71147.005     71119.12    92.476415     35.58764 
149520000     281.4044    262.83091    476.56153   -71174.399    71151.664   -213.73061    35.592717 
149524000    312.81709    296.29291    333.64471    -71188.65    71181.103   -37.351793    35.588044 
149528000    276.37829    433.55265    158.57764   -71181.117    71187.565    274.97501    35.587185 
149532000    261.72167    292.44669    237.94472   -71201.679    71216.703    54.501974    35.593547 
149536000    285.54906    439.05442    295.44314   -71222.159    71220.575    143.61128     35.59409 
149540000    272.94614    316.64254    384.73214   -71238.698    71256.043   -68.089601    35.579498 
149544000    268.52715    386.01594    260.01876   -71284.138    71273.819    125.99718    35.590966 
149548000    301.05912     483.4332    516.88038   -71324.429    71307.039   -33.447178    35.586432 
149552000    281.99833    396.26102    300.14145   -71366.721    71371.365    96.119571    35.589892 
149556000    310.51541    275.30877    360.66375   -71393.151    71383.094   -85.354977     35.58592 
149560000    288.54534    459.39602     379.1029   -71395.011    71402.623    80.293119    35.588595 
149564000    261.25763    271.89349    246.90186   -71405.533    71415.274    24.991626    35.583975 
149568000    269.15615    221.97097     302.6729   -71422.904    71423.808   -80.701932    35.588739 
149572000    271.98123    403.12688    237.70244   -71461.158    71454.957    165.42443    35.588127 
149576000    260.78837    337.54571    537.62772   -71489.349    71486.753   -200.08201    35.586189 
149580000    257.79629     241.6346    313.07306   -71500.543     71520.74   -71.438458    35.590522 
149584000    306.83929    355.46099    405.30364   -71552.808     71531.87   -49.842651    35.601773 
149588000    295.29064    375.31478    294.65696   -71562.755    71561.057    80.657826    35.586922 
149592000    285.80685    645.42946    281.79047     -71578.4    71581.156    363.63899    35.592431 
149596000    304.47998    418.60484    598.55172    -71591.09    71580.533   -179.94688    35.582951 
149600000    279.65901    355.68059    282.05159   -71626.353    71627.463       73.629    35.586512 
149604000    270.19198    399.15865     317.1296    -71631.25    71644.714    82.029041    35.586815 
149608000    264.53657     384.6888    324.84567   -71638.111    71668.985    59.843131    35.584693 
149612000    281.36026    344.86203    420.82577   -71690.637    71683.288   -75.963739    35.577915 
149616000    272.70258    372.58763    320.24886   -71725.006    71712.092    52.338774    35.575139 
149620000    257.90947    319.41003    317.00358   -71735.388    71749.306    2.4064514    35.582565 
149624000    292.62991    428.90513    268.21199   -71766.887    71774.446    160.69315    35.581215 
149628000    304.90696    303.69148    304.02362   -71801.244    71793.718  -0.33213961    35.584338 
149632000     321.6318    457.34147    412.92113    -71825.06    71794.003    44.420342    35.584222 
149636000    286.95686    219.87847    259.24668    -71826.62    71810.122   -39.368207    35.585046 
149640000     282.4162    253.74734    362.10586   -71823.395    71827.184   -108.35852    35.577576 
149644000    294.53998    331.60497    210.48756   -71830.872    71826.061    121.11741    35.585135 
149648000    283.83393    294.61048    326.29703   -71852.745    71857.004   -31.686556    35.584127 
149652000     253.4705    259.96664    148.07533   -71895.772    71918.235    111.89131    35.585189 
149656000    258.25583    292.84077    373.94032   -71901.034    71922.939   -81.099546    35.585863 
149660000    281.58779    371.32151    292.25193   -71908.907    71919.175    79.069576     35.58126 
149664000     258.3799    434.05163     245.1584   -71933.627    71956.294    188.89323    35.580898 
149668000    293.55901     393.2357    514.92352   -71953.078    71960.098   -121.68782    35.580756 
149672000    286.84213    136.71129    279.55566   -71965.184    71970.742   -142.84437    35.582415 
149676000    249.77767    346.41723    297.06457   -71983.763    72002.449    49.352665     35.58368 
149680000    283.31124    452.04934     184.1977   -72014.144    72012.975    267.85163     35.59182 
149684000    276.13382    376.77934    289.10925   -72043.111    72034.688    87.670097    35.589237 
149688000    273.28256    296.52677    347.95523   -72034.779    72036.417   -51.428456    35.583997 
149692000    298.56241    316.80267    380.25135   -72066.893    72059.456   -63.448679    35.584577 
149696000    285.85922    342.93885    675.14239   -72075.854     72088.03   -332.20354    35.580821 
149700000    266.55974    235.99135    241.19381   -72112.164     72120.54   -5.2024561    35.587023 
149704000    273.29787    363.66475    271.05318   -72145.461    72153.881    92.611564    35.587106 
149708000      284.907    410.65755    525.39601    -72157.13    72158.678   -114.73845    35.586689 
149712000    261.02604    261.84031    124.83681   -72167.031    72173.678     137.0035    35.581999 
149716000    257.67226    427.20556    270.73005   -72195.536    72206.049    156.47551     35.58854 
149720000    280.29715    332.01767    320.65961   -72215.418     72213.86    11.358057    35.580298 
149724000    304.54212    474.02024    270.92075   -72244.527    72239.389    203.09949    35.568329 
149728000    275.40874    518.48403    231.15687   -72251.708    72276.515    287.32716     35.57012 
149732000    280.74397    349.64869    340.44237   -72267.559    72281.864    9.2063186    35.580653 
149736000    269.84296    243.04518    310.74574   -72285.458     72297.94   -67.700557    35.582133 
149740000    291.38372    526.42057    320.75322   -72312.494    72304.052    205.66735    35.588537 
149744000    287.24911    377.08874    362.08684   -72341.294    72321.629    15.001894    35.583492 
149748000    280.79626    368.33451    221.42061   -72371.052    72376.467     146.9139    35.574851 
149752000    292.87519    700.18537    195.75358   -72423.743    72425.662    504.43179    35.574982 
149756000    299.13862    421.25677    412.09974    -72456.37     72444.34     9.157036    35.580494 
149760000    272.29003    368.84603    281.69515   -72469.842    72448.529    87.150876    35.585058 
149764000    296.84916    558.28556     262.4038   -72463.663    72454.446    295.88177    35.586056 
149768000    300.16786    213.33199    376.49426   -72500.097    72482.587   -163.16226    35.586779 
149772000    265.28281    412.03598    259.96697   -72492.181    72517.472    152.06901    35.577689 
149776000    279.75813    414.95205    311.65972   -72523.799    72511.839    103.29233    35.567779 
149780000    283.57334    460.82569     352.7166   -72528.571     72524.76     108.1091    35.576858 
149784000    279.30049    301.05018    283.97835   -72536.118    72536.222     17.07183    35.582064 
149788000     294.1727    398.33127    316.39487   -72550.791     72535.94    81.936393    35.590749 
149792000    281.45577    463.91234    294.12725    -72550.48    72550.308    169.78508    35.592935 
149796000    275.88412    270.33033    276.73857   -72569.748    72561.117   -6.4082409    35.593409 
149800000    290.87955    286.29238    186.59434   -72590.337    72588.442    99.698046    35.588098 
149804000    300.54138    358.26716    271.00009    -72600.96    72595.483    87.267064    35.586357 
149808000    318.24316    526.03121    245.73792   -72607.552    72591.487     280.2933    35.584018 
149812000    291.35258    301.83769    399.24986   -72617.957    72609.598   -97.412175    35.582075 
149816000    276.64433    513.68759    311.53352   -72647.394    72642.598    202.15407    35.584617 
149820000    315.50154    438.23371     264.2585   -72680.506    72652.228    173.97521    35.582874 
149824000     307.9603    513.18027    215.15805   -72724.068    72703.142    298.02222    35.587014 
149828000    294.83871    357.00692    313.83974   -72727.396    72720.763    43.167187    35.591248 
149832000    295.12075    353.11819    267.34653   -72750.386     72732.85    85.771664    35.593809 
149836000    268.48974    356.05196    162.33214    -72754.12    72771.363    193.71982    35.599776 
149840000    255.30301    337.41392     320.0647   -72798.139    72823.964    17.349222    35.608706 
149844000    281.45321    333.41492    455.01305   -72847.314    72839.082   -121.59813    35.613201 
149848000    277.70651     212.6772    280.07154   -72856.527    72863.674   -67.394342    35.615841 
149852000    273.85893    230.41303    299.45105   -72877.491    72878.411   -69.038014    35.616267 
149856000    272.00088    345.55026    362.14189   -72908.442    72904.697   -16.591636    35.601184 
149860000    299.10553    302.99782     475.4554   -72924.394    72909.796   -172.45758    35.604725 
149864000    278.42809    412.32295    235.22185   -72921.959    72910.255     177.1011    35.606997 
149868000    237.55954    372.96599    350.31269   -72946.851    72952.783    22.653298    35.620381 
149872000    282.03717    218.43007    287.54969   -72984.216    72969.541   -69.119617    35.613988 
149876000    296.07483    219.18418     161.3609    -72994.59      72988.3    57.823288    35.614879 
149880000     282.6595     307.6652    300.38784   -73027.842    73022.388    7.2773571    35.617602 
149884000    312.40594    236.17587    430.81209   -73052.059     73030.15   -194.63623    35.610458 
149888000    314.54999    435.23966    254.96843   -73053.067     73042.26    180.27123    35.611297 
149892000    309.36726    264.50046    377.08036   -73090.105    73062.325    -112.5799    35.616261 
149896000    273.30687    463.81521    330.92401    -73114.83    73119.557     132.8912    35.614164 
149900000     268.0531    292.45829    304.57558   -73130.182      73144.8   -12.117287    35.603776 
149904000    267.09649    307.19866    325.37133   -73161.247    73159.203   -18.172668    35.606895 
149908000    282.27111    392.52205    486.85015   -73166.889    73180.349   -94.328103    35.597705 
149912000    277.94579    309.63266     300.5497   -73163.788    73185.875    9.0829587    35.597849 
149916000    310.09728    315.74828    302.76955   -73194.128     73192.53    12.978735    35.593286 
149920000    311.21942    568.45218    494.22355   -73233.515    73199.912    74.228632    35.595119 
149924000    284.63456    242.58141    285.50055   -73215.445    73223.986   -42.919143    35.590586 
149928000    269.75315    297.06388    456.73853   -73198.269    73231.356   -159.67465    35.581332 
149932000    300.79449     428.2411    293.62531   -73254.589    73227.342    134.61579    35.580479 
149936000    294.18576    293.05839    232.19434   -73288.657    73272.291    60.864048    35.575337 
149940000    292.87566    377.01963    285.15329   -73321.492    73312.676    91.866343    35.564005 
149944000    299.23886    278.76689    307.08024   -73340.187    73344.349   -28.313351    35.570073 
149948000    276.75092    294.87475    446.87105   -73378.696    73381.711    -151.9963     35.56701 
149952000    278.09402    593.15677    522.08357    -73396.08    73400.434    71.073199    35.562912 
149956000    300.03687    283.02516    238.25964   -73435.928     73427.02    44.765513    35.559904 
149960000    254.27996     464.7501    247.79343   -73471.436    73476.241    216.95666    35.559334 
149964000    282.75758    416.22621    515.36318   -73476.414    73480.227    -99.13697    35.549468 
149968000    288.97574    274.09016    345.13477   -73513.671    73521.078   -71.044615    35.539295 
149972000     300.6033     372.1841    425.93351   -73545.069    73525.811    -53.74941    35.542194 
149976000    272.47717    216.91112    250.28497   -73549.453    73546.127   -33.373849    35.542829 
149980000    278.10465    302.76597    446.89913    -73573.72    73597.643   -144.13316    35.547099 
149984000    289.82242    293.14672     372.4423   -73620.747    73611.185   -79.295588    35.550638 
149988000    280.00151    198.57375    396.30561   -73617.307    73627.303   -197.73186    35.545725 
149992000    286.92793    339.10361     416.8306   -73650.642    73626.323   -77.726989    35.547308 
149996000    328.03639    466.67492    303.11277   -73660.664    73643.076    163.56215    35.557753 
150000000    303.62263    260.20995    341.82085    -73663.74    73652.951   -81.610904    35.561812 
150004000    279.13775    425.09152    308.28194   -73697.352    73705.553    116.80957      35.5652 
150008000    303.13972    267.79261    576.45906   -73720.444    73715.699   -308.66645    35.558611 
150012000    300.26091    659.39041    257.15908   -73719.453    73721.953    402.23133    35.558257 
150016000    297.06097    361.27268    253.29456   -73730.455    73735.722    107.97812    35.559459 
150020000    272.32142    393.57999    397.07925   -73747.015    73752.702   -3.4992562    35.545054 
150024000    289.50662    347.38562    238.48684   -73788.927     73769.06    108.89877    35.541703 
150028000    298.39727    275.07782    530.24598    -73779.68    73777.358   -255.16816    35.525752 
150032000    270.24215    323.30287     388.1738   -73802.687     73819.28   -64.870923    35.526768 
150036000    290.08722    256.05593    369.24988   -73828.496    73829.722   -113.19395     35.51744 
150040000    287.48948    244.41963    235.79125   -73857.553    73847.434    8.6283727    35.509799 
150044000    266.59373    363.42567    401.65011   -73875.672     73872.04   -38.224446    35.505959 
150048000    292.48353     267.4283    254.63195   -73888.478    73881.412    12.796354    35.500721 
150052000    291.06191    237.52069    225.76927   -73882.176    73881.099    11.751414    35.502941 
150056000    325.73434    497.23387    402.91319   -73906.598    73880.275     94.32068    35.506931 
150060000    271.11923    324.27848    249.81944   -73899.666    73907.338     74.45904    35.506292 
150064000    301.44064    491.16293    381.60892   -73928.474     73912.27      109.554    35.515114 
150068000    300.37868    392.61999    364.58018   -73941.265    73931.539     28.03981    35.524877 
150072000    264.79686     221.2082    231.43058   -73928.752    73966.528   -10.222384    35.524918 
150076000    289.61047    304.71465     405.3992   -73963.768    73959.602   -100.68456    35.522295 
150080000    287.67355    247.06751    248.22986   -73984.107    73977.293   -1.1623532    35.521556 
150084000    313.16999    506.32578    266.49655   -74030.316    74013.186    239.82923    35.514206 
150088000    294.29804    443.47252    436.23276   -74015.698    74027.279    7.2397593    35.507519 
150092000    282.05232    412.96503    331.27203   -74035.442    74024.154    81.692996    35.511147 
150096000     292.0147    365.80854    369.52953   -74030.098    74033.872   -3.7209906    35.512418 
150100000    300.01768    369.16054    260.25775     -74053.4    74046.935     108.9028    35.513354 
150104000    280.58331    463.02009    254.80641   -74073.825    74081.918    208.21367    35.511841 
150108000    268.31811    218.24533      292.803    -74117.03    74112.668   -74.557665    35.503661 
150112000    266.48266    375.63912    236.21374   -74125.258    74137.497    139.42538    35.501096 
150116000    263.72989    201.53578    337.55398   -74146.015    74166.176    -136.0182    35.490789 
150120000    307.38051    285.10147    310.26301   -74186.124    74168.164   -25.161538    35.491503 
150124000    248.89572    237.27925    368.82989   -74162.465    74202.074   -131.55064    35.477352 
150128000    281.46391    383.66434    406.81711   -74223.587    74225.081   -23.152775    35.486138 
150132000    264.53885    343.45703    317.93897   -74266.388    74259.526    25.518059    35.482876 
150136000     300.1288    193.06765    381.08473     -74296.1     74272.02   -188.01708    35.478138 
150140000     270.8803    397.59543    412.81489   -74291.178    74317.574   -15.219466    35.489585 
150144000     264.8852    261.84234    135.00497   -74320.862    74341.349    126.83737    35.491506 
150148000    317.71061    545.10108     270.0618   -74349.526    74312.622    275.03928    35.482961 
150152000    282.17689    298.34359    294.28786   -74325.662    74332.533    4.0557295    35.485363 
150156000    285.01592    394.21758    358.82175   -74339.863    74327.005    35.395823    35.489311 
150160000    273.68003    295.15876    301.28014   -74362.563    74358.293   -6.1213817     35.47889 
150164000     257.4589    135.96016    290.65325   -74373.545    74398.565   -154.69308    35.484168 
150168000    279.94748    266.69758    428.01707   -74413.697    74414.783   -161.31949    35.475484 
150172000    269.72393    481.68525    267.43564   -74435.094    74435.579    214.24961     35.47368 
150176000    268.03924    382.09885    296.27371   -74436.715    74438.757    85.825133    35.476756 
150180000    282.36697    343.80137    328.89156   -74478.148    74483.185    14.909804     35.48303 
150184000    298.35985    379.53377    330.93542   -74520.674     74510.32    48.598351     35.47127 
150188000    299.88134    493.48189    256.57813   -74553.032    74533.764    236.90376    35.469263 
150192000    289.62548    334.91486     242.2409   -74583.392    74581.414    92.673954    35.457071 
150196000    277.11659    386.96961    392.20323   -74582.609    74601.516   -5.2336223    35.446973 
150200000    255.44511    427.00724    257.87229   -74600.952    74613.535    169.13496    35.451712 
150204000    287.05359    278.85015    322.62925   -74599.155    74595.454   -43.779099    35.456068 
150208000    284.20742    210.18261    439.88857   -74589.171    74590.382   -229.70596    35.444776 
150212000    298.48591    257.51872    266.77984   -74635.527    74611.842   -9.2611265    35.444862 
150216000    256.71974    302.89417    340.87572   -74637.972    74643.584   -37.981557    35.445953 
150220000    311.50773    573.92772    198.28874   -74669.444     74663.76    375.63897    35.446546 
150224000    263.57458    245.12241    341.34048   -74668.159    74679.042   -96.218076    35.446054 
150228000    284.01854    469.31256    459.02673   -74710.527     74699.48    10.285829    35.450045 
150232000    274.52461    387.74818    485.71695   -74712.828    74700.721   -97.968775    35.446872 
150236000    271.63276     511.5129    301.08286   -74738.974    74745.174    210.43004    35.441953 
150240000    285.78411    296.92473    426.56634   -74774.582    74758.034   -129.64161      35.4436 
150244000    265.07005    360.01196     153.6731   -74789.838    74791.716    206.33886    35.439897 
150248000    286.54585    370.95719    234.40327   -74799.292    74788.902    136.55392    35.438375 
150252000    269.62793    226.37079    288.05255   -74815.418    74807.227   -61.681765    35.436761 
150256000    278.75722    226.85996     382.6859   -74812.112    74818.071   -155.82594    35.440347 
150260000    308.80654     331.7657    267.27646   -74842.848    74824.506    64.489236    35.430688 
150264000    289.42717    285.54357    260.46368   -74853.104    74861.663    25.079887    35.427569 
150268000    287.28228    384.98113    162.63645   -74857.046    74865.027    222.34468    35.428931 
150272000    285.90632    276.46828    393.84396   -74897.621    74888.322   -117.37568    35.416455 
150276000    294.05562    377.56765    299.37142   -74908.887    74908.347    78.196229    35.418241 
150280000    303.62489    339.99609    369.41616   -74951.926    74939.367   -29.420071    35.421696 
150284000    316.12887    492.61967    457.10975   -74969.261    74958.168    35.509926    35.415992 
150288000    287.41927    234.52013    298.65079   -74989.703    74993.253   -64.130657    35.416473 
150292000    289.49637    505.28467    251.49937    -75000.77     75012.01    253.78531    35.415151 
150296000    254.32202    306.89876    221.56591   -75008.471    75015.296    85.332845    35.409882 
150300000    292.16864    321.20853    378.95982   -75017.474    75002.507   -57.751289    35.404627 
150304000    282.92323    261.94697    109.82154   -75035.729    75033.411    152.12543    35.411668 
150308000    240.51078    283.96544    410.90284   -75040.438    75059.028    -126.9374    35.397073 
150312000    265.74079    193.12757    351.70228   -75056.503    75061.456   -158.57471    35.398956 
150316000    260.03332    348.36385    193.27181    -75105.62    75108.209    155.09204    35.405537 
150320000     294.8701       384.01    342.16738   -75124.697     75110.72    41.842622    35.412536 
150324000    293.20339    598.59495    446.66395   -75164.947    75156.053      151.931    35.414608 
150328000    288.11935    427.52151    346.79009   -75200.781    75202.072    80.731424    35.413864 
150332000    320.18174    541.74704    388.64546   -75241.039    75223.229    153.10158    35.412507 
150336000    295.61555     217.9813    287.65996   -75249.305    75251.322   -69.678664    35.426475 
150340000    281.92396    339.43505    289.19104   -75273.222    75267.844    50.244011    35.436581 
150344000    281.47649    229.94003    334.76146   -75308.564    75293.048   -104.82143    35.428347 
150348000    290.43408    346.15289    421.28964   -75330.379    75333.261   -75.136756    35.435066 
150352000    256.39415    405.84198    319.50307   -75327.202    75357.579    86.338907    35.435869 
150356000    298.21702    567.34245    446.34882   -75386.962     75365.17    120.99363    35.440214 
150360000    277.45276    400.22039    301.08868   -75393.966    75396.214    99.131701    35.443834 
150364000    262.82442    380.57987    284.90085   -75403.604    75414.705    95.679022    35.451281 
150368000    290.58571    195.37081    540.19655   -75415.343    75403.123   -344.82574    35.441212 
150372000    294.32408    529.62199     172.7462   -75445.157    75434.933     356.8758    35.448023 
150376000    299.86329    373.87697    326.85223   -75454.377    75462.028     47.02474     35.43739 
150380000    269.00349    362.52509    314.93984   -75479.239    75502.462    47.585251    35.430013 
150384000    277.91399    365.82596    260.60488     -75515.4    75525.253    105.22108    35.436885 
150388000    303.71733     540.3048    515.29155   -75545.066    75517.811    25.013249     35.43952 
150392000    292.37905     468.6804    538.37914   -75538.585    75533.189    -69.69874    35.440931 
150396000    270.50134    392.03099    344.66022   -75548.701    75566.019    47.370766    35.438636 
150400000    296.00201    376.71417     503.8886   -75596.131    75590.507   -127.17444     35.44403 
150404000     285.8848    249.40601    361.85242   -75614.977    75605.159   -112.44641    35.435301 
150408000      287.703    280.85994    314.00368   -75646.318    75638.338   -33.143741     35.42137 
150412000     262.3782      236.907    269.18152   -75657.041    75675.245   -32.274521     35.42707 
150416000     267.1032    294.80743    242.14518   -75721.579    75710.842    52.662253    35.430587 
150420000    271.90793    354.62695    175.07485   -75733.813    75741.691     179.5521     35.42797 
150424000    269.94929    329.28128    409.18679   -75746.457    75776.585   -79.905516    35.429087 
150428000    312.36945    445.79171    479.86675   -75807.287    75794.773   -34.075041    35.422406 
150432000    281.62232    478.42642    317.09418   -75846.394    75836.343    161.33224    35.416309 
150436000    280.32847    364.04783     254.2143   -75881.735    75893.849    109.83353    35.424506 
150440000    289.51751    276.57852    428.92541   -75911.598    75907.524   -152.34689    35.427287 
150444000    292.69378    544.24753    320.55813   -75961.521    75948.047    223.68941    35.428808 
150448000    294.05658    384.89846    350.16346   -75977.186    75957.909     34.73501    35.432032 
150452000     281.3287    384.20289    247.81718   -75988.328    75994.538    136.38571    35.428741 
150456000    283.89531    517.08564    327.25687    -76000.07    76005.757    189.82876    35.426448 
150460000    302.96055    428.92699    376.09912   -76029.187    76016.911    52.827864    35.430734 
150464000    292.45662    396.94489    348.47065   -76064.047    76058.983    48.474236    35.430538 
150468000    306.90333    546.90513    225.55048   -76068.448    76070.638    321.35465     35.43115 
150472000    290.43544    415.85333    367.28456   -76096.939    76075.854    48.568776    35.431466 
150476000     263.7628    307.74721    324.73904   -76087.337    76100.704   -16.991828    35.435649 
150480000    276.20945    352.83102    368.25222    -76128.98    76136.349    -15.42119     35.43499 
150484000    300.23663    497.21916    266.36387   -76153.213    76146.412    230.85529    35.434237 
150488000      281.949    323.79612    212.99593   -76189.928    76182.943    110.80019    35.441316 
150492000    314.31321    281.98926    413.43134   -76236.155    76218.675   -131.44208    35.436885 
150496000    278.40811    351.91993    335.70117   -76275.032    76270.329    16.218763    35.436375 
150500000    299.45715    523.66922    311.23256   -76297.362    76297.637    212.43667    35.440421 
150504000    297.16429    485.30054    222.01766   -76315.648    76312.335    263.28289    35.454925 
150508000    284.08002    477.72425    318.58058   -76329.786    76333.081    159.14367    35.456199 
150512000    289.40986    257.89582    222.31102   -76343.242    76340.052    35.584805    35.451288 
150516000    300.12578    402.93628     480.0626   -76356.353    76359.599   -77.126326    35.448878 
150520000    275.24839    453.90985    357.75855    -76370.67    76368.347    96.151296    35.446402 
150524000    297.92115    289.88287    294.65049   -76374.043    76383.641   -4.7676203    35.452724 
150528000    273.46473    398.83893    338.43785   -76410.826    76414.197    60.401076    35.451507 
150532000    299.22286    463.29632    364.61055   -76444.255    76432.692    98.685771    35.454291 
150536000    283.76301    404.96113    356.47636   -76451.175    76445.209    48.484765     35.45229 
150540000    313.49232    432.56905    389.18028   -76480.703    76461.722    43.388775    35.449279 
150544000    274.81218    316.36226    436.13598    -76488.18    76494.302   -119.77372    35.448121 
150548000    299.13029    474.45689    334.22156   -76535.135    76520.501    140.23533     35.44553 
150552000    252.99208    420.22521    411.01806   -76551.405    76559.597    9.2071488    35.443959 
150556000    304.96215     429.2335    269.83422   -76582.586    76565.506    159.39928    35.447393 
150560000    274.73152    436.60695    244.49281   -76612.489    76596.103    192.11414    35.459648 
150564000    280.31468    515.90109    276.28794   -76606.301    76612.201    239.61315    35.453833 
150568000    252.52444    328.14263    186.46581   -76604.029    76634.692    141.67682    35.444475 
150572000    278.38341    335.32748    225.58562   -76630.961    76623.269    109.74186    35.451445 
150576000     272.1308    291.14622    304.71755   -76640.565    76624.832   -13.571327    35.448968 
150580000    286.63813    485.64704    249.00587   -76648.831    76670.548    236.64117    35.453983 
150584000    299.82125     345.5149    310.74495    -76681.23    76674.278    34.769952     35.45336 
150588000    274.33134    279.07845     310.8835   -76699.128    76691.478   -31.805052    35.453009 
150592000    268.51235    399.73338     368.8786   -76702.102    76714.254    30.854776    35.447796 
150596000    282.49586    272.77904    219.84626   -76734.122    76720.075    52.932778    35.450297 
150600000     301.5636    260.00871    464.25677   -76768.256    76750.874   -204.24806    35.450077 
150604000    282.29688    247.18449    270.91877   -76778.945    76780.195    -23.73428    35.453184 
150608000    287.89291    388.22635    239.14127   -76823.114    76807.904    149.08509      35.4494 
150612000    282.07067    257.45656    486.71917   -76815.436    76813.502   -229.26261    35.449163 
150616000    318.64511    549.81093    201.44707   -76865.615    76832.617    348.36386    35.450857 
150620000    310.76071    343.54402     498.5876   -76876.129    76849.966   -155.04357    35.450469 
150624000    292.73018    630.86795    238.77376    -76901.72    76882.618    392.09419    35.451302 
150628000    265.05158    300.20622    190.88061   -76925.982    76922.463    109.32562    35.451545 
150632000    280.83807    409.87615    314.75137   -76945.301    76948.658    95.124786    35.451675 
150636000    267.33769    360.28333    518.98251   -76955.695    76948.774   -158.69918     35.44305 
150640000     271.8716    290.04091    480.57704   -76976.777    76986.274   -190.53613    35.441086 
150644000    306.11837    414.99216    284.63391   -77018.884    77004.771    130.35826    35.438367 
150648000    261.90444     575.5813    169.83683   -77025.026    77034.617    405.74448    35.443196 
150652000    316.91898    480.65673    308.08112    -77045.58    77041.377    172.57561    35.446853 
150656000    270.99846     266.7497    297.91319     -77056.8    77054.718   -31.163486    35.455568 
150660000    315.41668    402.99324    439.89975   -77100.778     77089.68   -36.906511     35.46126 
150664000    275.54229    258.83658     300.1777   -77103.052    77095.921   -41.341127    35.469556 
150668000     282.5937    542.57599    270.04198   -77124.514    77119.676    272.53401    35.465973 
150672000    281.51961    360.98056    204.47391   -77150.217    77143.624    156.50664    35.473455 
150676000    285.48579    303.04097    141.63965   -77187.922    77188.315    161.40132     35.47861 
150680000    322.18129    484.02444    211.25437   -77216.365    77189.339    272.77007    35.472269 
150684000    313.93371    396.45428    336.49531   -77253.511    77225.614    59.958974    35.465463 
150688000    280.34713    291.54096    252.24567   -77259.382    77261.083    39.295295    35.461113 
150692000    284.27474    471.74655    281.93669   -77302.052     77283.16    189.80986    35.464021 
150696000    296.57065    330.75705    303.51873   -77299.381      77303.1    27.238325    35.468598 
150700000    284.86619    450.05686    308.81039    -77325.15    77303.026    141.24646    35.468597 
150704000    309.77207     382.9967    368.75731   -77345.263    77325.176     14.23939    35.471102 
150708000    276.96586    435.12379    245.32885   -77360.343    77358.433    189.79493    35.474888 
150712000     281.1576    309.11638    300.16812   -77369.636    77361.515    8.9482604    35.470484 
150716000    254.57205    240.12227     131.6319   -77375.211    77394.201    108.49037    35.489707 
150720000    268.43633    302.30801    412.53725   -77401.526    77413.604   -110.22924    35.485871 
150724000    281.67174    405.30776    540.13321   -77401.354    77412.537   -134.82545    35.483964 
150728000    291.50383    556.92461    257.74907   -77422.154    77420.952    299.17554    35.491478 
150732000     238.0529    232.51554    241.99166   -77431.872    77453.215   -9.4761187    35.494424 
150736000    261.05245    309.98237    460.29441   -77469.101    77477.841   -150.31204    35.497139 
150740000    275.15525    359.30051    260.18954   -77498.899    77514.361    99.110967    35.499008 
150744000     291.0118     404.5047    319.59474   -77530.681    77542.163    84.909959    35.500656 
150748000    293.48792    214.41122    356.33954   -77566.696    77556.358   -141.92832    35.492275 
150752000    275.12366    254.16591    271.62737   -77587.025     77589.52   -17.461465    35.479031 
150756000    261.23293    368.43453    347.93017   -77604.905    77598.855    20.504361    35.472631 
150760000    279.99111    356.74036    289.22501   -77638.204    77649.908     67.51535    35.472594 
150764000    270.13395    416.43487     188.2642   -77664.015    77678.682    228.17067    35.471802 
150768000    291.36979    436.47204    435.65232   -77704.852    77716.684   0.81972643    35.464714 
150772000    266.12755    244.53147     223.8173   -77706.049    77725.895    20.714168    35.459167 
150776000    267.57808    295.02843    274.48785   -77726.751     77735.97    20.540578    35.461404 
150780000    294.20012    497.99636    540.39581   -77749.007    77732.207   -42.399455    35.465292 
150784000    296.51387    416.06852     319.2345   -77767.813    77758.037    96.834019     35.47377 
150788000    273.50201    355.10409    205.63687   -77791.629    77794.585    149.46722    35.477692 
150792000    276.67722    352.29148    120.96769    -77794.07    77806.601    231.32379    35.477448 
150796000    269.78715    364.99865    277.92688   -77816.046    77823.473    87.071765    35.467637 
150800000    267.77257    286.14306     274.3659   -77836.415     77834.03    11.777153    35.460226 
150804000    300.97691    407.77821    396.98492   -77886.045    77879.037    10.793292    35.456113 
150808000    259.96627    421.87512    254.67594   -77919.314    77938.413    167.19917    35.458331 
150812000    291.62333    428.86555     323.9559   -77960.386    77957.775    104.90965     35.46744 
150816000    279.33661    495.87042    323.84284   -77970.749    77963.612    172.02757    35.467524 
150820000    277.41614    427.06378    289.92577   -77978.494    77984.927    137.13802    35.481346 
150824000    278.59841    309.60335    405.49111   -77976.446    77981.993   -95.887767    35.485668 
150828000    261.57017    302.63498    328.58148   -78004.115    78023.763   -25.946501     35.48764 
150832000    261.12988    233.91146    164.23538   -78044.896    78071.822    69.676078    35.494823 
150836000    298.95746    527.16308    189.63505    -78099.11    78080.759    337.52803    35.496003 
150840000    286.19408     213.8342    413.53413    -78103.59    78106.095   -199.69993    35.493185 
150844000    295.84214     306.4688    369.86027   -78124.706    78120.802   -63.391471     35.49136 
150848000    291.43362    435.22322    251.25719   -78140.977    78137.381    183.96603    35.484074 
150852000    267.66453    565.08042    365.45002   -78151.314    78159.332     199.6304    35.487662 
150856000    314.53026    502.56564    352.10791   -78164.302    78161.349    150.45773    35.474714 
150860000    273.68347    290.61628    235.14156   -78165.858    78179.194    55.474722    35.475107 
150864000    267.19943    350.23211    311.04258   -78197.747    78206.633    39.189533    35.480381 
150868000    291.64466    275.21617    248.04623   -78212.995    78210.436    27.169932    35.476017 
150872000      283.141    320.44681    358.17717   -78260.536    78254.429   -37.730355    35.486764 
150876000    253.39606    324.98579    211.63793   -78258.262    78283.999    113.34786    35.491534 
150880000    268.64331    314.41196    460.23627   -78278.193    78292.841   -145.82431    35.500833 
150884000    290.27751    293.63245    210.37051   -78312.306    78300.569     83.26194     35.51189 
150888000    310.25887    295.66093     333.4516   -78352.436    78335.046   -37.790668    35.508514 
150892000    291.59028    289.09629    300.44315   -78358.688    78374.534   -11.346861    35.507301 
150896000    270.78117    493.87501    257.46161   -78364.262    78373.307     236.4134    35.519655 
150900000    258.70351    360.56527    211.51205   -78395.758    78399.704    149.05322    35.508788 
150904000    304.73033     441.0323    247.40516   -78398.548     78405.38    193.62715    35.516731 
150908000      305.505    691.75123    340.97096   -78428.291    78417.255    350.78027    35.515395 
150912000    280.93827    248.93653    365.63956   -78420.087    78427.854   -116.70303    35.517625 
150916000    307.39999    546.47275    200.72829   -78470.562      78461.6    345.74446    35.520606 
150920000     327.1088    335.21096    380.18829   -78494.578    78469.902   -44.977323    35.521972 
150924000     255.0254    347.84718    276.20732    -78527.04    78528.505    71.639859    35.519538 
150928000    276.00205    367.40093    308.63493   -78561.539    78562.443       58.766    35.511815 
150932000    298.99071    422.97815    379.50125   -78592.565    78587.302    43.476905    35.504417 
150936000      276.697    343.73978    308.64816   -78626.231    78633.705    35.091618    35.501527 
150940000    279.39319    528.20274    201.67416   -78609.697    78629.854    326.52858    35.501241 
150944000    320.27167    416.06768    271.58962   -78642.345    78621.751    144.47805    35.496435 
150948000    299.28716    296.20126    416.62162   -78667.234    78665.764   -120.42035    35.494048 
150952000    277.27747    475.39959    267.83353   -78682.393    78690.029    207.56607    35.487979 
150956000    278.12367    412.26204     421.6549   -78712.604    78727.159   -9.3928524    35.481677 
150960000    288.01317    347.30379    234.05939   -78729.802    78722.631     113.2444    35.493228 
150964000    272.94199    227.91595    336.37053   -78747.973    78748.071   -108.45459    35.493676 
150968000    284.77488    247.53649     227.9945   -78776.058    78763.701    19.541985    35.496108 
150972000    291.42114    511.33801    418.51266   -78791.643     78770.41     92.82535    35.494382 
150976000    297.92326    414.24468    238.73611   -78811.321    78807.653    175.50857    35.497326 
150980000    271.25184    390.33224    231.75104   -78818.849    78836.443     158.5812    35.503317 
150984000    302.39803    323.11178    381.61905   -78860.183    78857.973   -58.507267    35.502531 
150988000    266.82997    291.75818    428.53081   -78891.443    78899.275   -136.77263    35.502709 
150992000    266.05833    276.20475    172.88243   -78938.616    78928.738    103.32232    35.496203 
150996000    228.80233    486.75302    297.55153   -78933.437    78958.747    189.20149    35.506184 
151000000    292.46823     161.4545    314.25692    -78942.73    78950.505   -152.80242    35.501288 
151004000    281.76071    389.51194    280.81322   -78960.991    78948.461    108.69871     35.49734 
151008000    265.85812    368.27411    328.79905   -78959.766    78987.273    39.475056    35.501587 
151012000    285.77374    455.07996    405.44446    -78971.03    78974.585      49.6355    35.500176 
151016000    287.52363    277.03721    282.83029   -78982.969    78992.009   -5.7930791    35.502742 
151020000    309.53718    585.23733    364.51014   -79010.968    79002.121    220.72719    35.500316 
151024000    306.17837    523.23574    331.51529   -79014.785    78996.113    191.72045    35.502399 
151028000    266.81778    367.68411    485.21949   -79000.844    79016.164   -117.53538     35.50437 
151032000    281.18437    356.26008    385.87488   -79056.366    79040.662   -29.614809    35.503264 
151036000    284.29399    510.56591    327.64233   -79071.031    79064.472    182.92358    35.500963 
151040000    287.15103    349.34173    416.69879   -79074.646    79074.198    -67.35706    35.500348 
151044000    295.91715    244.28437    424.09505   -79079.192    79070.147   -179.81068    35.502965 
151048000    284.75301    402.41773    229.07201   -79089.381    79089.117    173.34572    35.511558 
151052000    273.03661    374.17895    273.51673   -79109.297    79113.646    100.66221    35.513739 
151056000    274.73454    364.50355    278.64976   -79132.771      79131.2    85.853785    35.519192 
151060000    281.87334    426.39227    370.37582   -79171.337    79178.781    56.016449    35.524657 
151064000    271.94698    383.85597    209.34385   -79188.514    79187.468    174.51212     35.52951 
151068000    245.30169    344.94547    269.27301   -79197.982    79208.085    75.672457    35.526615 
151072000    270.48132    213.04175    207.75987   -79208.255     79208.93    5.2818792     35.52613 
151076000    251.14644    319.69534    265.54152   -79208.219     79224.22     54.15382    35.531873 
151080000    307.59443    378.25437    390.33262   -79238.138    79219.984   -12.078248     35.53514 
151084000    300.23928     571.5341     321.4155    -79247.16    79238.732     250.1186    35.539556 
151088000    287.61861    334.80979    338.49557   -79269.588    79256.766   -3.6857785    35.538915 
151092000    310.50399    471.96802    513.69584   -79283.852    79250.789   -41.727821    35.547244 
151096000    274.60584    250.80541    282.29463   -79281.103    79282.698   -31.489223    35.558568 
151100000    280.56303    332.02642    483.89801   -79302.075    79291.166   -151.87159    35.547146 
151104000    306.64807    403.50435    291.05886   -79306.426    79288.416    112.44549    35.538515 
151108000    290.73181    294.17102     319.7702   -79318.009    79320.314   -25.599188    35.537325 
151112000      237.407    279.72186    281.01336   -79331.225    79362.559   -1.2914982     35.53422 
151116000    312.69369    363.76587    395.46383   -79385.513    79365.199   -31.697968    35.537992 
151120000     264.4122     424.1856    221.80476   -79409.134    79397.271    202.38084    35.534155 
151124000    298.82697    263.16394    404.86007   -79412.774    79417.913   -141.69612    35.537663 
151128000     304.3253    255.73489    376.04369   -79430.521    79426.427   -120.30881    35.537754 
151132000    289.81189    352.05417    436.61704   -79437.054    79458.821   -84.562862    35.535143 
151136000    268.37979    199.70681    178.74137   -79452.684    79468.868    20.965441    35.531139 
151140000    290.88961    168.94209    355.03464   -79452.895    79456.622   -186.09255    35.536778 
151144000    293.95218    284.29618    359.32203   -79480.543    79462.098   -75.025856    35.535508 
151148000    281.43887    288.27516    331.15477   -79507.468    79507.047   -42.879605    35.526812 
151152000    287.55119    458.84725    241.50786   -79523.443    79520.684    217.33939    35.531894 
151156000    291.46545    300.19288    236.10456   -79571.796    79561.047    64.088323    35.533697 
151160000    262.92206    323.11361    168.41689   -79536.541    79560.654    154.69672    35.536016 
151164000    280.24486    545.79601    307.89658    -79584.49    79583.961    237.89943    35.539111 
151168000    254.78749    445.25049      413.095   -79591.645      79621.7    32.155484    35.525028 
151172000    286.93271    400.44268    302.24316   -79639.698    79637.236    98.199519    35.525912 
151176000     281.3263    361.04205    296.38749   -79661.579    79659.536     64.65456    35.526552 
151180000    282.13631    448.49198    227.37924   -79694.277    79687.602    221.11275    35.531017 
151184000    268.74283    339.97136    410.21564   -79704.005    79725.321   -70.244278    35.521458 
151188000    276.71963    271.17261    169.50533   -79739.796    79746.312    101.66728    35.528577 
151192000    293.85065    274.07396    262.05295   -79747.671    79728.032     12.02101    35.538293 
151196000     304.6427    319.09551    358.74009   -79762.631     79759.34   -39.644584    35.529212 
151200000    311.72123    294.81804    409.89278   -79772.935    79766.383   -115.07474     35.52604 
151204000    286.61228    446.43901    469.34736   -79783.431     79786.53   -22.908349    35.533201 
151208000    272.39282    530.03392    313.97265   -79782.803    79811.818    216.06127    35.538922 
151212000    265.23936    493.92584    407.68776   -79800.237    79820.845    86.238087    35.541645 
151216000    287.20063    411.18863    358.27227   -79812.743    79819.001    52.916367    35.544316 
151220000    279.23197    273.47255     297.7225   -79813.711    79822.463   -24.249956    35.537812 
151224000    285.39625    374.90181    391.69742   -79840.773    79818.053   -16.795608    35.527195 
151228000    290.79433    444.95346    175.69258   -79853.236    79845.211    269.26088    35.526463 
151232000    293.48858    454.23729    467.90981   -79877.812    79864.967   -13.672513    35.528794 
151236000    263.63297    323.24033    544.30268   -79894.001     79895.48   -221.06235    35.529142 
151240000    273.02857    383.30268    147.40501   -79908.737    79912.418    235.89767    35.528686 
151244000    263.09477      431.771     348.6912   -79929.869    79937.655    83.079804    35.535146 
151248000    267.00705    343.79485    325.04247   -79930.572    79955.149    18.752379    35.540611 
151252000    256.67376    353.11134    354.09631   -79951.132    79949.507  -0.98496808     35.52799 
151256000    246.90159    411.78944    88.725414    -79961.27    79983.358    323.06403     35.53598 
151260000    246.44285    296.05241    302.34441   -79990.946    79999.283   -6.2920084    35.539464 
151264000    262.41266    265.15272    331.97903   -80012.915    80042.503   -66.826317    35.531461 
151268000    280.11553    507.47504    322.42156   -80051.191     80048.34    185.05349    35.535675 
151272000    297.62828    388.18661     532.7786   -80077.909    80062.273   -144.59199     35.53259 
151276000    290.49155    616.64696    229.53406   -80099.805    80086.925    387.11291    35.529517 
151280000     298.5519    469.05352    416.65948   -80095.954     80110.93    52.394042    35.536605 
151284000    298.50649    529.89643    258.12514   -80143.633    80141.384    271.77129    35.538529 
151288000    262.52114    282.51359    414.58586   -80155.969    80176.005   -132.07227    35.536763 
151292000    298.03221    372.41779     324.4722   -80189.886    80183.772    47.945583    35.529288 
151296000    271.43365    292.63307    537.18492   -80180.798    80192.805   -244.55185    35.522263 
151300000    283.83721    366.50134    227.75565   -80208.232    80211.706    138.74569    35.520003 
151304000    268.44464    286.47638    314.43173    -80211.27    80221.612   -27.955347    35.530796 
151308000     251.4305    240.02939    260.39916   -80210.529    80249.883   -20.369771    35.527336 
151312000    293.19258    281.03994    350.32732   -80260.986    80260.438   -69.287371     35.53311 
151316000    292.92808    469.54464    312.50562   -80311.335    80307.566    157.03902    35.534858 
151320000    263.78726    273.38175    242.06172   -80336.603    80345.289    31.320033    35.533763 
151324000    263.96507    358.42859    218.64243   -80342.863    80354.128    139.78615    35.536286 
151328000     274.1464    333.90698    149.73478   -80361.244    80364.156    184.17219    35.538691 
151332000    294.72957    153.28823    574.74937    -80385.16    80382.536   -421.46114    35.531388 
151336000    281.83654    451.58224    282.53698   -80420.385    80429.014    169.04526    35.536272 
151340000    284.93362    397.25075    348.47692    -80455.59    80435.022    48.773825    35.537507 
151344000    291.19821    308.11219    439.86748   -80484.664    80475.138   -131.75529    35.539941 
151348000     278.4379    402.60578     393.3777   -80518.395    80508.003    9.2280795     35.53308 
151352000    273.75499    332.02363    438.21711   -80543.227    80533.177   -106.19348    35.533657 
151356000    314.70499    324.46632    355.63704     -80556.6    80541.067    -31.17072    35.526508 
151360000    268.52563    458.92846    301.78708    -80569.52    80575.629    157.14139    35.532416 
151364000    274.73829    242.87116    556.18208   -80573.166    80574.561   -313.31092    35.528817 
151368000    272.72299    294.53973    371.06042   -80591.359    80613.017   -76.520687    35.529762 
151372000    264.59902    220.54955    390.28631   -80621.354    80639.413   -169.73676    35.526093 
151376000     285.8293    291.50902    272.57956   -80642.631    80641.835    18.929462    35.526871 
151380000    272.43187    335.63013     182.5753   -80664.434     80688.85    153.05483    35.522755 
151384000    294.52982    399.45062    346.96136   -80671.319    80675.079    52.489254    35.523968 
151388000    259.03874    472.12753    412.71412   -80659.191    80668.337    59.413407    35.522467 
151392000    271.08357    381.54657    196.57264   -80697.212    80715.321    184.97393    35.524054 
151396000    273.78039    409.48609    435.58838   -80702.869    80709.728   -26.102289    35.526756 
151400000    274.52559    293.99344    355.00099   -80712.779    80703.534    -61.00755    35.520254 
151404000     306.1378    314.07086    466.63751   -80760.104    80736.921   -152.56664     35.52267 
151408000    327.03698    644.83791    535.55531   -80786.498    80764.654     109.2826    35.520935 
151412000    292.21486     467.7222    245.76664   -80790.353    80799.651    221.95556    35.535641 
151416000     279.2534    249.62174    358.92375   -80821.081    80824.076   -109.30201    35.537154 
151420000    282.43727    308.05343    272.69996   -80868.458    80871.291    35.353473    35.537999 
151424000    283.81725    237.37142     382.5164   -80885.272    80879.058   -145.14498    35.532822 
151428000     287.8138    646.11847     253.7298   -80908.236    80903.059    392.38867    35.540348 
151432000     290.4852    281.01808    163.52252   -80940.867    80918.549    117.49556    35.540296 
151436000    272.30598    396.32363    229.74284   -80953.334    80959.064    166.58079    35.537492 
151440000    285.37091    436.41209     350.2792   -80947.511     80950.56    86.132899    35.538299 
151444000    273.34818    351.59218    258.14468   -80962.456    80969.664      93.4475    35.532322 
151448000    304.22835    299.45168    263.59546   -80978.938     80978.81    35.856213    35.525822 
151452000    274.26494    352.66469    275.55227   -80991.139    80999.029    77.112416    35.528704 
151456000    257.74824    408.97883    287.77076   -81003.784    81014.373    121.20807     35.52073 
151460000    262.80159    307.34715    289.37392   -81032.412    81045.678    17.973227    35.519077 
151464000    310.65552    279.94836    231.10605   -81108.125    81074.304    48.842316    35.512612 
151468000    278.41933    260.82746    294.88858   -81124.049    81130.526   -34.061118     35.51432 
151472000    264.41279    530.16422    321.88191   -81137.428    81157.164    208.28232    35.510876 
151476000    312.12071    272.95289    225.69612   -81180.519    81159.313    47.256766    35.519037 
151480000    267.03001    234.41393    207.69656    -81219.68    81225.194     26.71737     35.51651 
151484000    302.64563    426.97221    296.95786   -81232.657    81221.185    130.01435    35.518434 
151488000    287.86147    352.86531    365.61402   -81244.473    81234.929   -12.748711    35.519948 
151492000    298.83575    459.39836    177.78905   -81258.356    81253.672    281.60931    35.520748 
151496000    287.86163    335.42439    351.57337   -81268.369    81274.992   -16.148976    35.518274 
151500000    265.96972     271.8334    404.02173    -81286.66    81291.346   -132.18833    35.520826 
151504000    281.25442      160.035    245.22925   -81303.952    81287.717    -85.19425    35.517313 
151508000    311.96791    388.97937    280.38266   -81320.974      81306.1     108.5967    35.527666 
151512000    291.30644    423.82091    229.44553    -81349.63    81327.304    194.37538    35.525347 
151516000     281.4149    441.01747    386.03741   -81339.443    81352.235    54.980062     35.52281 
151520000     279.3936    431.81441    413.99541   -81320.857    81330.582    17.818996    35.522364 
151524000     291.9241    353.34168      339.063   -81335.993    81339.865    14.278675    35.526011 
151528000    270.25534    422.25516     176.4765   -81348.252    81364.346    245.77866     35.52989 
151532000    279.99193    299.28577    287.63008   -81360.154    81374.493    11.655685    35.537191 
151536000    283.98241    122.70161    298.52943   -81414.047    81421.653   -175.82782    35.530375 
151540000    279.95509    359.36122    295.37485   -81460.969    81448.351    63.986367    35.528595 
151544000    291.25199    408.82287    303.15538   -81463.234    81473.736    105.66749     35.52394 
151548000    296.31735    295.16586    333.54863    -81484.11     81487.16   -38.382767    35.522772 
151552000    288.77479    276.87647    410.74806   -81541.785    81538.645   -133.87159    35.518877 
151556000    293.87901    297.27025    267.59145    -81582.48    81577.272    29.678797    35.523851 
151560000    306.88321    261.65961    311.10651   -81576.214    81569.304   -49.446898    35.532623 
151564000    309.45173    459.53385    366.26239   -81619.493    81595.718     93.27146    35.542836 
151568000    260.69815     241.8842    243.27884   -81627.703    81643.249   -1.3946475     35.54947 
151572000    271.23917    512.95126    352.76517   -81676.631    81666.902     160.1861     35.55427 
151576000    277.43583      265.819    349.74375    -81678.09    81692.785   -83.924751     35.55848 
151580000    258.20282    335.01689    236.13786   -81697.014    81685.414    98.879035    35.564226 
151584000    301.97132    246.32215    409.74282   -81712.464    81709.256   -163.42067     35.55615 
151588000    274.63787    344.54995    232.69164   -81740.448     81761.25    111.85831    35.562669 
151592000    266.64597    220.28843    344.05628   -81777.263    81779.163   -123.76785    35.563904 
151596000    270.20882    596.59552     229.9619   -81792.604    81795.656    366.63362    35.553092 
151600000    310.05217    366.37876    324.83207    -81807.13    81789.447     41.54669    35.547102 
151604000    285.84348    235.06972    297.85899   -81805.814    81804.416    -62.78927    35.537031 
151608000    299.56184    354.94856    243.78981   -81838.459    81811.297    111.15875    35.541433 
151612000    265.67694    372.92249    292.94554   -81853.733    81861.176    79.976944    35.540722 
151616000    317.43712    430.76883    268.84076   -81892.903    81867.221    161.92807    35.535505 
151620000     299.1571    299.65827    222.48433   -81910.527    81892.011    77.173933    35.534941 
151624000    280.94228    475.91159    291.92813   -81917.813    81917.009    183.98346     35.53952 
151628000    293.00809    485.61813    323.25946   -81908.768    81909.267    162.35867    35.532314 
151632000    269.57365     331.4159    395.68468   -81899.605    81912.821   -64.268782    35.520885 
151636000    260.58259    393.54303     335.7833   -81907.525    81913.975    57.759735    35.513202 
151640000    264.50763    358.42877    407.50336   -81933.607    81932.529   -49.074592    35.512804 
151644000    284.45876    560.98759    227.66926   -81950.709    81947.139    333.31834    35.507017 
151648000    314.42054    399.03308    308.17276   -81980.945    81938.176    90.860325    35.509293 
151652000    277.01523    294.81141    303.40872   -81970.409    81978.367   -8.5973148    35.509901 
151656000     282.8207    179.22043     364.9269    -82007.49    81994.835   -185.70647    35.510476 
151660000    276.65618    245.81783    276.20584   -82029.967    82017.818   -30.388012    35.501122 
151664000      312.711    314.41745    360.35688   -82050.272    82033.975   -45.939426    35.502738 
151668000    295.51611    197.39256    427.45102   -82065.509    82060.507   -230.05846    35.496107 
151672000     316.0021    411.22923    410.67473   -82098.328    82086.205   0.55450032    35.504019 
151676000    283.69993    440.92231     164.9224    -82085.47    82090.535     275.9999    35.492853 
151680000    280.30213    305.43151    233.65544   -82101.404    82118.964    71.776077    35.485648 
151684000    304.97874    369.18125    557.99066   -82131.227    82106.504   -188.80942     35.48579 
151688000    286.08167    343.33555    298.94089   -82131.182    82137.298    44.394661    35.480126 
151692000    299.65096    226.93679    205.43912     -82174.6    82152.692    21.497679    35.476975 
151696000    277.75939    306.73814    364.30314   -82192.183    82196.075   -57.565002     35.47445 
151700000    284.05478    350.53298    233.80888    -82223.34    82227.394     116.7241    35.487323 
151704000    262.66395    432.12955    301.32387   -82256.445    82254.299    130.80568    35.481581 
151708000    285.87564    242.70535    455.71244   -82283.688    82277.869   -213.00709    35.476963 
151712000    296.42165    271.57477    462.34035   -82325.446    82316.795   -190.76559    35.477054 
151716000    290.33241    380.15712    216.30252   -82344.381     82338.01     163.8546    35.469305 
151720000    276.69769    406.24885     188.7438   -82352.913    82362.285    217.50505    35.468002 
151724000    298.74306    391.17816     365.7185   -82383.228    82375.332    25.459665    35.472612 
151728000    287.33362    456.62845    449.24588   -82387.002    82391.749    7.3825722    35.472536 
151732000    258.35268    277.03829    234.94215   -82401.998    82420.004    42.096132    35.471973 
151736000    279.07669    352.07292    500.74418   -82447.958    82435.211   -148.67126     35.47266 
151740000    256.43001    273.00606    372.13194    -82470.05    82478.277   -99.125878    35.468405 
151744000     283.6503     327.9476    261.72362   -82497.205    82500.437    66.223976    35.467046 
151748000    295.91045    270.60834    337.17121   -82517.539    82507.799   -66.562875    35.479005 
151752000    289.59574    288.60692    306.05195   -82523.746     82531.75   -17.445031    35.489924 
151756000      264.466    594.57274    407.30829   -82552.375    82565.541    187.26445    35.495885 
151760000    277.53164    310.00739    290.65967   -82575.959    82594.223    19.347714    35.499351 
151764000    260.37942    335.42125    187.25998   -82589.863    82605.949    148.16127    35.502783 
151768000    253.72929    370.15845    232.90719   -82599.216    82626.658    137.25127    35.503221 
151772000    288.66195    332.31733    207.09548   -82643.124    82634.437    125.22186    35.512809 
151776000    281.45716     406.4152    205.75868   -82629.312    82636.727    200.65652    35.515812 
151780000    261.96476    223.82024     272.5162   -82635.394    82639.049   -48.695963     35.52604 
151784000    277.44042    280.86426    292.44192    -82656.24    82660.995   -11.577657    35.522153 
151788000    269.51263    281.75809    297.09935   -82681.717    82695.175   -15.341264     35.52249 
151792000    278.87081    371.15559    240.40241   -82731.826    82729.831    130.75318    35.522125 
151796000    291.20124    276.25572    414.53392   -82752.577    82753.302    -138.2782     35.52652 
151800000    289.86944    423.69365    295.98366   -82780.256    82768.976    127.70999     35.52128 
151804000    281.22447    451.04027    494.49676   -82824.049    82811.352   -43.456487    35.510608 
151808000    278.12449    409.73137    175.76678   -82848.103    82851.417    233.96459    35.518811 
151812000    287.97748    461.31851    346.15854   -82882.618    82887.486    115.15997    35.519984 
151816000     282.4508    348.93504    365.82382   -82922.635     82919.78   -16.888778    35.525275 
151820000    268.97804    312.31312    341.94192   -82943.871    82950.322   -29.628795    35.516402 
151824000    275.95796    318.33272    782.47485   -82960.746    82943.345   -464.14213    35.512946 
151828000    290.37407    460.80803     312.6233   -82975.648    82970.016    148.18473    35.503995 
151832000     263.2993    392.45908    242.75076   -82990.493    83000.559    149.70832    35.499011 
151836000    292.03148    316.27034     196.6021   -83001.893    83006.432    119.66824    35.503741 
151840000    302.21109    578.69565    422.04208   -83049.975     83033.29    156.65357    35.505017 
151844000    269.81715    377.18183    281.17011   -83033.139    83041.804    96.011714    35.504658 
151848000    278.66169    550.22608    253.77072   -83060.798    83064.598    296.45536    35.515406 
151852000     255.1522    192.19702    423.53263    -83096.29    83116.745   -231.33562    35.509188 
151856000    287.30728    383.85017    355.37772   -83109.653    83117.203    28.472452     35.50887 
151860000    317.38606    442.27988    226.46469   -83135.667    83129.389     215.8152    35.503201 
151864000    283.14239    614.96063    388.86966   -83163.662    83157.051    226.09097    35.505626 
151868000    304.10721     422.1062    288.74775   -83216.407    83205.798    133.35845    35.502163 
151872000    298.73299    352.45864    346.11312   -83223.417      83216.4    6.3455171    35.495053 
151876000    279.32093    457.47769    340.69392   -83237.411      83248.8    116.78377    35.496966 
151880000    272.16721    303.82762    245.04978   -83264.179    83275.784    58.777832    35.501644 
151884000    277.49519    339.87279     478.3003   -83301.595    83302.255   -138.42751    35.495424 
151888000     305.1762    447.33575    375.71182    -83332.06    83318.834    71.623927    35.500252 
151892000    280.28522    593.35316     295.9764   -83335.465    83342.276    297.37677    35.514663 
151896000    304.02535    365.36019    516.63542   -83371.033    83356.699   -151.27523     35.51722 
151900000    271.91649    298.46469    259.02046   -83408.534    83406.165    39.444227    35.513971 
151904000    290.42742    403.66041    448.20673   -83406.757    83427.118   -44.546318    35.516843 
151908000    243.88154    249.74447    217.67629   -83435.677    83455.824     32.06818    35.514962 
151912000    291.62486     530.4318    319.54571   -83480.303    83483.506    210.88609    35.518065 
151916000    273.49632     614.7963    412.50568   -83528.408    83522.903    202.29062    35.522024 
151920000    266.07501    312.42324     200.7955   -83520.112     83543.02    111.62774    35.525467 
151924000    281.96034    297.94169    333.67113   -83543.998    83552.076   -35.729435     35.51754 
151928000    299.02328    723.42392    311.15976   -83559.832    83552.038    412.26416    35.530286 
151932000    286.05811    482.75467    472.37881   -83565.531    83567.857     10.37586    35.526847 
151936000    268.43044     203.2442    378.47577    -83582.85    83586.225   -175.23157     35.51974 
151940000    280.58949    215.54462    209.02558   -83601.458    83605.585    6.5190441    35.521262 
151944000    274.34888    150.45014    384.18992   -83614.141    83620.332   -233.73979      35.5153 
151948000    273.84508    369.68597    397.26141   -83650.758    83653.943   -27.575433    35.515641 
151952000    269.60647    457.74736    490.04677    -83662.75    83683.027   -32.299417    35.513933 
151956000    281.18168    234.46957    431.65778   -83705.627    83704.534   -197.18821    35.507986 
151960000    263.43516    123.51432    416.69829   -83732.242    83749.822   -293.18398     35.51618 
151964000    318.99076    394.48344    309.12484   -83785.812    83756.482    85.358599    35.517444 
151968000    299.41495    342.40058    314.52385   -83796.844    83777.104    27.876732    35.513963 
151972000    274.44349    317.18811    193.71984   -83818.328    83824.758    123.46827     35.52314 
151976000    270.15665    325.23243    409.35277   -83869.279    83861.373   -84.120333    35.531176 
151980000    281.50014    477.76265    149.12943   -83890.919    83885.474    328.63322    35.531873 
151984000    280.42663    197.51275    510.98279   -83905.493    83903.037   -313.47003    35.532539 
151988000     270.7988    261.81316    256.00781   -83898.582    83899.603     5.805352    35.531924 
151992000    259.40876    237.18431    313.47646   -83906.468    83919.477   -76.292146    35.517986 
151996000    300.76911    260.49268      305.484   -83950.194    83931.529   -44.991323    35.531078 
152000000    274.02025    308.90825    193.58563   -83967.889    83955.713    115.32262    35.526832 
152004000    295.11925     387.4678    218.75479   -84000.124    83989.019      168.713    35.523773 
152008000    289.50511    482.63079    196.32728   -84036.354    84024.003    286.30351    35.521748 
152012000    288.22009    377.30721    339.71408   -84032.059    84026.226    37.593129    35.528085 
152016000    308.54099    457.13053     364.3582   -84070.158     84058.21    92.772331    35.529075 
152020000    294.31773    485.21526    280.67199   -84103.313    84090.805    204.54326    35.541029 
152024000    295.69373    271.84869    474.94713   -84121.125    84114.706   -203.09844    35.540503 
152028000    281.90063    518.36675    516.23394   -84143.438    84129.143    2.1328091    35.537532 
152032000    289.02101    392.24091     287.4224   -84165.483    84157.109    104.81851    35.546092 
152036000    282.93324    434.42828    304.15184   -84185.956    84186.649    130.27644     35.55227 
152040000    280.67791    137.64212    151.81778   -84202.927    84203.977   -14.175661    35.552384 
152044000    285.39904    262.50442    267.96973   -84251.746    84258.431   -5.4653087    35.554773 
152048000    282.52772    413.55664    405.03855   -84273.703     84274.66    8.5180829    35.552133 
152052000    300.09878    373.04581    218.83777   -84285.461    84276.344    154.20804    35.560136 
152056000    285.87811    289.83285    236.59551   -84309.567    84300.724    53.237347    35.563183 
152060000    271.22714    299.21161    398.30774   -84326.143    84310.126   -99.096131    35.557223 
152064000    263.91187    251.47016    495.25903   -84358.759    84353.453   -243.78887    35.556469 
152068000    278.72145    436.49766    498.65739   -84386.516    84381.225   -62.159724    35.557075 
152072000    338.74129    578.90162    302.57287   -84423.796    84424.483    276.32875    35.570997 
152076000    287.85834    398.12962    366.83049   -84438.238    84439.927    31.299136    35.566853 
152080000    280.17541    270.47376    297.16329   -84468.348    84461.682   -26.689524     35.57174 
152084000     308.0645    472.49748    437.43913   -84482.986    84463.471    35.058348    35.565282 
152088000    308.33241    387.34036    283.91213   -84511.387    84498.126    103.42823    35.558025 
152092000    274.92689    468.79199    245.32758   -84543.702    84545.545    223.46441    35.553503 
152096000     279.8459    208.50367    309.93342   -84558.289    84563.161   -101.42976    35.551657 
152100000    297.98684     524.2851    359.65184   -84553.649    84547.197    164.63326    35.559251 
152104000    317.20706    311.47352    338.25555   -84599.762    84583.293   -26.782033     35.56026 
152108000    293.56274    530.29803     274.8283   -84621.354    84609.971    255.46973    35.566381 
152112000    265.08814    308.28576    243.81229   -84638.485    84636.121    64.473472    35.564249 
152116000    262.34037    353.81772    247.53837   -84651.207    84660.795    106.27935    35.570201 
152120000    255.03962    378.33976    263.81319   -84682.288    84682.972    114.52657    35.562217 
152124000    290.02368    511.43735    463.11338    -84733.03    84717.757     48.32397    35.572574 
152128000    292.33784    252.51308    504.47975   -84748.927    84761.356   -251.96667    35.570618 
152132000    278.95892    262.05836    314.52283   -84777.304    84770.584    -52.46447    35.575549 
152136000    266.24292     252.4688     192.5578   -84776.329     84804.65    59.910999    35.575536 
152140000    289.54191    279.83443    320.66776   -84848.127    84850.358   -40.833329    35.582419 
152144000     271.8239     289.4822    328.59936   -84848.087    84865.164   -39.117164    35.578671 
152148000    278.86335    389.88228     296.9229   -84885.269    84891.345    92.959388    35.580468 
152152000    253.83988     345.1007    309.08704   -84886.058     84916.68    36.013658    35.575776 
152156000    284.22372    371.71111    357.10177   -84901.973    84894.047    14.609343     35.58488 
152160000    286.59721    517.76095    244.60099   -84933.205    84945.498    273.15996    35.590245 
152164000     297.3491    408.18511    311.44957   -84967.539    84955.052    96.735541    35.596853 
152168000    281.34509    511.35803    446.27983   -84978.818    84987.575    65.078197    35.592803 
152172000    287.18469    493.25593     296.5979   -85021.813    85013.533    196.65803    35.588222 
152176000    251.73362    262.44957    439.59978   -85012.141    85037.494    -177.1502    35.583128 
152180000    273.17258    342.29924    358.37618   -85049.609    85066.955   -16.076937    35.593403 
152184000    269.52789    407.73054    182.13957   -85103.527    85118.352    225.59098    35.600023 
152188000     287.6577    345.28497    404.73196   -85112.387    85122.914   -59.446992    35.596134 
152192000    287.41742    527.34958    146.88735   -85123.983    85118.483    380.46223    35.594371 
152196000    264.05666     353.7637    328.39762   -85125.488    85125.334     25.36608    35.594866 
152200000     282.5791    339.07243    424.60573    -85136.81    85148.546   -85.533294    35.595289 
152204000    277.40562    353.77446    174.50159   -85123.251    85159.125    179.27288    35.593118 
152208000    292.03807    265.19892    289.74765   -85153.911    85144.961   -24.548736     35.59871 
152212000    308.27077    325.25281    366.05661   -85188.903    85157.615   -40.803802    35.599405 
152216000     290.7318    266.52344    329.76684   -85186.351    85178.421   -63.243395    35.605671 
152220000    292.39309    412.11963    174.40142   -85202.066    85204.606    237.71822    35.606955 
152224000    311.99603    367.60202    291.62271   -85251.645    85231.969    75.979307    35.600089 
152228000    311.76651     463.5975    250.19821   -85291.166    85269.181    213.39929    35.598047 
152232000    302.70576    316.81651    369.61965   -85305.467    85281.027   -52.803133    35.609715 
152236000    280.86575      543.146    292.79241   -85308.765    85307.117    250.35359    35.603862 
152240000    269.08442    298.23565    277.20058   -85326.933    85330.194    21.035071    35.599162 
152244000    288.73114    300.89527    202.65351   -85370.109     85371.51    98.241758     35.60125 
152248000    282.42718    325.49772    388.31204   -85408.566    85396.815   -62.814324    35.591979 
152252000    295.02907     477.0624    339.50639    -85431.82    85408.401    137.55601    35.592673 
152256000    310.76592    479.01533    528.99057   -85439.385    85404.672   -49.975237    35.590778 
152260000     289.5728    383.59831    285.10976   -85467.435    85445.442    98.488546    35.589215 
152264000    278.98674     413.0033    294.81823   -85480.602    85487.404    118.18507    35.596469 
152268000    276.23383    346.55748    390.22518    -85491.38    85499.805   -43.667702    35.598168 
152272000    284.17582    406.53251    309.16123   -85532.645    85521.333    97.371281    35.596071 
152276000    275.81304     395.3473    215.84564   -85549.553    85543.118    179.50167    35.595222 
152280000    268.86209    342.08938    334.49665   -85551.868    85561.595    7.5927312    35.600078 
152284000    296.64579    431.14259    232.03927   -85567.347     85560.31    199.10332    35.605329 
152288000    267.05256    381.31908    295.28644   -85569.547    85582.943    86.032635    35.613897 
152292000    296.75151    291.52124    320.60735   -85591.765    85607.112   -29.086112    35.614339 
152296000    278.64752    365.06909    421.52488   -85607.827    85609.146   -56.455788    35.614339 
152300000    287.15584    174.26203    221.39298   -85634.956    85640.739   -47.130949     35.61766 
152304000    280.21203    356.39639    150.31628   -85657.774    85676.078    206.08012    35.623915 
152308000    323.33687    290.74689     442.4761   -85678.537    85669.237   -151.72921    35.622192 
152312000    288.97209    354.20239    442.93584   -85682.086    85670.191   -88.733457    35.615863 
152316000    274.22143    340.64387    254.12158   -85692.094    85688.831    86.522292    35.620487 
152320000    293.19736    336.33453    372.32039   -85699.593    85685.074   -35.985858    35.624047 
152324000    275.36774    480.27569      293.385   -85705.691    85714.847    186.89069    35.627612 
152328000    264.08104    240.77577     332.2569   -85710.749    85720.491   -91.481132    35.637793 
152332000    278.64143    287.54522    285.95267   -85718.191    85717.835    1.5925487    35.640533 
152336000    277.01238     255.1511    327.06713   -85756.008    85756.983   -71.916028    35.643787 
152340000    291.30513    428.16539    427.84505   -85755.199    85740.578   0.32033784    35.647107 
152344000    262.25486     223.7681    453.32275   -85762.317    85776.146   -229.55465    35.646769 
152348000    296.89477    438.45483    272.84016   -85782.379    85783.719    165.61467    35.650492 
152352000    251.23478    321.36189    292.86341   -85784.681    85805.688    28.498474    35.653102 
152356000    252.28777    307.25755    441.69945   -85788.863    85823.798    -134.4419    35.653698 
152360000    278.72904    429.04717    428.06154     -85817.6    85822.036     0.985629      35.6485 
152364000    263.48636    280.38372    145.52384   -85830.318    85843.918    134.85988    35.648741 
152368000    277.20008    511.05493    202.77779   -85862.737    85879.243    308.27714     35.65685 
152372000     276.5364    393.18126    361.06482   -85881.605    85897.904    32.116444    35.659049 
152376000    307.87609     377.4101    354.80181   -85880.325     85890.91    22.608294    35.653446 
152380000    286.05391    444.71604    308.95321    -85898.36    85889.364    135.76283    35.651404 
152384000    304.53336    438.07271     234.1233   -85925.976    85908.293     203.9494    35.653137 
152388000     310.4151    429.59788    284.25529   -85954.455    85919.562    145.34259    35.659185 
152392000    290.18484    374.55159    290.59179   -85985.937      85966.4    83.959793    35.661963 
152396000    272.38772    444.22331    245.14607   -86011.184    86007.064    199.07723    35.660952 
152400000    296.31481    335.80536    316.70007   -86018.729    86015.597    19.105294    35.663777 
152404000    288.19546    336.25733    499.41329   -86052.217    86042.988   -163.15596    35.658869 
152408000    295.01791    310.99041    316.05865   -86070.981    86073.832   -5.0682378    35.660443 
152412000    290.55845    559.92666    263.20756   -86116.458    86105.447     296.7191    35.667522 
152416000    277.39539    301.69724    260.34514    -86125.11     86108.37    41.352101    35.666757 
152420000    317.93768    426.29092    208.50448   -86154.947    86132.928    217.78643    35.668398 
152424000    293.33956    328.18208    393.70622   -86192.471    86178.248   -65.524138     35.66529 
152428000    298.44588    397.06498    160.30302    -86225.28    86210.288    236.76197    35.668785 
152432000    283.36748    360.66439    284.92322   -86231.352    86228.473    75.741174    35.665404 
152436000    312.18963    323.24393    212.42876   -86266.744    86253.294    110.81517    35.661333 
152440000    263.46169    251.47812    280.98594   -86262.639    86270.251    -29.50782    35.661834 
152444000    292.57175     503.8677    388.56877   -86284.882    86281.548    115.29893    35.670712 
152448000    268.17967    159.42902    270.55672   -86296.805    86303.393    -111.1277    35.673288 
152452000    268.06825    350.98444    287.19674   -86299.721    86322.589    63.787695    35.682356 
152456000    277.05351    278.95252    230.61142   -86321.541     86343.85    48.341103    35.685951 
152460000    281.81107    431.29987     281.9455   -86361.933    86349.981    149.35437    35.683167 
152464000    269.69426    352.88083    441.96374   -86377.433     86390.04   -89.082909    35.680781 
152468000    276.79399    281.97493    324.00378   -86390.992    86409.054   -42.028846    35.683112 
152472000    308.09208    362.16881    574.96307   -86428.901    86419.905   -212.79426    35.683314 
152476000    295.44804    245.07061    460.85839   -86437.883    86433.906   -215.78778    35.674777 
152480000    278.87985    400.37163    304.28269   -86447.023    86454.967    96.088936    35.676305 
152484000    265.88274    401.28723    313.74872   -86483.112    86503.932    87.538503    35.677444 
152488000    276.58106    433.01786    477.53087   -86520.021    86526.207   -44.513009    35.671854 
152492000    318.59659    555.20502    539.70483   -86559.827    86542.505    15.500191    35.678032 
152496000    282.44566    301.54284    200.17769   -86544.564    86558.939    101.36515     35.68625 
152500000    317.08916    422.14714    309.08337    -86578.76    86573.233    113.06377    35.688172 
152504000     283.9588    283.87603    389.53258    -86598.03    86624.022   -105.65655    35.687676 
152508000    274.22362    474.99294    302.29987   -86627.034    86621.093    172.69308    35.691528 
152512000    296.17671    351.62163    468.97091    -86650.55    86641.814   -117.34928    35.684727 
152516000    255.29544    629.66137    310.48342   -86683.122    86701.496    319.17795    35.693856 
152520000    281.54477    407.11809    213.21083   -86714.264    86725.196    193.90725    35.698657 
152524000    284.31033    500.78546     298.1252    -86776.54    86759.006    202.66026    35.697406 
152528000    291.20581    305.96683    376.92322   -86788.112    86773.607   -70.956394    35.694057 
152532000     299.7941    271.35046    306.98068   -86795.623    86787.526   -35.630222    35.690053 
152536000    311.22635    317.21256     331.4543   -86800.278    86776.052   -14.241735    35.691957 
152540000     251.6042    264.10731    297.60093   -86789.712    86796.377   -33.493622    35.685972 
152544000    320.58915    305.38451     394.8462   -86837.264    86828.453    -89.46169    35.689559 
152548000    272.26942    470.61241    366.78359   -86851.162    86854.361    103.82882    35.686511 
152552000     299.8607     314.6668    301.77358   -86883.147    86872.361    12.893224    35.693769 
152556000    276.09507    485.99357    431.12131    -86877.47    86891.562    54.872254    35.694662 
152560000    273.69961      225.166    334.95015   -86898.567    86909.244   -109.78415    35.693591 
152564000    286.46483    436.48565    257.84067   -86938.298    86928.229    178.64499     35.70012 
152568000    277.04799    324.13332    312.98156   -86950.873    86956.902    11.151766    35.705451 
152572000    266.97324    275.97305    277.67898   -86981.931    86985.863   -1.7059363    35.711194 
152576000    302.94852    580.85916    239.54729   -87017.999    87004.583    341.31186    35.718667 
152580000    290.44567    424.19581    356.07462   -87026.196    87034.844    68.121189    35.728497 
152584000     264.1472     289.7547    264.73116   -87012.043    87009.321    25.023539    35.724403 
152588000    273.36424    231.63237     184.8087   -87033.941    87031.417    46.823674    35.738255 
152592000    274.54475    379.74237    317.59364   -87059.807    87063.517    62.148733    35.733419 
152596000    273.36182    332.49217    304.89364   -87074.586    87083.413    27.598533    35.737186 
152600000    302.72196    362.46113    290.15438    -87089.51    87089.705    72.306748    35.732213 
152604000    282.68733    275.84342    363.81273   -87098.241    87115.893   -87.969303    35.723215 
152608000    258.51644    248.53651    137.36559   -87121.075    87136.759    111.17092    35.725292 
152612000    317.66723    406.85852    486.83998   -87158.434    87142.995   -79.981462    35.723832 
152616000    273.78587    453.35692    395.79248   -87175.927    87196.444    57.564436    35.723353 
152620000    270.95214    273.15888    436.66245   -87239.894    87232.507   -163.50356    35.722385 
152624000    283.60564    221.45241    362.01044   -87283.663    87272.726   -140.55804    35.722142 
152628000    307.13714    523.77934    337.98621   -87319.845     87307.89    185.79312      35.7298 
152632000    312.56869    569.22753    352.75475   -87368.224    87348.167    216.47277    35.742532 
152636000    260.09646     325.3054    323.50602   -87353.775    87392.719    1.7993828     35.74136 
152640000    290.75159    290.74877    193.58592   -87405.813    87405.457    97.162848    35.745702 
152644000    300.03728    154.73253    439.22271   -87446.554    87417.972   -284.49018    35.750031 
152648000     259.7838    398.85458     266.0898   -87450.027    87472.149    132.76478    35.751682 
152652000    271.98207    304.89072    226.08919   -87473.143    87487.111    78.801531    35.746371 
152656000    257.72944    283.77168    390.08127   -87492.263    87501.777   -106.30959    35.742167 
152660000    278.18034    369.06866    270.31229   -87524.803    87527.879    98.756374    35.746997 
152664000    283.52427    315.21729    172.15504   -87546.305    87561.462    143.06225    35.746057 
152668000    308.89837    456.62171    557.28089    -87582.62     87557.42   -100.65917    35.741151 
152672000    302.31247    310.07487    380.66277   -87598.393    87586.496   -70.587903    35.738484 
152676000    254.51776    163.74314    333.67382   -87634.972    87627.441   -169.93067    35.732251 
152680000    307.15057    473.11484    279.67116   -87670.402    87657.878    193.44368    35.729359 
152684000    283.40679    325.30671     524.3718   -87696.823    87697.674   -199.06509    35.727884 
152688000    287.50868    434.09057    321.12629   -87743.253    87744.795    112.96427    35.732784 
152692000    255.88525    298.40771     238.7395    -87778.21    87775.674    59.668201    35.733082 
152696000    309.06039    586.47749    532.19024   -87797.508    87795.512    54.287251    35.723419 
152700000    291.85438    234.34516    432.01227   -87814.182    87821.297   -197.66711    35.719791 
152704000    315.23794     205.9617    476.49243   -87837.403    87815.355   -270.53073    35.721355 
152708000     296.3025    415.29364    434.82148   -87836.677    87839.711    -19.52784    35.714314 
152712000    287.31106     308.3997    344.92878    -87876.29    87870.858   -36.529087    35.708041 
152716000    285.73322    326.62519    354.48303   -87882.898    87880.765    -27.85784    35.702298 
152720000    325.11342    484.70847    278.00285   -87912.591    87894.358    206.70562     35.70918 
152724000    262.04146    375.31669    274.93548   -87921.169    87936.094    100.38121    35.712863 
152728000    298.12433    311.39704    225.07174   -87960.513     87955.33    86.325302    35.709938 
152732000    259.83619    506.00892    336.61309   -87980.822    87979.402    169.39583    35.712522 
152736000    288.67398    258.98526     458.6109   -87994.493    87982.762   -199.62564    35.707794 
152740000    312.13013    273.91382    298.14405   -88028.997    88007.281   -24.230238    35.705977 
152744000    291.83839    572.86167    355.11544   -88038.972    88032.765    217.74623    35.700369 
152748000    290.23359     412.1782    327.22101   -88038.231    88054.155    84.957194    35.705798 
152752000    310.10407      405.691    260.43721   -88076.914    88055.836    145.25378    35.706168 
152756000    280.42016    322.41362    468.31117    -88057.15    88059.807   -145.89755    35.701373 
152760000    322.10138    282.23242    285.68056   -88117.494    88071.133   -3.4481366    35.697587 
152764000    303.43648    488.16715    136.16233    -88123.39    88107.384    352.00483    35.691425 
152768000    302.76399    340.22561    288.89498   -88161.826    88145.703    51.330632    35.688223 
152772000    276.63612    334.33114    226.79165   -88199.372    88188.574    107.53949    35.695995 
152776000    258.37557    312.37479    321.83043   -88188.161    88190.087   -9.4556411    35.699101 
152780000    262.19713    243.31129    157.63988   -88214.228    88227.223    85.671417    35.709346 
152784000    304.12553    273.63032    322.26948   -88245.684     88223.95    -48.63916    35.711996 
152788000    295.98217    358.76109    458.16843   -88285.099    88259.837   -99.407343    35.706992 
152792000    251.96052    378.27083    252.28437   -88278.808    88279.148    125.98646    35.703761 
152796000     283.6622    328.75711      300.242   -88288.964    88302.416    28.515104    35.703499 
152800000    278.82334    455.39884    322.81655   -88353.277    88354.234     132.5823    35.702843 
152804000    296.08042    377.80506    393.29278    -88358.96    88353.802   -15.487722    35.707261 
152808000    263.56826    247.57379    280.18108   -88381.204     88387.27    -32.60729    35.702491 
152812000    280.05974    503.12853    460.95342   -88414.495    88419.006    42.175111    35.705425 
152816000    290.47641    444.74531     446.9947   -88423.156    88421.494   -2.2493888    35.696131 
152820000    283.04224    415.73306    295.78993   -88443.417     88452.65    119.94313    35.698184 
152824000    253.47818    283.60454    341.67107   -88489.631    88526.629   -58.066528    35.698861 
152828000    248.80675    254.10832     350.3994   -88508.878    88525.036   -96.291077    35.694643 
152832000    296.95977    346.99906    455.41235   -88539.684    88532.273   -108.41329    35.690235 
152836000    273.87111    352.87977    304.58098   -88530.842    88547.322    48.298785     35.69217 
152840000    308.11474    622.27903    240.67112   -88556.472    88546.264    381.60791    35.689782 
152844000    297.37649    269.00885     378.4145   -88580.898    88567.574   -109.40564    35.688699 
152848000    275.23523    540.40595    342.54842   -88593.341     88581.76    197.85754    35.689475 
152852000    286.77149     343.1204    275.73897   -88613.698    88593.779    67.381437    35.686946 
152856000    290.76016    375.39778    276.71505   -88656.085    88626.604    98.682724    35.688402 
152860000    310.64711    307.49444     326.1252   -88665.298    88663.013   -18.630756     35.67601 
152864000    276.88509    510.40187     350.5091   -88688.293    88698.262    159.89277    35.677002 
152868000     289.2442    269.61532    246.31172   -88725.518    88702.492    23.303596    35.665424 
152872000    296.43092    358.87978    434.60825   -88723.942    88728.351   -75.728466    35.654822 
152876000    290.83902    303.80177    222.07142   -88764.806    88768.135    81.730348    35.652965 
152880000    305.57161    512.77869    391.86182   -88789.226     88773.01    120.91688    35.660383 
152884000    312.21651    281.47504    327.94314   -88813.881    88785.868     -46.4681    35.661856 
152888000    311.38613    371.31702    397.05864   -88849.669    88817.376   -25.741618    35.659828 
152892000    291.40391    257.98546    212.28507   -88845.171    88842.106    45.700384    35.656098 
152896000    274.32924    479.71338    420.74307   -88851.556    88876.476    58.970307    35.659151 
152900000     307.2502    306.05644    462.50658   -88888.904    88874.232   -156.45013    35.658487 
152904000    279.37495    249.65016    421.96042   -88925.781     88919.24   -172.31026    35.662837 
152908000    282.17005    330.85768     277.5391   -88965.485    88966.124    53.318587    35.655891 
152912000    303.19301    546.99719    392.26126   -89015.581    89004.736    154.73593    35.651997 
152916000     273.1827    415.36266     368.8883   -89018.167    89025.211    46.474361    35.654219 
152920000    298.74555    577.30786    204.64987   -89041.426    89023.785    372.65799    35.654354 
152924000    300.67127    522.25886    374.38133   -89066.617    89059.102    147.87753     35.65567 
152928000    280.26213    251.04935    239.10401   -89073.131    89079.259    11.945337    35.656256 
152932000    271.28709    272.03306    255.92465    -89119.24    89116.727    16.108404    35.662084 
152936000    292.40404    373.85295    250.19088   -89140.318    89145.461    123.66207    35.660525 
152940000    290.79632    270.30394    472.17492   -89160.225    89156.973   -201.87098    35.660477 
152944000    277.99184    449.05433    239.29968   -89192.639     89171.38    209.75464    35.662568 
152948000    319.25814    333.55481    322.04211   -89225.823    89192.828    11.512703    35.657014 
152952000    289.77291    310.43827    257.77748   -89218.242    89222.362    52.660795    35.657853 
152956000    282.61764    364.88499    442.66604   -89251.914    89257.307   -77.781054       35.656 
152960000     262.1907     285.3072    274.54785   -89280.405    89286.027    10.759347    35.650826 
152964000    268.86652    553.17292    443.94916   -89322.477    89334.895    109.22376     35.64965 
152968000     289.7186    389.49495    251.32716   -89378.259    89365.221    138.16779    35.647802 
152972000    272.57649     336.1015    298.16023   -89375.451    89374.324    37.941274    35.648955 
152976000     299.6811    381.30052     567.6447   -89395.764     89385.42   -186.34418    35.646583 
152980000    272.87618    220.83256    277.55436    -89414.61    89405.426   -56.721806    35.646841 
152984000    289.87565    247.60551    280.21989   -89419.409    89430.993   -32.614383    35.647995 
152988000    323.05612    322.98345    226.45636    -89453.18    89436.403     96.52709    35.644629 
152992000    254.33504     338.6101     252.3646   -89466.742    89476.641    86.245508    35.640974 
152996000     318.5919    461.79112    347.23965   -89498.584    89472.488    114.55147    35.637007 
153000000    270.55733    390.10819     306.8477   -89481.914    89501.202    83.260493    35.640259 
153004000    281.19876    280.89131    297.44155   -89515.346    89513.687   -16.550244    35.634394 
153008000    282.97791    429.57842    284.77277   -89542.933    89521.877    144.80565    35.640335 
153012000    286.69984    173.37304    299.24326   -89538.819    89545.069   -125.87021    35.642711 
153016000    288.42366    266.63849    327.40154   -89581.661    89582.636   -60.763057    35.642159 
153020000     293.6664    232.77603    341.74559   -89620.437    89603.877   -108.96956    35.656884 
153024000    281.68739    434.89718    227.43401   -89644.516    89647.984    207.46317    35.661281 
153028000    279.89491     299.6751    293.59057   -89697.859    89698.835    6.0845334    35.660389 
153032000    279.58796    664.63441    320.16328    -89704.76     89705.18    344.47113    35.664114 
153036000    287.06194    281.46763    297.71306   -89720.683    89730.195   -16.245437    35.664624 
153040000    276.51183    454.44572    272.00029   -89738.533    89752.027    182.44542    35.665543 
153044000    271.83122    402.72872    338.08418   -89747.725    89765.569    64.644534    35.669731 
153048000    272.00819    342.60348    209.21306   -89777.337    89765.165    133.39042    35.672011 
153052000    282.23074     270.9888    183.87005   -89806.826    89816.335    87.118757    35.672168 
153056000    279.15452    258.44181    408.16298   -89815.289    89807.954   -149.72117    35.673527 
153060000    268.52808    470.53891    228.83141   -89810.994    89832.462     241.7075     35.67463 
153064000    254.47248    488.22014    358.18246   -89820.975    89850.312    130.03768    35.683123 
153068000    265.88677    374.18752    277.15866   -89847.294    89863.226    97.028851    35.689844 
153072000    286.15727    415.77026    190.67039   -89837.456    89855.417    225.09987    35.682382 
153076000    291.52144    439.36466    388.17831   -89850.517    89854.381    51.186354    35.674775 
153080000    307.21049    340.49684    257.96294   -89873.819    89866.648    82.533897    35.679234 
153084000     259.4206    386.69417    354.75218   -89892.051    89897.961    31.941989    35.677916 
153088000     277.0911    264.66715    404.43073   -89876.591      89891.7   -139.76358    35.672449 
153092000    299.25398    326.72403    430.58114   -89918.806    89913.241   -103.85712    35.674008 
153096000    280.32703    283.85174    402.26291    -89924.35    89930.152   -118.41117    35.677804 
153100000    265.92013    304.20417    416.40443   -89943.036    89953.422   -112.20027    35.678569 
153104000    266.36265    341.46128    253.36107   -89926.066    89924.496    88.100213    35.684076 
153108000    266.06194    344.75489    383.98195   -89939.027    89939.892   -39.227063    35.689858 
153112000    247.87248    376.67689    282.98511    -89962.99    89973.416     93.69178    35.682124 
153116000    279.95808    345.14462    451.38481   -89971.384    89979.657   -106.24019    35.686989 
153120000    282.32349    655.62874    185.01292     -90006.7    90001.714    470.61582    35.685712 
153124000    285.43471    220.26477    404.22561   -90011.547    89996.667   -183.96084    35.684739 
153128000    304.38577    466.98682    679.11347   -90020.362    90011.639   -212.12665    35.681212 
153132000    314.95361    445.95986    225.90604   -90022.545    89989.908    220.05383    35.689868 
153136000    310.99225    477.35876    315.26159   -90024.902    90016.495    162.09717    35.691805 
153140000    292.20472     245.5229    245.37146   -90030.418    90031.795   0.15143596    35.694693 
153144000    264.17798    201.84353    321.77464   -90032.905    90016.419   -119.93111    35.693564 
153148000    276.59932    382.95685    238.36036   -90068.483    90065.252    144.59649    35.703419 
153152000    313.00364    495.95573    503.25949   -90086.596    90072.629   -7.3037629     35.70325 
153156000    262.30473    411.41908    233.48548   -90091.466    90109.572    177.93361    35.705449 
153160000     317.9271     507.4416    225.32778   -90119.556    90109.819    282.11382    35.698785 
153164000    288.57831    272.06241    180.03589   -90134.071    90144.894    92.026521    35.701341 
153168000    249.61146    397.42968    200.42477   -90124.896    90154.889    197.00491    35.706367 
153172000    280.96147    287.47741    235.04424   -90181.868    90172.261    52.433165    35.701212 
153176000    279.86273    277.73695    462.36073   -90213.966    90232.524   -184.62377    35.703244 
153180000    302.56008    265.11745    356.77704   -90250.545    90263.422   -91.659595    35.692659 
153184000    252.44221    327.56057    409.12381   -90263.391    90280.471   -81.563243    35.681292 
153188000    264.33381    295.22464    269.68801   -90283.993    90305.018    25.536633    35.678741 
153192000    286.85396    375.64628    380.54021   -90296.218    90304.847   -4.8939275    35.682763 
153196000    266.58883    429.93125    500.42675   -90313.566    90327.642   -70.495503    35.682754 
153200000    255.02462    346.55105    322.07629   -90323.908     90344.33    24.474759    35.682479 
153204000    271.27692    379.48946    264.26003   -90370.246    90376.535    115.22943    35.671241 
153208000    290.07574    363.06155     348.0071   -90394.473    90389.467    15.054452    35.665182 
153212000    268.34872    218.82235    323.46431   -90410.661    90439.857   -104.64197    35.662158 
153216000    273.37355    288.55491    404.36679   -90432.825    90439.069   -115.81188    35.649848 
153220000    289.35052    395.07376     263.5091   -90479.022    90461.179    131.56466    35.647155 
153224000    277.38856    402.92655    268.17718   -90495.789    90512.034    134.74937    35.649222 
153228000    285.35539    364.36653    279.44191   -90525.342     90522.67    84.924619    35.651214 
153232000     264.4072     448.5551    340.16442   -90533.475    90532.129    108.39068    35.653146 
153236000    284.74588    253.02623    382.60016   -90572.051    90571.372   -129.57393    35.661344 
153240000    298.41913    507.81661    304.77452   -90600.504    90586.957    203.04209     35.66303 
153244000    332.63694    532.24881    291.54821   -90619.166    90596.047    240.70061    35.667306 
153248000    301.50481    364.90232    250.21685   -90631.074    90613.549    114.68548    35.660053 
153252000    286.77636    347.07926    329.62831    -90673.75    90664.461    17.450943    35.656681 
153256000    269.96279    528.46634    358.64004   -90680.403     90703.04    169.82629    35.665445 
153260000    273.76299    372.10034    329.87788   -90708.777    90720.522    42.222466    35.660476 
153264000    271.83415    383.27508    303.58735   -90736.232    90741.354    79.687732    35.672261 
153268000    294.25829    384.73409    281.35668   -90753.867    90739.697    103.37741    35.663728 
153272000    302.92437    295.36865    336.55963   -90763.782    90758.131   -41.190976    35.657726 
153276000    285.83257    240.01656    373.35845   -90798.364     90777.03   -133.34189    35.653442 
153280000     293.9365     390.5217    299.07128   -90797.213    90797.802    91.450419    35.656767 
153284000    288.83604    344.46887    244.58507   -90831.231    90827.362    99.883802    35.655557 
153288000    290.95946    244.01736    444.66788   -90835.949    90832.392   -200.65052    35.660176 
153292000    299.57633    296.19542    338.27019   -90863.348    90853.809   -42.074769    35.655743 
153296000    287.49898    480.79519    355.81128   -90869.236    90874.789    124.98391    35.647686 
153300000     288.7273    245.03417    332.00663   -90892.253    90893.234   -86.972465    35.643859 
153304000    300.13826    550.93953      368.314   -90943.394    90927.953    182.62553    35.642709 
153308000    310.89804     450.8394    360.90593   -90967.358    90971.005    89.933466    35.645219 
153312000     282.4349    465.26814    269.12037   -90976.107    90976.297    196.14778    35.646811 
153316000    284.89896      408.846    220.71822   -91003.984    91003.268    188.12777    35.650454 
153320000    291.44597    342.19554    301.37734   -91013.925    91021.486    40.818196    35.645659 
153324000    273.26128    277.44883    307.59057   -91027.186    91033.877   -30.141739    35.643135 
153328000    273.90719     232.2992    281.06566   -91039.047    91060.474   -48.766457    35.638889 
153332000    283.75115    229.63362    358.06985   -91047.137    91061.234   -128.43624    35.638433 
153336000    291.44414    326.15553    370.97294   -91075.316    91094.811   -44.817405    35.645496 
153340000    274.03793    302.85324    330.21722    -91094.09    91112.658   -27.363984    35.648279 
153344000    244.18329    204.04889    217.98811   -91099.622    91129.657    -13.93922    35.651694 
153348000    299.52327    441.08536    540.31924   -91138.718    91130.692    -99.23388    35.653729 
153352000    288.70007    432.06201    619.74353   -91179.299    91178.566   -187.68152    35.655063 
153356000    309.78771    411.00475    431.11137   -91209.338    91187.182   -20.106619    35.652062 
153360000    288.15107    454.72056    412.97146   -91241.534     91239.11    41.749099    35.641719 
153364000    285.78029    247.40193    376.01458   -91261.649    91256.548   -128.61265     35.63842 
153368000    285.42179    389.51085    290.10369   -91283.612    91284.561    99.407156     35.64562 
153372000    281.64524    319.04602      365.097   -91313.762    91295.543   -46.050977    35.652981 
153376000    309.61895    308.49736    420.66089   -91349.456    91339.841   -112.16353    35.651646 
153380000    284.11938    590.82735    516.99365   -91365.053    91351.771    73.833701    35.657019 
153384000    296.14302    334.89881    362.17849   -91387.817    91379.162   -27.279676    35.663105 
153388000    255.12281    318.34059    352.27593   -91391.344    91395.262   -33.935345    35.666999 
153392000    271.99439    273.61144    257.73236   -91440.374    91432.205    15.879081    35.671741 
153396000    274.26034    340.13778     346.5408   -91455.392    91467.301   -6.4030178    35.670293 
153400000    286.01438    410.42399    334.02487   -91473.218    91483.307    76.399121    35.659271 
153404000    289.42077    364.76486    451.78794    -91534.47    91534.368    -87.02308    35.659896 
153408000    309.58376    592.62971    398.67086   -91551.787    91558.693    193.95885    35.657713 
153412000     275.8325    114.74451    247.43953   -91562.073    91566.723   -132.69502    35.660208 
153416000     257.5838    330.32034    355.98458   -91575.414    91589.075   -25.664234    35.654746 
153420000    255.74021    542.35742    279.77112   -91618.615     91637.54     262.5863    35.651387 
153424000    246.94888    279.67641    244.49283   -91630.219    91651.644    35.183582    35.650399 
153428000    258.71527    149.38035    224.16951   -91661.449    91661.689   -74.789162    35.647466 
153432000    275.10373    248.28188    297.80035     -91667.9    91677.607   -49.518473    35.644497 
153436000     280.2276    463.36917    263.75198    -91705.27    91710.142    199.61718    35.645822 
153440000    317.79994    352.52045    361.77258   -91738.037    91709.801   -9.2521338    35.650652 
153444000     276.1412    484.43317    190.07664   -91746.905    91744.084    294.35653    35.649642 
153448000    287.62101     479.4708    319.46397   -91755.347    91757.341    160.00682    35.647986 
153452000    315.26345    336.84225    275.90986   -91773.529    91758.997     60.93239    35.647503 
153456000    289.93053    329.58975    219.41721   -91789.662    91776.277    110.17253    35.647852 
153460000     245.4728    292.80099    285.13854   -91775.631    91800.474    7.6624567    35.648979 
153464000    264.35522    534.28419    292.70154   -91804.269    91814.871    241.58265     35.64782 
153468000     275.3321    420.53222    572.09539   -91836.545    91844.876   -151.56318    35.644193 
153472000    270.91367    292.36014    199.16835   -91860.745    91884.008    93.191792     35.63955 
153476000     275.2179    302.93162    445.81339   -91895.421    91902.855   -142.88178    35.632848 
153480000     263.2835     331.1102    379.45109   -91911.123    91915.606   -48.340895    35.625464 
153484000    324.31769    671.50655    459.67346   -91960.826    91947.058    211.83308    35.618945 
153488000    254.69943    261.83771    326.35862   -91977.105    91988.976   -64.520909     35.61313 
153492000    269.18214    301.20646    292.21057   -91985.838    91996.315    8.9958873    35.620914 
153496000    260.58424      322.539    309.62029   -91993.933    92024.347    12.918712    35.619912 
153500000    290.03151    427.57005    233.46048    -92025.41    92033.516    194.10957    35.630217 
153504000    281.21578    226.02281     219.7871   -92073.982    92071.843    6.2357132    35.630627 
153508000    264.74776    327.90533    311.51755   -92097.593    92096.308    16.387779    35.622698 
153512000     293.0638    432.92586    234.65555   -92129.707    92124.896    198.27032    35.613969 
153516000    275.82472    296.74673    271.60965   -92177.948    92167.042    25.137074      35.6084 
153520000    277.98674    220.90489    323.69486   -92193.648     92195.43   -102.78997    35.617099 
153524000     283.0161     429.0782    373.35227   -92207.379    92211.825    55.725925    35.614527 
153528000    287.76908    247.57435    365.61295   -92242.609    92213.786    -118.0386    35.626975 
153532000    258.80449    282.01914    363.72116   -92243.543    92259.124   -81.702018    35.625086 
153536000    275.73793     289.4597     293.3681   -92284.255    92291.788    -3.908399    35.632773 
153540000    271.63615    485.83818    209.61676   -92320.663     92324.95    276.22143    35.630638 
153544000    285.50337    234.00716    343.78617   -92354.916    92353.983   -109.77901    35.620763 
153548000     269.5854    372.83853    404.69809   -92364.923    92376.299   -31.859565    35.614461 
153552000    306.62983    332.64572    496.69621   -92410.971    92405.575   -164.05048    35.615961 
153556000    254.91274    220.78333    655.20459   -92405.826    92440.114   -434.42125    35.607987 
153560000    272.25216    214.06418    156.27636   -92441.294    92453.745    57.787823    35.616128 
153564000    266.22132    319.15252    474.93926   -92445.274    92452.447   -155.78674    35.617775 
153568000    281.67192    422.24587    319.38367    -92461.16    92460.614     102.8622    35.619811 
153572000    290.46743    373.76588    355.85535   -92496.987    92478.212    17.910532    35.619826 
153576000    280.46339    406.86719    294.31557   -92503.563    92511.984    112.55162    35.623651 
153580000     297.8707    199.85261    323.67653   -92527.956    92517.756   -123.82392    35.622397 
153584000    294.53621    345.00885    387.18804   -92546.987    92530.445   -42.179188    35.622195 
153588000    262.17149    321.48987    427.64248   -92557.654    92574.961   -106.15261    35.624332 
153592000    280.86726    339.90045    293.52813   -92596.901    92587.711    46.372326    35.621685 
153596000    296.09125    358.56895    386.11113   -92621.051    92616.535   -27.542187    35.625955 
153600000    295.49659    523.60914    256.45871   -92625.886    92629.245    267.15043      35.6258 
153604000    296.83364    280.71792    368.93143   -92635.486    92618.672    -88.21351    35.627718 
153608000    285.52392    449.42838    341.33361   -92649.161    92638.146    108.09477     35.63315 
153612000    270.19877    400.24441    278.53285   -92652.739    92677.586    121.71156    35.626438 
153616000    258.08023    267.47934    288.93822   -92676.677    92677.901   -21.458883    35.632471 
153620000    288.44585    290.75355    525.33712   -92689.876    92682.968   -234.58357    35.640908 
153624000    281.02022    376.49631    183.45367   -92691.786    92686.927    193.04264    35.649558 
153628000     284.4737    214.57264    277.62089   -92718.275    92710.042    -63.04825    35.662351 
153632000    275.66157    592.77867    151.91714   -92730.862    92718.728    440.86153    35.674263 
153636000    281.39212    288.77177     427.2245     -92749.7     92739.61   -138.45272     35.67184 
153640000    307.92155    272.64243    370.38367   -92777.931    92766.018   -97.741238    35.666098 
153644000    269.12274    339.63732    263.26178   -92785.072     92805.57     76.37554    35.666465 
153648000    277.10952    282.00173    319.13399   -92789.784    92799.817   -37.132264    35.657533 
153652000     292.4475    314.41717    312.83893    -92812.86    92817.596    1.5782328    35.667601 
153656000    297.86243    357.84832    346.16337   -92848.652    92841.437    11.684953    35.668283 
153660000    300.96736    418.38893    553.15128   -92855.904     92834.38   -134.76234    35.665575 
153664000    289.36139    302.37822    303.09128    -92863.14    92869.987  -0.71306191    35.666839 
153668000    316.13251    433.82996    237.74779   -92919.423    92891.163    196.08217     35.67357 
153672000    298.71638    394.09966    345.71199    -92926.55    92918.455    48.387665    35.672162 
153676000    287.59119    411.02264    305.60442   -92970.902    92955.279    105.41822    35.671034 
153680000    287.68054    275.00582    440.88744   -92990.415    92981.274   -165.88161    35.661532 
153684000    267.39149    423.79013    284.87023   -93006.193    93016.994    138.91991    35.656958 
153688000    284.56517    329.13786    259.06897   -93032.776    93043.274    70.068885    35.659286 
153692000    315.13314     400.8339    229.98586   -93088.034    93068.631    170.84804    35.664416 
153696000    291.56675    364.65243    572.64933   -93099.922    93082.858    -207.9969    35.658828 
153700000    258.98122    185.45272    261.53525    -93089.48    93100.883   -76.082527    35.660935 
153704000    319.74595     495.5908    222.88871   -93113.193     93110.02     272.7021    35.661847 
153708000    286.96622     380.6869     363.4186   -93113.257     93126.77    17.268304     35.66119 
153712000    304.80755    328.91062    347.35859   -93153.459    93133.771   -18.447967    35.665904 
153716000    289.69152      347.287    232.00663   -93144.791    93137.658    115.28037    35.670821 
153720000    276.77749    326.97686    165.14026   -93168.221    93163.143     161.8366    35.670514 
153724000    309.47446    225.94469    566.22789   -93162.485    93166.308    -340.2832    35.676177 
153728000    290.26367    257.84948    291.31194    -93184.73    93185.225   -33.462461    35.676388 
153732000    294.36628    356.89308    167.78524   -93207.757     93202.24    189.10784    35.677735 
153736000    259.00523    414.14332    440.27009   -93204.135    93218.806   -26.126773    35.667369 
153740000    279.79728     277.1699    454.36088   -93221.717    93236.981   -177.19097    35.659319 
153744000    248.42929    421.01542    343.90205   -93263.632    93266.164    77.113375    35.659306 
153748000    270.73374    291.49347    251.77464   -93294.334    93305.816    39.718835    35.660545 
153752000    267.82217    446.97066    183.73353   -93333.729    93349.131    263.23713    35.662736 
153756000    266.77607    487.99815    289.01121   -93388.014     93398.43    198.98694    35.661722 
153760000    268.51105    500.46765    281.69064   -93401.425    93412.388    218.77702    35.655325 
153764000    287.79741    434.22952    347.73615   -93426.209    93425.215    86.493367     35.65072 
153768000    299.93943    387.73329     492.7493   -93460.563    93450.393   -105.01601    35.649955 
153772000    305.33392    330.50006    167.14737   -93488.339    93482.486    163.35268    35.650267 
153776000    288.02071    394.94831    304.78908   -93486.481    93465.755    90.159232    35.654871 
153780000    302.11704    415.19248    266.35459   -93508.049    93483.374    148.83789    35.655721 
153784000    308.03482     472.4631    534.56832   -93514.442    93514.103   -62.105223     35.65849 
153788000    298.94965    154.87894    394.62181   -93551.983    93543.284   -239.74286    35.652715 
153792000    298.90181    260.80738    355.76668   -93575.052    93575.414   -94.959305    35.649606 
153796000    273.70646    352.65395    290.49033   -93601.472    93600.691     62.16362    35.642233 
153800000    304.87337    368.99136    334.91088   -93634.267    93616.831    34.080485    35.657028 
153804000    271.44161    357.87339    231.90985   -93642.792    93641.886    125.96354    35.654008 
153808000    277.16405    349.38576    479.38854   -93663.774    93668.855   -130.00277    35.654493 
153812000    275.68405    365.17351    499.71864   -93703.254    93699.992   -134.54513    35.648549 
153816000    275.26678    243.97099    424.93072   -93698.217    93714.197   -180.95973    35.651044 
153820000    280.96233    393.19156    186.77892   -93756.123    93765.533    206.41264    35.647488 
153824000     272.2052    230.55106    281.58703    -93769.85        93777   -51.035967    35.645305 
153828000    283.25862    356.42052    332.59274   -93783.623    93776.239    23.827788    35.644971 
153832000    278.48478    238.92095    524.89309   -93785.643    93805.283   -285.97215     35.65094 
153836000    285.77971    358.13406    345.59632   -93807.278    93813.695    12.537742    35.647837 
153840000    286.95408    444.79282    432.15232   -93816.179    93823.149      12.6405    35.651548 
153844000    282.90944    494.70365    438.44522   -93845.786    93845.846     56.25843    35.653102 
153848000    302.74207    439.22924    507.03232    -93868.75    93831.916   -67.803081    35.659056 
153852000    295.45605    413.90238    426.10085   -93879.006    93880.907   -12.198469    35.658576 
153856000    297.84403    412.48397    467.99472   -93872.516    93865.862   -55.510751     35.65677 
153860000    286.06318    303.83448    364.63364    -93884.14    93876.857   -60.799164    35.658137 
153864000    312.78063    326.10805    296.42417   -93926.723    93897.497    29.683875    35.662166 
153868000    270.82675    286.43517    235.69161   -93904.809    93920.519    50.743558    35.657858 
153872000    305.02959    270.14224    268.23603    -93932.11    93923.785    1.9062135    35.654211 
153876000    277.86433    611.93288     196.3289   -93948.488    93931.063    415.60398      35.6547 
153880000    287.95598    359.72445    527.23198    -93949.94    93958.528   -167.50753    35.646533 
153884000    290.26596    388.48263    309.81569   -93982.087    93969.856    78.666938    35.645304 
153888000    313.16725    267.63656    354.30313   -93988.103    93977.768   -86.666579    35.643994 
153892000    297.84258    370.79185    497.85569   -94017.435    94002.486   -127.06384    35.643217 
153896000    307.78059    334.38045    526.76062   -94023.886    94021.528   -192.38017    35.640828 
153900000    308.20391    482.18024    442.24975   -94039.398    94029.574    39.930497    35.640004 
153904000    265.27391    312.45009    180.25134   -94060.276    94056.223    132.19875    35.641064 
153908000    276.68221    478.11915     187.9864   -94098.658    94101.114    290.13275    35.643391 
153912000    309.13935    318.77539     377.9013   -94113.093    94108.986    -59.12591    35.636753 
153916000     274.1864    210.60351    183.97402     -94128.7    94138.266    26.629491    35.641712 
153920000    285.07801    400.67112    347.68092   -94166.134     94171.36      52.9902    35.647853 
153924000     302.1962     386.0051    391.98897   -94201.148    94193.927   -5.9838719    35.642418 
153928000    287.93807    328.70471    176.70526   -94221.066    94217.431    151.99945    35.633266 
153932000    299.80121    259.57134    521.44334   -94254.177    94239.994   -261.87201    35.630428 
153936000    288.43531    257.39407    438.72698   -94273.078    94268.297   -181.33291    35.632801 
153940000    287.73932    320.19515    337.15519   -94318.186    94295.886   -16.960043     35.64404 
153944000    295.95015    596.76099    267.08197   -94315.059    94321.969    329.67901    35.650653 
153948000    274.57245    237.74386    197.14015   -94330.194    94319.224    40.603713    35.661458 
153952000    318.28485    424.82321    220.11082    -94347.69    94328.447    204.71239    35.658428 
153956000    273.17172    400.65979    353.91766   -94325.585    94337.809    46.742122    35.659896 
153960000    299.86696    350.03792    522.56651     -94346.4    94341.854   -172.52859    35.658067 
153964000    274.02754      237.124    327.35314   -94347.111    94363.368   -90.229144    35.655668 
153968000    280.15353    421.41771    231.63103   -94398.182    94408.708    189.78668    35.660821 
153972000    285.76327    332.65019    448.49035   -94410.716      94414.6   -115.84016    35.654911 
153976000    279.69817    374.31388    230.35085   -94449.162    94451.737    143.96303    35.656092 
153980000    300.30602    241.09335     369.3972   -94469.314    94453.285   -128.30386    35.659348 
153984000    289.98877    266.16436    237.86784   -94482.819     94458.35    28.296518    35.661063 
153988000    271.36026    403.93576    468.27625   -94489.294    94503.796   -64.340492    35.657127 
153992000    267.27202    276.12497    451.34549   -94514.055    94540.923   -175.22053      35.6558 
153996000    272.53641    424.34148    464.76428    -94535.45    94533.425   -40.422797    35.659431 
154000000    266.11329    392.63959    353.79541   -94544.101     94560.83    38.844175    35.657486 
154004000    294.26398    424.10433    271.31736   -94571.419    94567.793    152.78697    35.660902 
154008000    298.00086    292.78402     240.3066   -94599.787    94592.343    52.477415    35.663912 
154012000    270.62691    578.86539    276.39073   -94595.606    94618.956    302.47466    35.671515 
154016000     273.7652    288.81042    225.65995   -94622.781    94626.105     63.15047    35.684134 
154020000    303.58091    402.95798    214.14204   -94651.778    94613.758    188.81594    35.687974 
154024000    299.12635    360.70165    467.96694   -94636.913     94643.18   -107.26529    35.678203 
154028000    301.95265    400.03779    401.35723    -94660.01    94666.821   -1.3194395    35.678999 
154032000    284.74069    515.59065    492.14178   -94674.727    94674.287    23.448867    35.680116 
154036000    318.00351     288.6083     573.3218    -94690.48    94684.479    -284.7135    35.678735 
154040000    281.18886    264.44682    319.66196   -94707.963    94700.593    -55.21514    35.675548 
154044000    295.20436    248.77884    292.30552   -94727.269    94727.518   -43.526681    35.679918 
154048000    290.84892    319.82705    385.22196   -94747.858    94735.158   -65.394911    35.679939 
154052000    284.16242     280.2668    273.64801   -94742.379    94750.634    6.6187932     35.67487 
154056000    308.46933     363.7973     336.0096   -94776.593    94747.374    27.787701     35.67045 
154060000    285.55245    281.37719    211.14582   -94776.859    94782.873    70.231371    35.674986 
154064000    278.05036    429.88703    378.88148   -94815.305    94810.123    51.005552    35.669874 
154068000    252.40543    311.74213    255.61038   -94824.187    94847.923    56.131742    35.673309 
154072000    246.81179    270.60628    365.39588   -94859.247        94872   -94.789601    35.673049 
154076000     311.1479    406.20924    351.73905   -94894.659    94880.346    54.470192    35.672868 
154080000    299.25687    356.92787    436.66333   -94901.027    94884.029   -79.735462    35.669586 
154084000    268.37585    335.97515    309.91448   -94931.783    94932.678    26.060672    35.671986 
154088000    269.52729    379.95814    288.51013    -94953.38    94962.082    91.448015    35.675043 
154092000    275.07114     380.3748    294.82193   -94973.831    94965.172    85.552876      35.6705 
154096000    243.65051    180.54368     312.7587   -94990.351    95010.832   -132.21502    35.678035 
154100000    298.73736    325.69593    640.22651   -95020.066    95017.501   -314.53058    35.683547 
154104000    276.44501    257.46482    191.80194   -95046.707    95062.594    65.662877    35.677581 
154108000    278.68639    526.52948    234.26936   -95083.648    95090.036    292.26012    35.681414 
154112000    301.82475    537.67166    262.64314   -95121.218    95132.004    275.02852      35.6792 
154116000    291.43595     257.7361    223.44849       -95155    95131.328    34.287606    35.681894 
154120000    273.16661    273.96039    341.62213   -95158.101     95166.81   -67.661745    35.684251 
154124000    297.41989     317.6795    271.70405    -95194.29    95185.715    45.975449    35.673152 
154128000    279.78436    257.06539    317.61701   -95188.574    95199.772   -60.551625    35.678235 
154132000    249.18977    384.18528    308.07062   -95204.978    95223.484    76.114656    35.671381 
154136000    281.18358    265.87792    348.10379   -95195.719    95212.312   -82.225869    35.667584 
154140000    265.75247    357.50855    280.48381   -95219.601    95230.769     77.02474    35.675757 
154144000    307.74579    346.79346    450.03619   -95235.581    95232.849   -103.24273    35.674371 
154148000      283.288    336.17148    341.56956   -95232.183    95247.464   -5.3980773    35.685231 
154152000    269.97236    331.50155    249.78626   -95271.785    95271.328    81.715286    35.689508 
154156000    271.90657    301.31353    272.90585   -95266.794    95278.246    28.407678      35.6906 
154160000    243.83566    209.70191    232.81904   -95276.501    95311.425   -23.117129    35.689538 
154164000    291.03289     290.6863    310.77421   -95323.211    95316.608   -20.087917    35.683059 
154168000    254.14827    415.01894    168.40707   -95333.573     95362.03    246.61187    35.684589 
154172000    282.44826    618.92772     309.2345   -95375.488    95380.636    309.69322     35.68507 
154176000    304.57387    328.71586    223.63605   -95409.918     95387.61    105.07982    35.690791 
154180000    278.46816    200.63229    338.08321   -95424.087    95413.265   -137.45091    35.688978 
154184000     278.0425     436.7378    354.45058   -95442.469    95432.992    82.287226    35.678539 
154188000    283.47002    390.29498     311.3507    -95464.02    95472.388    78.944278    35.686275 
154192000    261.92117    229.21084    302.20065   -95498.348    95513.345   -72.989807    35.678316 
154196000    282.36613    359.83096    297.77014   -95542.147    95546.467    62.060818    35.674676 
154200000    303.08877    231.93083    355.77027   -95601.027    95579.038   -123.83943    35.669301 
154204000    271.59223    330.55562    255.75353   -95606.324    95596.498    74.802085    35.673804 
154208000    267.93472    418.61309    210.38824   -95623.991    95640.984    208.22484    35.676497 
154212000    284.91867    233.86652    191.10492   -95660.939    95652.965    42.761604    35.679176 
154216000    277.39422    245.73811    321.90891   -95667.578    95692.608   -76.170795    35.686477 
154220000    256.41677    426.00773    385.86148   -95708.604    95715.681    40.146252    35.676622 
154224000    262.97816    432.44653      215.729   -95713.526    95735.257    216.71753     35.68361 
154228000    309.11462    501.46442    379.36057   -95781.581     95756.09    122.10384    35.689238 
154232000    268.30895     448.9196    199.22941   -95769.354    95779.179    249.69019    35.693056 
154236000     263.0315      419.862    228.76545   -95792.839     95823.24    191.09655    35.699993 
154240000     291.6288    477.62173    288.08726   -95818.206    95829.396    189.53447    35.696133 
154244000     276.0206    347.73943    339.09616   -95842.502    95853.543    8.6432705    35.696254 
154248000    275.91237     246.8533    172.31794   -95852.592    95863.934    74.535361    35.697148 
154252000    279.15852    407.05635    397.31176   -95874.042    95896.435     9.744585    35.702041 
154256000    262.93704    326.71238    193.94906   -95919.858    95935.473    132.76332    35.709187 
154260000    310.90418    345.39002     444.9748   -95953.241    95942.382   -99.584783    35.715231 
154264000    266.60081    506.56875    272.81291   -95984.908    95984.052    233.75585    35.715073 
154268000    278.81898    434.58519    187.52059   -95987.775    95984.005     247.0646    35.720197 
154272000    276.64989    386.92193    360.61535   -95985.099    96002.648    26.306578    35.717553 
154276000    293.21618    196.41739    451.60967   -96021.066    96018.921   -255.19229    35.718109 
154280000    298.78578    388.93377    315.47596   -96059.325    96063.995    73.457807     35.71571 
154284000    294.47677    574.78817    238.08954   -96091.905    96092.938    336.69863    35.719285 
154288000     300.5308    223.82123    439.89798   -96090.372    96089.255   -216.07675    35.721166 
154292000    298.27965    420.59486    238.08375   -96111.525    96113.942    182.51111    35.720132 
154296000    283.02658    349.05189     226.9837   -96134.222    96118.647    122.06819     35.73253 
154300000    275.09977    393.09035    403.92177   -96127.433    96132.082   -10.831422    35.738207 
154304000    298.11934    259.72108      351.436   -96157.647    96149.409   -91.714915    35.735266 
154308000    294.56989    342.26619     290.4047   -96173.105     96180.67    51.861493    35.736818 
154312000    306.39702    375.01044    272.13854   -96189.892    96173.358     102.8719    35.742096 
154316000    297.24287    240.73377     363.1151   -96203.014    96190.476   -122.38133    35.741947 
154320000    309.02045    364.97611    292.52576   -96243.435    96240.947    72.450346    35.729997 
154324000    262.42972     503.7153    196.36324   -96240.456    96255.976    307.35206    35.734358 
154328000    256.01991    394.59146    387.54072   -96258.719    96277.683    7.0507398    35.729985 
154332000    312.83998    310.81428    253.03543   -96269.051    96261.004    57.778851    35.727331 
154336000    280.47025    411.70343    362.81816   -96300.072    96305.082    48.885264    35.728655 
154340000    294.91266    406.34408    463.01484   -96336.126    96347.123   -56.670761     35.72679 
154344000    308.27752    413.52903    503.74879   -96355.517    96335.241   -90.219754    35.720099 
154348000    285.94224     521.2304    447.58092   -96360.479    96339.023    73.649474    35.728127 
154352000    308.73412    408.03608     198.6763   -96389.901    96384.773    209.35978    35.727615 
154356000    284.90495     338.3858    280.71142   -96417.669    96430.444    57.674377    35.722351 
154360000    296.78132    401.56972    358.81275   -96463.043    96446.577    42.756969    35.723215 
154364000     281.6659    350.39299     437.7679   -96460.556    96464.877   -87.374901    35.719468 
154368000    274.34528    235.69108    238.93374    -96475.51    96475.636   -3.2426513    35.728952 
154372000    278.25455    577.47901    273.59506   -96500.639    96508.572    303.88395    35.737562 
154376000     292.8421    401.77327    412.08054   -96511.301    96513.076   -10.307272    35.738749 
154380000    273.19113    298.00888    258.59949   -96492.467    96514.414    39.409388     35.74553 
154384000    284.32788    279.45459      243.494   -96529.874    96530.796    35.960586    35.741306 
154388000    297.99672    308.83217    178.25568   -96531.346    96532.036    130.57649    35.746923 
154392000    266.09097    492.26028    350.82857   -96528.027    96554.013    141.43171    35.743972 
154396000    289.69216    492.05969     443.6503    -96548.61    96545.118     48.40939    35.748208 
154400000    255.49541    315.73954    390.63415   -96551.368    96563.042   -74.894604    35.750291 
154404000    298.54195    442.41575    259.20123    -96569.42    96557.691    183.21452    35.751656 
154408000    265.78124    275.44793    401.52827   -96567.224    96599.196   -126.08034    35.748698 
154412000     298.7433     350.1752    383.87252   -96610.879    96603.736   -33.697318    35.750622 
154416000    288.98169    605.02462    358.12199   -96633.993    96647.131    246.90263      35.7463 
154420000     258.9184    280.79102     268.1099   -96668.829    96682.339    12.681126    35.745586 
154424000    295.72793    294.89604    397.51367    -96706.08    96692.816   -102.61763    35.746289 
154428000    277.12948    440.79003    210.02466   -96729.599     96732.38    230.76537    35.733088 
154432000    304.42932    428.09074    282.40446   -96753.144    96739.469    145.68628    35.723028 
154436000    295.13123     299.5778    315.06959   -96802.756     96780.38   -15.491789    35.721992 
154440000    297.18729    411.14001    383.96608   -96820.218     96790.86    27.173926    35.728504 
154444000    299.44969    286.81327    418.25733    -96871.77    96853.468   -131.44406    35.725789 
154448000    281.18602    283.61049    222.16225   -96889.191    96891.201    61.448233    35.717727 
154452000    306.94982       398.36     349.5144   -96945.821    96921.079    48.845593    35.721359 
154456000    264.09594    394.72436    378.24775   -96941.187    96957.496    16.476607    35.720857 
154460000    277.23207    367.17158    392.58667   -96980.074    96984.156   -25.415086    35.715526 
154464000    258.61881    384.51033     313.9558   -97014.819    97023.359    70.554527    35.717218 
154468000    302.53783    303.56006     348.0142   -97029.269    97018.662   -44.454145    35.713287 
154472000    277.10628    305.86106    299.55143   -97044.141     97051.32     6.309629    35.706546 
154476000    285.69429    512.57041    372.16383   -97092.138    97093.318    140.40658    35.709516 
154480000     271.2616    361.91711    344.55508   -97102.976        97114    17.362032     35.70839 
154484000    278.91614    253.10172    404.62377   -97135.947    97143.517   -151.52206    35.706123 
154488000    271.56367     440.8388    189.78077   -97167.393    97166.135    251.05803    35.712368 
154492000    228.92767    257.31179    272.91629   -97167.378    97195.778   -15.604503    35.712623 
154496000    275.88457    182.79097    300.37728   -97225.647    97218.845   -117.58631    35.711907 
154500000    279.77682    299.83658     352.7804   -97241.684    97233.602   -52.943819    35.714774 
154504000    269.81029      263.784     325.2746   -97241.543    97255.816   -61.490606    35.716898 
154508000    312.24563    280.07782     298.1492   -97291.245    97270.609    -18.07138    35.726069 
154512000    268.54594    272.87194     352.8946   -97290.712    97312.396   -80.022661    35.716613 
154516000    293.81325    411.34354    173.17478   -97324.629    97316.615    238.16876    35.718042 
154520000    276.65746    295.68629    187.39358   -97328.093    97339.664    108.29272    35.729736 
154524000    282.09803    323.83191    394.54743   -97353.941    97361.202   -70.715515    35.731086 
154528000     272.9706     371.1765    430.83523   -97375.007    97360.317   -59.658727    35.722538 
154532000    280.96081    421.05739    371.50647    -97407.42    97407.921    49.550916    35.717044 
154536000    290.57154    242.71265    447.17082   -97439.574     97444.21   -204.45817    35.719524 
154540000    297.20036    327.58383    336.97281   -97468.363    97473.262   -9.3889768    35.718812 
154544000    277.49755    280.82761    328.22686   -97489.539    97512.385   -47.399251      35.7161 
154548000    296.85387    211.44976    259.57014   -97497.356     97485.14   -48.120377    35.723459 
154552000     261.0968    421.79441    250.57685   -97488.974    97502.059    171.21756    35.722098 
154556000    279.59566    247.83066    460.65541   -97489.212    97506.128   -212.82475    35.720278 
154560000    264.90261    249.88538    225.83433   -97533.868    97550.837    24.051053    35.716607 
154564000    286.53781    595.55442    227.97842   -97554.534    97567.915      367.576    35.714912 
154568000    281.06962    418.79935    498.05231   -97586.587    97598.923   -79.252968     35.70984 
154572000    293.43675    398.76046    269.17991   -97616.548    97602.526    129.58055    35.713178 
154576000    287.80467    313.34858    431.68253   -97615.927    97616.339   -118.33395    35.705951 
154580000    314.30188    400.89586    399.07406   -97634.844    97613.976    1.8217966    35.703843 
154584000    280.58422    328.28126    235.62352   -97631.646    97641.399    92.657738    35.712311 
154588000    291.88404     350.7598    305.92446   -97643.632    97661.617    44.835336     35.71427 
154592000     262.6962    233.14422    309.85557   -97665.232    97691.562    -76.71135    35.717036 
154596000     266.3235    561.81262    297.97038    -97676.76    97686.016    263.84223    35.722611 
154600000    308.79272     544.3581    395.11165   -97688.839    97694.555    149.24645    35.726622 
154604000    256.66447    287.77645    412.31521    -97671.77    97703.964   -124.53876    35.730128 
154608000    279.36783    444.15486    257.24661   -97699.467    97705.953    186.90825    35.724984 
154612000    243.54619    246.73355    553.59948   -97717.716    97752.489   -306.86593    35.720254 
154616000    292.35612    320.00121    310.88441   -97765.917    97753.521    9.1168002    35.719096 
154620000    292.82011    419.91936    368.87155   -97798.039    97779.034     51.04781    35.718547 
154624000     290.6808    344.71832    429.05982   -97800.297    97807.681   -84.341501    35.714532 
154628000    299.60159    334.23214    352.55061   -97815.065    97827.949   -18.318467    35.710646 
154632000    313.09125    475.46358    462.22026   -97867.121    97842.422    13.243322      35.7087 
154636000      275.172    298.36869    525.16786   -97861.551      97865.5   -226.79917    35.703615 
154640000    268.30523     402.3136     490.4164   -97868.506    97886.762   -88.102793    35.701229 
154644000    299.66256    336.15259    469.01336   -97944.386    97932.323   -132.86077    35.693735 
154648000    245.60318    361.59475    324.24921   -97960.642    97977.914    37.345541      35.6923 
154652000    284.86937    482.78573    396.41889   -97997.457    97981.558    86.366837    35.697126 
154656000    299.62656    228.05409    322.35518   -97996.945    97986.885   -94.301093    35.702902 
154660000    338.43878    410.19699    426.32575   -98030.761    97996.647    -16.12876    35.697813 
154664000    289.09699     436.9256    512.16977   -98039.162    98035.095   -75.244172    35.695065 
154668000    329.58703    726.59032    332.79677   -98090.028     98050.62    393.79355    35.703172 
154672000    291.78199    438.81102    276.34659   -98109.701    98119.329    162.46443    35.693623 
154676000    281.73211    330.88412    293.11947   -98127.161    98132.795    37.764652    35.691464 
154680000    303.68289    502.08259    255.83411    -98168.47    98172.021    246.24848    35.692801 
154684000    280.17946    283.53469    217.99009   -98197.807    98186.682    65.544595    35.693612 
154688000    265.49174    357.18894    388.48806   -98199.721    98217.401   -31.299123    35.696845 
154692000      278.903    216.43469    323.43636   -98209.515    98220.787   -107.00167    35.694666 
154696000    273.33062    276.97197    266.79159   -98232.456    98244.894     10.18038    35.697276 
154700000    270.86741    205.38787     404.7399   -98254.193     98265.34   -199.35202    35.691424 
154704000    286.85203    317.29007    287.31083   -98297.411    98299.579    29.979245    35.693021 
154708000    278.17399    574.51334    381.14627   -98305.014    98325.823    193.36707    35.696092 
154712000    301.11739    245.10599    504.19925   -98340.523    98340.445   -259.09325    35.695653 
154716000    283.86679    515.21606    366.23578   -98358.887    98368.903    148.98028    35.699988 
154720000    282.48546    262.82559    234.65787   -98412.974    98413.808    28.167725    35.701935 
154724000    284.41252    378.11946    174.33285   -98446.971     98437.35    203.78661    35.699777 
154728000    292.56139    385.26496    434.47797   -98465.372    98470.923   -49.213002    35.702175 
154732000     321.2882    356.85096    233.90035   -98505.723    98498.252    122.95061    35.695281 
154736000    299.87178    400.36517    381.77925   -98493.099    98486.304    18.585921    35.691847 
154740000    315.00474    365.93212    393.88706   -98516.932    98512.569   -27.954942    35.686834 
154744000     273.4111    288.56767    287.72628   -98518.033    98538.412   0.84139117    35.680038 
154748000    289.31799    410.45379    255.34893     -98557.9    98559.081    155.10486    35.675353 
154752000    245.53157    323.52749    456.86826   -98556.159    98595.577   -133.34077     35.67003 
154756000    293.88579    307.34255    366.59192   -98580.663     98578.85   -59.249371    35.665488 
154760000    268.25414    299.85476     419.5542   -98580.567    98592.523   -119.69944    35.661322 
154764000    304.02433    332.31515    361.63011   -98632.356    98602.464   -29.314966    35.652546 
154768000    283.52675    498.59081    347.02903   -98606.259     98625.58    151.56178    35.646585 
154772000    295.44657    506.65221    421.60431   -98627.894    98622.286    85.047895    35.650164 
154776000    307.87939    419.02072    188.98839   -98653.385    98638.689    230.03234    35.653068 
154780000    287.80149    345.43183    453.51942   -98680.798    98686.991   -108.08758     35.64935 
154784000    293.66848    340.98629    392.30966   -98696.616    98681.606   -51.323376    35.643785 
154788000    259.81078    302.46016     248.9996   -98689.991    98712.822    53.460558    35.650769 
154792000    271.78461    393.24773    372.10243   -98715.119    98726.616      21.1453    35.643821 
154796000    294.27134    450.09718    268.09081   -98716.501    98721.132    182.00636    35.640074 
154800000    255.35396    286.33815    158.50626   -98725.378    98749.793    127.83189    35.633731 
154804000    264.38476    449.00291    285.12672   -98756.437    98764.839    163.87619    35.631866 
154808000    299.79031     351.3965      262.853   -98786.201    98782.225    88.543502    35.633344 
154812000    281.24146    283.09744    273.41356   -98814.481    98827.433    9.6838786    35.633093 
154816000    264.59888    439.44955    251.21853   -98820.893     98849.18    188.23101     35.62797 
154820000    269.23641    327.63686    272.34378   -98851.365    98872.389    55.293086    35.626316 
154824000    259.94222    386.10081    317.61386   -98869.365    98888.549    68.486952    35.618462 
154828000      272.083    250.33325    228.47437   -98911.833    98916.554    21.858876    35.617136 
154832000    272.12426    428.91812    336.29274   -98914.151    98923.637    92.625371     35.62359 
154836000    277.14405    294.71495    433.39977   -98934.772    98927.495   -138.68482    35.624995 
154840000    286.19045    391.17278    339.70387   -98949.921    98951.895    51.468904      35.6232 
154844000    267.11342    439.25227    323.42118   -98974.122    98985.847    115.83109    35.618055 
154848000    273.34607      351.906    204.05527   -99000.778    99008.584    147.85073    35.617229 
154852000    302.71233    499.79305    375.61876   -99030.524    99014.202    124.17429    35.621895 
154856000    279.92481     286.4205    240.47441   -99047.902    99048.312    45.946086    35.622839 
154860000    299.91943    295.34048    326.92257    -99070.42    99064.277   -31.582093    35.625309 
154864000    279.16993    405.06953    305.78795   -99097.087    99089.362    99.281581    35.628655 
154868000    283.62302    230.02929    266.33015   -99102.198    99100.278   -36.300856    35.627089 
154872000    263.77082    399.13063    380.15707   -99121.593    99128.642    18.973566    35.626485 
154876000    291.66831    299.93194     335.4817   -99130.716    99127.182   -35.549758     35.62597 
154880000    291.99583    475.73069    228.31107   -99146.236    99147.707    247.41962    35.638558 
154884000    314.19205    455.44349    399.32696   -99173.556    99160.607    56.116533    35.634854 
154888000    293.28188    219.26511    412.68672   -99183.199    99192.632   -193.42161    35.638267 
154892000    274.03673    253.34767     370.3589   -99190.597    99206.818   -117.01123    35.637732 
154896000    272.03817    234.02584    339.14645   -99209.993    99210.552    -105.1206    35.633425 
154900000    266.61725    299.20456    383.43783   -99241.344     99262.72   -84.233269     35.62073 
154904000    281.76951     391.7308    247.12216   -99269.276    99273.616    144.60865    35.622973 
154908000    267.17915    293.99579     256.0624   -99294.244    99307.922    37.933388     35.61808 
154912000    270.22812    311.93788    202.01949   -99301.531    99325.582    109.91839     35.61237 
154916000    299.03759     397.1436    491.03538   -99353.691    99365.204   -93.891778    35.607649 
154920000    258.61258    230.97498    350.57784   -99416.478    99429.852   -119.60286    35.610405 
154924000    269.81838    356.53688    185.30423   -99449.019    99462.055    171.23265    35.608379 
154928000    284.42305     325.2931    451.37382   -99463.221    99471.588   -126.08072     35.60396 
154932000    261.78197     344.4921    141.96216   -99477.254    99497.587    202.52993    35.605858 
154936000    248.77176    157.72535    415.96813   -99475.937    99498.723   -258.24278    35.603694 
154940000    266.69934    352.53757    372.25634   -99485.826     99508.11   -19.718775    35.594184 
154944000    271.21965    220.63639    303.51537   -99507.307    99515.817   -82.878982    35.594685 
154948000    279.34283    282.43436    148.13672   -99525.908    99523.344    134.29764    35.594414 
154952000    294.38129    480.67917    437.09573   -99535.294        99535    43.583449    35.590006 
154956000    288.82049    479.57414    296.38006   -99551.553    99539.823    183.19408    35.588595 
154960000    284.62723     435.7048    433.74721   -99564.525    99560.097    1.9575927    35.597184 
154964000    288.17366    409.65188    453.60316   -99569.054    99575.718   -43.951279    35.598277 
154968000    293.73655    335.75355    215.69908    -99597.89    99595.577    120.05447    35.594766 
154972000    318.82346    341.81911    333.36521   -99602.839    99590.148    8.4538991    35.586961 
154976000    287.49635    394.75957    361.06896   -99603.183    99620.177    33.690613    35.594307 
154980000    256.32094    354.50235    293.09221   -99634.048    99661.643    61.410132    35.588237 
154984000    296.68101    325.00861    480.41545   -99665.165    99660.913   -155.40684     35.58883 
154988000    291.71755    448.58688    305.60184   -99672.693    99669.963    142.98504    35.585409 
154992000      289.857    457.68534    271.38686   -99690.086    99699.401    186.29848    35.583013 
154996000    258.86215    259.15194    272.56205   -99701.841    99730.235   -13.410113    35.584469 
155000000    253.26291    211.60064    342.97387    -99724.06    99735.433   -131.37323    35.585366 
155004000    304.04429    243.11918    440.62013   -99771.169    99750.863   -197.50095    35.583623 
155008000    283.57166    174.68902    329.63628   -99791.704    99797.501   -154.94726    35.584664 
155012000    280.66547    447.81169    282.22646    -99816.28    99818.485    165.58523    35.586591 
155016000    298.54115    323.57498    403.11904   -99833.109    99833.194   -79.544055    35.584572 
155020000    262.09516    291.53735    251.94473    -99862.08    99872.792    39.592614    35.588721 
155024000    281.38019    320.00661    279.98686   -99866.556    99889.347    40.019754    35.588795 
155028000     285.6118    407.13982    426.84849   -99899.173     99900.13   -19.708672     35.58621 
155032000    276.18467    474.42797    442.88931   -99914.863    99916.464    31.538669    35.578194 
155036000    292.41995    391.59652    168.35694   -99918.734    99923.971    223.23958    35.581185 
155040000    322.80919    443.11834    248.33246   -99948.672    99939.649    194.78587    35.575986 
155044000    287.16979    179.37728    332.65772   -99960.578    99964.405   -153.28044    35.575876 
155048000    266.42909    347.04316    253.46141   -99996.731    100019.59    93.581759    35.578322 
155052000    309.61351    306.03572    155.12453   -100044.57    100029.01    150.91119     35.58087 
155056000    310.68206      562.667    156.11463   -100067.74    100057.16    406.55237    35.584638 
155060000    257.76526    230.39846    255.43967   -100060.35    100074.06   -25.041212    35.589201 
155064000    299.46185    429.60265    212.40202   -100080.74    100063.54    217.20063    35.589625 
155068000    290.47769    228.27029    345.04261   -100093.51    100086.23   -116.77232    35.585974 
155072000    285.23645    225.26499    524.54043   -100100.27    100092.17   -299.27544    35.584656 
155076000    267.11793    331.87337    281.46762    -100090.6    100108.72    50.405747    35.584685 
155080000    265.44766    412.99923    240.60385   -100100.11    100127.35    172.39538    35.591536 
155084000    310.72859    488.15805    334.63426   -100106.76    100117.98    153.52379    35.597027 
155088000    301.99575    382.74633    325.87851    -100118.5     100107.5    56.867817    35.596134 
155092000    263.30585    475.03974    305.77085   -100152.81    100154.87    169.26889    35.602616 
155096000    286.29033    279.55924    332.76917   -100186.04    100192.95   -53.209939    35.604156 
155100000    238.21715    290.24925    346.64739   -100189.97    100229.51   -56.398134    35.602984 
155104000     276.9733    334.70792     198.7521   -100229.39    100232.68    135.95582    35.605865 
155108000    277.56797    528.48179    141.09259   -100252.98    100250.06    387.38921     35.60152 
155112000    264.37078    303.25246    175.29711   -100267.44    100274.68    127.95534    35.603395 
155116000    266.44695    331.99737    365.68834   -100318.03    100309.93   -33.690968    35.604059 
155120000    303.83195    353.07497    235.83655   -100327.84    100328.48    117.23842    35.594781 
155124000    279.56356    238.21437    301.40985   -100357.17    100351.64   -63.195484    35.594784 
155128000    268.46102    193.35716    295.15357   -100365.75    100379.99   -101.79641    35.592374 
155132000    283.73762    294.75543    372.49394   -100378.29     100391.4   -77.738507    35.592555 
155136000    287.86841    230.58572    277.68586   -100415.67    100410.61   -47.100138    35.598391 
155140000    287.78527    380.84754    504.97202    -100437.2    100435.14   -124.12449     35.59677 
155144000    270.47162    431.58196     345.7726   -100455.35    100460.08    85.809358    35.592873 
155148000    276.83011    528.33358    399.63359   -100440.54    100456.73    128.69999    35.590878 
155152000    247.98705    225.72067    317.40693   -100440.93    100468.71   -91.686257    35.584874 
155156000    288.16655    377.35669    430.49593   -100481.25    100462.05   -53.139241    35.589135 
155160000    270.85732    315.83543     123.4062   -100489.65    100494.35    192.42922     35.58328 
155164000    294.17883    323.39346    247.90574   -100520.53    100515.29     75.48772    35.585095 
155168000    277.46741    407.91281    228.89887   -100501.91    100520.83    179.01394    35.580645 
155172000    269.08771    161.38079    200.64373   -100523.16    100530.83   -39.262945    35.576949 
155176000      285.674    343.53369    301.40742   -100551.28    100570.92     42.12627    35.570633 
155180000    278.50623    468.53232    229.51969   -100571.92    100579.51    239.01262     35.56999 
155184000    271.54248    491.69349     509.8978   -100578.05     100586.4   -18.204307    35.563423 
155188000     253.6795    224.14927     290.2103   -100589.43    100614.31    -66.06103     35.55964 
155192000    286.56555    384.28809    313.95756   -100629.25    100632.42    70.330538    35.567086 
155196000    276.27199    399.34249     293.5528   -100642.94     100655.8    105.78969    35.567036 
155200000    273.74664     269.6575    349.90181   -100664.36    100667.13   -80.244314    35.567461 
155204000    292.05639    367.97267     382.6142    -100686.9    100689.87    -14.64153    35.569106 
155208000    271.72768    294.65866    306.84964   -100711.17    100719.26   -12.190978    35.568176 
155212000    283.61975    406.14232    220.52614   -100737.69    100730.93    185.61618    35.573699 
155216000    263.52941    403.55717    232.31294    -100745.9    100760.49    171.24423    35.574287 
155220000    306.50413    483.07557    314.07218   -100789.39    100781.82    169.00339    35.571821 
155224000    264.85372    257.01885    228.30041   -100774.17    100801.66    28.718438    35.570451 
155228000    286.58175    445.63652    179.95963    -100814.8    100829.07     265.6769    35.570476 
155232000    285.63567     208.7641    253.60732   -100854.47    100842.22   -44.843214    35.557376 
155236000     285.8923    287.20583    292.20805   -100875.71    100872.24   -5.0022215    35.550063 
155240000    281.17769    389.44875    410.75775   -100913.39    100920.82   -21.309004     35.54015 
155244000    302.25248    334.10289    161.85654    -100941.7    100935.89    172.24635    35.540098 
155248000    295.89213    371.10182    331.46668   -100986.55    100976.67    39.635135    35.536143 
155252000    271.98528    177.36406    232.03172   -100995.22    100996.87   -54.667655    35.537865 
155256000    313.04915    379.58403    298.62303   -101016.37     101013.2    80.961007    35.538547 
155260000     283.6376    306.69112    238.98016   -101015.45    101029.57    67.710965    35.537427 
155264000    252.13396    338.61976     470.8334   -101026.54    101034.12   -132.21363    35.542834 
155268000    307.59026    412.67901    194.30539   -101030.32    101041.13    218.37362    35.545611 
155272000    264.67968     440.1677    322.37199   -101060.86    101081.59    117.79571    35.556384 
155276000    300.29368    479.14779    420.19712   -101125.49    101098.67    58.950674    35.560251 
155280000    309.98345     307.1637    405.90003   -101152.58    101138.05   -98.736333    35.564303 
155284000    304.25785     665.7512     327.0842   -101147.03    101148.99      338.667    35.561585 
155288000    290.11908    365.61915    364.79059   -101164.34    101164.05   0.82855643    35.560963 
155292000     281.6164    519.31924    295.19464   -101151.45     101166.2     224.1246    35.562105 
155296000    292.71235    362.56304    266.78739   -101171.95    101166.61    95.775651    35.565654 
155300000    287.91375    364.81712    311.48789   -101188.75    101187.22    53.329224    35.564602 
155304000    287.70658    386.30267    331.05666   -101183.97    101199.76     55.24601    35.556438 
155308000    294.05959    282.47522    230.30966   -101196.41    101207.41    52.165553    35.556007 
155312000    301.44147    393.42409    282.78884    -101228.2    101218.42    110.63525    35.555807 
155316000    283.48314    416.07473    220.87866   -101235.66    101237.06    195.19607    35.557874 
155320000    288.32488    190.35267    431.60826   -101244.86    101246.38   -241.25559    35.556431 
155324000    292.35382    380.04207    484.15108   -101266.85    101264.91   -104.10901    35.557626 
155328000    259.66453    314.68176     320.6958   -101282.55    101285.81   -6.0140414    35.552485 
155332000    297.23005    447.86872    533.19019   -101316.84    101318.97   -85.321471    35.549962 
155336000    303.07103     326.5204    367.59881   -101351.33    101341.31   -41.078405    35.548002 
155340000    267.23235    277.20713    442.60406    -101383.7       101397   -165.39694    35.547171 
155344000    270.22386    378.97437    345.62694   -101400.06    101417.35    33.347431    35.550747 
155348000    285.82539     305.7847     281.9099    -101415.2    101407.81    23.874794    35.553133 
155352000    299.86931    473.53103    332.58033   -101445.85    101436.53     140.9507    35.552248 
155356000    329.27563    388.84097    375.77113   -101460.21    101457.85    13.069833    35.541607 
155360000     296.9665    632.77778    259.51214   -101475.72    101468.32    373.26565    35.544435 
155364000     278.3789    354.32615    295.14986   -101495.36    101483.57    59.176288    35.548492 
155368000    279.66022    292.40185    407.35091      -101491    101481.83   -114.94905    35.547576 
155372000    297.07892    308.18377    308.48027   -101515.78    101498.67   -0.2965005    35.547997 
155376000    297.62909    278.19256    294.14794   -101529.89    101536.76   -15.955387    35.553898 
155380000    279.18046    431.33047    340.64627   -101571.33    101574.54    90.684198    35.550223 
155384000     308.4678    345.12697    515.59566   -101593.26    101588.73   -170.46869    35.547642 
155388000    258.43562    429.56423    220.66906   -101634.62    101639.57    208.89517    35.550003 
155392000    256.96831    208.40416    264.92218   -101644.81    101654.06   -56.518026    35.553171 
155396000     306.3265    500.40968    318.16404   -101660.51    101656.08    182.24564    35.546032 
155400000    301.39755    342.79304    473.98656   -101686.99    101681.61   -131.19352    35.547943 
155404000    277.53133    485.09361     182.7771   -101691.96     101691.9    302.31651    35.554823 
155408000    276.48896    310.54499      318.072   -101715.39    101707.53   -7.5270084    35.564992 
155412000    267.70102    502.31775    291.27104   -101702.81    101716.08    211.04671    35.567442 
155416000    300.29539    374.41314    262.67731   -101716.86    101714.11    111.73582    35.559038 
155420000    286.53371    348.29096    372.24574   -101749.08    101745.66   -23.954785    35.551508 
155424000    305.79556    416.91733    389.07432   -101785.87    101761.89    27.843017    35.547871 
155428000    283.43205    323.70118    355.29475    -101779.4    101786.28   -31.593575    35.548766 
155432000     280.8342    412.55495    479.19219   -101776.84    101791.62   -66.637244    35.542752 
155436000    279.96023    210.63835    246.83467   -101804.71     101810.1   -36.196314    35.537807 
155440000    276.54139     579.0414    286.61992    -101849.2    101852.99    292.42148      35.5441 
155444000       310.87    571.75087    273.96799   -101896.31    101866.52    297.78288    35.547703 
155448000    272.91107      297.896    370.04476   -101903.39       101906   -72.148753     35.54855 
155452000    270.96578    208.06682    298.87659   -101937.04    101933.75   -90.809763    35.551811 
155456000    273.79168    323.20536    446.98807   -101936.15    101961.72   -123.78271     35.54909 
155460000    271.89265    437.20441    274.61843   -101969.87    101982.31    162.58598    35.547601 
155464000    316.65319    455.49969    301.42798   -102002.37    101985.58    154.07171    35.546271 
155468000    272.54997    355.13962    324.72161   -102017.23    102032.74    30.418013    35.540935 
155472000    266.41529    480.62713    200.26056   -102038.95    102058.41    280.36657    35.538334 
155476000    282.11771    222.06317    200.23013   -102082.57    102083.39    21.833041    35.533923 
155480000    292.07958    325.01371    410.82921   -102095.64    102091.27     -85.8155    35.528984 
155484000    278.46216    561.75027    409.66777   -102127.02    102130.48     152.0825    35.524558 
155488000    303.91764    454.57115    256.40251   -102145.61    102142.98    198.16864    35.526479 
155492000    294.72078    202.34916    486.38087   -102142.09    102139.09   -284.03171    35.520713 
155496000    305.97514    306.84229    422.27817   -102193.01    102178.98   -115.43588     35.52192 
155500000    312.43839    472.07009    338.09377   -102250.35     102221.5    133.97632    35.521891 
155504000    280.15372    143.48875     279.4749   -102244.71    102241.95   -135.98616    35.522208 
155508000     267.7134    168.38315    205.44847   -102267.87    102282.62   -37.065314    35.524286 
155512000    296.30303    352.05061    236.82801   -102302.74    102292.74    115.22261    35.523301 
155516000    261.72475    397.64376    479.87132   -102286.02    102291.21   -82.227567    35.521925 
155520000    294.79873    380.44074    358.21843   -102298.41    102304.53    22.222317    35.514538 
155524000    281.39462     328.7351    336.90539   -102303.46    102315.92   -8.1702962     35.51561 
155528000    285.94393    408.90728     326.3034    -102343.8     102332.9    82.603881    35.516521 
155532000    276.41736    302.25266    502.28693   -102371.86    102362.64   -200.03427    35.514809 
155536000    307.42687    558.19324    256.46416   -102405.71    102409.03    301.72908    35.510356 
155540000    268.53138    387.06712    428.43247   -102407.32    102420.36   -41.365353    35.513538 
155544000    282.91397    443.21532    290.29183   -102425.03     102430.1    152.92349     35.51184 
155548000    290.61445    372.49588    407.17537   -102444.55    102434.55   -34.679492    35.514735 
155552000    270.23366    298.04448    302.00224   -102445.88    102472.22     -3.95776    35.503517 
155556000    282.02801    130.52416    453.16451   -102454.67    102451.67   -322.64035    35.509856 
155560000    302.89996    593.29147    156.12177      -102521    102500.68     437.1697    35.509805 
155564000    279.91546    436.23845    348.26597   -102547.05    102550.51    87.972485    35.509944 
155568000    293.49332    255.51864    221.72342   -102571.16    102572.81     33.79522    35.514706 
155572000    277.96063    272.77724    446.59348   -102587.68    102599.46   -173.81624    35.518216 
155576000    297.72525    325.93177    305.90008   -102638.85    102625.67    20.031691    35.523069 
155580000    275.24417    249.34487    270.13363   -102659.69    102664.27   -20.788764    35.517626 
155584000    271.76087    476.84315    288.44216   -102701.76    102704.28      188.401    35.516594 
155588000    272.46345    423.83462    266.87852   -102736.53    102729.87     156.9561     35.51449 
155592000    270.47377    323.24054    291.13532   -102758.56    102779.25    32.105214    35.516737 
155596000    255.56554    371.02112    157.71503   -102796.94    102823.32    213.30609    35.519778 
155600000     272.0787    242.99301    341.67741   -102823.32     102825.8     -98.6844    35.521831 
155604000    316.91072    412.87751    275.80693   -102854.88    102824.52    137.07058    35.522488 
155608000     269.7486    152.69596    613.88132    -102835.3    102851.21   -461.18536    35.527942 
155612000    257.39565     345.6652    319.65692   -102860.63    102873.83     26.00828    35.528894 
155616000     245.2082    470.87181    303.34043   -102876.08    102905.68    167.53138    35.528412 
155620000    294.13031    204.56504    206.15619   -102900.33    102900.93   -1.5911454    35.521589 
155624000    279.98985    303.67781    159.23766   -102898.59    102908.75    144.44014    35.516858 
155628000    301.98594    381.18366    190.55411   -102938.84    102942.22    190.62955    35.519655 
155632000    270.66277    433.09213    509.39789   -102950.52    102949.37   -76.305755    35.516281 
155636000    248.50047     333.8839    263.19408   -102985.19    103006.64     70.68982    35.512701 
155640000    274.56363    589.59098    301.50424   -103007.97     103037.2    288.08674    35.516639 
155644000    258.24491    326.33356    266.35289   -103037.03    103066.09    59.980673    35.511864 
155648000    275.41015    296.36944    254.93057   -103059.29    103078.97    41.438866     35.51691 
155652000    268.19918    216.26508    261.58842   -103091.79     103086.3   -45.323347    35.523836 
155656000    283.87488    320.38204    375.14148   -103127.05    103138.51    -54.75944    35.524646 
155660000    291.43367     279.0323    285.76622   -103143.35    103152.01   -6.7339256    35.531648 
155664000    254.72083    416.32882    530.97698   -103145.21    103147.33   -114.64817    35.535175 
155668000    272.87418    345.46941    492.89715   -103175.75    103165.22   -147.42774    35.532047 
155672000    302.00023    424.95236    224.75408   -103189.13    103169.09    200.19828     35.53175 
155676000    285.17917    242.78013    295.09634   -103222.72    103218.26   -52.316205    35.528932 
155680000    296.95336    334.79558    463.50256   -103251.98    103244.27   -128.70699     35.52785 
155684000    274.09009    390.69467    253.05528   -103266.17    103277.89    137.63939    35.529175 
155688000     277.3663    319.07175    352.17763   -103297.02    103312.81   -33.105875    35.526547 
155692000    307.24313    650.60476    478.21009   -103303.67    103303.02    172.39467    35.524467 
155696000    288.68531    444.47451    224.68325    -103324.1    103325.61    219.79126    35.529254 
155700000    304.87057    318.36808    347.14397   -103328.39    103318.11   -28.775886    35.529207 
155704000    279.37655    389.81236    276.13321    -103356.5     103351.8    113.67914    35.527715 
155708000    276.94056    365.30993    481.94067   -103368.26    103368.87   -116.63075    35.525681 
155712000    294.51949    502.17242    267.11634   -103406.63    103393.96    235.05609    35.528732 
155716000    301.08306    399.11414    543.65737    -103429.4    103403.34   -144.54323    35.527597 
155720000    275.91819    389.58083    288.63595   -103439.32     103449.7    100.94488    35.531345 
155724000    293.25636    248.45323    275.87459   -103451.23    103456.44   -27.421361    35.534024 
155728000    266.87061    181.54096    311.34545   -103447.85    103473.89   -129.80449    35.533938 
155732000    295.42475    281.27994    271.97375   -103445.32    103455.35    9.3061891    35.537152 
155736000    262.56884    666.50696    109.29486   -103445.02    103476.08     557.2121    35.540702 
155740000    270.60469    614.50817     394.0805   -103452.12    103461.57    220.42767    35.543433 
155744000    295.83652     357.3472    351.07373   -103485.68    103459.51    6.2734724    35.551017 
155748000    272.56491    286.18506    471.74004   -103488.97    103504.24   -185.55499    35.550208 
155752000    269.64511    207.09526    294.09594   -103533.05    103535.44   -87.000683    35.552747 
155756000    292.21944    381.89325    331.96415   -103565.16    103564.93    49.929096    35.550863 
155760000    272.05459    345.96122    330.01492   -103570.39    103588.12      15.9463    35.542122 
155764000    270.04684    398.13728     284.1873   -103615.24    103629.87    113.94998    35.544329 
155768000    270.31035     298.0606    322.14002   -103635.25    103643.62   -24.079417    35.544944 
155772000    271.00438    368.21826    388.73062   -103658.42     103659.1   -20.512356    35.548451 
155776000    278.25599    465.62112    265.85631    -103680.9     103673.3    199.76481    35.552142 
155780000    297.22797     375.0484    321.95354   -103716.62    103702.44    53.094863    35.557075 
155784000    283.40062    358.35645    221.78627   -103733.89    103739.09    136.57018    35.568191 
155788000    286.66241    344.07765    134.94953   -103735.07    103730.47    209.12811    35.569911 
155792000    279.12288    270.31912    353.84482    -103752.7    103735.76   -83.525705    35.569966 
155796000    274.98137    284.02852    252.68064   -103768.17    103778.79    31.347879     35.56627 
155800000    292.50145    342.90716    255.02429    -103781.6    103793.37    87.882871     35.57259 
155804000    262.40566    313.84989    326.50321   -103770.75    103785.98   -12.653316    35.575524 
155808000    305.24379    487.72598    339.50756   -103844.16    103837.22    148.21843    35.582066 
155812000    287.36197    330.12849    289.38705   -103874.33    103868.75     40.74144    35.577788 
155816000    249.43507    425.63389    323.44924   -103877.87    103898.87    102.18465    35.577174 
155820000    267.52373    325.64945    316.04563   -103885.16    103897.54    9.6038229    35.566412 
155824000    277.43908    628.71562    302.58194   -103919.68    103921.57    326.13368    35.559153 
155828000    291.71394    383.32156    295.70043   -103943.31     103936.4    87.621133    35.558123 
155832000    313.54446    285.61893     296.0414   -103961.03    103944.33   -10.422462    35.556244 
155836000    277.39215     488.5838    277.85772   -103997.07    104001.98    210.72608    35.570646 
155840000    276.07167    292.50349    275.73012   -104030.75    104042.37    16.773377    35.568046 
155844000    294.53298    225.71944    331.09115   -104059.57    104069.71   -105.37171    35.561306 
155848000    277.55569    238.66706    209.24519   -104061.91    104060.11    29.421872    35.563308 
155852000    309.14784    595.74972    252.08616   -104045.79    104044.54    343.66356    35.568151 
155856000    282.14399    266.19884    288.77346   -104073.13    104079.41   -22.574615    35.566528 
155860000    306.41152    378.62075    327.46199   -104102.57    104088.29     51.15876    35.567709 
155864000    275.37551    264.14761    332.70657   -104129.29     104144.9   -68.558959    35.562428 
155868000    327.77995    368.58872    340.97181   -104188.86     104156.4    27.616912    35.560204 
155872000    280.37191    312.94832    239.90489   -104202.58    104215.08    73.043434    35.563602 
155876000     281.4685    633.77502    341.37686   -104231.85    104232.86    292.39816    35.555616 
155880000    305.71084    398.01845    631.61778   -104230.86    104212.83   -233.59933    35.547465 
155884000    282.12591    357.82053    234.19211   -104241.26    104235.95    123.62843    35.547214 
155888000    274.62707    578.79488    463.26272   -104257.83    104264.76    115.53215    35.548015 
155892000    299.47353    309.42848     485.4378   -104320.21    104312.85   -176.00932    35.554564 
155896000    273.85452    278.58571    311.48146   -104321.76    104335.89    -32.89575    35.551608 
155900000    279.38563    373.89054    203.03147   -104365.57    104380.63    170.85907    35.557409 
155904000    278.30987     313.6114    196.36008   -104365.57    104373.06    117.25132    35.564926 
155908000    268.05331    328.11942    273.30898   -104407.33    104415.74     54.81044    35.561345 
155912000    274.17141    336.78914    270.64027   -104419.58    104432.58    66.148867    35.565732 
155916000    270.61259    270.94559    233.04562   -104430.66     104441.8    37.899972    35.572885 
155920000    292.60122     378.5349     240.2551   -104465.04    104461.86    138.27981    35.577275 
155924000    286.95898    193.20212    369.28044   -104466.74    104482.16   -176.07832    35.577325 
155928000    286.50077    365.59771    361.10803   -104484.31    104478.67    4.4896855    35.573065 
155932000    305.73386    475.03919    540.28102   -104511.87    104502.19   -65.241838    35.566901 
155936000    281.08402    278.84553    416.64021   -104530.54    104534.97   -137.79469     35.57238 
155940000    292.72448    262.93556     322.5344   -104546.27    104538.64   -59.598838    35.573121 
155944000    267.04378    296.96203    235.03571   -104550.39    104567.79    61.926325    35.570412 
155948000    292.15778    204.06853    243.90538   -104569.21    104576.72   -39.836852    35.573841 
155952000    285.26018    334.90829    221.47586   -104577.45    104587.53    113.43243      35.5737 
155956000    288.19734    214.36466    267.38856   -104594.29    104596.46   -53.023901    35.571192 
155960000    279.70637    402.20379    299.74216   -104602.24    104598.73    102.46163    35.565085 
155964000    291.96503    277.25446     346.3832   -104616.59    104624.19   -69.128739    35.557447 
155968000    283.07226    166.69999    457.46204   -104639.08    104650.24   -290.76205    35.563441 
155972000     261.5475    509.18024    283.96085    -104688.4    104712.28     225.2194    35.567202 
155976000    282.55571    226.47861    176.30219   -104711.53    104723.46    50.176423     35.56929 
155980000    274.06661    503.74521    263.15958   -104748.44    104740.01    240.58563    35.567427 
155984000    308.35709    336.36471    318.63863   -104828.67     104804.6    17.726074    35.569075 
155988000    284.72327     313.2823    289.06588   -104848.82       104837     24.21642    35.565365 
155992000     286.7084    356.20249    318.81225    -104853.1    104857.38    37.390237    35.565701 
155996000     295.8326    357.49599    397.49291   -104862.05    104851.99   -39.996926    35.565736 
156000000    281.97214    259.41333    425.76553   -104867.03    104854.81    -166.3522    35.571368 
156004000    310.85012     436.0262    278.97008   -104873.86    104865.25    157.05612    35.570353 
156008000    269.60139    307.65984    386.82122   -104879.15    104897.54   -79.161384    35.566957 
156012000    244.08671    313.34808    405.87953   -104893.31    104920.87   -92.531453    35.564995 
156016000    277.63129    251.74005    332.70839   -104938.31     104956.6   -80.968338    35.565743 
156020000    255.97442    196.70064    267.72515   -104946.52     104967.8   -71.024509    35.568757 
156024000     310.8193     689.1493    277.50678   -104972.15    104968.96    411.64253    35.571731 
156028000    288.77932    146.56831    300.03688   -105003.76    104988.64   -153.46857    35.570571 
156032000    254.68056    312.62497    146.16134   -105001.54    105024.09    166.46363    35.565592 
156036000      276.962    690.90987    321.30036   -105038.29    105040.92    369.60952    35.564554 
156040000    278.47564    355.16095    363.92901   -105058.11    105066.51   -8.7680508    35.554289 
156044000    289.80297    264.24372    186.04268   -105085.51    105090.68    78.201033    35.552129 
156048000    286.05291    457.78726    394.74113   -105106.97    105113.36    63.046129    35.552297 
156052000    291.31867    341.05897    507.45015   -105119.95    105139.91   -166.39118    35.551955 
156056000    267.59089    349.62127     385.3259   -105167.61    105174.75   -35.704631    35.554292 
156060000    306.92316    506.01356    448.95343   -105194.45    105173.78     57.06013    35.558607 
156064000     298.8724     315.2709    475.72504   -105201.43    105208.04   -160.45415     35.56357 
156068000    290.39166    355.32154    156.39896   -105240.71    105243.41    198.92258    35.563754 
156072000    262.13021    475.26392     412.4051   -105245.28    105268.28    62.858816    35.562818 
156076000    277.27028    423.00703    359.05251   -105293.22    105293.45    63.954523     35.56246 
156080000    261.13016    246.81032    269.31981   -105268.95    105297.67    -22.50949    35.559394 
156084000    266.54607    361.87064    359.81374   -105278.18    105297.42    2.0569011    35.556484 
156088000    247.17327    196.31237    288.49921   -105306.35    105318.01   -92.186841    35.554468 
156092000    272.09127    381.85542     298.4262   -105340.36    105353.92    83.429215    35.559834 
156096000    295.58443    355.35502    277.62696   -105366.31    105368.84    77.728055    35.555853 
156100000    277.87945    556.65522    118.29094   -105381.32    105397.33    438.36428    35.551365 
156104000    307.33762    295.96807     218.8459   -105404.12    105392.96    77.122165    35.545847 
156108000    280.91305    124.62371    250.05219   -105418.68    105429.77   -125.42848    35.551735 
156112000    288.96339    288.26856    269.78525   -105461.67    105450.45    18.483306    35.550908 
156116000    286.81746      328.063    309.80255   -105461.51     105456.2    18.260448    35.548156 
156120000    306.73818    435.65448    244.20208   -105504.04     105495.3    191.45239    35.546252 
156124000    284.89602    352.44637     263.1302   -105526.03    105514.29    89.316171    35.540281 
156128000    257.90475    315.00089    242.96462   -105540.02    105541.29    72.036267    35.545135 
156132000    298.37779     221.0827    335.98488   -105582.75    105578.55   -114.90218    35.548183 
156136000    274.80385    225.57869    246.83662   -105594.13    105615.03   -21.257923    35.552145 
156140000     287.4042    612.18052    337.40613   -105636.19    105638.69    274.77439    35.555614 
156144000    288.87079    329.03373    283.44022   -105654.71    105654.61    45.593512    35.555113 
156148000    286.19627    373.00814    310.57709   -105667.92    105667.99    62.431051     35.56007 
156152000     271.4226    235.38793    410.32594   -105697.49    105719.74   -174.93802    35.553681 
156156000    293.66361    366.01474    600.27477    -105719.1    105699.46   -234.26002    35.553081 
156160000    284.46751    547.87489    231.64049   -105718.78    105717.58     316.2344    35.552819 
156164000    273.53325    426.87576     234.9304    -105742.7    105752.26    191.94536    35.558779 
156168000    287.64129    255.76458     354.4507   -105762.55    105766.47   -98.686118    35.553251 
156172000    280.51232    249.73234    321.03353   -105764.66    105771.01   -71.301187    35.553354 
156176000    280.23353    341.14907    361.66204   -105777.33    105773.52   -20.512971    35.553329 
156180000    249.79562    289.97832    251.65974   -105795.92    105809.42    38.318586     35.55376 
156184000    278.38498    334.60127    463.69898   -105819.97    105836.81   -129.09771    35.545029 
156188000    261.39712    348.94779    112.40732    -105855.4    105859.74    236.54047    35.549097 
156192000    300.34548    283.05537    367.53742   -105864.27    105870.61   -84.482055    35.549009 
156196000    333.69189    335.14838     333.3312   -105898.85    105864.86    1.8171744    35.539453 
156200000    269.93665    436.25174    353.96689   -105878.97    105874.44    82.284851     35.53473 
156204000    272.27337    269.38639    395.06877   -105882.06    105896.81   -125.68238     35.52614 
156208000    289.12504    380.73195    622.56014   -105912.29    105911.82    -241.8282    35.521458 
156212000     273.8012    233.70606    246.54804   -105930.97    105950.97   -12.841977    35.524245 
156216000    267.92874     266.0121    236.69812   -105951.23    105963.58    29.313981    35.515802 
156220000    271.12171    272.42591    339.45808   -105981.21    105972.91   -67.032168    35.507562 
156224000    267.80384    371.41612    262.89211    -105983.6    106005.06    108.52401    35.507393 
156228000    305.39585    369.97458    345.73879   -106019.61     106013.1     24.23579    35.508885 
156232000    289.85289    320.53981    331.02511   -106030.66     106044.4     -10.4853    35.507898 
156236000    297.81784    227.06474    265.12173   -106046.07    106049.05   -38.056993    35.505207 
156240000    261.10373    354.81274    378.65576   -106054.09    106062.18   -23.843023    35.508185 
156244000    261.81085    218.91252    329.75966   -106068.81    106088.53   -110.84714    35.514333 
156248000    288.98382    188.65011    276.81577    -106119.1    106114.73   -88.165655    35.514186 
156252000    283.55754    542.04839    437.02084   -106145.32    106145.04    105.02754    35.513305 
156256000    282.71181    563.17488    245.11072   -106160.45    106164.07    318.06416    35.513285 
156260000    299.40499    366.03609    347.00416   -106180.44    106177.34    19.031933    35.517482 
156264000    262.46117    347.90203    371.12251   -106210.33    106222.53   -23.220482    35.518179 
156268000    258.54762    310.91827     326.0396   -106232.73    106246.04   -15.121337    35.511272 
156272000    284.31479    247.31554    305.65578   -106260.98    106262.11   -58.340233    35.507051 
156276000    278.18331    595.74563    397.77142   -106282.78    106284.92    197.97421    35.512593 
156280000    312.24169    339.13576    326.34532   -106325.56    106316.34    12.790434    35.521602 
156284000    300.27654     388.4296    370.40288    -106369.2    106352.99    18.026716    35.517276 
156288000    288.61737    254.90541    439.58503   -106393.24    106382.39   -184.67962    35.519976 
156292000    302.56429    455.48312     353.7765   -106414.76    106415.46    101.70662    35.507498 
156296000    285.94095    392.88618    280.59011   -106474.29    106448.73    112.29607      35.5084 
156300000    310.88276    446.68581    453.87216   -106493.68    106483.17   -7.1863444    35.506273 
156304000    303.96118    542.28983      378.902   -106512.05    106518.49    163.38783    35.512771 
156308000    257.24472    270.92833    231.38312   -106527.95    106555.83    39.545204    35.511256 
156312000    284.01674    224.54407    291.77597    -106573.8     106589.9   -67.231895    35.517233 
156316000    272.74601    339.80977    329.11026   -106606.27    106622.45    10.699509     35.51929 
156320000    303.61671    400.23454     398.3896   -106645.62    106639.03    1.8449341    35.518478 
156324000    261.16959    190.47763    496.04645   -106647.28    106662.34   -305.56882    35.520275 
156328000     284.5956     263.1123    287.76774   -106672.58    106666.75   -24.655437    35.513795 
156332000    271.18928    320.33905    234.87856   -106683.73    106665.37    85.460489    35.522302 
156336000    293.35744    496.09471    393.83396   -106698.08    106709.41    102.26075    35.522207 
156340000    271.62414    288.75599    223.21629   -106727.46    106737.77    65.539705     35.52356 
156344000    270.69738    366.18274    329.47888    -106722.9    106748.08    36.703865    35.526639 
156348000    270.21898    340.94958    333.27141   -106782.87    106796.91    7.6781702    35.519039 
156352000    260.19724    280.79875    391.02735   -106803.55    106815.57   -110.22859    35.517733 
156356000    271.60476    375.92482    345.87052      -106835    106830.13    30.054295    35.513189 
156360000    276.36972    511.69496    434.46755    -106838.3    106848.77    77.227405    35.515336 
156364000    261.51534    245.27879    396.18593   -106860.37    106872.33   -150.90714    35.521416 
156368000    285.40184    616.55882    311.88877   -106909.49    106913.08    304.67005    35.525953 
156372000    267.91757     211.1927    408.31903   -106896.63    106901.56   -197.12633    35.524055 
156376000    246.26399    228.62862    188.95527   -106926.04     106949.7    39.673353    35.520019 
156380000    270.43365    365.53029    402.40578   -106955.71    106965.58   -36.875491    35.513529 
156384000    265.14398    361.02261    336.32756   -106948.42    106982.57    24.695048    35.515153 
156388000    274.78016    351.81207    334.70909   -106984.45    107001.77    17.102982    35.515685 
156392000    297.31497    475.62685    172.56869   -107011.14    107012.55    303.05816    35.511854 
156396000    296.79831    304.98516    392.15887   -107046.94    107044.05   -87.173704    35.508934 
156400000    271.74209    351.83353    298.59361   -107056.74    107073.62    53.239923    35.506495 
156404000    262.94014    227.80517    392.65289   -107100.19    107113.08   -164.84772    35.502171 
156408000    265.80701    262.52106      376.934   -107116.95     107141.3   -114.41294    35.499688 
156412000    283.69014    315.26144    354.97459   -107152.63    107159.61   -39.713149    35.495208 
156416000     288.4929    345.07203    242.14332   -107159.52    107178.62    102.92871    35.498955 
156420000    285.23655    407.30069    311.87907   -107196.99    107208.17    95.421622    35.498292 
156424000    275.82665    373.24406    326.93449   -107215.17    107223.02    46.309573    35.497396 
156428000    301.16763    240.83092    359.66425    -107239.6    107223.17   -118.83332    35.502726 
156432000    259.55816     490.2847    565.58093   -107281.82    107283.04   -75.296234    35.502653 
156436000    299.52937     469.1567    466.98209   -107323.47    107318.08    2.1746073    35.502979 
156440000    282.61748    351.81642    357.52989   -107329.78    107342.97   -5.7134748     35.50144 
156444000    264.22916    346.54963    433.24308   -107334.24    107355.43   -86.693444     35.50051 
156448000    320.36083    276.06967     359.9133   -107371.49    107344.99   -83.843628    35.503486 
156452000    278.41134    430.33044    233.36862   -107379.38    107379.66    196.96182    35.503667 
156456000    287.51448    284.98809    203.63296   -107388.11    107414.17     81.35513    35.503858 
156460000     264.2778    344.75288    323.38557   -107389.88    107418.26    21.367306    35.506273 
156464000    281.28783    358.70515    308.73526   -107416.03    107392.03    49.969883     35.50707 
156468000    299.68071    490.49742    323.15772   -107427.54       107414     167.3397    35.515221 
156472000     277.0487     329.4488    323.36474   -107412.37    107440.75     6.084062    35.517618 
156476000    298.85152    325.76562    371.63806   -107430.98    107425.78   -45.872438    35.517017 
156480000    292.78078    262.56864    324.59192   -107460.65    107456.68    -62.02328    35.519171 
156484000    289.10096    457.90488     214.3367    -107470.1    107466.74    243.56817    35.524553 
156488000    331.83215    302.12727    526.72357   -107528.19    107488.86    -224.5963    35.521919 
156492000    264.55446    247.25428    303.18678   -107536.34    107553.03   -55.932495    35.517882 
156496000    262.11325    298.08097    297.70874   -107554.39    107581.61   0.37223388    35.520157 
156500000    275.38178    446.71068    234.60388   -107589.08    107586.55     212.1068     35.52477 
156504000    302.42425    342.62657    384.53204   -107609.83    107610.75   -41.905468    35.535595 
156508000     279.0432    268.08221    347.53675   -107633.16    107633.52   -79.454538    35.535319 
156512000     275.3669    525.13908    269.23803   -107664.69     107664.3    255.90105    35.535304 
156516000    260.07265     305.5332    204.83889   -107671.18    107683.68    100.69431    35.531118 
156520000     269.8794    332.94418    367.90333   -107703.99    107708.57   -34.959146    35.535277 
156524000    298.60541    346.68882    365.21435    -107746.9    107745.11   -18.525533     35.54415 
156528000    262.63041    192.62916    340.22566   -107757.53     107776.4    -147.5965    35.537173 
156532000    296.61698     355.5822      312.495   -107771.08    107765.35    43.087209    35.540649 
156536000    297.15571    432.62545    279.55564   -107796.74    107790.83    153.06982    35.546493 
156540000    288.08632    467.75825    298.07175   -107813.77    107813.38     169.6865    35.545915 
156544000     291.3362    256.94351    271.69751   -107814.54     107808.5   -14.753998    35.549599 
156548000    301.50415    347.54475    171.93181   -107839.89    107824.04    175.61294    35.546718 
156552000    285.03119    415.40937    176.14917   -107842.82    107859.96     239.2602    35.537532 
156556000    272.93572    610.02418     183.8898   -107871.43    107881.58    426.13437    35.537931 
156560000    319.61867    287.41959    312.96176    -107903.2       107887   -25.542173    35.535166 
156564000    282.09479    312.73262    283.78527   -107918.67    107930.46    28.947349    35.533701 
156568000    293.54938    522.41553    214.21366   -107967.05    107956.49    308.20187    35.535359 
156572000    290.67704    284.20531    437.06742   -108013.44    108013.43   -152.86211    35.534526 
156576000    301.26867    369.11518    238.10635   -108042.61    108020.71    131.00883    35.533198 
156580000    259.08576    277.89782    329.03916   -108024.65     108034.3   -51.141339    35.533382 
156584000    288.05654    414.90282    247.82311   -108055.73    108059.85    167.07971    35.531968 
156588000    280.74403    338.86585    206.35459    -108079.9    108101.81    132.51126    35.542904 
156592000    296.08235    483.96144    313.19423   -108122.06    108118.84    170.76721    35.538164 
156596000    276.34752    504.81519    285.21448   -108127.25    108140.37    219.60071     35.53822 
156600000    310.40266      356.765    399.36922   -108143.31    108145.12   -42.604228    35.542307 
156604000    296.20751    324.02456    176.02863   -108156.27       108157    147.99593    35.540101 
156608000    278.17316    224.99384     452.3845   -108180.33    108158.05   -227.39065    35.530591 
156612000    283.60081    250.81693    269.69198   -108179.67    108173.96   -18.875055    35.528906 
156616000    326.87016    242.14124    254.81126   -108233.13    108204.83    -12.67002    35.528883 
156620000    292.21409    252.09635    219.18654   -108245.03    108248.45    32.909814    35.521424 
156624000    290.41435    280.61971    296.68912   -108253.85    108242.84   -16.069409    35.525176 
156628000    258.38489    238.18007    317.49265   -108238.97       108257   -79.312578    35.526753 
156632000    295.53485    547.57567    326.83426   -108256.15    108254.22    220.74141    35.524251 
156636000    280.86629    230.14066    188.70399   -108264.79    108268.83     41.43668    35.523551 
156640000    293.28114    238.31698    361.58315   -108296.59    108300.84   -123.26617    35.520612 
156644000    301.66932    478.97017    397.32538    -108333.2    108345.66    81.644789     35.51687 
156648000    265.56159     414.7178    302.32049   -108362.79    108373.95    112.39731    35.519069 
156652000    278.51725    601.24941     266.1222    -108368.5    108383.65     335.1272    35.516999 
156656000    297.95962    447.28149    414.99361   -108404.47    108388.77    32.287875    35.520989 
156660000    282.10832    260.65771     452.6347   -108431.93    108429.49   -191.97699    35.519551 
156664000    280.62901      341.022    366.16927   -108452.72    108466.83   -25.147268    35.521834 
156668000    270.47534    359.09272     384.0833   -108458.58    108481.12   -24.990576    35.515974 
156672000    257.60594    353.43711    185.23163   -108495.48    108501.96    168.20547    35.525736 
156676000    265.58181    286.19397    314.18279   -108516.15    108538.09   -27.988811     35.52498 
156680000    270.35882    343.61403    607.95999   -108541.18    108556.46   -264.34596    35.521802 
156684000    262.92361    372.06075    266.96047   -108556.28    108576.27    105.10028    35.523185 
156688000    275.32693    359.58217    233.15802   -108576.27    108585.04    126.42415    35.528551 
156692000     293.5917    421.40365    212.16211   -108633.58    108624.13    209.24154    35.529258 
156696000     280.2879    458.60775    372.94887   -108675.82    108658.96     85.65888    35.529303 
156700000     288.6385    308.78062    204.10343   -108705.33    108711.45    104.67719    35.528916 
156704000    265.83502    443.30097    374.83588   -108720.56     108736.7    68.465095    35.523581 
156708000    261.73004    338.73807    319.80489    -108747.2    108763.79    18.933175    35.516851 
156712000    293.96979    432.34468    334.77686   -108796.49    108790.28    97.567815    35.518562 
156716000    323.17319    358.44788    416.53997   -108831.27    108806.23   -58.092085    35.519257 
156720000    284.39438    384.70573    179.18946   -108856.16    108864.33    205.51627    35.509925 
156724000    279.56508    194.44455    287.00748   -108883.08    108892.23   -92.562927    35.509271 
156728000    259.05941    345.47539    206.45437   -108885.02       108915    139.02102    35.507263 
156732000     275.2834    438.92084    336.54536   -108896.54    108902.27    102.37547     35.51195 
156736000     302.6506     193.3857    291.29368   -108904.16    108898.19   -97.907974    35.508114 
156740000    250.61674    253.66643    286.17747   -108911.51     108930.3   -32.511036    35.507293 
156744000    285.89688    363.00866    213.48976   -108959.91    108970.32     149.5189    35.502787 
156748000     278.5977    299.73442    173.74811   -108981.39    108996.46    125.98631    35.500546 
156752000    273.56623    274.76556    244.41307   -108992.06    109007.19     30.35249    35.499121 
156756000    270.64493    537.86113    362.98433   -109031.79     109032.1     174.8768    35.508491 
156760000     290.2915    435.86427    345.35982   -109045.68     109038.4    90.504458     35.50954 
156764000    300.11225    300.47225    319.85689   -109066.62     109056.4   -19.384639    35.513398 
156768000    291.98571    333.98384    390.79634   -109100.09    109092.08   -56.812502    35.520014 
156772000    298.47916    397.50195    486.70065   -109139.02    109132.31   -89.198699      35.5122 
156776000    267.14816    337.42754    323.53517   -109148.94    109147.65    13.892369    35.511217 
156780000    297.00681     503.8592    377.17721   -109158.83    109159.75    126.68199    35.507272 
156784000    270.63211    319.65073    325.90329   -109182.72     109190.8    -6.252559    35.516661 
156788000    268.58608    383.17117     328.4516   -109196.94    109218.04    54.719577    35.515147 
156792000    278.65785    341.04927    363.99986   -109240.05    109247.53   -22.950594    35.513923 
156796000    287.86268    229.96382    601.26507    -109287.5       109286   -371.30125    35.513377 
156800000    297.34277    316.61547    557.19398   -109317.36    109288.82   -240.57851    35.512274 
156804000     270.3582    232.20414    435.21187   -109316.95    109317.71   -203.00773    35.508241 
156808000    272.01683     242.6318    203.05659   -109323.31    109349.04    39.575212    35.505045 
156812000    269.30264    268.51458    462.01072   -109340.73    109351.21   -193.49613    35.506637 
156816000    294.65281    509.80319    444.65702   -109399.33    109379.89    65.146164    35.502173 
156820000    275.21671    314.66501    392.96409   -109411.48    109424.47   -78.299085      35.4934 
156824000    313.25498    616.41889    540.28286   -109432.66    109423.72    76.136026    35.485622 
156828000    278.19365    261.40354    397.60255   -109448.67    109464.67   -136.19901    35.490454 
156832000     294.4098    307.97748    534.37309   -109489.49    109497.23    -226.3956    35.486579 
156836000    273.32591    389.36212    469.96182   -109473.72    109503.23   -80.599701    35.485099 
156840000    306.84637    229.26936     255.6208   -109534.19    109521.32   -26.351442    35.478688 
156844000    262.56175    530.70439    314.10246   -109538.54    109547.15    216.60193    35.478651 
156848000    277.11982    347.03303    231.91819   -109543.41    109571.77    115.11484    35.477195 
156852000    293.20093    314.96353     292.2703   -109573.07    109560.61    22.693237    35.474509 
156856000     274.1117     340.6232    276.57805   -109585.15    109590.47    64.045155    35.476386 
156860000    294.71349     510.0091     312.8929   -109602.64    109615.95     197.1162    35.472079 
156864000    258.96133    335.74546    371.64791   -109600.13    109611.79   -35.902448    35.469484 
156868000    286.04556      581.911    159.41299   -109633.62    109626.39    422.49801    35.479715 
156872000    291.01001    252.81254    226.46992   -109621.15    109632.37    26.342619    35.476891 
156876000    270.94329    349.32475    330.30795    -109636.7    109626.56    19.016802    35.479724 
156880000    290.79097    305.91009    374.97106   -109662.43    109648.06   -69.060971     35.47723 
156884000    294.99076    408.40043    381.61945   -109655.39    109657.34    26.780977    35.478701 
156888000    279.25724     560.8087    389.18346   -109687.44    109682.07    171.62524    35.483096 
156892000    293.04655    540.93683    277.81832   -109708.68    109711.75    263.11851    35.486108 
156896000    295.59841     302.1709    224.38439   -109709.01    109710.74     77.78651    35.480129 
156900000    316.71567    284.19045    309.77059   -109733.15    109717.46   -25.580135    35.477979 
156904000    317.78942    255.42273    212.08017   -109752.72     109747.1    43.342564    35.478325 
156908000    274.77751    517.22585    178.70567   -109807.93    109810.18    338.52018    35.478595 
156912000    303.47944    432.87867    308.14671   -109826.13    109825.12    124.73195    35.472039 
156916000    262.21396    335.19234    339.16469   -109849.35    109865.13   -3.9723484    35.473535 
156920000    272.83995    346.51913     323.3172   -109885.47    109892.76    23.201923    35.471163 
156924000    332.10398    261.03832    482.63982   -109940.21    109907.84    -221.6015    35.472032 
156928000    280.26265     417.9147     340.8993   -109945.34    109957.18    77.015405    35.470837 
156932000    288.76067    239.18092    234.44192    -109969.2    109964.33     4.739007    35.473386 
156936000    247.31778    216.89284    332.93497   -109943.06    109961.71   -116.04213     35.47674 
156940000    281.61402    524.78945    316.18969   -109958.53    109968.89    208.59976    35.482675 
156944000    299.75119    627.32014    245.44906   -109991.22    109984.61    381.87108    35.484566 
156948000    252.07156    192.26167    315.38136   -110000.07    110009.82   -123.11969    35.481999 
156952000    283.78079    237.87937    315.03648   -110035.12     110047.7   -77.157112    35.485197 
156956000    288.70155    238.48209    412.51504   -110049.32    110044.94   -174.03295    35.490702 
156960000    313.27792    533.88106    277.83226   -110074.16    110060.39    256.04881    35.487693 
156964000    291.39789    328.96468    248.61532   -110126.85    110095.42    80.349361    35.490837 
156968000    267.38671    264.76953    442.64008   -110106.72    110119.68   -177.87055    35.494739 
156972000    271.60988    239.96522    235.49262   -110112.21    110130.32    4.4725963    35.490305 
156976000    299.73352    288.86673    425.79201   -110150.39     110145.6   -136.92528    35.485892 
156980000    261.53201    339.63157    272.22845   -110168.58    110167.78    67.403119    35.491576 
156984000    276.36965    371.01489    358.32331   -110180.62     110192.8    12.691577    35.501462 
156988000    281.05839    358.76586    397.77289   -110200.02       110191   -39.007027     35.50623 
156992000    297.71859    466.64118    348.34329   -110219.25    110205.32    118.29789    35.510671 
156996000    265.73011    331.78034    587.16367   -110244.52    110260.11   -255.38334    35.513229 
157000000     267.9424    144.43091     488.2399   -110268.17    110284.93   -343.80898    35.522687 
157004000    297.80565    486.61065      434.136    -110306.4    110309.79    52.474658    35.525746 
157008000    305.88657     367.9901    275.47049   -110331.24    110316.11    92.519609    35.529474 
157012000    271.06767    156.27089    355.83775   -110307.92    110310.07   -199.56687    35.527149 
157016000    274.95313     246.8887    324.19489   -110310.37    110309.35   -77.306189    35.525074 
157020000    279.04045    402.76056    250.56103   -110328.72    110322.23    152.19953    35.527799 
157024000    286.06731    336.88946    285.06453   -110350.06    110359.65    51.824931     35.52453 
157028000    273.52685    508.74333    375.96409   -110372.38    110378.32    132.77924    35.530778 
157032000    281.11258    291.15422    347.56844   -110372.98    110391.05   -56.414215    35.527937 
157036000    299.75006    503.00962    539.58658    -110385.9    110396.74   -36.576961     35.52711 
157040000    286.28128    412.44163    200.57066   -110408.27    110406.24    211.87097    35.527414 
157044000    299.15377    624.90126    314.68426   -110440.78    110436.34    310.21699    35.526268 
157048000    297.94915    311.79364    343.47379   -110445.59    110446.58   -31.680147     35.53152 
157052000    286.78228    245.28832    292.22912   -110458.84    110489.64   -46.940793    35.536647 
157056000    267.01587    400.01118     295.6911   -110480.19    110493.82    104.32008    35.533143 
157060000       281.36    444.03455    324.33824   -110511.67    110540.73    119.69631    35.537721 
157064000      281.018     359.4162    206.71317   -110557.81     110558.7    152.70303    35.536971 
157068000     271.8856    380.97201    147.75756   -110572.37    110570.44    233.21445    35.532693 
157072000    290.95585    357.58578    326.63059   -110561.16    110562.26    30.955198    35.523791 
157076000    280.83519    546.00608    270.66674   -110604.21    110604.95    275.33934    35.524698 
157080000    311.20589    345.35499    406.79599   -110618.33    110583.37   -61.440994    35.521495 
157084000    307.50808    231.03697    360.61746   -110626.18    110623.94   -129.58049    35.512984 
157088000    283.97356    334.99414    292.87592   -110651.84    110647.11    42.118221    35.510062 
157092000    281.34497    337.68465    266.65126   -110665.97    110659.07    71.033396    35.509058 
157096000     269.1684    265.33742    350.88837   -110678.07    110693.12   -85.550951    35.511472 
157100000    280.03307    463.24142    293.99291   -110719.26    110735.24    169.24851    35.518411 
157104000    277.12879    181.51357    309.97759   -110716.93    110735.41   -128.46402    35.515839 
157108000    271.60281    409.38534    320.00612   -110756.65    110758.63    89.379221    35.506873 
157112000    284.99217    402.47806    237.28988   -110766.61       110772    165.18818    35.505566 
157116000     269.9388    251.84722    420.42003   -110785.78    110808.25   -168.57281    35.504137 
157120000    288.22933    288.55669    261.81677   -110811.73    110816.71    26.739915    35.498502 
157124000    289.70946    340.36837    164.31667   -110847.01    110856.12    176.05171     35.50407 
157128000    294.25177    284.28271    362.81704   -110850.21    110856.27   -78.534328    35.498482 
157132000    305.44379    479.05415    329.46053   -110854.34    110854.84    149.59362    35.507487 
157136000    275.05646    333.29445     183.5759    -110874.3    110874.54    149.71855    35.506934 
157140000    279.93831     390.5417    556.90005   -110896.71    110891.96   -166.35834    35.507338 
157144000    270.49225    258.25451    182.76767   -110917.66    110920.71    75.486842    35.504811 
157148000    291.68465    418.71568    263.36606      -110920    110913.46    155.34962    35.509926 
157152000    295.04388    408.40708    294.84902    -110940.2    110937.46    113.55807    35.504597 
157156000    271.46861    329.18987    276.80516    -110971.5    110976.95    52.384711       35.503 
157160000    284.76733    484.85927    226.33362   -110991.91    110988.53    258.52564    35.506384 
157164000    270.36819    362.27084    376.17257   -111026.34    111034.59   -13.901731    35.518601 
157168000    273.98911    342.22229    329.50633   -111069.94    111058.42    12.715957    35.517777 
157172000     270.7026    243.86935    175.85055   -111103.19    111105.04    68.018794    35.513611 
157176000    288.48817    234.45099    386.30506   -111113.65    111122.04   -151.85407     35.51059 
157180000    301.17277    258.98427    317.23943   -111152.35    111136.25   -58.255158    35.519132 
157184000    261.65665     347.8283    301.32942   -111141.75    111144.15    46.498879      35.5184 
157188000    260.42068    289.74378    188.46408   -111146.62     111162.5     101.2797    35.515351 
157192000     277.2008    411.04888    339.58148   -111180.28    111183.23    71.467406     35.51417 
157196000    270.12607     370.2734    209.96789   -111214.62    111233.13    160.30551    35.517852 
157200000    318.53987    417.01057    391.63731   -111271.94    111253.13    25.373261    35.518466 
157204000    275.33917    279.91273    265.16259   -111279.32    111270.12    14.750138    35.520738 
157208000    287.53107     388.3306    227.07121   -111291.18    111298.16    161.25939     35.51683 
157212000    303.89571    370.07295    467.17851   -111324.55    111322.99   -97.105553    35.516954 
157216000    274.96075    353.49299    225.54895   -111336.41    111345.19    127.94404    35.517067 
157220000    301.08396    284.83865    312.58256   -111357.41    111348.56   -27.743913    35.519941 
157224000    293.14894    330.44649    351.67596   -111414.54    111408.62   -21.229477    35.522828 
157228000    293.95073    294.97364    292.51624   -111433.45    111426.92    2.4574013    35.518982 
157232000    283.63422    293.29531     277.9473   -111458.06       111472    15.348016     35.52314 
157236000    297.35931    242.28309    338.98635   -111494.16    111499.28   -96.703254    35.523511 
157240000    297.53988     620.2661    259.03271   -111528.26    111532.67    361.23339    35.531357 
157244000    300.77439    308.54212    315.17033   -111560.86    111560.17   -6.6282042     35.53279 
157248000    283.24588    210.57199    457.15563   -111570.02     111568.2   -246.58364    35.533258 
157252000    300.91824    321.67823    288.78723   -111564.69    111563.17    32.891001    35.529236 
157256000    269.90134    220.92716    315.90434   -111594.09    111605.04    -94.97718    35.536835 
157260000    266.30775    277.43072    359.88351   -111609.83    111638.35   -82.452787    35.532915 
157264000    263.10579    365.76854    218.79733   -111673.59    111675.52    146.97121    35.531351 
157268000     283.5034    327.01213    234.56266   -111706.43    111702.44    92.449472    35.529354 
157272000    288.28686    415.93761    271.18464   -111716.23    111726.05    144.75297    35.525349 
157276000    292.70295    268.06951      541.217   -111753.35    111758.16    -273.1475    35.528417 
157280000    306.03645    537.72263    247.26805   -111794.99    111805.53    290.45458    35.528632 
157284000     304.3546    325.77334    289.18695   -111830.07    111823.19    36.586393    35.526395 
157288000    284.78552    360.25757    207.48736   -111870.48    111878.02    152.77021    35.523446 
157292000    260.02475    329.46414    325.65463   -111885.62    111909.25    3.8095075    35.523863 
157296000    268.40218    311.72707    310.50528    -111925.3    111923.62    1.2217837    35.518356 
157300000    283.39736    218.42439    245.50356   -111965.69    111957.28    -27.07916    35.512372 
157304000    277.50482    438.58891    434.90727   -111973.48    111977.46    3.6816392    35.506175 
157308000    273.50289    377.68771    175.93639   -112008.24    112016.19    201.75132    35.499218 
157312000    270.56968    365.05612    301.95161   -112020.34    112037.51    63.104509    35.504962 
157316000    306.18813    319.68403    395.05495   -112069.94    112059.58   -75.370917    35.500466 
157320000    242.38585    168.84746    260.01191   -112053.39    112078.82   -91.164453    35.501563 
157324000    285.44572    475.81493    334.45748   -112079.87    112090.85    141.35745     35.49939 
157328000    280.06412    288.86286    367.05921   -112079.71    112094.38   -78.196352    35.493741 
157332000    318.39992    378.08832    435.14216   -112100.94    112095.04   -57.053838    35.493695 
157336000    308.76407    677.40247    242.42439   -112124.43    112123.75    434.97808     35.49142 
157340000    264.15587    293.00593    215.64405   -112116.38    112137.09    77.361884     35.49511 
157344000    282.44646     412.3577    307.69889   -112167.29     112176.9    104.65881     35.49344 
157348000    305.05973    382.93273    255.52831   -112217.62    112191.22    127.40442    35.489438 
157352000    276.68699    343.45178    456.82367   -112230.05    112231.08   -113.37189     35.48623 
157356000    263.90129    325.87283    243.46884   -112242.14    112242.59    82.403989    35.489856 
157360000    280.94177    391.84601    454.93558   -112283.32    112267.88   -63.089575    35.494038 
157364000    292.20857    311.34838    206.67272   -112306.64    112307.95    104.67566    35.493441 
157368000    289.46934    466.55348    357.33187   -112339.17     112329.8    109.22161    35.494455 
157372000    303.57839    444.03142    200.04747   -112369.91    112363.04    243.98395    35.490296 
157376000    270.53805    342.92392    320.30001   -112378.11    112377.12    22.623907    35.478872 
157380000    276.21554     250.1485    498.43359    -112404.4    112410.05   -248.28509    35.474482 
157384000    294.53574    536.15085    250.25869   -112450.86    112440.64    285.89215    35.476188 
157388000    297.92221    421.05289    371.25619   -112443.03    112447.75    49.796705    35.481744 
157392000    274.59791    166.12218    362.13881   -112450.71    112472.82   -196.01663    35.482569 
157396000    280.08944    301.17054    208.57331   -112496.75    112489.79    92.597232    35.488064 
157400000    296.51967    255.82412     370.0412   -112514.55     112495.3   -114.21708    35.488106 
157404000    270.57909    247.42385    113.34268   -112527.06    112541.76    134.08117    35.485462 
157408000     259.4935    352.45694    317.78075   -112548.31    112557.15     34.67619     35.49208 
157412000    262.75905      295.905     268.9403   -112555.71    112575.02    26.964698      35.4864 
157416000    262.50398    349.81464    422.25947   -112559.44    112587.08    -72.44483     35.48674 
157420000    288.55243    426.96676    382.81204   -112582.71    112580.65    44.154717    35.486251 
157424000    274.91345    328.21778    552.39415   -112604.07    112603.23   -224.17637     35.48074 
157428000    264.99803    287.60972    467.17436   -112635.87    112642.96   -179.56464    35.482283 
157432000    322.05371    484.11193    293.64866   -112690.37    112667.67    190.46328    35.482954 
157436000    265.41766     286.2715    325.24767   -112688.56    112703.67    -38.97617    35.475659 
157440000    275.39838    233.93329    325.70175   -112702.04    112714.94   -91.768454    35.466346 
157444000    277.28604    305.67478    286.32276    -112701.4    112715.57     19.35202    35.471475 
157448000    303.60329    444.81035    347.81394   -112753.49    112731.16    96.996413    35.470733 
157452000    254.18495    350.08579    218.84628   -112727.45    112756.61     131.2395    35.461129 
157456000    322.59548    282.70023     461.4668   -112761.79    112745.62   -178.76657      35.4595 
157460000     291.1599    378.58404    342.66325   -112802.09    112785.98    35.920796    35.451819 
157464000    301.66566    405.70109    549.89285   -112843.75    112826.96   -144.19176     35.45149 
157468000    285.50753     420.1295    278.29482    -112862.7    112860.37    141.83468    35.453894 
157472000    300.19101    257.50256    294.83452   -112898.37    112891.86   -37.331966    35.455734 
157476000    293.08675     323.5667    216.27529   -112928.62    112916.39    107.29141    35.455796 
157480000    316.31167    447.84539    503.90544   -112958.44    112941.05    -56.06005     35.44963 
157484000    268.99341    248.51366    356.89733   -112970.78    113004.83   -108.38367    35.448665 
157488000    251.94749    194.27844    328.64244   -112982.58    113004.58   -134.36401    35.443538 
157492000    290.20633    269.90871    576.79973   -113005.25    113015.25   -306.89103    35.438067 
157496000    263.27812    402.26726    130.60085   -113024.34    113045.11    271.66641    35.438967 
157500000    248.97498     457.5016    211.70799   -113046.34    113064.28    245.79361    35.437536 
157504000    292.47214    619.32284    253.30919   -113093.02    113091.09    366.01366    35.435701 
157508000    272.49504    427.26402    289.17573   -113107.23    113120.38    138.08829    35.438576 
157512000    259.04477    306.18233    372.25801   -113126.81    113143.05   -66.075675    35.440742 
157516000    266.79101    260.38563     249.5142    -113133.6    113161.87    10.871427    35.434897 
157520000    290.53755     420.0519      435.248   -113186.99    113154.77   -15.196095    35.429597 
157524000    311.09596     346.4743    367.80704   -113181.65    113173.86   -21.332743    35.427727 
157528000    233.90222    300.69237     187.5441   -113174.03    113198.13    113.14827    35.432087 
157532000    252.71627     282.3704    239.18666   -113207.91    113219.96    43.183744    35.426979 
157536000    302.75256     360.8957    286.01156   -113224.33    113222.16    74.884136    35.431499 
157540000    275.86053    322.64772    154.17607    -113236.5    113267.49    168.47165    35.439695 
157544000    320.67268     375.7196    344.74154   -113302.07    113281.94    30.978056    35.443754 
157548000    292.11245    337.08246    470.69493   -113337.73    113327.16   -133.61247     35.44957 
157552000    250.12275    288.74924    275.46454   -113355.78    113364.49    13.284699    35.450887 
157556000    314.54083    373.02324    559.74831   -113404.05    113375.18   -186.72507     35.44462 
157560000    253.57494    207.68944    313.24433   -113416.81    113426.16   -105.55488    35.439738 
157564000    279.22992    478.14958    514.30894   -113441.81    113448.93   -36.159359    35.440271 
157568000     267.9082    300.57282    465.69552      -113483     113488.4    -165.1227    35.439147 
157572000    276.82523    310.95266    266.72927   -113492.15    113514.18    44.223389    35.439326 
157576000    302.13692    254.52634    326.39222   -113545.98    113524.61   -71.865883    35.434742 
157580000    299.32183    336.23717    456.18396    -113559.5    113555.14   -119.94679    35.428007 
157584000    318.24875    367.91731    516.75898   -113596.29    113572.44   -148.84167    35.429578 
157588000    286.18134    276.91939    249.93233   -113602.58    113598.33    26.987055    35.427938 
157592000    264.04898    385.54148     319.7384   -113601.91    113608.52    65.803083    35.428137 
157596000    275.60406    403.56127    272.72189   -113612.15    113622.36    130.83938    35.431436 
157600000    277.27098    327.09853    293.41034   -113644.43    113629.95    33.688188     35.42965 
157604000    282.49899     339.3839    487.05915   -113661.91    113668.78   -147.67525    35.425962 
157608000    287.19752    362.60977    429.87871   -113689.03    113696.27   -67.268944    35.425531 
157612000    254.55935    340.24213    405.89029   -113731.37    113753.49   -65.648154    35.424379 
157616000    292.71872    475.59752     287.0963   -113772.89    113778.26    188.50123    35.419845 
157620000    276.93753    401.07619    297.97108   -113825.99    113819.87    103.10511     35.41907 
157624000    274.60762    533.89784    352.32782   -113824.33    113828.73    181.57002    35.424342 
157628000    281.57947    290.54728     276.3066   -113820.98    113824.43    14.240673    35.418361 
157632000    282.17375    346.38161    264.86651   -113846.28    113842.44    81.515098    35.413078 
157636000    290.95908     380.1851    507.39979   -113864.99    113869.46   -127.21469    35.420672 
157640000      269.373     379.9659    184.03956   -113882.71     113917.5    195.92633    35.421985 
157644000     256.1907    221.89176     253.2711   -113897.64    113926.34   -31.379341    35.422655 
157648000    271.25987    285.57762    573.21559   -113910.65    113902.61   -287.63797    35.411902 
157652000    259.81877    446.60623    429.14791   -113919.25    113921.42    17.458321    35.412386 
157656000    276.40993    223.29033    324.46349   -113923.84    113939.57   -101.17316    35.411408 
157660000    284.51343    509.90962    195.74454    -113930.9    113943.94    314.16508    35.416168 
157664000    307.90247    170.30977    451.57759   -113941.72    113911.13   -281.26782    35.411917 
157668000     295.9286    318.00717    315.64269   -113929.14    113928.59    2.3644775     35.41329 
157672000    254.07081    265.30764    383.12835   -113923.46    113948.16   -117.82071    35.410109 
157676000    296.18643     419.6918    387.60776   -113968.24    113961.11    32.084045    35.406631 
157680000    284.28264    535.61257    311.52883   -113994.84    113989.41    224.08374    35.405748 
157684000    288.08431    303.11038     329.4126   -114034.26    114028.23   -26.302225    35.402459 
157688000    269.98243    478.47824    305.70791   -114064.03    114082.85    172.77033    35.398056 
157692000    273.14215    312.63978    251.77168   -114108.92    114115.66    60.868102     35.39577 
157696000    280.85063    293.13506    489.69947   -114138.75    114119.89   -196.56441     35.39501 
157700000    298.62444    327.29977    510.53452   -114155.66    114143.33   -183.23475    35.394469 
157704000    286.06886    436.53366    476.35186   -114171.83    114175.56   -39.818204    35.393338 
157708000    304.01011    380.53689     533.9512    -114196.2    114184.64    -153.4143     35.38679 
157712000     307.2002    283.10788    298.84412   -114206.02    114193.01    -15.73624    35.392431 
157716000    296.16727    214.61221    343.57273   -114232.38    114213.36   -128.96051     35.39371 
157720000    283.45585    339.28418    431.18162   -114265.03    114253.69    -91.89744    35.391711 
157724000    296.63297    311.95736    322.40294   -114269.65    114254.32   -10.445579    35.394214 
157728000    292.53406    596.64284    291.06064   -114275.85    114279.73     305.5822    35.397512 
157732000    266.52913    370.77972    541.79391   -114283.18    114302.34   -171.01419    35.397422 
157736000    300.26168    196.50175    372.63609   -114307.43    114306.18   -176.13434     35.39407 
157740000    245.73465    266.41859    278.63125   -114328.69    114357.85   -12.212654    35.394652 
157744000    288.62563      252.982    322.72001   -114371.88     114376.3   -69.738018    35.391888 
157748000    287.49801    551.03767    399.11234   -114380.69     114369.4    151.92534    35.402453 
157752000    290.30873    622.82347    243.46342   -114402.88    114408.39    379.36005    35.399878 
157756000    260.07922    291.39094    260.88738   -114432.38    114440.53    30.503551    35.398797 
157760000    266.26631    318.87444    268.93673   -114442.71    114459.78    49.937708    35.395659 
157764000    236.76669    296.99474    349.58334   -114445.49    114472.92   -52.588601    35.391777 
157768000    272.21244    218.16539    395.77271   -114482.66    114481.23   -177.60732    35.397432 
157772000    297.91787    389.71975    258.61594   -114501.95    114498.55    131.10381    35.395505 
157776000     294.3616    336.81165    321.09673   -114516.19    114514.62    15.714915    35.391543 
157780000    303.19246    580.04641    452.54836   -114535.63    114539.39    127.49804    35.397546 
157784000    288.11175    278.29575    349.39088   -114539.41    114540.88   -71.095132    35.396834 
157788000    285.79773    321.37429    313.39855   -114559.41    114568.98    7.9757456    35.401143 
157792000    282.38501    343.12803    380.47066   -114592.26    114603.75   -37.342627    35.396001 
157796000    269.51604      293.598    624.45505   -114585.14    114610.17   -330.85705    35.396571 
157800000    305.79191    402.48426    276.96409   -114636.01    114635.16    125.52017    35.400061 
157804000    274.50303    268.71829    390.88776   -114639.36    114650.47   -122.16948    35.400569 
157808000    286.60623    251.34338    369.43118   -114687.82    114681.01    -118.0878    35.396013 
157812000    305.12276    452.08352    261.55235    -114736.5    114729.47    190.53117    35.390721 
157816000    257.54274    352.85919    215.45806   -114742.04    114768.04    137.40113    35.398123 
157820000    282.15107    371.37919    486.02281   -114772.12    114790.53   -114.64361    35.397539 
157824000    284.87389     403.1677    401.60479   -114786.92    114806.39    1.5629056    35.394741 
157828000    276.45423    472.93228    243.03884   -114816.05    114823.64    229.89344     35.39003 
157832000      285.164    298.04899     242.9466   -114811.48    114813.53    55.102392    35.387637 
157836000    272.94108    445.13422     337.1502   -114832.12    114837.58    107.98403     35.38577 
157840000    278.25986     422.0033    274.20764   -114843.26    114868.57    147.79565    35.382348 
157844000    264.23185    389.83562    348.96144   -114865.34    114891.58    40.874179    35.379201 
157848000    258.66172    179.14024    170.14718   -114870.14    114907.46    8.9930617    35.380814 
157852000    291.43325    397.22643    333.85015   -114900.98    114897.48    63.376286    35.383498 
157856000    265.55598     426.8293    262.95241   -114931.05    114938.45    163.87689    35.390342 
157860000    289.94293     390.5396     286.4772   -114937.81    114950.37     104.0624    35.389944 
157864000    281.91379    244.73205    313.11223   -114965.56    114963.19   -68.380181    35.383538 
157868000    317.74885    342.88675    223.75257   -115003.15    114992.39    119.13418    35.378873 
157872000    273.11539    513.74085    237.37188   -115009.68    115017.39    276.36897    35.382128 
157876000    266.88563    451.01532    324.42464   -115054.16    115058.55    126.59068    35.379884 
157880000    277.00099    286.32932    321.83522   -115070.87    115086.14   -35.505895    35.375181 
157884000     251.0634    223.97337    305.70358   -115103.59    115118.76   -81.730214    35.379256 
157888000    283.34399    377.03686    301.98911   -115141.71     115143.2    75.047748    35.383484 
157892000    278.76383    358.51711      211.959   -115163.46    115170.52    146.55811    35.382425 
157896000    288.42372    245.00037    290.90081   -115186.63    115197.53   -45.900441      35.3797 
157900000    267.62739    257.72847    560.75198   -115207.33    115216.07   -303.02352    35.380433 
157904000    279.26742    368.35482     398.5933   -115240.35    115240.84    -30.23848    35.382941 
157908000    294.58511    331.36429     502.5761    -115248.2    115240.78   -171.21181    35.381672 
157912000    301.84808    560.43431    229.00893   -115268.57    115275.88    331.42538     35.37666 
157916000    272.31647    256.77905     429.2552   -115269.73    115288.81   -172.47615    35.376118 
157920000    274.97026    373.79938    356.97722    -115328.7    115327.06    16.822163    35.379351 
157924000    271.94832    594.39825    390.60241    -115337.8    115335.35    203.79585    35.381599 
157928000    260.17013    285.09951     234.4989   -115330.22    115358.41    50.600609    35.385228 
157932000    299.14517    348.69291    296.50227   -115343.19    115360.81     52.19064    35.381734 
157936000    281.92039    351.64741    467.19979   -115379.39    115382.79   -115.55238    35.380318 
157940000    246.80856    364.34974    339.15987   -115407.26    115429.08    25.189877    35.384494 
157944000    257.50223    420.41393    142.89462   -115431.18       115446    277.51931     35.37484 
157948000    263.70539    424.52164    329.89883   -115451.28    115470.91     94.62281    35.370297 
157952000    275.50339    370.58764    687.75424   -115471.88    115482.79    -317.1666    35.372551 
157956000    302.33937    563.13202    223.31587   -115505.79    115527.84    339.81615    35.372699 
157960000    304.66319    441.82241     236.4175    -115530.6    115532.38     205.4049     35.37551 
157964000    304.69829    232.75668    185.25515   -115540.47     115531.8    47.501527    35.370359 
157968000    282.79875     182.8329    216.33142   -115533.65    115538.18   -33.498513     35.36866 
157972000    278.27586     301.9257    253.84304   -115575.09    115564.81    48.082658    35.370202 
157976000    297.33787    361.31688    232.95075   -115611.85    115604.66    128.36613    35.370146 
157980000    277.10753    398.20825    303.97803    -115642.7    115644.71     94.23022    35.367876 
157984000    276.36097    403.35485    224.94252   -115653.53    115663.73    178.41233    35.369696 
157988000    307.72475     323.3463    386.47972   -115700.51    115680.74   -63.133415    35.368478 
157992000     296.4907     173.9226     453.7179   -115725.46       115714    -279.7953    35.377273 
157996000    297.75706    457.73126    363.63457   -115749.21    115755.05    94.096695    35.372783 
158000000    284.46075    509.16251    356.29257   -115769.68    115774.08    152.86994    35.374484 
158004000    283.73596    483.53328    399.00399   -115777.17    115785.13    84.529294    35.370064 
158008000    283.84678    358.63662     468.1871   -115802.31    115807.99   -109.55048    35.367159 
158012000     300.6678    393.37371    364.24593   -115809.51    115807.63    29.127779    35.359325 
158016000    276.97313    542.69476    285.19765   -115810.46    115816.23    257.49711     35.36412 
158020000    260.42505    378.88205    184.46778   -115803.34    115834.08    194.41427    35.366868 
158024000    277.25725    406.32669    427.11785   -115833.63    115848.11   -20.791154    35.364108 
158028000    264.71687    499.69884    354.07777   -115841.11    115842.98    145.62106    35.365947 
158032000    270.55522    245.90193    250.93341   -115863.39    115872.82   -5.0314819    35.363208 
158036000    292.17403    407.57113    285.19329   -115892.94    115898.79    122.37783    35.361561 
158040000    266.54995    157.09648     441.5867   -115901.59    115903.47   -284.49022    35.359825 
158044000    286.94479    444.34864    269.44965   -115927.25    115926.64    174.89899    35.358607 
158048000    262.05545    384.59612    267.31031   -115942.35    115945.26    117.28581    35.356514 
158052000    306.41856    593.73973     356.3695   -115973.87    115967.49    237.37023    35.362699 
158056000    259.03704    397.66111    246.10252   -115958.26    115986.18     151.5586    35.362377 
158060000    260.96479    493.20452    402.59833   -115989.97    116015.51    90.606188    35.367344 
158064000    294.29026    387.04504    339.47991   -116036.88    116031.13    47.565123    35.371614 
158068000    286.80067    442.13035    359.43117   -116057.24    116062.06    82.699173     35.36525 
158072000    287.99919    254.53094    262.14103   -116080.23    116073.73   -7.6100915    35.370431 
158076000    253.48525    336.59358    276.83988   -116091.98       116115      59.7537    35.374875 
158080000    300.25734    557.37544    481.48804   -116127.66    116136.84    75.887399    35.376394 
158084000    270.91433    288.99239    340.40695    -116165.5     116182.6   -51.414558      35.3689 
158088000    272.62362    451.94999    326.73907   -116185.95    116189.47    125.21092     35.37777 
158092000     282.1873    546.51775    383.80231   -116186.79    116211.57    162.71544    35.374421 
158096000    295.68295    356.32375    521.52073   -116205.23    116204.64   -165.19698    35.369695 
158100000    284.34508    296.43141    438.54807   -116213.11    116217.12   -142.11666    35.365467 
158104000    281.90065    238.64033    245.33078   -116233.58    116227.16   -6.6904554    35.368964 
158108000    243.64739    365.60665    306.96526   -116238.79     116254.2    58.641392    35.378079 
158112000    302.48875     546.6179    482.93509    -116252.9    116246.92    63.682809    35.380502 
158116000    289.51732    406.19308    416.58063   -116271.88    116262.85   -10.387547    35.376514 
158120000    291.94543    143.82532    394.62004   -116289.86    116294.18   -250.79472    35.370218 
158124000    277.30142    289.21777    427.12187   -116286.49    116310.61    -137.9041     35.36422 
158128000    284.07511     251.2244     435.5917   -116328.08    116347.72    -184.3673    35.365554 
158132000     279.3501    329.26456     174.8911   -116356.25     116362.1    154.37346    35.360664 
158136000    284.43393    268.08805    329.56911   -116370.87    116373.68   -61.481057    35.352626 
158140000    281.91885    319.55775     359.3937   -116393.83     116408.1   -39.835948    35.356803 
158144000    286.83456    275.13415    291.51151   -116423.07    116414.45    -16.37736    35.356632 
158148000    275.11698    313.74019    287.66239   -116442.03    116451.03    26.077806    35.354136 
158152000    289.64346    176.46785    518.51202   -116439.23    116471.43   -342.04417    35.348258 
158156000    260.65312    188.00064     217.9314   -116469.69    116489.79   -29.930764    35.354187 
158160000    289.94411    287.80863    318.52879   -116508.82    116514.25   -30.720162    35.350479 
158164000    309.21907    405.94097    468.82276    -116542.3    116541.47    -62.88179    35.344916 
158168000    294.33033    496.61659    381.35894   -116566.82    116567.45    115.25765    35.348522 
158172000    287.05994    541.78825    258.22916   -116567.63    116579.72    283.55909    35.352519 
158176000     279.9019    282.98998    372.79366   -116592.65    116594.11   -89.803673    35.350762 
158180000    264.17664    165.61656    314.31547   -116612.07    116617.51   -148.69891    35.351532 
158184000    273.47351       278.91    209.14342   -116646.54    116624.41    69.766585    35.354648 
158188000    288.14253    388.38816    327.77215    -116674.4    116676.51    60.616016    35.350457 
158192000    265.56471     290.7371    266.20546   -116689.81    116698.09    24.531639    35.347452 
158196000    256.66078     253.5687    227.66496   -116716.66     116729.7    25.903733    35.348049 
158200000    247.17411    411.66033    198.82477   -116739.87    116752.09    212.83556      35.3489 
158204000    295.63468    274.42947    370.85611   -116756.12    116766.04   -96.426645    35.347025 
158208000    270.89171     188.0136    418.73269   -116774.88    116787.76   -230.71909    35.334859 
158212000    343.22653    373.47668    576.95023      -116814    116788.76   -203.47355    35.328906 
158216000    291.63526    357.90374    446.61496   -116817.94    116817.17   -88.711224    35.324813 
158220000    275.40623    409.57165    208.94115   -116815.46    116835.76    200.63049    35.319684 
158224000    273.26535    391.50203    303.83596   -116837.37    116848.89    87.666068    35.319565 
158228000    281.74267    492.97607    447.37271   -116854.11    116857.35    45.603365    35.320608 
158232000    291.48586    388.02819    322.73041   -116885.65    116884.79     65.29778     35.31404 
158236000    314.21606    338.60047     304.9771   -116912.45    116908.11    33.623371    35.313167 
158240000    260.77765    462.60663    320.86442   -116911.52    116937.06    141.74221    35.312613 
158244000     284.4576    250.91498    426.07878   -116931.07    116944.33    -175.1638    35.311146 
158248000    278.80849    371.55266    361.37928    -116957.6    116966.36    10.173376    35.314042 
158252000    266.02559    340.70685    369.55757   -116956.89    116978.94   -28.850718    35.313154 
158256000    274.19717     215.7947    239.46849   -116995.71    117000.76   -23.673788    35.312907 
158260000    321.83895    496.79311    238.23932   -117029.53    117013.65    258.55379    35.318332 
158264000    284.74227    253.40744    350.45566   -117034.64    117041.01   -97.048223    35.315491 
158268000    292.45447    256.06113    325.80645   -117049.78       117061    -69.74532    35.314284 
158272000    290.62932    427.60313    308.82314   -117075.79    117067.58    118.77999    35.323741 
158276000    270.08789    420.51258    238.76584   -117084.84    117094.17    181.74674    35.323918 
158280000    279.30482    304.35776    309.07275   -117096.83    117099.52   -4.7149884    35.321243 
158284000    321.97867    429.49854    496.39535   -117121.12    117104.04   -66.896811    35.324439 
158288000    276.41884    295.88758    231.98393   -117122.62    117140.79    63.903656    35.327567 
158292000    265.94046    353.57867    128.70149   -117141.21    117150.64    224.87717    35.328248 
158296000    309.33073    386.99961    243.43677   -117202.97    117165.25    143.56284    35.335502 
158300000    269.20557    352.38177    379.90824   -117199.94    117223.06   -27.526466    35.336785 
158304000    301.32898     316.7152    415.02489   -117268.16    117254.42   -98.309682    35.330061 
158308000    272.40569    339.94151      337.083   -117257.52    117268.37    2.8585093    35.329987 
158312000    254.05796     251.7553    374.54091   -117270.06     117282.6   -122.78561     35.32939 
158316000    292.69189    280.76078     427.0912    -117287.9    117298.56   -146.33042    35.325514 
158320000     249.2685    256.77546    328.25268   -117312.87    117340.31   -71.477225    35.322506 
158324000    277.82141    344.21012    390.37223   -117355.23    117361.22   -46.162103     35.32384 
158328000    291.43105    431.94047    436.33416   -117377.93    117384.02   -4.3936817    35.327527 
158332000    268.98825    421.84517    559.34472   -117392.53     117402.6   -137.49955    35.325468 
158336000    274.43043    595.23676    212.37831   -117429.34    117419.92    382.85845    35.329303 
158340000    313.95883    509.03865    478.24053   -117437.53    117433.71    30.798122    35.332128 
158344000      272.441    186.55155     310.8272   -117467.34    117473.74   -124.27565    35.325582 
158348000    313.63035    321.59377    319.56011   -117510.21    117501.95    2.0336645    35.328316 
158352000    306.09603    348.29677    382.30485   -117528.26    117525.23   -34.008087    35.332213 
158356000    287.87014    364.06634    400.27021   -117535.92    117538.73   -36.203872    35.330799 
158360000    273.33108    507.43839    339.57855   -117538.14    117574.94    167.85983     35.33278 
158364000    263.66629    156.77657    224.54866   -117565.12    117575.22   -67.772082    35.327122 
158368000    274.97906    310.84401    342.69685   -117615.34    117622.68   -31.852836    35.327506 
158372000    292.68855    650.36851    170.16299   -117643.23    117642.09    480.20551    35.332645 
158376000    291.57834     245.1391     456.8357   -117641.83    117657.36    -211.6966    35.328464 
158380000    275.10056    362.69558    327.46516    -117661.1    117663.81    35.230424    35.330946 
158384000      286.056    260.49538    279.08763   -117698.38    117697.48   -18.592253    35.325274 
158388000    267.29555    403.29267    137.24532   -117717.93    117731.93    266.04735    35.324189 
158392000    258.59177    359.27381    170.71045   -117734.27    117770.29    188.56335    35.324194 
158396000    261.58405    275.83088    208.44595    -117770.3    117805.12    67.384936    35.324204 
158400000    293.40885    202.47124    257.99819   -117794.88    117800.67   -55.526955     35.32392 
158404000    316.93259     345.3639    375.74833   -117837.63    117815.87   -30.384421    35.328485 
158408000    302.04654    542.99405    252.59409   -117868.56    117857.68    290.39996    35.327077 
158412000    251.34971    235.16064    299.55513   -117869.11    117906.26   -64.394496    35.322952 
158416000    294.48289    406.53124    282.89167   -117892.13    117902.48    123.63957    35.327684 
158420000    290.08329    510.23857     277.0538   -117923.24    117932.39    233.18477    35.325719 
158424000    304.30168    488.76444     499.2062    -117937.4    117931.92   -10.441756     35.33171 
158428000    265.21471    398.07843     515.4839   -117940.59    117952.33   -117.40548    35.330898 
158432000    284.58695    313.33699    345.30486   -117957.37     117981.7    -31.96787    35.331435 
158436000    276.11031     292.7004    381.44455   -118003.92    118031.77    -88.74415    35.333371 
158440000     273.2411    318.93983    309.23164   -118023.83    118037.82    9.7081881    35.335669 
158444000    297.00563    283.97311    332.72459   -118062.47    118069.36   -48.751473    35.333494 
158448000    265.30486     398.6614    225.01368   -118099.63    118101.36    173.64772    35.338467 
158452000    280.92413    357.86949    299.93276   -118112.63    118117.24    57.936728    35.331255 
158456000    274.55146    393.58541    228.03512      -118127    118131.68    165.55029    35.333018 
158460000    291.47879     389.6127    385.04795   -118143.11    118152.45    4.5647504    35.343179 
158464000    285.00377      282.319    199.06096    -118155.1    118150.32    83.258045    35.344452 
158468000    288.84424     197.6595    429.18023   -118198.45    118194.76   -231.52073    35.342505 
158472000    293.66922    507.71988    268.90159   -118220.05    118223.96    238.81829    35.350421 
158476000    270.66134    299.38463    237.81389   -118249.25    118255.78     61.57074    35.351581 
158480000    298.00565    419.84319    385.25545   -118273.82    118256.37     34.58774    35.352728 
158484000     267.1139    314.04731    406.43819   -118256.33    118284.78    -92.39088    35.349858 
158488000    299.81544    385.37945    421.47814   -118316.24    118323.22   -36.098691    35.352256 
158492000    253.15627    230.00374    433.64156   -118339.73    118344.07   -203.63783     35.35072 
158496000    255.36438    271.85532    388.51583    -118353.6    118376.46   -116.66051    35.348395 
158500000    277.31633    235.19146    297.62696   -118363.77    118395.16   -62.435502    35.345406 
158504000    267.92829    300.55266    398.50769   -118400.97    118414.28   -97.955029    35.345793 
158508000    296.09682    381.16259    315.26123   -118410.59    118417.42     65.90136    35.348191 
158512000    274.76554    221.60492    289.59471    -118439.8    118448.54   -67.989785    35.343295 
158516000    269.92338    220.83352    381.44458   -118475.01    118484.02   -160.61106    35.348307 
158520000    305.80015    506.82791    261.38468   -118493.71    118505.94    245.44323    35.346401 
158524000    292.36592    349.16105     488.5991   -118522.06    118531.27   -139.43805    35.348782 
158528000    275.93039     333.2721    365.42507   -118556.94    118555.37   -32.152973    35.347642 
158532000    278.07986    251.76849    281.89378   -118568.72    118592.25   -30.125289    35.340046 
158536000    296.43691    388.46025    281.12958   -118632.59    118599.07    107.33067    35.338138 
158540000    316.26479     372.3666    343.22768   -118652.82    118622.74     29.13892    35.339592 
158544000    297.15516    249.35273    492.78321   -118668.44    118671.06   -243.43048    35.344679 
158548000    296.18077    389.09469    313.70405    -118699.7    118715.22    75.390641    35.345684 
158552000    269.74867    279.83738    442.37763   -118719.26       118724   -162.54026    35.345186 
158556000     286.4413    247.87759    292.15662   -118740.86    118760.46   -44.279032    35.346524 
158560000    291.66281    424.09959    471.14239    -118787.5    118783.16   -47.042798    35.349658 
158564000    310.35148    457.39174    245.54947   -118803.88    118783.59    211.84227    35.351866 
158568000    269.88783    278.78817     341.7194   -118807.16    118806.53   -62.931231    35.351444 
158572000    275.88185    307.07155    268.60804   -118800.33    118824.31    38.463511    35.350976 
158576000    257.17523    328.88041    389.88925   -118836.64    118849.86   -61.008844    35.356145 
158580000    283.65159        496.8    337.99514   -118876.95    118868.51    158.80486    35.360273 
158584000    265.05762    273.49872    227.83451   -118874.93    118903.29    45.664216    35.356669 
158588000    243.99963    293.64331    133.53202   -118896.65    118931.61    160.11129    35.349027 
158592000    289.20985    429.25486    361.04897   -118942.87    118942.67    68.205887    35.352097 
158596000    293.90766     196.5024    132.86908   -118957.39     118968.6    63.633325    35.342592 
158600000    278.67454    275.67744    237.07589   -118979.46    118996.41    38.601552    35.341836 
158604000    289.13257    263.85786    514.27976   -118994.97    119003.84    -250.4219    35.345036 
158608000    274.29855    251.23759     284.8281   -118999.13     119017.1   -33.590511    35.345042 
158612000    296.26666    368.63172    565.59645   -119028.48    119020.85   -196.96473     35.35129 
158616000    288.80883    292.10121     469.4781   -119034.65    119042.09   -177.37689    35.352569 
158620000     297.1778    478.38474    433.43054   -119052.13    119055.25    44.954204    35.344526 
158624000    274.25058    467.86662    413.56584   -119101.02    119108.77    54.300783    35.339357 
158628000     275.6438    423.14152      384.812   -119116.73     119124.5    38.329516    35.339379 
158632000    299.04266    321.75729    380.03216   -119134.56    119129.07   -58.274873    35.334104 
158636000    298.66335    363.41879    359.34583   -119162.56    119150.61    4.0729579    35.337747 
158640000    302.04471    551.98675    518.10289   -119166.94    119161.97    33.883866    35.346314 
158644000    264.89809    352.49131    386.19185   -119175.46    119184.29    -33.70054      35.3477 
158648000    295.79856    271.77107       301.09   -119198.06    119208.68   -29.318925    35.348228 
158652000    285.75835    534.32814    380.25787   -119199.59    119202.62    154.07027    35.346014 
158656000    283.83265    337.08635     447.3392   -119221.14    119213.79   -110.25285    35.344484 
158660000    275.64746    314.64507    439.14591   -119229.01    119246.25   -124.50084    35.336051 
158664000    328.14215    311.64254    414.53206   -119244.54    119229.32   -102.88952    35.326522 
158668000    291.70714    546.10839    177.78593   -119265.08    119257.59    368.32247    35.323404 
158672000    288.03251    391.36811    463.99644   -119288.12    119265.55   -72.628324    35.333276 
158676000    317.03454    492.65609    263.53023   -119296.39    119287.48    229.12586    35.330389 
158680000    270.42766    282.46013    351.78094   -119315.77    119322.62   -69.320804    35.332071 
158684000    271.86437    184.65822    233.46839   -119314.34    119323.73   -48.810171    35.333206 
158688000    323.47227    384.56173    296.68528   -119361.84    119341.23    87.876446    35.326583 
158692000    299.90351    350.61187    244.74741   -119364.91    119353.05    105.86445    35.326843 
158696000     284.0904    335.16876    273.46219   -119370.66    119374.94    61.706572    35.330115 
158700000    282.63926    456.56664    353.58986   -119428.92    119421.63    102.97678    35.336321 
158704000    274.39214    248.20893    353.28379   -119435.27     119451.9   -105.07486    35.339509 
158708000    285.95003    408.77219    302.03837   -119454.43    119463.23    106.73382    35.334247 
158712000    318.54314    454.44817    334.72321   -119484.72    119472.94    119.72496    35.334707 
158716000    283.89624    588.97242    290.74364   -119509.24    119506.63    298.22878    35.337289 
158720000    279.66965    389.04728    297.32839   -119536.76    119544.47    91.718895    35.338548 
158724000    301.99624    251.53168    280.95863   -119551.65    119549.36    -29.42695    35.340325 
158728000    286.58202    379.05284    249.04799   -119560.91    119579.45    130.00484    35.349779 
158732000    248.80539    304.10247    428.12921   -119591.92    119605.61   -124.02674    35.349205 
158736000     278.3691    426.50807    354.89023   -119624.26    119633.74    71.617839    35.350589 
158740000    312.74932    338.69668    495.33556   -119661.64    119653.33   -156.63888    35.347436 
158744000    273.53057    454.65061    203.65346   -119706.16     119697.5    250.99715    35.348878 
158748000    292.19175    249.79423    338.57864   -119735.44    119734.94   -88.784415    35.352835 
158752000    297.21668    322.25322    462.29063    -119737.7     119739.6   -140.03742    35.352671 
158756000    280.74278    170.72745    297.02527   -119756.53    119778.65   -126.29782    35.348453 
158760000    307.45354    416.22755     564.7601   -119800.91    119809.52   -148.53255    35.343026 
158764000    315.83456    298.42546    258.02812   -119838.61    119843.97     40.39734    35.344256 
158768000    288.84819    328.63241    303.39629   -119863.63    119872.08     25.23612    35.343385 
158772000    252.47821    182.30369    303.23556   -119893.56    119912.16   -120.93188    35.346556 
158776000    294.51072    327.32909    243.80645   -119930.66    119921.61    83.522636    35.345725 
158780000    294.84187    692.95041    406.62688   -119952.07    119947.35    286.32353    35.345649 
158784000    285.79333    346.94935    332.49262   -119958.03    119962.98    14.456738    35.341524 
158788000    283.18015    290.28437    382.84381   -119999.02     120017.3   -92.559436    35.340434 
158792000    304.85872    462.56574    316.76998   -120041.71    120028.19    145.79576    35.341518 
158796000    271.37128    432.37306    333.16489   -120050.19    120074.74    99.208166    35.338322 
158800000    281.57073    311.92528    283.89751   -120064.24     120074.9    28.027775    35.335264 
158804000    304.94495    234.85517    554.28291   -120088.37    120097.41   -319.42773    35.327379 
158808000     279.6426    245.77118    223.54068   -120113.66    120108.73    22.230502    35.325707 
158812000    309.53929    259.90801     213.8852   -120158.45    120154.45    46.022814    35.325488 
158816000    297.41948    380.12853    501.42511   -120175.33    120174.48   -121.29658    35.324411 
158820000    251.31413    251.89633    208.39064   -120198.16    120209.99    43.505684    35.324718 
158824000    299.06031    340.30244    414.23826   -120233.88    120234.49   -73.935819    35.324591 
158828000    269.39643    281.89664    317.01436   -120237.18    120248.79   -35.117719    35.320688 
158832000    268.94986    546.64051    211.96127    -120265.6    120277.21    334.67925    35.320266 
158836000    271.36283    299.98214    401.40038    -120274.1    120286.94   -101.41824    35.319054 
158840000    289.66551    238.25253     415.2967   -120294.49    120287.27   -177.04416    35.318255 
158844000    281.14044    362.59254    484.37039    -120328.7    120328.99   -121.77785    35.314461 
158848000    282.74241    230.37615    186.57182   -120346.31    120355.57    43.804334    35.313716 
158852000    270.40591    373.88049    376.08232   -120364.99     120383.7   -2.2018338    35.312258 
158856000    292.27248    356.48568    440.86593   -120401.22    120398.03   -84.380246     35.31408 
158860000     285.4151    289.28872    389.88679    -120402.4     120414.4   -100.59807    35.317336 
158864000    312.22755    222.42457    597.38897   -120405.41    120417.15    -374.9644    35.321569 
158868000    254.14315     317.5742    289.08347   -120430.08    120449.51    28.490736    35.319111 
158872000    298.76503     453.1452    265.45518   -120457.39    120463.33    187.69002    35.311148 
158876000    288.51641    338.15028    326.48902   -120475.95     120477.9     11.66126    35.306164 
158880000    260.30719    351.95807    315.21359   -120497.61    120513.55    36.744479    35.304456 
158884000    282.35512    294.58185    418.32272   -120507.03    120520.06   -123.74087    35.306174 
158888000    263.49807    239.92002    324.98202   -120527.71    120551.29   -85.061997    35.302978 
158892000    266.29094     408.0006    286.85771   -120560.66    120587.49    121.14289    35.304973 
158896000    276.10453    288.81226    268.35651    -120570.8       120576    20.455754    35.306445 
158900000    262.88937    308.27811    321.13624   -120603.88    120608.92   -12.858134    35.310904 
158904000    286.09621     384.1361    268.11193   -120618.68     120616.3    116.02418    35.307754 
158908000    286.12643    595.97924    206.27537   -120642.26    120645.83    389.70386    35.311292 
158912000    281.68479    374.92452    344.04255   -120648.65    120653.33    30.881974    35.320518 
158916000    292.64029    473.91908    242.09536   -120688.64    120669.45    231.82372    35.325259 
158920000    267.92125    306.18679    235.02218   -120698.49     120700.5     71.16461    35.322213 
158924000    299.42004    411.84409    275.27573    -120697.8    120704.73    136.56836    35.319941 
158928000    269.47348     281.7608    289.15467    -120731.4    120730.31   -7.3938673    35.315476 
158932000    275.64335    231.02468    278.21775   -120762.49    120773.17   -47.193071    35.320021 
158936000    265.21488    433.60672    287.37225   -120759.08    120798.61    146.23447    35.324215 
158940000     279.3352    334.40538    389.51523   -120778.27    120798.95   -55.109844    35.324567 
158944000    283.30109    520.02051    433.44596    -120813.4    120803.96     86.57455    35.326574 
158948000    286.84144    217.73485    471.82252   -120824.44    120833.17   -254.08768    35.324796 
158952000    274.69472    414.73937    314.90561   -120854.37     120862.9    99.833757    35.330538 
158956000    277.09987    309.20067    237.25783   -120869.95    120865.23    71.942844    35.331763 
158960000    259.18232    454.99264    192.70154   -120875.71    120885.29    262.29111    35.327835 
158964000    296.03047    373.79824    546.87523   -120886.11    120887.06     -173.077    35.329286 
158968000    279.10781    500.40998    241.20047      -120904    120917.86    259.20951    35.327086 
158972000    288.53241    240.62416    310.40551    -120960.4    120948.65   -69.781354    35.328802 
158976000    271.94277     380.5936    445.52146   -120964.34    120969.87    -64.92786    35.331017 
158980000    274.40785    280.75671    347.41154   -120952.14    120963.33   -66.654828    35.331399 
158984000    266.22482    246.26091    382.62376    -120971.9    120970.87   -136.36284     35.33715 
158988000      268.734    205.23712    308.32606   -120981.45    121006.53   -103.08893    35.333871 
158992000    272.69658    190.22721    242.74869   -121037.71    121060.62   -52.521471    35.333294 
158996000    263.52107    554.70235    229.63958   -121054.03    121062.32    325.06276    35.329032 
159000000    279.22474    352.77188    215.67417   -121069.16    121075.02    137.09771    35.329418 
159004000    289.17346    230.17784    330.53719   -121102.12       121105   -100.35935     35.33097 
159008000      273.165    620.41006    326.25262   -121102.09    121112.55    294.15744    35.345102 
159012000    278.46018    264.93689    192.77028   -121122.79    121137.68    72.166613    35.344671 
159016000     279.7606    336.57378    211.58275   -121144.83    121129.64    124.99103    35.347138 
159020000     302.0259     502.1016    279.48416   -121193.55    121185.17    222.61744    35.356563 
159024000    293.83511    253.59383    241.16165   -121189.42    121207.47    12.432182    35.350396 
159028000    275.53217    453.22397    240.13227   -121249.75    121258.57     213.0917    35.348741 
159032000    282.71047    265.14936    387.62188   -121267.85    121285.46   -122.47251    35.345984 
159036000    277.04704    428.50887    361.89512   -121268.74    121287.85    66.613747     35.34164 
159040000    268.33306     298.9776    320.17855   -121270.91    121278.81   -21.200954    35.338193 
159044000    263.87908    315.46894    196.97679   -121285.72     121302.4    118.49215    35.341344 
159048000    293.87636    413.35279    267.63412   -121278.88     121288.3    145.71867    35.337977 
159052000    272.40963    308.55384    277.65545   -121301.34    121304.63    30.898389    35.337273 
159056000     241.7076     271.4031    290.43215   -121300.95    121328.79   -19.029051    35.336667 
159060000    269.06435    439.18466    359.94642    -121350.4    121375.06    79.238237    35.338001 
159064000    280.33798    233.99516    304.23748    -121390.3    121395.47   -70.242322    35.339953 
159068000    290.96233    513.03241    307.08297   -121423.62    121412.84    205.94945    35.336372 
159072000    270.08968    309.54246    308.98273   -121424.88    121451.68   0.55972841    35.332049 
159076000    261.17765    411.47394    259.36216    -121436.3    121462.49    152.11178    35.329854 
159080000    281.07377    272.10593    483.68106   -121464.14    121478.18   -211.57513    35.330173 
159084000    303.54784    352.04076    322.78046   -121521.29    121510.01      29.2603    35.326535 
159088000     284.7005    264.23512    336.59941   -121539.58    121545.27   -72.364292    35.327225 
159092000    288.80685    257.77239    209.37291   -121564.32    121555.22    48.399477    35.326618 
159096000    307.15598    468.51295    274.86259    -121610.8    121612.56    193.65036    35.327008 
159100000    298.16947    393.53447    288.74235   -121639.25    121630.38    104.79212    35.330448 
159104000    289.17132    383.80318    252.45606   -121651.21    121652.56    131.34712     35.33621 
159108000    262.99829     315.4682    223.52155    -121660.8    121674.18    91.946657     35.33838 
159112000     259.0503    224.75626    358.24355   -121666.93    121680.64   -133.48729    35.332739 
159116000     287.6942    209.80476    383.82599   -121698.04    121687.25   -174.02123    35.341864 
159120000      262.607    173.51198    357.62508   -121697.86    121718.47   -184.11311    35.338659 
159124000     272.6447    178.57675     484.3833   -121706.67    121720.49   -305.80656    35.344009 
159128000    269.63325    197.02164    222.79887   -121734.78     121747.6   -25.777227    35.341874 
159132000    304.75677    531.39242     312.0235   -121789.03    121777.41    219.36892    35.345998 
159136000    278.45933     224.1115    335.61176   -121824.45    121828.43   -111.50026    35.342679 
159140000    284.97765    339.85052    286.60688   -121853.45    121858.13    53.243641    35.346695 
159144000    296.36144    390.91258     351.9684   -121884.09    121877.51    38.944181    35.344474 
159148000    266.12463    473.43779    333.76697   -121910.93    121919.87    139.67082    35.346102 
159152000    250.07929    248.28586    454.68825   -121946.68    121952.46   -206.40239    35.353316 
159156000    276.03519    270.56764    315.24444   -121992.64    121990.77   -44.676803    35.357465 
159160000    280.61433    470.48357    302.11074   -122030.39    122016.05    168.37283    35.354827 
159164000    261.84483    287.45799    253.28773   -121995.44    122028.26    34.170259    35.348298 
159168000    266.57795    287.27032    287.67427   -122005.93    122036.93  -0.40394912     35.34976 
159172000    297.22206    347.58416    258.32189   -122058.94    122049.91    89.262264    35.348458 
159176000    263.23932    362.16912    362.41095   -122065.53    122075.64  -0.24183569    35.350312 
159180000    272.79447    438.54578    165.68437   -122118.91    122117.75    272.86141    35.353918 
159184000    325.57216    460.09521    695.02648   -122149.83    122134.23   -234.93128    35.356161 
159188000    294.62888    178.42026    466.21785   -122190.48    122173.24   -287.79759    35.354496 
159192000    308.34824    357.52152    319.62214   -122208.64    122207.04    37.899378    35.353997 
159196000    267.79885    434.53695    346.63363   -122193.72     122209.4    87.903329    35.356168 
159200000    299.60794    377.32965    465.67144   -122184.81    122186.64   -88.341788    35.352969 
159204000     308.6943    566.78465    516.10667   -122223.25    122214.25    50.677986    35.353371 
159208000    267.48987    485.96962    300.11119   -122234.69    122248.71    185.85842    35.358541 
159212000    268.48899      188.092    186.68168   -122267.81    122271.05    1.4103155    35.360016 
159216000    279.24829    287.03081    218.87429   -122318.15     122342.5     68.15652     35.36877 
159220000    295.11837    472.12703    407.30903   -122365.23    122378.84    64.817999    35.373438 
159224000    281.08403     376.9121    223.36725   -122394.59    122405.11    153.54485    35.375368 
159228000    267.84894      283.461    222.90047   -122423.49    122439.79    60.560534     35.37362 
159232000    250.97349    412.28276    265.70485   -122443.75    122478.45     146.5779    35.369192 
159236000    289.93348    197.96851    291.61682   -122472.65    122482.13   -93.648309    35.367915 
159240000     281.6287    306.85914    254.16812   -122513.59       122506    52.691016    35.363989 
159244000    275.36868    349.16866    230.93886   -122529.16    122530.38     118.2298    35.365203 
159248000    279.90497    451.75831    212.46571   -122543.84    122538.54     239.2926    35.368822 
159252000    305.33229    531.86102    330.65608   -122551.78     122544.5    201.20494     35.37412 
159256000    264.89915    477.63433    251.84979   -122560.29    122581.88    225.78454    35.374365 
159260000     272.0725    348.94843    337.64606   -122582.13    122603.05    11.302364    35.377785 
159264000    305.81337    325.12969    377.16858   -122612.87    122607.67   -52.038892    35.379869 
159268000    269.42273    446.32628     388.5991    -122639.3    122652.44    57.727186    35.376615 
159272000    306.70405    361.68863    369.02703   -122668.77    122662.09   -7.3383919    35.372465 
159276000    287.08089    331.40678    170.09724   -122687.37    122676.78    161.30954    35.362648 
159280000    303.99721    252.72432    280.92581   -122729.71    122731.54   -28.201492    35.359983 
159284000     295.8457    299.28617    254.14326   -122777.41    122761.98    45.142911    35.359809 
159288000      260.449    363.91121    210.47975   -122798.66    122826.83    153.43147    35.360274 
159292000    283.40712    276.54039    387.18104    -122852.2     122855.2   -110.64065    35.357505 
159296000    277.51101    321.66052    393.35048   -122847.04    122865.35   -71.689962    35.358709 
159300000    274.48636    338.56923    428.94013   -122871.85    122869.68   -90.370902     35.35259 
159304000    287.25725    415.45829    411.76631   -122893.59    122895.33    3.6919787    35.352746 
159308000    314.87059    488.67037     349.8196    -122914.2    122911.56    138.85077    35.350794 
159312000    285.87826    481.36049     291.0459   -122942.26     122939.3    190.31459    35.342486 
159316000    264.84946    450.02365     161.6101    -122947.6    122975.46    288.41356     35.34043 
159320000    274.96124     378.7746    201.46472   -122976.56    122995.48    177.30988    35.337605 
159324000    271.48775    459.02553    166.63045   -123027.81    123026.15    292.39508    35.338933 
159328000    294.53369     381.5306    328.41869   -123063.19    123050.68     53.11191     35.34231 
159332000    282.80796    302.00307    275.00488   -123073.97    123085.89    26.998188    35.352445 
159336000    294.56402    429.10437    332.32705   -123112.85    123100.58    96.777321    35.352623 
159340000    299.90811    507.93857     277.3252   -123132.33    123119.97    230.61337    35.354095 
159344000    286.31827    503.89997    540.77895   -123142.57    123147.81    -36.87898    35.352347 
159348000    309.17069    213.45382    458.59007   -123169.32    123168.68   -245.13625    35.350458 
159352000    293.70712    429.05319    286.89617   -123207.18    123190.66    142.15702    35.352426 
159356000    286.78485    317.22795    357.60219   -123200.77    123207.79   -40.374239    35.351261 
159360000    280.38447    369.81212     332.6891   -123215.27    123228.44    37.123026    35.358786 
159364000    279.09604    322.74943    127.39316   -123250.82    123247.59    195.35627    35.360632 
159368000    306.41965    442.80116    276.60953   -123265.96     123269.4    166.19163    35.358725 
159372000    274.34845    340.98826    425.40521   -123276.37    123288.93   -84.416954      35.3568 
159376000    282.11697    286.53443     354.4898   -123309.25    123322.24   -67.955376     35.35332 
159380000    264.34109    404.87879     209.4103   -123329.71    123337.23    195.46849    35.350158 
159384000     254.6815    383.68033     305.5713   -123354.26    123378.29    78.109024    35.352644 
159388000    272.75584    362.28676    354.44447   -123396.99    123416.26    7.8422907    35.357708 
159392000    265.31241     429.6019    331.40098   -123454.62    123460.03    98.200922    35.359591 
159396000    286.36189    268.74656    275.84943   -123461.29    123469.15   -7.1028653    35.363874 
159400000    255.12618    297.74229    241.19415    -123486.6    123523.81    56.548136    35.364829 
159404000    290.91077    526.16431    268.49891   -123523.98    123531.93     257.6654    35.368939 
159408000    311.35844    187.83319    320.28826   -123574.37     123556.8   -132.45507    35.369002 
159412000    263.89797    255.78083    226.90863    -123558.3    123576.94      28.8722    35.366116 
159416000    291.01498    476.33501    294.74749   -123565.11    123566.72    181.58752    35.368636 
159420000    272.12866    238.28637    314.63313   -123583.49    123584.08   -76.346766    35.367668 
159424000     297.5847    360.81834    392.91316   -123609.88    123618.75   -32.094814    35.368674 
159428000    261.63762    258.49803    191.14149   -123613.17    123630.12    67.356546    35.370234 
159432000    276.38322    476.93495    361.04897   -123616.17    123622.56    115.88599    35.367342 
159436000    298.16632    498.79474    299.93932   -123623.39    123622.31    198.85541    35.367235 
159440000    261.46194    284.97441    375.72355   -123630.04    123645.53   -90.749137    35.367189 
159444000    305.19916    418.62393    175.00963   -123664.71    123659.76     243.6143    35.366085 
159448000    284.58086    386.34757    266.41134   -123673.73    123671.98    119.93623    35.368617 
159452000    275.91252    315.93584    373.63305   -123687.77    123702.85   -57.697215     35.36797 
159456000    259.72012    387.52096    237.98223   -123707.94     123736.4    149.53873    35.371391 
159460000    286.59392    457.63746    244.86446   -123746.44    123746.09    212.77301    35.371151 
159464000    288.27182    367.98435    305.59109   -123768.97    123757.95    62.393259     35.37288 
159468000    298.37041    371.36541    479.40409   -123804.96    123806.36   -108.03868    35.372997 
159472000    288.42192    356.65754    301.60193   -123841.29    123860.68    55.055608    35.371747 
159476000    255.97984    235.43307    351.24449   -123881.37    123906.54   -115.81142    35.370036 
159480000    310.13444    360.19655    341.77273   -123929.02    123928.08    18.423817    35.374547 
159484000    288.31159    419.61448     388.0256   -123976.48    123982.34    31.588876    35.377163 
159488000    262.75721    325.13226    401.69903   -123993.49    124010.06   -76.566771    35.376813 
159492000    298.09244    286.22359    397.54168   -124013.52    124001.64   -111.31809    35.375253 
159496000    291.33858    366.63776     377.1211   -124034.78    124029.99   -10.483341    35.373765 
159500000    271.91287    224.81828    315.08946   -124040.65    124057.32   -90.271176    35.373308 
159504000    279.79133    399.95414    176.16436   -124076.12    124088.51    223.78978      35.3741 
159508000    251.70491    493.02112    315.60259   -124073.13       124100    177.41853    35.378013 
159512000    292.00724    294.93889    416.34802   -124093.21    124098.46   -121.40913    35.375701 
159516000     278.8244    442.60961     176.2476      -124103    124110.82    266.36201    35.384816 
159520000    266.89341    203.47073    533.35278   -124107.25    124133.62   -329.88205    35.383269 
159524000    329.08749    317.60846    205.27249   -124180.65    124125.94    112.33597    35.380684 
159528000    307.60762    259.76635    348.96883   -124208.81    124192.18   -89.202476    35.383662 
159532000    276.26927    379.57811    295.60766   -124215.95    124227.16     83.97045    35.385133 
159536000       262.86    248.50759    175.84248    -124237.5     124256.2    72.665113    35.391129 
159540000    297.06237    309.76598    262.30662   -124295.11    124279.15    47.459357    35.393431 
159544000    285.10082    247.78683    304.13209   -124299.87    124296.67   -56.345269    35.392509 
159548000    290.89605    318.09156    309.35105   -124340.41    124329.38    8.7405084    35.391736 
159552000    272.96703    286.96693    233.30137   -124335.78    124351.25    53.665554    35.386161 
159556000    290.53083    374.61751    260.62339   -124355.89    124366.86    113.99412    35.389607 
159560000    275.23896    498.09145    363.21568    -124359.3    124363.17    134.87577    35.391642 
159564000    245.93291    257.17273    223.99975   -124375.53    124396.54    33.172976    35.386797 
159568000    292.83692    479.24384    334.71626   -124429.23    124423.58    144.52758    35.385099 
159572000    281.45112    329.26233    312.32334   -124449.76    124452.94    16.938996    35.389397 
159576000    252.57127    385.34591    270.89405   -124445.97    124467.69    114.45186    35.393855 
159580000    303.35742    419.47582    677.61136   -124472.95    124461.51   -258.13554    35.394483 
159584000    298.18239    389.78366    373.56314   -124518.94    124500.18     16.22052     35.39275 
159588000    303.24293    322.02948    287.50921    -124544.7    124513.98     34.52027    35.393406 
159592000    287.52306    300.44875     208.4803   -124574.89    124573.08    91.968441    35.394185 
159596000    267.05167    372.78049    296.37504   -124576.52    124597.64    76.405457    35.400136 
159600000    273.39391    435.87683    363.67294   -124640.58    124630.01    72.203891    35.409787 
159604000    304.55395    239.39336    434.04573   -124665.68    124650.74   -194.65237    35.411414 
159608000    256.15095    246.02845    294.31011   -124664.79    124685.91   -48.281658    35.414106 
159612000    306.50102     446.3801    508.74445   -124673.81       124677   -62.364342    35.416096 
159616000    282.22627    293.64076    313.92595    -124684.7    124681.84    -20.28519    35.423162 
159620000    271.70196    408.01073    400.93033   -124686.38    124719.43    7.0803949    35.422394 
159624000    248.81809     391.6121    448.64643   -124702.54    124734.28   -57.034328     35.42018 
159628000    262.17194     348.1284    269.29717   -124711.58    124726.06    78.831235    35.416803 
159632000     292.9312    218.75946    513.59545   -124750.55    124746.26   -294.83599    35.415611 
159636000    281.59677    366.69353    346.03466   -124783.22    124778.09    20.658871    35.411163 
159640000    278.77683    243.91392    327.74752   -124806.69    124810.24   -83.833602    35.407284 
159644000    264.32927    314.54168    342.04142   -124799.28    124827.59   -27.499735    35.405835 
159648000    275.91987    370.81142    260.43489   -124830.13    124841.82    110.37653    35.406181 
159652000    294.20711     684.0658     113.9993   -124862.83    124859.58    570.06651    35.409496 
159656000    264.91345     195.9273    243.46657   -124875.37    124884.03   -47.539267    35.409615 
159660000     272.4278    229.85527    326.37656   -124897.16    124908.17   -96.521293    35.409505 
159664000    257.53919    320.70041     380.3121   -124892.37    124913.56   -59.611689    35.406988 
159668000    251.45356    293.95291    493.10111   -124911.19    124941.59    -199.1482    35.406857 
159672000    286.70412    526.11072    554.06424   -124937.69    124933.22   -27.953522    35.408266 
159676000    287.18344    227.82871    417.62639   -124947.35    124944.89   -189.79768    35.404135 
159680000    283.64814    269.24002    388.02268   -124975.26    124994.06   -118.78266    35.404225 
159684000    290.78204    463.58196    210.22097   -125005.79    125014.53    253.36099    35.406457 
159688000    294.99189    474.36465    312.11802   -125034.62    125031.27    162.24664    35.404405 
159692000    278.33257    365.27566    255.69723   -125080.26    125087.94    109.57843    35.403386 
159696000    312.20183    249.72879    265.19131    -125104.4    125104.19   -15.462525    35.402333 
159700000    270.89764    367.66374    241.99831   -125095.28     125122.7    125.66543    35.404685 
159704000    295.85784    553.22191    305.97649   -125137.69    125125.63    247.24543    35.406829 
159708000    296.58028    177.09589     280.5611   -125176.18    125156.71   -103.46521    35.406307 
159712000    275.43996    371.37101    172.20432   -125208.35     125218.6    199.16669    35.404804 
159716000    268.85177    490.15496    215.42083   -125213.84    125235.82    274.73414    35.403185 
159720000    286.66255     297.8444    312.98612   -125257.86    125269.23    -15.14172    35.403586 
159724000    273.98075    372.33408    322.35914   -125322.16    125314.34     49.97494     35.40881 
159728000    255.40096    309.09323    342.74959   -125327.42    125362.58   -33.656361    35.411099 
159732000    302.17128    384.83271    445.61538   -125356.41    125360.17   -60.782677    35.412352 
159736000    302.73204    276.85107    335.74697   -125363.07     125367.6   -58.895897    35.414623 
159740000    281.55279    440.90903    204.01432   -125385.01     125390.5    236.89471    35.414838 
159744000    295.96032    377.48351    427.24536   -125409.48     125407.6   -49.761856    35.405758 
159748000    302.03137    518.13745    236.37772   -125452.52    125449.17    281.75973    35.404814 
159752000    297.33056     159.3125     370.7192    -125471.4     125469.7    -211.4067    35.407217 
159756000    295.71763    387.31288    258.96255   -125511.99    125495.19    128.35033    35.404387 
159760000    291.47976    332.40525     328.4637   -125533.88     125516.5    3.9415535    35.406847 
159764000    290.11804    336.16813    592.18057   -125552.05    125537.65   -256.01244    35.407751 
159768000    278.08164    301.68663    261.27411   -125568.03    125577.05    40.412517    35.407612 
159772000    264.28715    126.86142    381.46866   -125584.02    125588.32   -254.60724    35.411152 
159776000      280.245    345.58532     242.3551   -125612.82    125616.61    103.23022    35.409482 
159780000    280.21408    314.58767    310.34191   -125629.67    125650.17    4.2457568    35.408119 
159784000    300.90605    318.82733    300.26791   -125655.06    125652.55    18.559425    35.413634 
159788000     275.5373    403.21889     195.5863   -125660.59    125675.71     207.6326    35.411446 
159792000    273.02796    476.90811    221.61856   -125693.33    125710.21    255.28955    35.413967 
159796000     271.0708    466.53569    351.68404   -125689.41     125707.4    114.85165    35.412193 
159800000    249.07255    221.89969     291.6802   -125696.74    125722.46   -69.780512     35.41702 
159804000    290.15413     468.1321     339.3287   -125729.63    125730.39    128.80341    35.420554 
159808000    298.40096    294.39838    233.76834   -125750.25       125739    60.630038    35.415948 
159812000    276.30548     411.3976    230.94344   -125759.75    125774.13    180.45416     35.41217 
159816000    285.07499     456.5333    248.32128    -125775.7    125789.54    208.21203    35.409913 
159820000    296.15748    366.60405     217.8521   -125789.08    125801.23    148.75195     35.40759 
159824000    262.72284    271.23727     365.3928   -125820.29    125826.17   -94.155535    35.410266 
159828000    284.17394    320.39809    397.07415   -125842.86    125851.31   -76.676067    35.415604 
159832000    302.56678    267.96486    216.38882   -125895.59    125886.58    51.576037    35.416259 
159836000    292.90719    360.61332    191.17628   -125912.01    125910.31    169.43704    35.423798 
159840000    315.96578    446.45126    387.07217   -125949.93    125923.32     59.37909    35.430763 
159844000    277.74036    269.43739    159.12362    -125945.9    125954.04    110.31377    35.427247 
159848000    286.25916    394.50626    359.50687   -125952.01    125950.45    34.999398    35.423542 
159852000    292.29355    729.83673    254.01013   -125966.19    125963.06    475.82661    35.421788 
159856000    276.72056    303.44425    189.35853   -126010.05    126018.07    114.08572    35.426523 
159860000    279.30705    377.88423    262.34834   -126053.82    126053.61    115.53589    35.429829 
159864000    275.94906     526.2276    282.77312   -126076.66    126069.09    243.45449    35.436642 
159868000    304.84512    424.87945    242.53108   -126121.53    126111.53    182.34837    35.438547 
159872000    278.41438    285.31016    250.77389   -126136.23    126148.35    34.536278    35.435154 
159876000    297.91894    470.79949    247.26499   -126200.96    126187.11    223.53451    35.440182 
159880000    279.13388     483.9333    194.52316    -126224.1    126224.07    289.41014    35.436431 
159884000    256.97851    314.84813    278.55803   -126226.98     126254.8    36.290105    35.444175 
159888000    270.60585    430.80371    390.15965   -126250.91    126257.97    40.644057    35.449465 
159892000    278.93525    245.43193    273.40236   -126276.31    126277.35    -27.97043    35.448103 
159896000    301.84019    382.85445    346.71045   -126314.34    126312.03    36.144007    35.448939 
159900000    270.43551    518.34917    273.23098   -126352.33    126344.85    245.11819    35.444758 
159904000     278.8915    275.68272    344.74451      -126348    126353.09   -69.061789    35.442975 
159908000    296.59422    395.98606    288.19098   -126365.64    126359.14    107.79507    35.440113 
159912000    292.65352    402.60795    258.60609   -126379.85    126374.24    144.00186    35.439563 
159916000     290.4462    345.17047    352.77062   -126396.85    126388.54   -7.6001545    35.435324 
159920000    309.91103    496.29131    468.17448   -126430.23    126415.84    28.116827    35.437152 
159924000    315.69325    405.55733    196.38926   -126450.37    126442.31    209.16808    35.431919 
159928000    287.65379    275.81613    273.31423   -126473.23    126480.47    2.5018963     35.42668 
159932000    273.55283    207.16546    432.92393   -126481.74    126507.67   -225.75847    35.421877 
159936000    265.03418    320.19378    304.18937   -126513.86    126530.73    16.004405    35.427587 
159940000    307.51092    563.13765    314.10178   -126584.77    126568.19    249.03587    35.433991 
159944000    281.62117    520.28521    373.08299   -126616.49    126628.13    147.20222    35.432484 
159948000    292.20153    404.82297    468.86123   -126639.01    126631.43   -64.038259     35.42929 
159952000    265.14023    231.42356    269.91625   -126645.24    126665.73   -38.492692    35.429719 
159956000    300.05564    303.23759    362.84318   -126672.46    126666.18   -59.605591      35.4295 
159960000    286.00709     351.8838    341.58435   -126693.52    126695.38    10.299451    35.428321 
159964000    268.18526    489.33179    420.48514   -126712.14    126716.32    68.846652    35.433272 
159968000     290.3729    297.01156     345.1026   -126722.91    126729.46   -48.091041    35.429059 
159972000    301.56659    467.72899    433.04686   -126742.19    126738.63    34.682126    35.426887 
159976000      284.921    339.03912    275.22237   -126755.97    126761.98     63.81675    35.430785 
159980000    298.81747    261.17463    369.28551   -126796.46    126770.49   -108.11088    35.433473 
159984000    290.46122    370.19627    310.19799   -126810.57    126815.12    59.998279    35.436459 
159988000    289.08591    349.97222     356.8888   -126847.32    126844.61   -6.9165768    35.441069 
159992000    294.06313    385.86496    442.89274   -126876.71    126888.66   -57.027774    35.436901 
159996000    302.39285    755.61391    192.07208   -126903.66    126883.13    563.54183    35.438132 
160000000     255.4103    451.17469    199.05543   -126908.95    126931.75    252.11925    35.440098 
160004000    297.33475    374.52471    452.75219    -126945.5     126946.7   -78.227483    35.440201 
160008000    284.49803    324.65707    353.59501   -126961.47    126963.52   -28.937948    35.436496 
160012000    290.54454    327.19738     227.5547    -127007.1    126987.82    99.642685    35.434483 
160016000    317.36362    362.87085    382.85196   -127008.19     126997.3   -19.981114    35.434227 
160020000    321.98284    402.81331    437.45831   -127047.58    127039.94      -34.645    35.433115 
160024000    287.25709     224.0472    100.21722   -127064.67    127071.64    123.82997    35.438022 
160028000    286.34345    350.25042    203.29349   -127075.08    127079.62    146.95693    35.441621 
160032000    256.08624    254.76276    326.97457   -127089.31    127130.07   -72.211806    35.444004 
160036000    277.15161    453.84302    302.15822   -127125.66    127129.73     151.6848    35.442397 
160040000    322.43151    336.25328    475.45684   -127153.36     127160.5   -139.20356    35.437872 
160044000    303.08281    404.24449    347.22352   -127198.72    127183.72     57.02097    35.440095 
160048000    282.49502    220.59801    315.08764   -127221.47    127219.36   -94.489624    35.430907 
160052000    278.37083    328.55402    391.22783   -127226.88    127243.59   -62.673807    35.432345 
160056000    267.82287    351.07773    399.22308   -127262.47    127276.39    -48.14535    35.434698 
160060000    273.32711    336.31137     205.8917   -127275.21    127293.45    130.41967    35.441465 
160064000    291.51575    418.72468    264.94315    -127322.3    127320.03    153.78153    35.429802 
160068000    274.54819    367.13691    320.48996   -127315.48    127335.58    46.646955    35.427937 
160072000    299.34703    523.98568    352.31543   -127341.59    127341.79    171.67025    35.427015 
160076000    278.66219    475.37374    231.28782   -127354.17    127363.32    244.08593    35.423915 
160080000    278.83491    335.98949    426.76508   -127356.33    127371.24   -90.775588    35.415026 
160084000    285.87456    299.87633    321.39361    -127369.7    127372.58   -21.517282     35.41382 
160088000     284.4212    379.00261    218.56335    -127383.5     127386.6    160.43927    35.412468 
160092000    289.74246    738.39728     361.4264   -127398.05    127405.74    376.97089    35.418284 
160096000    270.94683    439.43873    378.11068   -127408.03    127417.39    61.328053    35.422626 
160100000    293.95656    432.00704    250.63784   -127442.16    127440.59     181.3692    35.419776 
160104000    307.72473    469.84506    236.91518   -127488.42     127480.3    232.92987    35.419729 
160108000    312.99912    445.70525    377.46584   -127502.15    127499.76    68.239413     35.41871 
160112000    294.40986    269.55422    165.30694   -127519.47    127520.24    104.24728    35.419837 
160116000    310.08171    318.94561    438.83147   -127562.63     127547.1   -119.88587    35.417597 
160120000    269.35655    363.51129    462.98436   -127583.05    127599.32   -99.473068    35.419609 
160124000     322.3238    160.95601    410.53765   -127627.55    127603.48   -249.58164    35.420054 
160128000    286.76559    373.11579    403.20405    -127625.4    127641.57   -30.088257     35.42337 
160132000    292.50055     251.2288    300.21779   -127651.87    127652.86   -48.988985    35.420357 
160136000    266.41592    170.49729    369.41285   -127641.68    127650.59   -198.91556    35.419872 
160140000    284.88784    409.06293    343.65579   -127664.18    127663.68     65.40714    35.420827 
160144000     275.6887    489.35849    480.01002   -127675.02    127690.05    9.3484712    35.426912 
160148000    295.51135    426.11988    354.10263   -127702.17    127711.03    72.017252    35.427047 
160152000    308.02459    582.05585    468.90171    -127736.6    127728.42    113.15413    35.424868 
160156000    258.13906    291.23427    404.30887   -127722.62    127746.85    -113.0746    35.422764 
160160000    283.88655    391.97991    372.00787    -127752.8    127752.78    19.972041    35.419294 
160164000    269.74798    328.11984    311.03676   -127764.32    127763.02    17.083075    35.416603 
160168000    327.29719    436.19987    466.90152   -127804.57    127780.12   -30.701645    35.414389 
160172000    290.67108    367.02383    394.13756   -127809.24     127793.6    -27.11373    35.417362 
160176000    337.44842    551.78154    380.96832    -127796.2    127780.05    170.81322    35.420539 
160180000    271.04813     246.1459    169.61813   -127795.35    127797.56    76.527774    35.425342 
160184000    284.27714    181.82739    162.84633   -127810.78    127801.62    18.981063    35.427804 
160188000    309.62254     342.2724     236.8848   -127844.65    127837.86     105.3876    35.429469 
160192000    304.44443    433.73315    348.75415   -127855.52    127836.79    84.979001    35.433702 
160196000      292.878    286.89999    423.12339   -127868.38    127878.55    -136.2234    35.435415 
160200000    288.30292     334.8728    250.61218    -127896.1    127887.54    84.260623    35.435758 
160204000    285.81864    307.72134    250.91728   -127919.89    127929.03    56.804069     35.44344 
160208000    285.04163    374.77431    298.25082      -127962    127958.65    76.523489    35.441558 
160212000    287.20869    434.42987    277.90073   -127976.99    127991.47    156.52914    35.439076 
160216000    295.39938    284.16251    317.18266   -127977.65    127986.14   -33.020153    35.438145 
160220000    295.07036    456.90906    251.28443   -127998.72    128001.52    205.62463    35.438643 
160224000    270.98939    392.62092    307.75991   -128002.16    128010.92    84.861001    35.437358 
160228000    290.02167    342.01313    293.14666    -128017.2    128030.29    48.866467    35.435563 
160232000    290.07193    399.79461    289.93186   -128066.88    128060.27    109.86275     35.43495 
160236000    298.17824    400.55965    327.54549   -128086.24    128096.69     73.01416     35.43084 
160240000    279.94245    375.15881    399.82795   -128117.06    128124.81   -24.669136    35.431547 
160244000    273.59521    276.73725    373.59216   -128117.22       128144   -96.854914    35.437266 
160248000    264.45943    329.70185    483.10995   -128167.77     128172.1    -153.4081    35.431246 
160252000    292.04468    255.19142    311.78899   -128193.01    128204.26   -56.597564    35.431966 
160256000    253.53508     260.8777     211.2089   -128197.67    128215.75    49.668799    35.433098 
160260000    320.83258    427.49183    462.61857   -128221.64    128224.63   -35.126743    35.430376 
160264000    283.51425    298.06113    211.65769   -128240.21     128268.1    86.403443    35.423065 
160268000    284.06439    253.24394    137.18803   -128273.73    128269.55    116.05591    35.418763 
160272000    298.65704    399.36649    449.52192   -128286.74    128290.74   -50.155428    35.417411 
160276000    286.47091    329.37327    436.89639   -128321.12     128315.1   -107.52312     35.41432 
160280000     286.9843    488.46756    183.26823   -128357.53    128360.92    305.19933    35.415124 
160284000     263.8212    335.62644    194.68212   -128358.51    128369.79    140.94432    35.420961 
160288000    279.52122     411.7466     415.3128   -128378.39    128372.51   -3.5661912     35.42097 
160292000    287.51384    354.49278    454.21831   -128384.07    128390.11   -99.725535    35.422107 
160296000    287.16645     352.3442     351.4471   -128384.02    128392.36   0.89710078    35.421342 
160300000    306.33428    336.01883    290.63594   -128420.92    128419.47    45.382886    35.421537 
160304000    281.34419    232.78036    493.02843   -128433.45    128449.05   -260.24807    35.420018 
160308000    274.20059    245.38061    186.19624   -128471.04    128465.47    59.184365    35.423367 
160312000    263.68178    305.34782    309.47158   -128487.54    128495.35   -4.1237603    35.420424 
160316000    259.15116    323.11621    285.60553   -128506.09     128535.3     37.51068     35.41255 
160320000    272.05868    572.23942    156.27007   -128537.19    128550.72    415.96935    35.416039 
160324000    294.39013     143.7599    410.81357   -128567.78    128564.78   -267.05367    35.411063 
160328000    303.48379    429.17376    300.45191   -128586.33    128555.83    128.72185    35.406471 
160332000    293.29326    470.63011    448.84831   -128602.39    128603.44    21.781799     35.41418 
160336000    291.09545    338.79569    326.13394   -128603.17    128616.78     12.66175    35.409909 
160340000    290.62964    488.93923    355.11341   -128607.59    128605.11    133.82582    35.410235 
160344000    300.12139     404.6157    289.17309   -128612.77    128616.56    115.44261    35.410048 
160348000    271.74803    258.73098    240.66556    -128617.8    128638.93    18.065418    35.408203 
160352000     278.3119    380.94452    301.89245   -128656.87    128657.47    79.052075     35.40778 
160356000    259.58783    223.63925    206.05427   -128649.19    128663.96    17.584981    35.404517 
160360000     318.3893    416.69047    291.13943   -128697.15    128694.86    125.55104    35.401437 
160364000    285.67701    332.40828    367.67437   -128722.66    128735.36   -35.266084    35.402395 
160368000    287.80342    303.09608    495.62042   -128733.84    128739.65   -192.52434    35.396878 
160372000    293.18504    426.50043    550.56913   -128758.95    128753.73    -124.0687    35.390798 
160376000    285.01065    534.88676    504.05364   -128782.33    128779.72    30.833125    35.385595 
160380000    231.50373    194.60032    324.70162   -128787.62     128812.2   -130.10131    35.388044 
160384000     256.7214    323.02265    402.82572   -128824.66    128830.06   -79.803072    35.384521 
160388000    284.16012    462.38088    249.06892   -128839.11    128845.38    213.31195    35.388719 
160392000    249.43196    260.89035    313.64539    -128850.2    128877.74   -52.755042    35.394927 
160396000     300.9896     215.0038    442.34773   -128878.24    128862.16   -227.34394    35.398294 
160400000    275.77386    289.15166    366.95999   -128910.39    128927.86   -77.808323     35.40186 
160404000    320.93221    410.05534    430.15394   -128961.42    128946.23   -20.098603    35.409307 
160408000    269.40485    406.92286    272.50591   -128974.48    128988.23    134.41695    35.414307 
160412000    275.54415    297.60148    455.38869   -128989.21     128993.4   -157.78721    35.409985 
160416000    283.32596    326.71475    326.94577   -129008.16    129015.69   -0.2310215    35.419434 
160420000    265.83432    401.21932    249.25742   -129020.41    129017.32     151.9619    35.415197 
160424000      288.752      277.758    325.77298   -129038.32    129041.49   -48.014981    35.414257 
160428000    318.11697    471.40306    327.23644   -129047.71    129040.57    144.16663    35.413811 
160432000    282.62247    310.50683    419.55456   -129079.91    129091.16   -109.04773    35.416126 
160436000    288.08347    340.42383    316.48165    -129122.9    129106.47    23.942183    35.413987 
160440000    272.47157    225.13729    290.65555   -129124.74    129130.53   -65.518255    35.411071 
160444000    281.72196    351.76266    403.71425    -129141.7    129143.97   -51.951586    35.414832 
160448000    267.58691    617.41503    275.91086    -129153.9    129162.03    341.50417    35.411516 
160452000    283.26025    333.28744    480.62842   -129200.47    129209.92   -147.34099    35.416337 
160456000    312.97052    275.82013     318.2887   -129238.01    129218.18   -42.468574    35.414765 
160460000    272.50879    265.12615    282.26617   -129204.96    129218.13   -17.140013    35.420212 
160464000     279.1993    449.61529    332.67711   -129208.98    129215.71    116.93817    35.426465 
160468000    289.34658    283.64577    363.15679   -129234.47    129222.28   -79.511023    35.426312 
160472000    250.28057    369.03535     158.7631   -129233.62    129249.38    210.27225    35.432517 
160476000    295.56586    238.63804    335.53899    -129235.2       129240   -96.900946    35.432046 
160480000    285.16813    406.74565    315.13977   -129264.73     129277.3    91.605878    35.433435 
160484000    299.70385    146.37515    218.13677   -129289.55    129294.26    -71.76162    35.429002 
160488000    255.63099    231.75515    338.55883   -129311.76    129336.15   -106.80368     35.42573 
160492000    284.69764    391.57865    240.41665   -129350.77    129356.38      151.162    35.428398 
160496000    337.14373     628.7357    430.02306   -129384.63    129371.94    198.71264    35.432384 
160500000    298.27872    376.21096    447.50623      -129420    129399.88   -71.295273    35.435662 
160504000    276.95584     225.2852    501.48286   -129421.25    129432.65   -276.19767    35.435908 
160508000    270.51594    474.57307     219.6999   -129438.31    129456.08    254.87317    35.437834 
160512000    253.42776    389.93256    314.07293   -129451.59    129476.25    75.859626    35.439432 
160516000    295.89732    455.31229    276.87585   -129470.87    129469.13    178.43644    35.442477 
160520000    288.10941    358.57742     335.9714   -129470.09    129469.18    22.606024    35.439425 
160524000    277.79451    182.94961    388.09123   -129490.24    129503.21   -205.14163    35.447442 
160528000    297.01253    293.36374    403.46013   -129514.86    129500.25   -110.09638    35.448124 
160532000    279.43881    253.80504    230.63543   -129540.71    129550.26    23.169611    35.442819 
160536000    287.55022     279.4076    167.41438      -129558    129559.07    111.99322    35.445362 
160540000    270.94093    329.36196    290.82624   -129574.66    129583.32    38.535723    35.444737 
160544000    284.14112    475.14736    419.02079   -129576.33    129587.66     56.12657    35.446928 
160548000    289.39542    517.79038    209.37421   -129605.08    129628.23    308.41617    35.448228 
160552000    294.76122    285.54786    285.79396   -129625.15    129636.84  -0.24609295    35.447173 
160556000    298.29715    399.35747    432.63809   -129625.51    129640.95   -33.280619    35.445088 
160560000    280.03386     283.7771    346.12036    -129668.6    129669.17    -62.34326     35.44661 
160564000    274.09989    295.34228     425.0615   -129683.03    129676.47   -129.71922    35.450932 
160568000    277.49643    417.49927    455.22105   -129699.65    129720.07   -37.721783    35.452528 
160572000    303.50075    336.82504    313.88125   -129748.44     129749.2    22.943792    35.451543 
160576000     301.2521    479.72643    307.14367   -129755.95     129759.4    172.58276    35.455327 
160580000    285.05377    223.14292    368.09079    -129770.4    129780.42   -144.94787     35.44923 
160584000    247.67079    280.40851    402.64121   -129759.34    129796.89   -122.23269    35.450923 
160588000    298.00312    347.77009    421.43602   -129806.62    129816.79   -73.665929    35.452616 
160592000    263.15384     243.7396    131.37325   -129813.12    129830.59    112.36635    35.456873 
160596000    311.74707    548.46997    364.75227   -129886.11     129861.6     183.7177     35.45585 
160600000    296.99381    423.41969    297.93023   -129877.47    129892.44    125.48946    35.448114 
160604000    257.54655    137.41047    402.20675   -129891.55    129895.63   -264.79628    35.448123 
160608000    288.46504    354.89283    263.37937    -129917.9    129919.33    91.513455    35.441658 
160612000    284.91926    423.56818    303.78912   -129978.66    129968.94    119.77906    35.443044 
160616000    297.34299    179.61864    363.44226   -130011.27    129998.73   -183.82362    35.442179 
160620000    291.82415    347.21503    337.99666   -130025.96    130028.86    9.2183705    35.445934 
160624000    258.55017    215.86418    198.30657    -130035.7    130062.26    17.557613     35.44392 
160628000    302.67802    301.47949    521.89937   -130064.82    130058.21   -220.41988     35.44186 
160632000    277.96867    483.29252    310.51055   -130093.89    130084.46    172.78196    35.444538 
160636000    278.33291     346.6246     453.0081   -130117.24    130124.68    -106.3835     35.44682 
160640000    260.54882     300.3377    380.47625   -130127.42    130150.32   -80.138551    35.452399 
160644000    302.04543    475.58781    318.55692    -130171.9    130186.44    157.03089    35.453705 
160648000    279.33471    356.11411    460.36608   -130200.83    130209.45   -104.25197    35.456757 
160652000    289.67814    413.73774    329.00922   -130200.03    130216.42    84.728522     35.45987 
160656000    292.94567     251.3551    296.48537   -130228.64    130254.54   -45.130271    35.464924 
160660000    302.28662    662.65108     216.2389   -130256.59    130253.59    446.41218    35.464705 
160664000    278.42908    468.85925    354.92326   -130268.97    130289.28    113.93598    35.465911 
160668000    276.76088    333.63699     192.4419   -130281.12    130300.56    141.19509    35.459693 
160672000    295.64099     501.3484    381.58125   -130310.36    130319.03    119.76714    35.460149 
160676000    276.39536    235.66429    407.02285   -130317.11    130343.79   -171.35857    35.453926 
160680000    296.52795    411.60653    280.72008   -130346.54    130349.77    130.88645    35.454138 
160684000    305.26991    336.19213    453.44417   -130382.85    130385.62   -117.25205    35.451975 
160688000    260.22887    370.36833    294.79498   -130399.26     130429.4    75.573354    35.451985 
160692000    318.86234    381.83687    130.41656   -130434.38     130419.9    251.42031    35.452237 
160696000    280.06204    310.99287    266.27124   -130439.09    130455.54    44.721626    35.450184 
160700000    291.68817    312.97679    335.95107   -130465.94    130453.95   -22.974272    35.448634 
160704000    283.83558    354.60524    357.96077   -130505.04    130511.25    -3.355531    35.447875 
160708000    262.96546     563.1443    299.54825   -130502.59    130546.18    263.59605    35.446815 
160712000    266.89959    463.76658     228.3771   -130540.47    130537.55    235.38948    35.440194 
160716000     319.6038     213.1536    382.77142   -130557.85     130541.8   -169.61781    35.439856 
160720000    276.29048    296.92881       414.02   -130579.87    130572.19   -117.09119     35.43925 
160724000    277.08451    335.47794    221.72466   -130597.26    130605.66    113.75328    35.436799 
160728000    295.31874    674.84133    284.24163   -130629.42    130622.88     390.5997    35.434956 
160732000     311.4323    413.81018    253.64629   -130657.31    130651.37    160.16389    35.435959 
160736000    263.99863    432.78545    364.39691   -130664.47    130687.06    68.388542    35.428329 
160740000    276.81208    451.20954     301.5386   -130726.12    130742.01    149.67094    35.427873 
160744000     253.0962    416.76604    277.34653   -130756.34     130774.4    139.41951    35.426143 
160748000    286.25829    443.14947    258.70835   -130775.03    130780.34    184.44113    35.427513 
160752000    254.22747    330.51595    314.59711   -130801.58    130817.42    15.918841    35.426853 
160756000    306.45525    460.93572    185.35666   -130838.82    130841.65    275.57906    35.426559 
160760000     301.8286    495.16655    363.77116   -130849.32    130850.13    131.39539     35.43556 
160764000     307.1131    469.53429    326.52565   -130894.83    130890.55    143.00865    35.435763 
160768000    312.24384    497.76191    230.96218   -130916.98    130896.43    266.79972    35.434303 
160772000    294.72141    501.35149    304.98755   -130934.25    130934.41    196.36394    35.432355 
160776000     282.5517    518.89287    379.95528   -130949.35    130937.17    138.93759    35.437278 
160780000     290.2419    457.44613    395.68878   -130954.61    130966.64    61.757354    35.432272 
160784000    290.78748    415.91164    329.30602   -130968.95    130974.81    86.605616    35.429257 
160788000    294.80499     641.1314    195.82415   -131009.86    131006.26    445.30725    35.433345 
160792000    293.49033    415.94643    324.95276   -131008.23    131026.17    90.993672    35.430966 
160796000    302.32138    346.85558    370.07063   -131047.32     131030.7   -23.215049    35.430507 
160800000    283.00854    613.56875    324.77518   -131049.94     131050.5    288.79356    35.428437 
160804000    299.59535    485.64757    404.24171   -131063.76    131071.92    81.405854    35.433735 
160808000    275.25996    411.84874    271.83629   -131077.77    131092.71    140.01244    35.435029 
160812000     289.4191    313.41452    182.59975   -131108.04    131120.96    130.81478    35.437342 
160816000    301.45504    447.54031    314.27944   -131128.25    131133.81    133.26087    35.441985 
160820000    284.31509     189.8206    409.13846   -131144.92    131157.69   -219.31786    35.440688 
160824000    289.48249    429.49405     407.3898   -131146.35    131154.38    22.104249    35.429261 
160828000    294.85745    229.73914    309.98442   -131168.68    131173.47   -80.245279    35.432038 
160832000    297.83474    654.43934    358.45219   -131200.79    131189.65    295.98715    35.438232 
160836000    282.57123     324.2975    249.59613   -131192.93     131194.5    74.701369    35.439009 
160840000     263.3149    195.65522    297.50776   -131242.77    131250.38   -101.85254    35.433878 
160844000    284.52505    351.13231    315.98096   -131253.63    131256.34    35.151347    35.433781 
160848000    272.48391    318.20628    228.77579   -131254.15    131275.79    89.430498    35.438767 
160852000    284.02061    346.20722    310.84871   -131288.01    131284.65    35.358514    35.436673 
160856000    306.80923    270.72808    503.71618   -131317.29    131297.75    -232.9881    35.433392 
160860000    271.15764    322.72667    339.62092   -131308.49    131318.26   -16.894254    35.437927 
160864000    302.81802    484.19693    237.77136   -131318.81    131324.98    246.42557    35.446816 
160868000    267.67118    408.96441    168.95169   -131345.72    131354.77    240.01272    35.445804 
160872000    300.99019    611.28115    256.14603      -131366    131362.38    355.13512    35.443432 
160876000    307.92144    554.95358    284.14409   -131403.71     131385.6    270.80948    35.437219 
160880000    273.96789    358.42184    286.69982   -131383.93    131405.07    71.722019    35.439957 
160884000    261.78069    462.70979    371.76337   -131397.12    131425.23     90.94642    35.444867 
160888000    284.49014    417.47031    252.52575   -131448.14    131456.57    164.94455    35.448215 
160892000    285.75419    282.79659    280.17691    -131477.5    131485.39     2.619686    35.442454 
160896000     271.9326    243.08196    389.37821   -131507.11    131523.57   -146.29625    35.445193 
160900000    296.28048    530.67689    255.97528   -131548.76    131549.64    274.70161    35.442508 
160904000    268.85688    340.48085    334.91626   -131567.48    131598.63    5.5645844    35.445907 
160908000    294.49038    582.70249    447.62401   -131613.45    131615.89    135.07848    35.445548 
160912000    271.22883    315.58865    235.18461   -131610.34    131629.29    80.404044    35.446908 
160916000    295.17221    382.05365    341.50811   -131625.92    131633.46    40.545541    35.447498 
160920000    293.67607    275.96504    425.42592   -131630.25    131645.45   -149.46088     35.44407 
160924000    287.16732     332.9664    313.93253   -131651.75    131664.73    19.033874    35.447679 
160928000    301.89304    373.24873    348.71456   -131687.93    131675.07    24.534162    35.449447 
160932000    319.08239    469.17237    238.34564   -131719.99    131713.09    230.82674    35.448051 
160936000    275.07419    373.90319    169.50937   -131742.32    131742.65    204.39382    35.448377 
160940000    287.35857    294.98643    257.05444   -131746.21    131752.18    37.931985    35.447735 
160944000    282.72554    308.58447    316.61599    -131751.6    131771.73   -8.0315173    35.451367 
160948000    270.81034    322.66642    479.86453   -131786.17    131795.45   -157.19812    35.448295 
160952000    284.64491    327.94281    330.97352    -131816.9    131818.71   -3.0307143    35.449746 
160956000    276.97874    294.06232    175.49698   -131834.62    131850.34    118.56534    35.443389 
160960000    260.78341    259.17594    375.17807   -131863.62    131895.87   -116.00213    35.438992 
160964000    264.72888    369.14796    240.52529   -131890.99    131893.86    128.62267    35.437312 
160968000    256.67879    430.89124    412.53854      -131895    131923.17    18.352696    35.435647 
160972000    312.95609    389.74003     407.0967   -131933.73    131923.18   -17.356662    35.435459 
160976000    285.69643    334.61552    212.08059   -131978.58    131975.01    122.53493     35.43606 
160980000    269.81609    291.40332    280.44732   -132002.71    132028.91    10.955997    35.432894 
160984000    267.79106    266.20552    381.93729   -132027.01    132040.05   -115.73177    35.433236 
160988000    295.56034    564.24285    383.15436   -132066.67    132070.75    181.08849    35.435488 
160992000    291.84494    393.93927    457.79986   -132084.01    132103.84    -63.86059    35.436495 
160996000    294.03865     383.7159    523.58317   -132136.56    132138.12   -139.86727    35.437876 
161000000    283.62985    226.49407    260.85345   -132159.58    132174.71   -34.359379    35.437846 
161004000      258.746    277.31039    228.77827   -132179.32     132201.6    48.532126    35.443515 
161008000    287.98583    250.70172    319.78486   -132209.13    132209.47   -69.083137    35.444294 
161012000     280.5361    370.35197    336.66459   -132211.63    132215.96    33.687387    35.442181 
161016000    299.34622    388.99196    405.97067   -132256.28    132233.75   -16.978706    35.444158 
161020000    254.61904     283.3276    222.88459   -132258.98    132272.39    60.443007    35.444001 
161024000    301.46095    343.76955    310.25698   -132291.89    132284.22    33.512561    35.447986 
161028000    285.51903    430.16823    382.71162   -132301.12    132307.48    47.456618    35.455282 
161032000     276.9896    384.74737    475.39121    -132317.3    132322.89   -90.643837    35.451814 
161036000    246.62662     299.3987    294.26148   -132327.08    132358.43    5.1372189    35.448495 
161040000    270.99794    213.62522    194.50905   -132355.36    132377.72    19.116171    35.449978 
161044000    282.00533    140.66738    442.33761   -132398.64    132395.48   -301.67023    35.449744 
161048000    290.60987    539.38755    327.60518   -132439.46    132425.33    211.78237    35.448109 
161052000     285.7288    388.47742    373.99637    -132455.2    132466.64    14.481049    35.446182 
161056000     280.3914    396.48074    222.26366   -132484.82    132507.74    174.21708    35.440324 
161060000    262.00756    180.28875    283.85317   -132505.88    132517.56   -103.56442    35.433894 
161064000    233.58872    350.67972     331.9256   -132537.42    132547.39    18.754122    35.437002 
161068000    293.22929    332.32628    481.68954   -132550.69    132530.09   -149.36326    35.441885 
161072000    291.05998    395.63922    297.52714   -132548.53    132556.16    98.112076    35.445756 
161076000    298.28714    382.07117     392.7084    -132575.2    132568.82   -10.637234    35.443354 
161080000    265.99737    292.43388    288.61285   -132580.74    132611.49    3.8210247     35.44594 
161084000    275.43564    320.20887    241.47813   -132590.73    132619.31    78.730742    35.444799 
161088000    274.12799    244.07253    273.10498   -132614.86    132632.88   -29.032448    35.447576 
161092000    280.46455    434.72896    263.59466   -132641.35    132653.18     171.1343    35.450123 
161096000    291.91971    327.26646    616.75264   -132689.57    132681.83   -289.48617    35.445008 
161100000    305.95084     502.9645     257.2976   -132723.43    132726.42     245.6669    35.444027 
161104000    263.10578    418.06921    418.40888   -132761.77    132769.84  -0.33967411    35.439901 
161108000      250.342    373.46283    326.08643   -132767.96    132790.06    47.376401    35.445073 
161112000     282.2965    414.23324    384.33312   -132804.16    132813.28    29.900119      35.4389 
161116000    272.65665    320.24031    296.01926   -132817.62    132829.03    24.221053    35.436391 
161120000    312.42718    470.90893    306.17763   -132880.68    132852.33     164.7313    35.437377 
161124000    278.92244    323.59527    345.68073   -132888.57    132885.43   -22.085454    35.437017 
161128000    272.62551     464.6424    396.21432   -132904.74     132916.2    68.428082    35.436209 
161132000    267.24124     249.4206    400.71389   -132911.26    132923.13    -151.2933    35.435124 
161136000    259.73958    215.62052    479.66173   -132916.54    132935.91   -264.04121    35.433665 
161140000    269.43163    281.29058    316.95536   -132912.27    132930.99   -35.664783    35.437222 
161144000     300.6279    344.51808    190.52781   -132931.34    132920.47    153.99027    35.445898 
161148000    246.69769    282.27766    245.48922   -132914.35     132941.5    36.788449    35.450542 
161152000     274.1723    164.60926    374.61022   -132932.38    132936.64   -210.00096    35.449631 
161156000    298.34244      497.519    415.24521   -132951.98    132955.44    82.273788    35.450732 
161160000    298.96599    416.18171    354.55745   -132976.39    132970.19    61.624261    35.447002 
161164000     273.4357    322.14431    259.16129    -133000.5    132991.74     62.98302    35.450357 
161168000    276.02109    407.13168      167.434   -133057.02    133045.94    239.69768     35.45477 
161172000    272.28445    305.01144     286.7361   -133058.33    133070.52    18.275336     35.45789 
161176000    315.00467    552.35413    571.28497   -133102.89    133080.08   -18.930834    35.454316 
161180000    298.60409    433.63319     557.2763   -133130.69    133120.22   -123.64311    35.455546 
161184000     286.6497    368.25748    372.38719      -133156    133159.03   -4.1297148    35.456235 
161188000    258.60016    371.80632    421.66941   -133168.57    133188.71   -49.863088    35.454357 
161192000    304.87003    326.06723    480.31064   -133193.99    133177.86   -154.24342     35.45818 
161196000    251.60465    253.37918    151.15558   -133199.16    133231.26     102.2236    35.459438 
161200000    283.69295    545.32831    226.46958   -133251.12    133259.07    318.85873    35.464422 
161204000    266.48327    340.31843    436.79276      -133235    133262.78   -96.474324     35.46141 
161208000    288.82308    296.35386    339.33467    -133273.3    133277.97   -42.980815    35.458571 
161212000     281.3751    390.89045    302.07762   -133309.56    133318.48    88.812822    35.449857 
161216000    273.19616    377.38861     191.6456   -133319.31    133328.31    185.74302     35.45132 
161220000    282.08264    410.62042    376.88091   -133330.72     133344.6    33.739508    35.451262 
161224000    243.30301    430.18968    132.58219    -133350.6    133380.53    297.60749    35.448988 
161228000    266.52968    296.49607    253.84861   -133389.14    133403.84     42.64746    35.452391 
161232000    303.26617    505.88796    449.16611   -133417.86    133423.36    56.721857    35.451245 
161236000    288.16698    479.37156    339.67115   -133460.68    133463.46    139.70041    35.446146 
161240000    299.38252    612.30766     300.2604   -133495.65    133478.39    312.04726    35.444503 
161244000    294.14578    403.09958    237.70566   -133514.74    133506.16    165.39392     35.44525 
161248000    306.26695    436.04211    255.48022   -133536.94    133533.97    180.56189    35.447077 
161252000    262.20826    224.00029    200.86508   -133564.33    133558.66     23.13521    35.453361 
161256000     267.6436    401.72488    313.18875   -133555.98    133566.82    88.536132    35.456207 
161260000    305.26833    444.85119    366.09371   -133584.09    133596.17    78.757483    35.458453 
161264000    265.00618    447.37513    236.22451   -133574.97    133601.77    211.15062    35.458919 
161268000    298.26596    316.61286    307.83284    -133624.6    133606.61     8.780021    35.457444 
161272000    292.53076    543.91248    182.01904   -133649.76    133654.39    361.89345    35.462044 
161276000    313.34068    341.58014    328.09465    -133664.8    133663.52    13.485497    35.461632 
161280000    300.44253    444.57681     404.0631   -133700.71    133680.47    40.513708     35.46126 
161284000    267.82747    257.05007    317.72051   -133725.08    133731.08   -60.670432    35.463753 
161288000    276.25549    288.83422    346.68362   -133780.58    133763.32   -57.849397    35.468724 
161292000    265.29892    322.15784    389.69413   -133787.54    133809.03   -67.536299    35.471351 
161296000    285.35321    419.11319    516.89487   -133813.87    133818.92    -97.78168    35.473593 
161300000    259.37534    269.97694    401.23331   -133830.74    133851.79   -131.25638    35.474428 
161304000    302.54183    269.34301    358.98777   -133857.19    133844.99   -89.644763    35.478026 
161308000     286.2272    337.68151    327.86788   -133835.16    133840.63    9.8136258    35.476595 
161312000    278.59328    358.80908    286.72441   -133849.17     133869.4    72.084672    35.478888 
161316000    279.54644    465.69191    270.10824   -133878.57    133886.18    195.58367    35.483899 
161320000      289.708    399.38368    290.69965   -133885.55    133899.02    108.68403    35.480921 
161324000    291.99015     338.4015     227.4676   -133941.66    133934.36     110.9339    35.479484 
161328000     280.3704    385.72291    261.34317   -133969.13    133966.65    124.37973     35.48423 
161332000    261.76582    469.90474    250.11288   -133985.82    133982.35    219.79186    35.487341 
161336000    297.37152    230.40361    180.78538   -133999.32    134006.24    49.618234     35.48709 
161340000    286.64814    295.98858     251.2861   -134033.96    134027.03    44.702483    35.485889 
161344000    283.88426    223.67725    503.68351   -134044.42    134047.45   -280.00627    35.484909 
161348000    311.46423    560.85273    403.33056   -134064.12    134053.93    157.52217    35.481805 
161352000    279.70037    249.38729    416.96498   -134063.62    134070.47   -167.57769    35.485974 
161356000    281.09557    411.78549     181.2441   -134071.84    134073.61    230.54139    35.483712 
161360000    282.40732    291.43044    301.09556   -134100.08    134087.81   -9.6651201    35.480266 
161364000    286.88251      340.534     416.8018   -134105.37    134092.62   -76.267797     35.47836 
161368000    297.65922    388.74062    295.73678   -134119.46    134097.92    93.003838    35.478831 
161372000    323.91686    232.90866    376.50317   -134134.05    134107.27   -143.59452    35.470584 
161376000    285.92644    300.95967    355.39456   -134154.55    134150.39   -54.434892    35.471167 
161380000    272.69432    225.96399    239.43766   -134163.81    134162.13   -13.473668    35.470652 
161384000    312.05261    417.14106     463.8041   -134189.71    134187.96    -46.66304    35.474483 
161388000    277.02802    369.29304    269.40211   -134191.21    134205.84    99.890931    35.477553 
161392000    295.21032    418.97664    216.95453   -134207.17    134206.38    202.02211    35.480085 
161396000    325.79279    384.33273     210.0571   -134225.64    134210.43    174.27563    35.475197 
161400000    313.04161    317.46753    394.14953   -134254.22    134238.71   -76.681993    35.473715 
161404000    298.33075    345.98206     269.3733   -134260.79    134273.81    76.608758    35.478085 
161408000    275.46756    323.47946    281.08312   -134269.95    134292.97    42.396342    35.474321 
161412000     249.3217    187.30954    174.58635   -134260.79    134290.93    12.723191    35.470237 
161416000    277.82295    172.76911     419.1842   -134276.12    134288.08   -246.41508    35.468596 
161420000    261.26817    417.00776      213.507   -134291.06    134311.31    203.50077    35.470519 
161424000    280.13531     416.8793    192.02041   -134312.39     134334.6    224.85889    35.469537 
161428000    282.20484     390.3762    359.77472   -134328.65    134343.73    30.601485    35.465738 
161432000    286.59589    548.85744    276.99242   -134341.31    134352.94    271.86501    35.467822 
161436000     289.1624    471.36007    529.66717   -134352.62    134365.97     -58.3071    35.471361 
161440000    280.80436     393.4233     444.1277   -134358.87    134374.09   -50.704394    35.473887 
161444000    298.82087    307.56422     332.5094   -134393.16    134391.85   -24.945184    35.469396 
161448000    271.89852    363.75014    296.58608   -134394.05    134415.73     67.16406    35.464921 
161452000     239.9692    438.08281    255.23043   -134426.54    134458.73    182.85238    35.469301 
161456000    310.20116    785.60106    373.43856   -134484.79    134477.83     412.1625     35.47046 
161460000    270.88917    262.74806    405.65707   -134510.33    134501.14   -142.90901    35.468945 
161464000    311.34251    449.99343    253.84708   -134532.53    134520.34    196.14634    35.475927 
161468000    277.52512    422.29414    237.26088   -134541.07    134554.72    185.03325    35.476296 
161472000    265.99402    396.66063    360.76392   -134579.43    134583.97    35.896711    35.474366 
161476000    321.74078    366.53844    348.21329   -134617.52    134614.76    18.325151    35.479042 
161480000    277.98176    378.39772    274.59857   -134659.16    134662.26    103.79915    35.479742 
161484000    281.64495    565.47746    245.17271   -134673.29       134679    320.30475    35.479285 
161488000    281.25893    355.71693    239.75535   -134663.19    134669.71    115.96159    35.482886 
161492000     269.8703    405.11163     269.4939   -134693.89    134726.02    135.61772    35.482955 
161496000    274.38846    290.96456    310.35561   -134723.17    134740.67    -19.39105    35.486223 
161500000    281.97053     386.4644    286.52684   -134774.15    134755.83    99.937556    35.484134 
161504000    263.25801    417.11947    182.19056   -134792.59    134804.34     234.9289    35.487828 
161508000     287.2323     527.9067    240.51375   -134840.95    134868.42    287.39295    35.488676 
161512000    267.89538    385.86673    389.43725   -134865.28       134870    -3.570521    35.489858 
161516000    276.37904    431.02682    264.37062   -134878.24    134896.39     166.6562    35.485431 
161520000    264.15138    398.39145    321.28863   -134867.03    134893.22     77.10282    35.487118 
161524000    269.49185    222.24064    177.86083   -134858.93    134888.01    44.379811    35.488842 
161528000    254.41537    448.23806    198.67077   -134896.35    134923.99    249.56729    35.487317 
161532000    267.32309     535.3475    272.00565    -134934.9    134957.33    263.34184    35.484516 
161536000    271.49228    401.83254    572.58889   -134910.18    134942.74   -170.75635    35.482727 
161540000    297.67897    449.46322    473.48956   -134952.54     134948.3   -24.026345    35.481665 
161544000    302.83734    282.02566    240.37351    -134975.4     134971.9    41.652152    35.480531 
161548000    270.25049      261.665    300.57836   -134996.37    135014.73   -38.913355    35.480959 
161552000    290.62776    374.21279    227.89352   -135024.02    135027.48    146.31927    35.477707 
161556000     261.6804    428.30862    344.68032    -135032.3    135066.62    83.628309    35.477083 
161560000     288.9144    447.46186    267.61602   -135065.08    135066.82    179.84584    35.474279 
161564000    290.20672    477.28495    387.08385   -135086.54    135100.06    90.201095    35.480677 
161568000    286.13237    320.42298    247.47764   -135098.95       135105    72.945338    35.480812 
161572000    295.17555    728.79892    124.16058   -135117.56    135117.74    604.63834    35.484675 
161576000    274.35706    205.92598    339.91474    -135131.4    135132.44   -133.98876     35.48411 
161580000    260.34877    306.68168    228.14972   -135169.65    135178.61    78.531955    35.490981 
161584000    279.29306    358.67452    245.96336   -135177.17    135201.92    112.71116    35.489732 
161588000    277.10476    294.34518    409.44564   -135189.87    135192.75   -115.10046     35.49108 
161592000    308.55208    257.35847    239.96054   -135227.15    135226.61    17.397929    35.489384 
161596000    309.10746    504.82894    335.52939    -135251.8    135228.92    169.29954    35.487664 
161600000    280.45734    528.33258    255.70559   -135273.36    135299.13    272.62699    35.493156 
161604000    296.66813    430.02446    356.16507   -135303.81    135309.14    73.859393    35.497526 
161608000    261.00955    259.28264    327.76281    -135313.6    135338.57   -68.480169    35.499572 
161612000    282.97727    460.78214     343.3719   -135360.13    135363.83    117.41024    35.496248 
161616000    266.45439    428.87678    189.87545   -135368.24    135393.37    239.00132    35.498004 
161620000    306.86571    348.55201    377.88909   -135392.34    135411.53   -29.337074    35.493483 
161624000    294.37855     379.2358    355.40092   -135447.25    135450.17    23.834887    35.490964 
161628000    267.07599     167.7265    379.55926   -135454.62    135478.96   -211.83276    35.489154 
161632000    300.26861    321.44651    314.22136   -135512.36     135515.8    7.2251471    35.487889 
161636000    274.22155     319.5467    257.88612   -135532.04       135551     61.66058    35.487028 
161640000    251.99138    426.63932     288.1249   -135555.03    135591.26    138.51442    35.488358 
161644000    281.44801    313.26275    169.48661   -135574.36    135578.78    143.77614    35.484176 
161648000    277.96669    233.78213    401.15673   -135581.32    135596.17   -167.37461    35.482199 
161652000    296.13667    195.04409    280.34427   -135616.01    135607.12   -85.300181    35.479402 
161656000    292.54253     242.6811    365.67766   -135644.43    135627.21   -122.99656    35.477613 
161660000    273.51403    453.18474    253.03308   -135633.95    135635.68    200.15167    35.482896 
161664000    273.66599    253.78683    287.13732    -135645.4     135663.2    -33.35049    35.486186 
161668000    274.59509    246.98887    278.42534   -135650.79    135682.55   -31.436471    35.488409 
161672000    294.32363     376.3151    259.66671      -135682    135671.62    116.64839    35.487233 
161676000    256.34744    458.72999    317.00658   -135702.45    135718.51    141.72341    35.486892 
161680000    263.53053    417.21017    516.18118   -135733.56    135746.25   -98.971004    35.484056 
161684000    265.87086    317.75676    330.24718   -135758.86    135774.74   -12.490419    35.481365 
161688000    269.29526    296.92842    199.41988   -135799.45    135815.94    97.508545     35.47486 
161692000    272.15093    426.67171    354.05767   -135823.53    135827.09    72.614034    35.475015 
161696000     276.6059    409.42689    357.74983   -135845.84    135853.82    51.677061    35.478804 
161700000    321.81807        562.1    412.96234   -135875.66    135853.82    149.13766    35.477269 
161704000    256.13095    326.55194    259.18889   -135885.88    135914.94     67.36305    35.474502 
161708000    268.15096    263.53671    340.33744   -135900.79    135917.03   -76.800727    35.471102 
161712000    302.35776    333.70825    269.38313   -135952.46    135935.46    64.325118    35.474446 
161716000    298.76188    414.42713    335.86381   -135990.43    135980.49    78.563314    35.473344 
161720000    288.12983    331.00254    248.34035   -136004.55    136005.36    82.662188      35.4709 
161724000    281.23997    438.11681    157.64652   -136037.94     136038.4    280.47029    35.469132 
161728000     287.0634     411.2682    264.67522   -136055.09     136067.2    146.59298    35.466524 
161732000    315.21835    540.93895     333.9264   -136099.71    136092.78    207.01255    35.469006 
161736000    283.58324    238.14985    486.15541   -136104.29    136121.69   -248.00555    35.465873 
161740000    252.70393    356.93237    307.60022   -136127.58     136158.3    49.332146     35.46564 
161744000    274.82524    469.49644    310.33155   -136181.27    136180.42    159.16489    35.458441 
161748000    273.91262    345.20758    401.88176   -136184.81     136186.9   -56.674182    35.459214 
161752000    301.48505    368.22351    280.91514   -136202.59    136194.57    87.308378    35.456449 
161756000    290.52759     328.5331     313.1906   -136216.62    136209.92    15.342505    35.457615 
161760000     286.3177    193.50867    362.99216    -136215.1    136223.62   -169.48348    35.459211 
161764000    282.64376    238.37746    382.25698   -136235.98    136246.35   -143.87952    35.458851 
161768000    268.08249    286.58076    421.87169   -136247.17    136257.46   -135.29093    35.462763 
161772000    273.70184    297.36631    405.24422   -136265.78    136290.52   -107.87791    35.460663 
161776000    276.82288    325.74456    336.42097   -136305.16    136312.75    -10.67641    35.453991 
161780000    290.98774    433.97643    160.59995   -136325.66    136335.44    273.37649    35.455675 
161784000    272.13574    433.23154     235.2655   -136315.66    136347.49    197.96604     35.45876 
161788000    264.12038    348.19796    333.55784   -136340.07    136353.81    14.640123    35.460831 
161792000    296.40025    365.13237    315.20964   -136390.37    136390.12    49.922739    35.456613 
161796000    279.08662    411.13746    318.47146   -136404.16    136419.11    92.666005    35.460792 
161800000    278.48615    316.49526    142.48523   -136415.21    136427.06    174.01003     35.46134 
161804000    274.57673    469.11539    282.24512   -136437.41    136444.66    186.87027    35.466807 
161808000    290.08594    365.92697     300.5162      -136480    136471.39    65.410768    35.463285 
161812000    296.40212    366.16584    238.70021   -136499.47    136503.96    127.46563    35.464957 
161816000    293.21422    321.43736    258.75687   -136524.03    136513.62    62.680495    35.464916 
161820000    268.54131    291.77504    264.77024   -136543.95    136557.13    27.004795    35.465099 
161824000    230.39936    333.85866    370.71015   -136560.37    136569.66   -36.851493     35.46378 
161828000    306.20797    329.26174    340.61401   -136586.26    136595.87   -11.352268    35.459156 
161832000    275.39477    402.46497    355.43523   -136600.23    136605.21    47.029737    35.456039 
161836000    259.20702    313.43404    214.49445   -136611.84    136636.74    98.939589    35.459391 
161840000    284.95278    240.75869    556.60951    -136608.4    136632.93   -315.85082    35.455911 
161844000    289.05811    183.33344     432.0927   -136644.45    136638.61   -248.75925    35.453047 
161848000    313.35764    452.90261    328.33472   -136670.01    136663.95    124.56789    35.449892 
161852000    305.76522    356.52895    317.20289   -136706.98    136684.11    39.326061    35.451088 
161856000    281.28285    375.67666    354.32544   -136731.54    136730.73    21.351214    35.456612 
161860000    278.58718    349.66402    291.16679   -136756.96    136740.61    58.497237     35.44962 
161864000    285.07121    487.89263    377.14266   -136763.63    136765.74    110.74996    35.452754 
161868000    294.82664    246.95937    352.02902   -136765.72    136779.77   -105.06966    35.453316 
161872000    267.19438    300.79955    551.00978   -136817.76    136830.67   -250.21023    35.455656 
161876000    265.72379    273.29198    245.85252   -136842.84    136870.18    27.439464    35.458416 
161880000    293.10593     456.1767    394.89783   -136868.29     136879.4    61.278875    35.453332 
161884000    278.36243    549.36686    314.93623   -136887.49    136891.61    234.43062    35.455212 
161888000    274.08382    437.63903    335.49348   -136894.64    136911.78    102.14555    35.452966 
161892000    250.14021    277.12992    331.39141   -136873.89    136917.92   -54.261495    35.449966 
161896000    272.71083    260.23078    505.78093   -136888.82    136912.22   -245.55015      35.4501 
161900000    262.73081    295.81141    324.10418   -136909.86    136938.97   -28.292776    35.439674 
161904000    287.59391    299.15578    295.39655   -136910.54    136937.42     3.759229    35.436474 
161908000    246.34403    380.12607    265.62173   -136932.14    136955.57    114.50434     35.43725 
161912000    278.01067     386.9069    506.41813   -136950.88    136979.43   -119.51124    35.432882 
161916000     276.7541    281.73698    398.31797   -136965.17    136991.97   -116.58099    35.431914 
161920000     278.6818     283.6977    227.71011   -136994.94    137004.59     55.98759    35.434525 
161924000    270.78182    335.20413     323.1865   -137020.28    137016.09    12.017637    35.434142 
161928000    262.54458    394.53324    311.30235   -137024.55    137041.61     83.23089    35.431107 
161932000    262.95188    178.49829    474.57487    -137026.2    137060.75   -296.07658    35.426657 
161936000    247.11092     456.2097     275.7753   -137044.27    137086.81     180.4344    35.423673 
161940000     257.6081    315.95913    389.67164   -137084.22    137116.54   -73.712506     35.42031 
161944000    276.26246    163.11016    527.46056   -137122.06    137125.04    -364.3504    35.419687 
161948000    293.84664    326.03542    256.97006   -137143.72    137134.37    69.065362    35.416844 
161952000    274.46688     411.8693    263.74735      -137144     137158.9    148.12196    35.419271 
161956000    266.33001    413.96146    368.50233    -137186.5    137194.49    45.459121    35.419571 
161960000    269.88133    140.29652    234.18256   -137228.42    137236.52   -93.886043    35.421765 
161964000    297.00426    487.56415    304.87086   -137272.94     137261.8    182.69329    35.420606 
161968000    262.43203    563.10249    460.07998   -137246.51       137275    103.02251    35.418765 
161972000    287.57286    346.31982     318.4377   -137285.24    137296.35    27.882119    35.415725 
161976000    283.06298    243.00915    203.55333   -137323.47    137327.59    39.455829    35.418355 
161980000    278.53469    448.75474    360.41372   -137353.03    137366.18    88.341021    35.421871 
161984000    257.85727    173.04209    314.13437   -137356.93    137379.13   -141.09228    35.423521 
161988000    280.98802    256.77472    449.82819   -137372.66    137392.97   -193.05348     35.42232 
161992000    289.91857    292.87298    357.37318   -137423.45    137441.19   -64.500196    35.421138 
161996000    280.18143     394.6637    244.65568   -137428.33    137431.02    150.00802    35.424725 
162000000     277.6949    302.08766    393.85391   -137427.56    137449.12   -91.766242    35.423973 
162004000    297.44759    498.29798    311.20164   -137446.58    137453.14    187.09634    35.423148 
162008000    248.30115    318.55186    223.17734   -137450.99    137471.21    95.374521    35.426902 
162012000    312.06295    391.52697    181.18854   -137494.07    137468.78    210.33843    35.428183 
162016000    311.42846    338.79211    458.22133   -137513.92    137496.93   -119.42922    35.426793 
162020000    284.13389    194.57643    247.67651   -137556.29    137550.35   -53.100077    35.430241 
162024000    295.93823    420.12617    454.72917   -137550.74    137542.06      -34.603    35.431261 
162028000    288.36383    415.80502    274.19264   -137583.53    137560.36    141.61238     35.42754 
162032000    274.36142    385.93261    232.55372   -137594.71    137589.31    153.37889    35.427698 
162036000    285.28244    157.23111    228.06679   -137628.77    137634.23   -70.835686    35.428626 
162040000    286.57752    302.33594    377.38428   -137669.41    137662.57    -75.04834    35.428177 
162044000    279.84796      236.054    221.98635   -137691.99    137696.66    14.067648    35.426839 
162048000    300.00971    425.66933    288.86113   -137713.91    137708.04     136.8082    35.431525 
162052000    321.32474    403.92427    379.37545   -137733.46    137724.71    24.548814    35.425761 
162056000    283.39394    412.29351     260.7732   -137764.52    137753.44    151.52031    35.430754 
162060000    278.30311    403.44031    377.64427   -137755.58    137770.61    25.796039    35.433283 
162064000    283.97508    405.93942    353.13849   -137756.34    137775.48    52.800937    35.431873 
162068000    313.77146    253.41136    326.65613   -137793.02    137787.46   -73.244771    35.434377 
162072000    259.71592    426.13639    404.19376   -137809.56    137840.03    21.942627    35.429269 
162076000    282.28701    269.40396    355.59843   -137865.57    137866.54   -86.194475      35.4247 
162080000    293.58737    444.18262    408.63689   -137905.04    137913.56    35.545729    35.426082 
162084000    282.44868    514.38676    510.59389    -137956.1    137956.72    3.7928743    35.425279 
162088000     302.8955    450.97021    436.36012   -137960.39     137961.8    14.610094    35.419317 
162092000    292.23358    493.91414    481.39669    -137965.8    137981.43    12.517452    35.416387 
162096000     286.6482    500.80501    250.80251   -137989.82    137990.54    250.00249     35.41519 
162100000    255.42121    324.78062    336.62477   -138015.62    138054.76    -11.84415     35.42074 
162104000    259.29128     695.2808    301.45224    -138021.9    138047.37    393.82856    35.424912 
162108000    301.13001     355.3999    231.66968   -138030.92    138020.63    123.73022    35.422519 
162112000    268.09599    253.96003    383.26071   -138035.56    138042.45   -129.30068    35.420717 
162116000    269.27222    314.10808    358.42832   -138028.32    138048.67   -44.320243    35.420703 
162120000    307.90056    246.16163     329.3932   -138058.94    138057.08   -83.231564    35.424597 
162124000    285.21997    428.06276    201.06647   -138048.76    138049.49     226.9963    35.427013 
162128000    275.92705    277.73066    310.85517   -138070.14    138083.87   -33.124511    35.429021 
162132000    270.82838     381.5032    285.60316   -138088.15    138098.18    95.900037    35.430599 
162136000    302.69351    255.30046    215.06222   -138096.66    138096.22    40.238244    35.429908 
162140000    289.87887    325.97161    362.57245   -138091.91    138101.83   -36.600833    35.429402 
162144000    274.16041    408.05004    236.34221   -138126.53    138131.52    171.70783    35.430473 
162148000    291.59234    357.22056    350.22406      -138135    138143.04     6.996498     35.43519 
162152000    275.05877    386.79864    471.82829   -138153.64    138165.34   -85.029656     35.43019 
162156000    269.82447     349.3457    272.19342   -138162.03    138181.58    77.152276    35.432416 
162160000    293.53789    260.62968     277.1762   -138187.18    138182.01   -16.546521    35.433883 
162164000    292.52314    436.15517    235.57745   -138216.43    138216.95    200.57772    35.431151 
162168000    302.10435    432.05446    305.26754   -138255.36     138251.9    126.78691    35.434436 
162172000    288.36257    533.00721    436.84762   -138289.85     138299.1    96.159597    35.438236 
162176000    267.47981    372.63747    467.62544   -138309.18     138338.7   -94.987966    35.436276 
162180000    306.59144    463.92965     429.2426   -138339.11    138335.08    34.687046    35.441032 
162184000     286.8703    482.27929    323.94494   -138373.23    138370.75    158.33435    35.435738 
162188000    305.24579    423.95181    363.92813    -138400.9    138385.45    60.023679    35.440089 
162192000    289.71552    192.14421    192.95615   -138425.02    138437.51  -0.81193303    35.436783 
162196000     236.7348    434.98274    273.44003   -138451.62    138480.44    161.54271    35.433212 
162200000    287.68555     216.1444    419.27804   -138489.65    138495.22   -203.13365    35.431423 
162204000    308.15224    149.00989    371.09666   -138505.71    138508.16   -222.08678    35.431584 
162208000    287.40208    308.52254     221.9284    -138537.8    138519.81    86.594143    35.426623 
162212000    295.99637    231.23639    337.59833    -138529.1     138540.2   -106.36194    35.426584 
162216000    264.05774    226.56816    107.95238   -138546.05    138574.43    118.61578    35.426901 
162220000    279.22793    585.11933    312.77146    -138572.7    138573.29    272.34787    35.425013 
162224000    309.67345    377.05703    340.23478   -138603.43    138592.01    36.822254    35.426868 
162228000    326.85594    407.22391    315.59144   -138632.01    138629.41    91.632467    35.430399 
162232000    287.45386    419.53005     162.4246   -138634.34    138627.71    257.10545    35.432242 
162236000    280.71591    491.88136    355.94513   -138668.52    138645.42    135.93623     35.43238 
162240000    314.36465    515.18412    328.25005   -138677.89    138658.17    186.93407    35.437857 
162244000    303.51285    257.80686    395.31314   -138695.52     138702.2   -137.50628    35.441366 
162248000     308.0421    698.25344    304.91642   -138745.56    138747.77    393.33701    35.435905 
162252000    318.90394    479.99731    465.67885   -138748.22    138730.33    14.318458    35.439204 
162256000    298.30324    442.02218    418.19265   -138747.82    138762.85    23.829534    35.434971 
162260000    289.61229    319.94802    445.46971    -138778.1    138793.15   -125.52169    35.438829 
162264000     270.6056    335.81217    215.58053   -138804.03    138828.38    120.23164    35.440433 
162268000    257.49971    193.03115    376.78932   -138821.56    138853.14   -183.75817    35.442242 
162272000    307.85554    372.76229    440.09069   -138833.41    138842.17   -67.328401    35.445935 
162276000    290.23132    634.87306    253.51328   -138875.33     138882.2    381.35978    35.446069 
162280000    290.29666    392.41774    365.96381   -138882.62    138879.58     26.45393     35.44419 
162284000     263.9951     353.1811    314.79414   -138884.84    138923.49    38.386967    35.445558 
162288000    281.05493     389.9595    407.00335   -138918.71    138939.46   -17.043848    35.449395 
162292000    285.18356      375.882    290.81147   -138972.32     138975.8    85.070533    35.448423 
162296000    289.48849    271.05621    401.28444   -139014.41    139016.74   -130.22822    35.450413 
162300000    287.14952    197.18064    318.13167   -139054.11    139040.12   -120.95104    35.450981 
162304000    301.71599    369.87234    259.25421   -139087.34    139083.61    110.61813    35.451317 
162308000    290.91524     228.3399    181.31422   -139098.83    139088.51    47.025678    35.454185 
162312000    289.56442    428.46941    295.14354   -139114.89    139114.26    133.32587    35.452948 
162316000    278.99648    251.01906    292.45138   -139108.74    139129.39   -41.432315     35.44245 
162320000    311.46892     279.4434    203.80146   -139163.41     139156.7    75.641945    35.444788 
162324000    283.70698    328.74997    418.53475    -139181.5    139181.78   -89.784783    35.436598 
162328000    271.51619    215.01136    309.80689   -139230.67    139221.48   -94.795526    35.435835 
162332000    302.91906    304.80297    294.13145   -139259.76    139242.96    10.671525    35.435579 
162336000    285.57851    278.05866    230.18778   -139261.16    139262.25    47.870879    35.437279 
162340000    292.54295    404.09408       187.24   -139284.18     139276.1    216.85409    35.436233 
162344000    298.76322    482.85253    418.89866   -139331.39    139333.36    63.953874     35.43536 
162348000    313.73616    327.58426    235.39052   -139382.91    139365.76     92.19374    35.435887 
162352000    305.49726    435.02156    259.49358   -139413.23    139405.26    175.52799    35.438923 
162356000    282.49668    450.26641    514.14541   -139408.92    139423.46   -63.879003    35.439239 
162360000    272.24294    285.68774    387.89305   -139444.32    139458.27    -102.2053    35.433118 
162364000     287.6662    364.54175    331.25336   -139472.45    139477.79    33.288396    35.430596 
162368000    298.77363    511.37587    319.12839   -139507.79    139518.11    192.24748    35.432786 
162372000    301.21707    382.04808    319.95173   -139511.89    139508.82    62.096355    35.433496 
162376000    305.27198    440.33058    396.89733   -139534.67    139518.93    43.433249    35.433972 
162380000    290.06412    277.63797    380.02102   -139544.99    139552.54   -102.38306    35.433797 
162384000    299.28205    285.44431     297.6689   -139595.08    139586.55   -12.224594    35.437418 
162388000    301.27685    382.86334    206.34395   -139625.51    139605.81     176.5194    35.432438 
162392000    294.30828    338.83295    253.66394   -139623.36     139627.8    85.169006     35.43207 
162396000    296.63672    413.57286     426.9988   -139660.13    139671.25    -13.42594    35.429668 
162400000     295.2121    766.84924    173.16249   -139679.14    139691.03    593.68675    35.429932 
162404000    273.80387    389.94722    281.10343   -139697.48    139708.44    108.84378    35.427729 
162408000    282.50339    286.19897    288.36315   -139700.24     139691.5   -2.1641813    35.425617 
162412000    264.44032    383.52371    255.21536   -139723.58     139724.3    128.30835    35.422859 
162416000    289.01307    328.45711    276.74975   -139730.04    139738.19    51.707358    35.425359 
162420000    260.75207    334.62545     466.8877   -139750.25    139774.41   -132.26226     35.43046 
162424000    277.95144     336.9944    353.42645   -139769.66    139772.18   -16.432051     35.42341 
162428000    283.00237    348.64348     336.8868   -139792.75    139792.68    11.756675    35.423567 
162432000    298.41466    646.52137    407.21228   -139837.24    139837.04     239.3091    35.427701 
162436000     267.7553    276.58205    307.72236   -139825.93     139847.5   -31.140313    35.424393 
162440000    267.48268    475.37315    431.33107   -139849.11    139867.08    44.042088    35.424585 
162444000     294.4886    252.40376    254.11442   -139892.35    139889.38   -1.7106563    35.420104 
162448000    300.23374    428.86628    213.50345   -139877.92    139871.94    215.36283    35.420551 
162452000    302.23017    384.54921     312.1386   -139901.39    139899.76    72.410607    35.427366 
162456000    321.79958    407.01213    582.95368   -139935.25    139933.91   -175.94155    35.424723 
162460000    317.06826    492.13906    328.11132   -139956.32    139946.42    164.02774     35.42786 
162464000    282.22303    300.33359    266.82677   -139963.72    139961.71    33.506822    35.433807 
162468000    316.18055    396.00119    216.66416   -139981.71    139975.35    179.33703    35.434483 
162472000    266.55382    246.60897    236.73392   -140002.71    140020.64    9.8750476    35.435378 
162476000    298.39829     514.0066    320.81957   -140034.29    140019.83    193.18703    35.430244 
162480000    274.25551    318.50574    239.18354   -140051.97    140064.64    79.322203    35.421849 
162484000    292.25802    296.61367    166.65113   -140068.37    140078.06    129.96253    35.419523 
162488000    268.04094    373.91917    211.39477   -140078.07    140096.24     162.5244    35.417668 
162492000     285.6965    474.32638    277.68243   -140109.51    140112.25    196.64395    35.416144 
162496000    257.95731    339.47879    358.16234   -140121.25    140135.78   -18.683554    35.418336 
162500000    269.21317    435.53904    148.83794   -140163.97    140177.54    286.70111    35.416082 
162504000    303.45484    347.80493    261.96446   -140191.71    140202.14    85.840467    35.410749 
162508000     286.1668    370.30361    150.06998   -140233.33    140235.54    220.23363    35.412897 
162512000    251.51146    296.96168    185.05196   -140249.58    140290.81    111.90971    35.410638 
162516000    291.67642    264.47867     359.0269   -140288.66    140282.78   -94.548231     35.40719 
162520000    273.58297    304.08208    244.31783   -140283.25    140306.82    59.764248    35.407571 
162524000     236.3553      363.411    228.10537   -140285.59    140313.19    135.30563    35.400301 
162528000    244.19409    347.97016    173.09575   -140284.06    140309.04     174.8744    35.395893 
162532000     294.4244    403.69748    345.05613   -140304.45    140315.27    58.641351    35.400703 
162536000    260.42765    224.92479    343.40431   -140330.76    140338.11   -118.47951    35.400335 
162540000    272.28159    507.11671     288.6586   -140347.42    140367.68     218.4581    35.407266 
162544000     290.9487    350.60387    447.14131   -140384.11    140395.39   -96.537432    35.402049 
162548000    275.10344     436.8657    253.00114   -140405.02    140424.97    183.86456    35.401594 
162552000    308.13917    345.64988    378.89183   -140412.46    140425.51   -33.241943    35.397535 
162556000     267.9531    222.63664    312.36069   -140413.18    140444.67   -89.724045     35.39452 
162560000    286.85693    422.32201     268.0483   -140446.43    140451.21    154.27371    35.399049 
162564000     320.9103    621.23975    368.83946   -140479.28    140482.37    252.40029    35.398795 
162568000    294.23231    435.98294    175.94728   -140496.18    140502.94    260.03566    35.390408 
162572000    287.44618    415.37565    478.54552   -140543.44    140534.47   -63.169863    35.390776 
162576000    274.31168    545.55865    458.91104   -140548.23    140583.47    86.647614    35.391223 
162580000    256.15252    291.51676    259.18802   -140588.46     140589.9    32.328739    35.391189 
162584000    285.85555    431.31878    465.91717   -140618.35    140633.55   -34.598386    35.387821 
162588000    278.41089    373.02354    263.08094   -140641.35    140643.33    109.94261    35.389553 
162592000    274.62754    201.19176    150.85708    -140666.4    140680.77    50.334675    35.389628 
162596000    292.21589    278.13537    396.11281   -140679.53    140706.53   -117.97744    35.389977 
162600000    273.01151    269.50505    293.73926   -140670.42    140690.07    -24.23421    35.387526 
162604000    279.30982    285.43412    237.48404   -140695.91    140714.71     47.95008    35.386531 
162608000     250.5249     307.2093    430.96825   -140717.33    140730.09   -123.75895    35.386363 
162612000    255.86716     371.6151    314.47042    -140744.7    140777.07    57.144676    35.387107 
162616000    282.16531    356.89416    285.75138   -140774.61    140786.72    71.142782    35.388138 
162620000    286.67073    401.48276    218.45871    -140794.8    140795.78    183.02405     35.39156 
162624000    261.98465    296.83252    396.90314   -140812.98    140829.65   -100.07062    35.393267 
162628000    275.32282    584.50923    230.54972   -140818.75    140838.34    353.95951     35.40056 
162632000    259.48355    433.24959    176.21044   -140867.63    140879.35    257.03914    35.399557 
162636000    278.55804    432.79897    265.90042   -140888.13    140905.86    166.89855    35.403092 
162640000    269.52168    325.76775    205.98575   -140911.91    140933.47      119.782    35.406038 
162644000    250.72288    224.63568    349.33308   -140923.61    140961.24   -124.69739    35.401195 
162648000    282.67415    481.36292    378.85441   -140950.35    140965.05    102.50851    35.395359 
162652000    305.67211    410.42943    362.53858   -140974.23    140970.96    47.890853    35.394077 
162656000    292.73832    294.72727    465.80397   -141005.59    141018.07    -171.0767    35.395164 
162660000    269.09928    238.26344    405.54614   -141037.35    141055.64    -167.2827     35.39318 
162664000    255.03883    424.93642     232.2566   -141065.41       141074    192.67982    35.395993 
162668000    302.52099     386.7738    584.72539   -141097.94    141094.94   -197.95159    35.395139 
162672000    288.36976    301.81583    386.85516   -141106.22    141106.45   -85.039331    35.395236 
162676000    263.34981    212.45536     278.5198   -141127.27    141119.17   -66.064445    35.395438 
162680000    247.27162    287.34049     248.8849   -141139.41    141169.67    38.455598    35.398789 
162684000    297.26751    542.42704     189.7759   -141175.79    141178.45    352.65114    35.400833 
162688000    294.55087    442.77038    376.87923   -141188.46    141184.49    65.891153    35.400432 
162692000    249.25046    296.98948    361.36598   -141205.71    141228.35   -64.376502    35.400631 
162696000    312.29831    308.62753    386.93588   -141253.17    141235.49   -78.308349    35.396747 
162700000    281.38943    432.16018    477.03354   -141253.07     141257.2   -44.873368     35.39518 
162704000    300.50893    416.42227    247.09902   -141260.99    141271.71    169.32326     35.39982 
162708000    302.69532    625.78114    250.41648   -141302.53    141300.98    375.36466    35.401827 
162712000    294.63612    453.88328    337.75176   -141291.43    141289.73    116.13152    35.396012 
162716000    244.85171     308.9052    364.12526   -141297.85    141316.97   -55.220059    35.396977 
162720000    295.39901    495.58589    274.02183    -141337.9    141334.23    221.56407    35.399665 
162724000    310.56636    502.79525    414.68439   -141345.24    141336.89    88.110866    35.397569 
162728000     294.6226    321.24785    325.04434   -141371.98    141356.71   -3.7964845    35.404775 
162732000    299.20222    340.39514     321.5987   -141380.03     141371.9    18.796448    35.403364 
162736000    291.84769    179.29787    371.37887   -141394.84    141411.91   -192.08101    35.406893 
162740000    276.34496    280.70375    304.26238   -141392.18    141410.83   -23.558627    35.406769 
162744000    276.99025    430.13189    390.32699   -141433.89    141439.84    39.804898    35.408205 
162748000    314.23223    305.38424     330.9828   -141448.61    141449.03   -25.598558    35.411828 
162752000    272.40136    292.29897    173.78961   -141488.09    141491.91    118.50937    35.416059 
162756000    263.06927     541.7771    155.58682   -141489.67    141508.81    386.19028    35.416451 
162760000    283.56944    359.74084    334.78458   -141486.25    141490.05    24.956265    35.411544 
162764000    287.82319    432.85377    307.88491   -141486.67    141508.73    124.96885    35.411649 
162768000    268.74861    593.27826    313.71338   -141497.86     141531.7    279.56488    35.411969 
162772000    304.69341    430.70281    353.67895   -141557.13    141556.46    77.023862    35.410419 
162776000    284.67206    334.27148    329.28676   -141586.65    141588.65    4.9847157    35.414437 
162780000    252.13352    236.78471    294.10147   -141605.82     141634.8   -57.316761    35.411551 
162784000    299.93172    486.39843    376.65086   -141613.11    141618.46    109.74757    35.417627 
162788000    295.73077    327.12527    358.50841   -141634.55    141630.83    -31.38314    35.414513 
162792000    295.58193    492.83097    350.14669   -141668.03    141632.04    142.68428    35.412513 
162796000      285.175    273.69523    319.21717   -141636.03    141643.51   -45.521937    35.419232 
162800000    284.58777    589.87697    437.16776   -141646.23    141653.37    152.70921    35.417798 
162804000    292.30413    542.27507    362.27617   -141681.44    141694.87     179.9989    35.411885 
162808000    294.92412    469.55195    322.80141    -141720.8    141721.34    146.75054    35.407509 
162812000    297.46526    359.02133     300.2651   -141744.35    141739.49    58.756228    35.405176 
162816000    278.19397    407.45666    240.68548   -141770.41    141772.63    166.77118    35.409599 
162820000    259.87094    316.13622    319.20104   -141764.91    141787.43   -3.0648259    35.413493 
162824000    268.46537    219.82482     359.2196   -141760.88    141782.75   -139.39478    35.413059 
162828000    272.82979    323.49447     376.3819   -141784.49    141806.75   -52.887423    35.413114 
162832000    285.19348    521.69996    445.69997    -141816.3    141832.26    75.999997    35.411741 
162836000    276.05095    381.88102    251.04448   -141863.39    141861.76    130.83654    35.414803 
162840000    263.24711    162.76883     339.1404   -141883.06    141893.47   -176.37158    35.408917 
162844000    284.62779    358.20127    216.32091   -141905.39    141911.89    141.88036    35.406114 
162848000    278.86835    404.98056    387.29099   -141887.38    141892.68    17.689572    35.409398 
162852000    291.90043    361.90051    297.07179    -141953.8    141943.45    64.828713    35.408052 
162856000    259.18207    301.95534    252.62789   -141962.14    141984.07    49.327447    35.409046 
162860000    254.74476    255.89194    354.10923   -141971.33    141988.75   -98.217285    35.408879 
162864000    306.42211    202.91189    280.77614   -141988.77    141998.36   -77.864253    35.406518 
162868000    292.44835    326.49596    251.91877   -142019.52    142031.04    74.577195    35.409196 
162872000    271.18415    253.73483    278.95724   -142045.28    142057.06   -25.222411    35.410242 
162876000    293.42025    454.66875    317.91661   -142073.23    142084.47    136.75214    35.407845 
162880000    283.73329    366.25254    311.89663   -142087.41    142103.59     54.35591    35.407498 
162884000    246.37966     413.1136    326.05267   -142106.82    142141.23    87.060926    35.409285 
162888000    274.22931    333.94672    286.56588   -142146.69    142165.55    47.380833    35.407968 
162892000    338.08429    392.04871    303.69443   -142186.43    142179.59    88.354271    35.409681 
162896000    294.45359    303.82209    391.70692   -142198.03    142194.13   -87.884831    35.408702 
162900000    270.01008    378.74879    181.90832   -142238.41    142237.64    196.84048    35.411773 
162904000    350.30581    515.32486    302.59534   -142289.24    142246.53    212.72953    35.410339 
162908000    306.31169    378.75713    260.15184   -142275.59    142272.52    118.60529    35.411581 
162912000    289.78524    384.45188    386.60393   -142301.01    142285.45   -2.1520537    35.409801 
162916000    257.61945    269.36294    328.60307   -142326.61    142345.67   -59.240134    35.408925 
162920000    283.16099    323.00129    294.57574   -142353.45    142371.56    28.425554    35.408062 
162924000    292.07254    363.53779    384.11299   -142406.13    142410.23   -20.575207    35.407947 
162928000    258.04447    144.03669    150.31442   -142423.79    142459.15   -6.2777306    35.410256 
162932000    265.42815    314.36143    329.63437   -142465.76    142490.22   -15.272936    35.408422 
162936000    300.30271    301.08741    241.66814   -142507.58    142521.16    59.419265     35.41125 
162940000    282.14096    394.02832    305.38013    -142525.1    142550.17    88.648188    35.413152 
162944000    289.81841    276.02607    222.41945   -142553.64    142555.52     53.60662    35.414944 
162948000     280.3427    313.60637    280.49822   -142594.29    142587.91    33.108152    35.410697 
162952000    279.07149    337.44004    327.91959   -142615.53    142623.84    9.5204454    35.410749 
162956000      308.634    222.29523    353.04205    -142635.5    142633.08   -130.74682    35.403079 
162960000    306.91625    399.87235    312.30061   -142674.01    142678.08    87.571748    35.409957 
162964000    305.62095     560.4545    394.96694   -142688.74    142681.25    165.48756    35.415597 
162968000    300.75793    291.21306    261.46162    -142699.3    142685.07    29.751446    35.420077 
162972000    291.01827    478.00547    358.88352   -142709.67    142710.47    119.12195    35.427496 
162976000    283.38258    471.30472     280.9382    -142718.9    142732.45    190.36653    35.432908 
162980000    298.97757    345.50837     278.3441   -142727.48    142718.98    67.164272    35.428821 
162984000    294.67733    438.17822    200.39647   -142741.42    142744.04    237.78175    35.435722 
162988000    266.06683     391.7439    193.64175   -142746.48    142783.31    198.10215    35.439069 
162992000    296.21619    374.22407    466.51679    -142769.7    142769.77   -92.292725    35.439495 
162996000    244.31764    434.48762    267.86897    -142779.7    142813.53    166.61865    35.441355 
163000000    264.41899    352.66481    329.64161   -142802.67    142829.68    23.023202    35.444714 
163004000    285.32372    281.26624    383.62843   -142827.62    142834.86   -102.36218     35.44728 
163008000    288.82662    558.94937    418.81834    -142846.9    142873.08    140.13103    35.449094 
163012000    297.04526     249.8307    370.41485   -142867.57    142871.63   -120.58415    35.445792 
163016000     290.8008     314.2857    342.25141   -142880.26    142891.08   -27.965716    35.441465 
163020000    284.13077    286.03472    248.50394   -142918.21       142940    37.530784    35.440589 
163024000    251.99844    282.38782    199.58735   -142952.16    142978.98    82.800471    35.441634 
163028000    248.39233    420.73289    323.06381   -142991.44    143015.36    97.669084     35.44003 
163032000    287.29435    347.40492    347.53799    -143008.6    143030.35  -0.13307961    35.438202 
163036000    282.44985    430.04068    288.20097   -143008.49    143044.17    141.83971    35.439815 
163040000    326.64252    343.43344    409.48101   -143045.92     143006.9   -66.047575     35.43763 
163044000    301.36814    343.23639    257.07237   -143038.86    143048.45    86.164014    35.436612 
163048000    306.91506    359.52383    232.69678   -143067.05     143052.2    126.82705    35.433085 
163052000    312.74439    438.89328    426.55267   -143096.73    143079.75    12.340609    35.431043 
163056000    266.51982    261.21357    214.56696   -143100.41    143115.92    46.646607    35.429665 
163060000    291.94356    347.77523    393.11435   -143132.05    143131.32   -45.339121    35.431494 
163064000     265.0215     318.1743    262.16405   -143149.35    143154.67    56.010256    35.437954 
163068000    254.09695    357.58888    251.06449    -143161.9    143192.29    106.52439    35.437258 
163072000    277.81318    335.05438    218.81933   -143181.56    143193.82    116.23506    35.440861 
163076000    275.93154    248.20802    418.41261    -143186.2    143206.15   -170.20459    35.441654 
163080000    293.32004    404.26201    228.63109    -143209.5    143212.25    175.63092    35.438527 
163084000    270.44639    143.61678    206.45941   -143203.96    143225.16    -62.84263    35.440494 
163088000    294.75209    524.74749    470.62802   -143259.73    143259.64    54.119468    35.441061 
163092000    283.94564    262.37111    303.98399   -143298.06    143292.87   -41.612881    35.441161 
163096000    304.22327    592.60822    286.30728   -143302.77    143314.66    306.30094    35.441756 
163100000    284.74353    177.90436    235.63469   -143338.12    143344.89    -57.73033    35.439833 
163104000    299.76337    386.18644    354.43312   -143370.67    143354.68    31.753318    35.444987 
163108000    293.39473    290.05171    420.14672    -143391.8    143386.74   -130.09501    35.449893 
163112000    254.57089    258.18167    452.93745   -143387.56    143408.74   -194.75579    35.449381 
163116000    281.18869    276.91145    237.02952   -143401.79    143412.54    39.881934    35.453257 
163120000    280.75146    285.85016    426.86761   -143412.53    143413.74   -141.01745    35.453799 
163124000    283.59228    287.08438    210.85629   -143427.72    143429.97    76.228096    35.458178 
163128000    282.03009    245.98237     334.9697   -143446.28    143451.21   -88.987335    35.460125 
163132000    256.41089    322.93964    256.96958   -143448.52    143469.57    65.970062    35.461311 
163136000     282.4632    468.86652    322.35394    -143485.8    143499.39    146.51258    35.463865 
163140000    274.92143    212.27809    251.00294   -143526.41     143542.4   -38.724846    35.466906 
163144000    307.38202    240.97915    217.18924   -143574.92     143555.8    23.789909    35.463524 
163148000    280.91566    378.73209    364.86704   -143573.06    143584.25    13.865054    35.460887 
163152000    284.38246    240.32964    301.07954   -143600.64    143607.41   -60.749901    35.461356 
163156000    279.26595    416.46364    386.95571   -143620.91    143636.89    29.507936    35.463732 
163160000    273.48333    329.19564    238.11045    -143651.1    143669.55    91.085186    35.460684 
163164000    259.48658    330.21197    204.15767   -143670.81    143700.66     126.0543    35.457589 
163168000    287.02952    331.09789    375.90606   -143703.42    143693.35   -44.808172    35.460321 
163172000    274.41326    245.56734    224.58595   -143714.84    143730.23    20.981394    35.457087 
163176000    300.24544    435.67901    388.47569   -143728.59    143746.91    47.203322    35.458183 
163180000    297.97255    488.54427    214.95441   -143777.67    143771.72    273.58986    35.461144 
163184000    282.38441     274.7412    212.70796   -143800.45    143798.37    62.033236     35.45839 
163188000    262.16903     338.6452    315.08817   -143796.75    143820.29    23.557038    35.462326 
163192000    275.43976     382.7895    243.72595   -143830.97    143847.89    139.06355    35.460821 
163196000    272.82041    252.15805    290.10224   -143853.57    143847.42   -37.944186    35.458652 
163200000    275.11298    288.54726     355.4977   -143854.33    143872.85   -66.950432    35.458483 
163204000    301.89066    427.45367     297.5361   -143880.94    143875.93    129.91757    35.462348 
163208000    293.79882    241.65287    330.19541   -143884.24    143914.66   -88.542537    35.458165 
163212000    257.94016    284.80804    201.93995      -143899    143924.33    82.868086    35.457749 
163216000    274.87708    316.34565    153.76139   -143926.04    143934.78    162.58426    35.457029 
163220000    312.47126    343.87772    239.18171   -143959.28    143949.43    104.69601    35.456525 
163224000    285.77796    317.84602    363.39234    -143971.4    143970.23   -45.546329    35.448453 
163228000    276.20579    241.62057    211.95306   -143980.64    143988.79     29.66751    35.450244 
163232000    300.95131    436.34094    552.56993   -143985.23    143974.51   -116.22899    35.451425 
163236000    304.76542    305.76387    217.53032   -143971.29    143978.07    88.233551    35.446671 
163240000    309.83656    559.52285    384.72673   -144010.88    143994.13    174.79612    35.448848 
163244000    272.57666    395.94314    457.23974   -144000.92    144011.55   -61.296598    35.450399 
163248000    287.95266    549.28695    291.08329   -144036.48    144041.75    258.20366    35.450802 
163252000    282.88401    356.30754    336.36513   -144031.77    144046.19    19.942417    35.451871 
163256000    256.55962    287.56936    298.70295   -144056.25    144059.87    -11.13359    35.449093 
163260000    262.31225    220.08022    516.21025   -144043.22    144061.55   -296.13003      35.4494 
163264000    292.33366    299.63263    291.03596   -144054.26    144070.24    8.5966692      35.4507 
163268000    275.63285    320.41161    315.60074   -144079.92    144094.78    4.8108718    35.448477 
163272000    286.52204    445.64039    486.68674   -144098.29    144116.46   -41.046349    35.447939 
163276000    287.79537    326.72543     446.4067   -144136.78    144144.21   -119.68126    35.451396 
163280000    280.48486    300.42453    279.34939   -144153.77    144159.03    21.075143     35.45402 
163284000    288.61881    405.28629    358.78289    -144152.5     144168.8    46.503399    35.458926 
163288000    282.83571    319.75517    322.49615   -144161.53    144182.63   -2.7409821     35.45274 
163292000    293.13558    519.53477    268.90154   -144197.29    144203.95    250.63323    35.453785 
163296000    290.05755    391.83012    276.78803   -144226.66    144238.71    115.04209    35.457133 
163300000    267.26928    397.54189    338.63573   -144266.79    144288.86    58.906161     35.45968 
163304000    280.73759    398.80189    232.27244    -144331.4    144313.86    166.52945    35.459005 
163308000    241.63393    283.71806    282.11253   -144318.55    144355.17    1.6055295    35.457048 
163312000    252.92859     336.9642    261.13234   -144349.72    144377.25    75.831856    35.454784 
163316000     296.5603     478.8354    412.75361   -144358.52    144364.02    66.081795    35.455988 
163320000    268.25521     420.8941    375.06701   -144337.36    144362.24    45.827087    35.458543 
163324000    264.35043    299.82317    209.46819   -144353.62    144378.29    90.354981    35.465984 
163328000    283.88172    420.95967    243.84204   -144382.01    144388.26    177.11763    35.468411 
163332000    295.68342    391.03843    239.66524   -144416.69    144423.98    151.37319     35.46802 
163336000    319.32563    270.27538    461.01477   -144438.07    144424.03   -190.73939    35.468082 
163340000    247.83058    332.52007    263.76592   -144443.31     144473.9     68.75415    35.463294 
163344000    293.97473    350.19933    386.97374   -144483.43    144483.83   -36.774405    35.460871 
163348000    318.55864    227.71659    552.04965   -144529.12    144500.83   -324.33306    35.457148 
163352000    290.62396    330.31763    308.17662   -144513.12    144531.31    22.141008    35.454406 
163356000    286.99262    261.54296    291.04501   -144542.23    144531.37   -29.502053    35.454158 
163360000    288.75442    456.07309    258.11596   -144554.76    144554.36    197.95714    35.457765 
163364000    285.21165    488.08392    402.49477   -144575.36     144571.7    85.589142      35.4596 
163368000    268.15735    439.41499    309.28787   -144592.41    144612.58    130.12712     35.45726 
163372000    278.46877    345.95578    164.81909   -144636.95     144628.2    181.13669    35.459202 
163376000    293.87151    354.90315    312.07975   -144639.41    144641.82    42.823394    35.458373 
163380000    274.10497    351.95886    356.52903   -144664.47    144669.06   -4.5701647    35.461984 
163384000    276.72663    420.36039    421.31824   -144690.14    144703.19  -0.95785512    35.461931 
163388000    269.57817    360.60479    277.20343    -144717.3     144717.4    83.401356     35.45756 
163392000    300.67353    482.29388    360.42918   -144751.81    144744.68     121.8647    35.454099 
163396000    265.72293    196.91836    295.49939   -144776.93    144767.01   -98.581034    35.452894 
163400000    268.74084    203.50451    176.87642   -144788.14    144827.66    26.628089    35.454322 
163404000    259.68457    431.68681    278.94269   -144793.77    144836.95    152.74413     35.45879 
163408000    289.77982    580.78166    250.85899    -144831.1     144823.3    329.92267    35.458952 
163412000    282.61338    394.74663    310.17019   -144839.03    144849.86    84.576436    35.453621 
163416000    274.87179    209.33415    288.81329    -144844.5    144840.53   -79.479135    35.456257 
163420000    265.75787    419.69725    381.18288      -144861    144881.95    38.514372    35.460346 
163424000    277.15181     315.8785    224.35472   -144896.33    144916.28    91.523774    35.459541 
163428000    264.46945    261.71857    151.71904   -144911.79    144940.31    109.99953    35.461546 
163432000     295.2817    619.89628     403.6707   -144946.42    144948.72    216.22559    35.465866 
163436000    283.22237    279.23549    252.88696   -144973.58    144977.88    26.348536    35.469091 
163440000    256.44755    253.22928    320.33374   -144978.01    145001.48   -67.104461    35.469422 
163444000    291.40328    464.51153    322.86762   -145029.84     145009.5    141.64392    35.473092 
163448000    269.99335    346.46092    321.42781   -145039.46    145059.11    25.033107    35.470768 
163452000    279.38015    440.79594    372.91538   -145050.73    145063.72    67.880552    35.469842 
163456000     286.5261    413.24372      260.068   -145076.07    145090.95    153.17572    35.468622 
163460000    263.96934     339.2856    222.96015   -145068.64    145099.45    116.32545    35.464983 
163464000    268.55907    127.37959    351.76854   -145062.07    145098.49   -224.38895    35.461433 
163468000     267.0004    539.12038    402.00184   -145130.77    145128.39    137.11855    35.459153 
163472000    288.38214    304.62015     186.1433   -145182.09     145169.5    118.47685    35.463152 
163476000     269.9203    319.25154     233.3877   -145208.93    145214.25    85.863838    35.466039 
163480000    293.17012    326.16077    507.70494    -145227.4    145234.83   -181.54417    35.468947 
163484000    285.80657    345.00341    193.14527   -145261.64    145269.47    151.85814    35.470757 
163488000    298.10738    469.92498    350.24134   -145302.09    145301.55    119.68364     35.46915 
163492000    297.74182    339.98711    465.81102   -145301.45    145294.36    -125.8239    35.470977 
163496000    257.88064    249.43125    298.63288    -145315.4    145337.24   -49.201639    35.471206 
163500000    281.97101    421.49687    333.80394   -145335.57     145358.4    87.692932    35.469498 
163504000      296.395    214.77169    224.63545   -145367.92    145376.26   -9.8637593     35.46912 
163508000    287.86668    533.31035    145.11995   -145400.92    145395.45     388.1904    35.473252 
163512000    310.42594    240.54533    462.54269   -145399.85    145391.34   -221.99736    35.463024 
163516000    278.27601    478.84047    400.66355   -145408.16    145425.27     78.17692    35.462921 
163520000    295.90753    419.03557    332.49272   -145442.99    145437.19     86.54285    35.463273 
163524000    305.72337    363.41978    331.00416   -145462.49    145467.87     32.41562    35.467357 
163528000    306.82751    544.15537    360.86927   -145516.38     145490.3     183.2861    35.469165 
163532000    273.91819    336.14214    465.35061   -145531.64    145539.06   -129.20847    35.466818 
163536000     285.1355    353.35053    151.91128   -145563.21    145572.81    201.43925    35.471615 
163540000    307.32027    766.63286    299.62042   -145613.43    145607.74    467.01244    35.478318 
163544000    298.13572    382.94885    270.91321   -145638.32    145641.95    112.03564    35.477882 
163548000    279.71812    437.56718    365.17748    -145649.9    145684.24    72.389703    35.477962 
163552000     284.6042    216.31894    440.84005   -145658.55    145658.53   -224.52111    35.480082 
163556000    287.91752    461.34398      441.143   -145653.84    145672.66    20.200982    35.477244 
163560000     286.8494    384.99587    416.97708   -145673.64    145692.53   -31.981218     35.47206 
163564000    271.20838    360.68848    251.41214   -145722.08    145731.75    109.27634    35.467205 
163568000    284.62907    276.99512    529.09701   -145736.04    145759.59   -252.10188     35.46496 
163572000    261.36887    396.31322    445.73196   -145768.47    145792.41   -49.418737     35.46083 
163576000    271.53667    383.97765     259.8912   -145821.47    145848.39    124.08644    35.459399 
163580000    275.78234    320.24479    316.19236   -145823.59    145847.52    4.0524298    35.461619 
163584000    275.74814    512.41338    347.01855   -145863.81    145864.99    165.39483    35.461137 
163588000    312.74046    268.68603    454.52136   -145885.36    145874.43   -185.83533    35.459139 
163592000    319.23534    658.28258    479.79844      -145914    145898.11    178.48413    35.455342 
163596000     265.3444    315.59187    203.42914   -145915.74    145930.59    112.16273    35.454878 
163600000    307.63225    465.48284    385.57574   -145949.02    145945.36    79.907099    35.452528 
163604000    288.91273      388.777    373.35735   -145943.34    145956.63    15.419656    35.454278 
163608000    293.43979    343.29896    404.88159   -145966.05    145975.48   -61.582637    35.454265 
163612000    298.61955    477.42987    467.36374   -146011.58     146012.8    10.066128    35.449631 
163616000    255.73512    381.13428    295.81621   -146009.53    146036.09    85.318072    35.446153 
163620000    297.97727    348.58109    505.60884   -146045.38    146044.83   -157.02775     35.44482 
163624000    273.57971    365.81435    297.30359   -146057.29    146073.98    68.510759    35.447142 
163628000    249.42093    275.40627    268.72073   -146062.67     146088.3    6.6855377    35.445156 
163632000    291.21852    435.64955    125.66828   -146092.28    146103.35    309.98128     35.44638 
163636000    270.32399    349.08436    318.59465   -146105.26    146113.49     30.48971    35.453482 
163640000    265.62453    336.67948    327.60578   -146117.82    146117.46    9.0736988    35.452621 
163644000    285.58198    306.88602    327.59256   -146145.79    146156.23   -20.706544    35.456389 
163648000    282.54952    445.28333    284.99678    -146173.7    146183.88    160.28655    35.455174 
163652000    321.16074    428.02207    349.71743   -146201.99    146178.21    78.304638    35.452781 
163656000    287.77941    519.31236     377.4371   -146194.53    146188.26    141.87526    35.451564 
163660000    289.54198    355.22703    377.10102   -146223.28    146215.92   -21.873984    35.453228 
163664000    308.81534    418.84167    456.26611   -146255.05    146272.08   -37.424439    35.459562 
163668000    301.08547    238.12179    294.22168   -146301.05    146293.17   -56.099894    35.458957 
163672000    260.02067    224.59094     334.1327   -146324.34    146326.32   -109.54176    35.461775 
163676000    278.04097    368.18752    252.67203   -146344.54    146365.46    115.51549    35.462588 
163680000    297.14293    317.70745    395.13165   -146356.41    146360.38   -77.424207    35.459875 
163684000    312.98968    536.27689    160.80039   -146367.83    146357.48     375.4765    35.462909 
163688000    315.37719    340.50839    378.05656   -146376.33     146381.3   -37.548171    35.465041 
163692000    272.65345    229.66541    362.28993   -146380.21    146406.07   -132.62452    35.470365 
163696000    277.35326    209.89383    291.37878   -146411.27    146423.77   -81.484951    35.468438 
163700000    318.08999     259.3991    443.54419   -146455.81     146437.8   -184.14509    35.467952 
163704000    278.56599    380.18219    305.55756   -146467.11     146467.5    74.624631    35.471155 
163708000    273.52333    312.59378    293.91207   -146501.09    146504.32    18.681709    35.464732 
163712000    304.13596    332.07289    394.27026   -146522.56    146531.58   -62.197377    35.464015 
163716000    263.68732    210.69017    311.85771   -146530.83    146550.34   -101.16754    35.467916 
163720000    289.02534    596.73793    328.69536   -146541.78    146562.53    268.04257    35.475183 
163724000    283.63052    261.10026    325.10776   -146586.06    146598.94   -64.007496    35.477742 
163728000    275.95187    219.68794    330.27984   -146612.32    146608.99   -110.59189     35.47625 
163732000    289.37296    330.95119    423.63676   -146615.08     146623.6   -92.685576    35.472827 
163736000    275.27466    419.59114     456.1503    -146648.8    146657.85   -36.559154    35.476197 
163740000    280.60609    320.07861    253.70927    -146657.7    146651.28    66.369331    35.470038 
163744000    295.80277    199.01851    266.82188   -146696.41    146680.82   -67.803373    35.473003 
163748000    303.62078    247.92197    284.51534    -146713.9    146714.42   -36.593366    35.474594 
163752000     264.5967    367.77636     347.9263   -146712.74    146733.01    19.850057    35.477234 
163756000    272.02757    375.46667    343.78844   -146759.01    146773.11    31.678222    35.474197 
163760000       293.66    274.60585    465.74785   -146798.93    146794.53     -191.142    35.470693 
163764000    305.34897    462.99037    234.42147   -146819.59    146798.26    228.56889    35.471777 
163768000    273.62863    397.94257    237.53937   -146826.95    146847.28     160.4032    35.470081 
163772000    273.58788    289.71923     250.4516   -146837.32    146856.89    39.267625    35.468242 
163776000    263.62705    276.77911    298.02147   -146867.11    146873.97   -21.242359    35.467021 
163780000    309.92245    675.90761    201.37957   -146875.11    146876.51    474.52804    35.470121 
163784000    257.15385    216.38933    293.46033   -146869.29    146881.96   -77.071003    35.464963 
163788000    279.15129     197.4466    399.63325   -146882.24    146880.22   -202.18664     35.46108 
163792000    285.86512    343.65214    518.41634   -146877.95    146873.88    -174.7642    35.460519 
163796000    277.11549    486.62839    241.55479    -146890.3    146897.72     245.0736     35.46326 
163800000    275.83271    289.96727    181.53163    -146911.4    146918.48    108.43564    35.464968 
163804000    279.13248     405.1034    311.25828   -146939.16    146945.78    93.845119     35.47067 
163808000    250.86776    422.25277    210.37971   -146938.51    146967.55    211.87305    35.473818 
163812000    288.58252    286.63935    367.08789   -146977.66    146981.82    -80.44854    35.474653 
163816000    271.05434    367.22544     326.6273   -146976.62    146998.74    40.598141    35.472112 
163820000    286.95787    548.95477    281.01174   -147019.39    147036.95    267.94302    35.475276 
163824000    297.19292    407.55206     475.0636   -147068.23    147066.62    -67.51154    35.471171 
163828000    277.69727    288.87101    476.54859    -147066.4    147072.47   -187.67758    35.467037 
163832000    311.78761    583.79782    286.90757   -147097.55    147100.11    296.89025      35.4647 
163836000    276.42169    438.46736     239.3149   -147102.33    147126.04    199.15246    35.465316 
163840000    288.06514    535.03568      283.996   -147141.29    147140.27    251.03968    35.468363 
163844000       285.81    327.28742    424.28794   -147163.74    147172.65   -97.000522    35.465999 
163848000    287.14113    319.64061    344.90215   -147203.55     147186.8   -25.261542    35.468675 
163852000    315.13981    276.00971    417.68391   -147221.54    147230.88   -141.67421    35.464958 
163856000    276.41713     264.7342    469.54266   -147234.72    147252.96   -204.80846    35.464622 
163860000    317.70159    304.45137    413.99961   -147302.53     147276.3   -109.54824    35.460215 
163864000    313.22704    405.46908    480.07421   -147301.59    147288.08   -74.605125    35.459163 
163868000    276.66006    408.34393    417.90634   -147318.19     147315.1   -9.5624064    35.460002 
163872000    297.06291    284.88106     438.0007   -147342.97    147336.49   -153.11964    35.462837 
163876000    282.56048    299.46724    360.71898    -147355.6    147353.92    -61.25174    35.462259 
163880000    320.31952    362.55465    475.20297   -147376.98     147362.6   -112.64832     35.46692 
163884000    281.76774    417.56283    177.90503   -147384.99    147374.99    239.65781    35.474339 
163888000     275.5496    524.24118    249.95873   -147409.63    147402.43    274.28245     35.47924 
163892000    289.19901    273.06598    289.14532   -147422.06    147423.12   -16.079338    35.477858 
163896000    248.47522    355.10464     298.9742   -147445.12    147451.55    56.130444    35.480989 
163900000    281.06063    422.85898    295.47467   -147464.87    147464.81    127.38431    35.483705 
163904000    273.97315    387.60774    261.68673   -147505.08    147524.34    125.92101    35.482992 
163908000    294.96048    496.17567    318.66272   -147543.05    147543.76    177.51295     35.49222 
163912000    282.27346    432.66878    407.48221   -147533.86    147561.83    25.186572     35.48891 
163916000    283.30406     345.8517    341.99537    -147562.9    147559.98    3.8563334    35.485359 
163920000    285.66531    459.58971    336.90015      -147571    147572.37    122.68956    35.485209 
163924000    290.34233    512.25068    244.72779   -147587.36    147591.11    267.52289     35.48801 
163928000    293.21515    348.31614    544.00271    -147631.1    147622.53   -195.68656    35.489522 
163932000    256.72972    312.43532    257.55601   -147642.89    147671.28     54.87931    35.487263 
163936000     282.8287    334.31511    243.17776   -147671.01    147683.38    91.137348     35.48856 
163940000    279.60202    219.72959    448.34368   -147700.75    147698.35   -228.61409    35.489124 
163944000    294.22087    452.32347    348.68406   -147707.55    147715.24    103.63941     35.49038 
163948000    282.98318    407.89709    334.66835   -147750.19     147750.9     73.22874     35.48978 
163952000    292.51566    210.51657    309.65079   -147770.74    147768.38   -99.134218    35.485958 
163956000    251.07809    298.01573    271.94026   -147790.01    147806.58    26.075472    35.485789 
163960000    283.60942    218.59353     210.4392   -147813.39    147843.05    8.1543264    35.481515 
163964000    256.49881    436.41916    297.75054   -147829.33    147861.61    138.66862    35.483233 
163968000    251.29927    539.37252    193.90691    -147836.1    147858.99    345.46562    35.486049 
163972000    282.41629     238.8099    338.30275   -147842.23    147857.06   -99.492846    35.486988 
163976000    246.28501    448.80145    267.85816   -147869.51    147892.05    180.94329    35.491062 
163980000     256.4648    238.85355    400.72355   -147882.79     147912.1   -161.87001    35.491103 
163984000    293.55063    237.58153    339.50222   -147928.36    147929.29   -101.92069    35.489052 
163988000    298.84246    485.02703    241.15815   -147944.26    147954.48    243.86888    35.488839 
163992000     253.4913     360.7961    274.01765   -147968.11    147986.06    86.778452    35.485619 
163996000    278.00154    324.84836    245.52672   -147994.79    148001.89    79.321643    35.488766 
164000000    300.15196    360.91903    400.61575   -148024.91     148017.7   -39.696719    35.485185 
164004000    283.84628    260.10796    182.91361   -148028.87    148038.26    77.194345    35.480219 
164008000    272.27264    353.76299    228.58516   -148048.78    148057.25    125.17783    35.482588 
164012000    283.99062    336.13864    287.86925      -148056    148071.02    48.269388    35.481017 
164016000     277.1463    248.93298    274.94312   -148085.73    148084.07   -26.010141     35.47759 
164020000    319.36529    762.46244    284.57053   -148090.84    148078.41    477.89191    35.480749 
164024000    284.82801    582.36107    271.30595    -148081.9    148090.21    311.05512    35.475741 
164028000    303.56381    523.91436    382.21444   -148108.25     148110.2    141.69993    35.476032 
164032000    252.96997    257.72036    269.60213   -148098.36    148112.56   -11.881765    35.477903 
164036000     276.1201    391.36896    473.28076   -148097.55    148104.05     -81.9118    35.481652 
164040000    284.28442    561.36483    297.95116   -148113.48    148113.45    263.41368    35.485351 
164044000    283.24239    218.21838    383.63049   -148150.38    148140.13   -165.41211     35.47996 
164048000    328.08423    222.67286    315.75213   -148172.24    148140.46   -93.079265    35.482326 
164052000    292.16501    373.87115    314.36826   -148176.18    148193.37    59.502891    35.478673 
164056000    271.24745    233.67725    422.10107   -148202.31    148223.18   -188.42382    35.482834 
164060000    293.16429    418.10763    206.89504   -148239.65    148240.65     211.2126    35.485271 
164064000    287.81326    576.87472    285.02381   -148232.26     148247.2    291.85091    35.486248 
164068000    302.79738    606.90596    363.37884   -148248.34    148243.27    243.52712    35.486213 
164072000     310.0793    268.98635    395.16426   -148271.93    148267.86   -126.17792    35.484608 
164076000    284.11793    514.79028    413.03185   -148278.43    148298.54    101.75843    35.487604 
164080000    282.89888    278.00332    273.57496   -148316.69    148310.66    4.4283577    35.491326 
164084000    273.34696    258.46211    323.08357   -148317.94    148339.39   -64.621458      35.4899 
164088000    290.15344    299.72727    363.44048   -148329.83    148344.78    -63.71321    35.489262 
164092000     289.0045    257.13666    256.36189   -148373.42    148372.25   0.77476471    35.492108 
164096000    280.60593    464.16191    316.31144   -148384.18    148398.18    147.85047    35.488749 
164100000    305.12555    476.17368     305.5014   -148410.74    148408.18    170.67228    35.489123 
164104000    290.52945    395.73044    320.35939   -148423.21    148420.08    75.371058    35.490533 
164108000    296.07548    304.84742    303.28318   -148424.19    148425.32    1.5642443    35.488586 
164112000    312.03977    426.57068    198.25167   -148452.18    148437.95      228.319    35.491716 
164116000    308.76507    343.22551    323.57302   -148478.17    148462.31    19.652495    35.493327 
164120000     303.3965    465.95884    328.10592   -148495.25    148488.79    137.85293    35.486285 
164124000    288.55238    379.49172    354.79133   -148512.68    148507.78    24.700389     35.48666 
164128000    284.86317    399.50911     349.2512   -148546.03    148542.18    50.257918    35.486393 
164132000    294.92929    404.10194    256.03576    -148588.5    148599.21    148.06618    35.482434 
164136000    294.01914    433.13547    348.99349   -148613.59    148622.28    84.141976    35.488289 
164140000    283.92621    295.99536     336.7723   -148633.36    148638.92   -40.776939    35.489857 
164144000     276.9709    284.74334    423.82828   -148686.02    148698.62   -139.08493      35.4945 
164148000     285.1176    327.00208    222.54946   -148707.06    148732.49    104.45262    35.490146 
164152000    289.23704    280.25999    316.57975   -148756.55    148765.83   -36.319763    35.488556 
164156000    296.39556    373.80117    376.08631   -148790.31     148795.8    -2.285147    35.495579 
164160000     282.7601    340.61303    249.55323   -148824.78     148834.2    91.059795    35.492977 
164164000    271.67627    217.92311    362.88108   -148839.44    148850.44   -144.95796    35.489925 
164168000    283.94436    457.22812    352.21058   -148871.23    148884.03    105.01754     35.48546 
164172000    278.62175    201.97583    425.76115   -148890.45    148896.93   -223.78533    35.484109 
164176000    305.31922    346.07264    247.45582   -148944.22    148948.27     98.61682    35.481291 
164180000    306.00401     255.8332    419.77732   -148974.96    148961.95   -163.94413    35.483082 
164184000    309.79142    293.03923    311.14764    -149003.6     148993.9   -18.108417    35.488289 
164188000    280.26649    222.24107    309.84752   -149024.85    149036.36   -87.606441    35.485297 
164192000     307.8753    436.11727     181.9685   -149039.98    149050.09    254.14877    35.485427 
164196000    292.87862     434.7975    347.94248   -149076.74    149063.51    86.855028    35.488419 
164200000    258.21087    324.38376    239.61317   -149074.33     149083.5    84.770589    35.495093 
164204000    256.71848    396.57971    225.14245   -149098.26    149115.29    171.43726    35.495871 
164208000    279.56236    424.08744    321.65377   -149115.42    149126.68    102.43367    35.491915 
164212000     301.2181    477.98616    387.89944   -149165.96    149137.81    90.086714    35.492994 
164216000    272.48555    505.68558    254.85793    -149179.3    149181.93    250.82764    35.495251 
164220000    287.84539    361.96171    341.86881   -149188.85    149190.31    20.092891      35.4907 
164224000    271.96219    304.42192    391.93794   -149200.25    149202.13   -87.516022    35.491886 
164228000    288.99946    334.91427    263.34994   -149228.94    149227.93    71.564335    35.491683 
164232000    282.61728    385.15239    218.88799   -149251.77    149248.62     166.2644    35.487474 
164236000    302.89094    390.64838    203.01138   -149288.44    149297.36      187.637    35.486302 
164240000    254.63691    240.20356    364.66166   -149301.53    149333.41    -124.4581    35.484585 
164244000    277.34032    446.99391     333.8108   -149322.84    149342.67    113.18311    35.483431 
164248000    284.34728    373.88666    264.95169    -149346.2    149359.31    108.93497    35.485162 
164252000    309.55567    453.98971    298.39931   -149374.23     149375.9    155.59041    35.485307 
164256000    273.79903    331.04581    298.29389   -149383.07    149405.03    32.751923    35.483375 
164260000    296.86552    478.56909    376.76675   -149393.42    149423.96    101.80234    35.484587 
164264000    285.78581    496.01866    241.03212    -149429.6    149426.39    254.98654    35.487387 
164268000    259.10482    450.58751     293.9067   -149430.79     149458.7    156.68081    35.487645 
164272000    254.79986    317.33258    222.99982   -149441.62    149472.08    94.332765    35.489413 
164276000    293.08363    406.19029     397.5345    -149476.7    149501.39    8.6557919    35.482926 
164280000    291.83777    418.26195    163.53253    -149517.8    149527.06    254.72942    35.480345 
164284000    300.43362    176.11914    488.56039   -149514.64    149515.14   -312.44125    35.479864 
164288000    297.79865    443.31939    203.86388   -149516.57    149527.16    239.45551    35.481301 
164292000      288.834    368.71951    252.05388   -149528.68    149539.38    116.66563    35.481254 
164296000    275.57183    522.24242     294.8519   -149539.09    149551.24    227.39053    35.487131 
164300000    268.15594    337.12397    343.33565   -149563.05    149576.94   -6.2116853    35.490747 
164304000    262.90647    212.85606    283.82453   -149578.98    149595.24   -70.968473    35.488076 
164308000    293.32273    357.46328    363.61694   -149612.71    149606.43    -6.153659    35.487616 
164312000    272.73165    264.53256     256.2061   -149650.07       149649    8.3264596    35.485541 
164316000    254.96748    367.15488    295.68394   -149619.67    149648.91    71.470938    35.480153 
164320000    313.73331    325.28251    289.77631   -149663.76    149663.33    35.506205    35.481533 
164324000    279.54425    382.29217    373.19789   -149685.57    149692.28    9.0942849    35.481957 
164328000    274.03949    256.06966    118.43032   -149716.48    149728.87    137.63934    35.480931 
164332000    298.44053    338.13311    595.32146   -149717.35    149732.03   -257.18835     35.48171 
164336000    300.82958    326.74592    490.60377   -149746.67    149733.82   -163.85784    35.483577 
164340000    265.37015    171.01075    338.73496    -149752.1     149770.7    -167.7242    35.482834 
164344000    311.86981    715.06692    262.50663   -149773.13    149764.69    452.56029      35.4822 
164348000    252.70519    296.32324    161.26426   -149778.78    149800.68    135.05898    35.482261 
164352000    255.28026    453.74748    345.88379   -149806.86    149822.66     107.8637    35.483102 
164356000    295.05148    367.08753    433.82269   -149840.47    149837.56   -66.735162     35.48263 
164360000    282.03021    372.90938      345.314   -149868.25    149868.89    27.595382     35.47996 
164364000    278.80542    459.42207    451.26167   -149913.47    149922.04     8.160402    35.481026 
164368000    296.24292    372.61606     390.1686   -149924.47    149926.45    -17.55254    35.480383 
164372000    258.65345    235.25388    221.77467   -149936.52    149958.01     13.47921    35.482283 
164376000    277.02349    320.06571    365.78048   -149955.56    149970.93   -45.714767    35.476215 
164380000     296.8039    376.87313    234.23159   -149986.99    149986.76    142.64153    35.478448 
164384000    264.57918    376.93811    258.44431   -149972.09    150009.86     118.4938    35.474292 
164388000    270.43207    300.83711    440.31106   -150004.91    150025.13   -139.47395    35.468407 
164392000    292.66611    282.42961      365.788   -150026.09    150032.28   -83.358395    35.466496 
164396000    248.12531    289.14594    242.63723   -150027.42    150060.38    46.508714    35.463128 
164400000    285.10274    315.36147    388.56316    -150064.1    150053.68   -73.201689    35.461515 
164404000    304.40076     310.4801    457.55435   -150065.63    150070.87   -147.07424    35.458711 
164408000     292.2901    351.66132    482.10726   -150087.76     150104.8   -130.44594    35.449954 
164412000    272.30778    511.59768    242.07498   -150108.19    150132.21    269.52269    35.449517 
164416000    284.68214    259.13254    344.54375      -150119     150119.3   -85.411209     35.44601 
164420000     290.1034    312.88863    442.46109   -150147.96    150135.24   -129.57246    35.442992 
164424000     255.7807    352.28616    233.03854   -150160.97     150183.2    119.24762    35.443824 
164428000    308.63745    336.10315    212.74142   -150208.65     150193.9    123.36173    35.442174 
164432000    283.45237    276.75926    603.81182    -150205.5    150206.46   -327.05255    35.438765 
164436000    286.97368     221.9309    324.15247   -150212.31    150232.64   -102.22157    35.438012 
164440000    276.81502    231.70111    427.30384   -150225.65    150240.53   -195.60274    35.433334 
164444000     270.8175    416.61833    410.62036   -150245.61    150261.82    5.9979695    35.429949 
164448000    307.44379    342.21475    503.86269   -150271.32    150267.83   -161.64794    35.428491 
164452000    273.17676    263.16093    324.00852   -150284.67    150314.16   -60.847591    35.431978 
164456000    291.26285    355.30721    254.21856   -150331.21    150334.34    101.08866    35.431864 
164460000    302.55496     480.2847     333.7144   -150359.89    150357.36     146.5703    35.435949 
164464000    259.62089    309.05987    332.59288    -150371.6    150403.42   -23.533012    35.436434 
164468000    271.55026    304.17955    468.30356   -150406.35    150413.96   -164.12401    35.435424 
164472000    285.28501    286.77233    421.99795    -150452.9    150447.42   -135.22562    35.428075 
164476000    243.33847    91.390226     284.5965   -150459.11    150499.79   -193.20627    35.426739 
164480000    267.39199    366.35968    266.94819   -150519.77    150528.74    99.411485    35.428211 
164484000    267.19722    306.14637    171.59313   -150547.25    150561.14    134.55323    35.427805 
164488000    271.31357     325.3665    294.97175   -150546.78    150578.11     30.39475    35.422318 
164492000    304.97994    525.68312    343.59792    -150560.4    150559.45    182.08521    35.426232 
164496000     293.5802    299.30158    268.18303   -150589.37    150601.32    31.118546    35.424852 
164500000    287.79142    497.59956    221.68012   -150622.28     150623.3    275.91944    35.424662 
164504000    299.75382    534.91296    476.34204      -150627    150625.92    58.570927    35.428055 
164508000    250.00284    297.72824    334.47915   -150627.66    150658.81   -36.750908    35.430476 
164512000    298.24535    241.48802    349.94313    -150683.9    150689.93   -108.45511    35.434856 
164516000    298.29134    576.53291    446.67471   -150686.22    150695.09     129.8582    35.438804 
164520000    273.93987    238.49078    290.50028   -150700.68    150730.68     -52.0095    35.435063 
164524000    270.59675    391.29975    320.20444   -150713.17    150727.67    71.095309    35.432234 
164528000    306.14824    456.59337    480.02846   -150757.34    150760.74   -23.435089     35.42834 
164532000    281.47185    388.78256    345.17676   -150774.79    150777.48    43.605797    35.431924 
164536000    282.11485    445.10333    446.74678   -150781.86    150805.29   -1.6434455    35.428324 
164540000    297.56725    582.41581    428.41838   -150795.41    150803.84    153.99743    35.431588 
164544000    297.15481    323.34154    354.62756   -150835.35     150825.6   -31.286018    35.426086 
164548000    287.72332    544.62268    465.28187   -150845.21    150850.07    79.340807    35.422909 
164552000    279.33075     324.5336    396.68826   -150861.45    150870.95   -72.154657    35.423264 
164556000    290.21189    346.09697     291.8522   -150881.06    150889.02    54.244777    35.428434 
164560000    293.32824    334.20926    568.47213   -150872.44    150864.35   -234.26288    35.426155 
164564000    289.38268    373.38999    352.43109   -150896.42    150882.13    20.958894    35.427853 
164568000    304.84829    446.02892    265.95651   -150919.73     150899.6    180.07242    35.427847 
164572000     299.6967    577.12287    188.01796   -150943.06    150934.51    389.10492    35.432132 
164576000    261.28144    217.48138    246.21782   -150949.43    150968.22   -28.736442    35.433049 
164580000    289.08563    210.60929    294.72357    -150967.2    150974.83   -84.114288    35.433474 
164584000    294.99794    485.37074    333.23171   -151002.15    150983.25    152.13902    35.432791 
164588000    276.70013    313.59671    346.60464   -151003.71     150999.1   -33.007929    35.429237 
164592000    281.84554    321.21269    243.00768   -151008.32    151019.92    78.205009    35.429169 
164596000    266.00142    256.58966    537.78869   -151041.56    151058.96   -281.19903    35.426274 
164600000    277.61569    314.16398    263.92962   -151094.98    151098.04    50.234359    35.427434 
164604000    296.56488    323.77323     449.3049   -151128.11    151138.35   -125.53168     35.42309 
164608000    288.03348    310.57419    398.97826   -151145.79    151160.31   -88.404066    35.422632 
164612000    296.43818     265.8761    147.56381   -151183.33    151170.63    118.31229    35.422674 
164616000    278.55007    349.17391    369.67262   -151197.03    151202.07    -20.49871    35.420352 
164620000     318.5795    492.83668    334.97926   -151246.27    151224.91    157.85742    35.424089 
164624000    294.77094    427.55717    351.71338   -151253.59    151264.71    75.843795    35.424435 
164628000     301.8443    376.54078     240.5453   -151319.37    151290.35    135.99548    35.425733 
164632000    299.90381    351.69678    494.81196   -151317.97    151315.89   -143.11518    35.423384 
164636000    254.45927    345.22807    192.45113   -151299.43    151328.26    152.77694     35.42581 
164640000    274.75897    297.81292     267.2985   -151323.18     151342.3    30.514426    35.426929 
164644000    300.69935     318.8592    483.68893   -151371.07    151365.02   -164.82973    35.428528 
164648000    295.71019    264.28447    479.69968   -151372.72    151371.59   -215.41521    35.425203 
164652000    305.99161    317.78906    529.68143   -151403.15    151391.09   -211.89237    35.422363 
164656000    314.00257    544.33897     252.2426   -151423.83    151407.38    292.09637    35.424931 
164660000     313.4172    446.61738    260.72322    -151468.9    151449.71    185.89416    35.427869 
164664000    285.36913    436.85531    270.32099    -151444.3    151471.23    166.53432    35.428389 
164668000    265.02906    276.00955    499.65635   -151491.36    151505.56   -223.64679    35.427443 
164672000    273.93003    288.74808    306.54314   -151527.26    151531.92   -17.795062    35.428564 
164676000    301.51558    344.24135    328.98382   -151553.95    151544.46    15.257532    35.424345 
164680000    270.53194    229.13736    315.13971   -151567.98    151567.18   -86.002355    35.420422 
164684000    256.57495    383.72519    275.78658    -151574.4    151594.53    107.93861    35.426328 
164688000    269.98849    253.33768     296.7452   -151574.93    151611.15   -43.407521    35.428003 
164692000    265.15372    406.18806    346.55193   -151570.32    151594.91    59.636129    35.430545 
164696000    282.05968    645.38014    458.22619   -151598.63    151602.19    187.15395    35.430299 
164700000    289.48306    432.21352    433.22016   -151603.28    151590.47   -1.0066371    35.431074 
164704000    268.88503    338.60167    438.16275   -151601.12       151603   -99.561075    35.434155 
164708000    264.18027    380.99499    229.64385   -151621.73    151629.98    151.35114    35.431337 
164712000    288.12386    442.97425     380.2237   -151632.05    151647.31    62.750555    35.433125 
164716000    272.14912    234.11489     558.2533   -151647.88    151652.36   -324.13841    35.433098 
164720000    287.66824    336.93278    315.60776   -151696.65    151699.32     21.32502    35.433536 
164724000    280.11432    408.19446    414.17681   -151731.26    151731.05   -5.9823522    35.432768 
164728000    285.77955    291.66474    231.34126   -151755.82    151760.79    60.323486    35.429754 
164732000    304.59584    315.60848    424.03847   -151788.88     151780.4   -108.42999    35.430644 
164736000    282.90848    230.20817    285.72904   -151774.79    151799.55   -55.520878    35.429881 
164740000    263.17291    401.31293    349.57995   -151808.19    151830.25    51.732978    35.429826 
164744000     267.0797     304.2637    357.62894   -151814.66    151846.93   -53.365244    35.431181 
164748000    265.18381     153.6036    375.29127    -151848.3    151892.03   -221.68767    35.433312 
164752000    283.33961    306.77783    245.24864   -151916.85    151907.04    61.529186    35.436305 
164756000    288.69265    419.38152    434.80913   -151946.97    151941.06   -15.427613    35.438621 
164760000    248.37884    266.96184    234.24642   -151935.57    151976.26    32.715425    35.441869 
164764000    260.67877    530.77451    386.46484   -151946.97    151970.53    144.30967     35.45003 
164768000    240.15264    432.46588    375.31087   -151961.71    151991.47    57.155015    35.449566 
164772000    321.84868    484.18468    281.31257   -151977.85    151966.04    202.87211    35.455715 
164776000    270.17404    408.71329    356.16902   -151986.12    151999.34    52.544264    35.453139 
164780000    295.87176    586.11913    539.40427    -152035.1    152030.85     46.71486    35.453395 
164784000    282.78128    234.97159    213.87155   -152035.58    152045.64    21.100038    35.454444 
164788000    268.29692    359.25992    327.03978   -152060.83    152085.07    32.220143    35.457385 
164792000    268.83959    263.23693    263.08618   -152087.58    152104.24    0.1507482    35.458111 
164796000    274.24192    386.65021    245.44286   -152120.85    152133.51    141.20736    35.453473 
164800000    294.19044     474.1189    274.08311    -152139.4     152147.1    200.03579    35.451312 
164804000     261.9518    362.60277     401.2269   -152162.61    152183.36   -38.624127    35.453844 
164808000    312.53126    438.64395    358.61633   -152201.03    152183.32    80.027617    35.456456 
164812000    270.35683     342.5659    272.41388   -152239.65    152255.33    70.152019    35.455596 
164816000    282.36912    478.40834    345.30146   -152284.51    152282.63    133.10688    35.456451 
164820000    292.64295    439.34646    423.38392   -152305.23     152318.8    15.962539    35.453524 
164824000    268.04254    388.93175    610.41014   -152321.13    152355.47   -221.47839    35.453711 
164828000    308.11265    496.34087    351.66695    -152340.6    152353.48    144.67392    35.454445 
164832000    289.46967    309.78474    268.29877   -152377.63    152373.38    41.485962    35.457936 
164836000    286.65277    319.80484     271.7287   -152380.88    152389.97     48.07614    35.457043 
164840000    304.13128    607.67402    412.93822   -152422.04    152407.15     194.7358    35.457364 
164844000    299.25041    496.88242    282.47712   -152414.88    152414.97     214.4053    35.456361 
164848000    308.51307    399.69546    373.91447   -152438.23    152426.81    25.780991    35.456405 
164852000     307.6121    555.47054    486.19315   -152464.21    152463.85    69.277387    35.454365 
164856000    324.15224    427.79917    473.44155   -152475.57    152455.28   -45.642383    35.455318 
164860000    270.66044    182.68974    264.43528   -152498.72    152523.58   -81.745547    35.454488 
164864000    316.95695    303.73171    410.10032   -152567.24    152554.32   -106.36861    35.453263 
164868000    266.50502    358.42091    335.52029   -152591.47    152598.89    22.900624    35.453316 
164872000    271.54481    346.67094    285.32956   -152597.88    152613.87    61.341372    35.455128 
164876000    264.97743    357.12355    335.69699   -152595.07    152645.28    21.426553    35.455566 
164880000    274.20902    328.22454    525.94054   -152613.45    152630.34     -197.716    35.454298 
164884000    285.15693    320.81064    345.81607      -152661    152667.73   -25.005428    35.451027 
164888000    320.06255    282.91969    306.77269   -152715.08    152674.91   -23.852993    35.454371 
164892000    298.86425     321.2149    347.00226    -152689.1    152686.09   -25.787357    35.457326 
164896000    301.96568    266.40457    295.74332   -152736.61    152730.77   -29.338755    35.456688 
164900000    284.37282    351.22485    258.05441   -152777.76    152775.85    93.170439    35.451715 
164904000    258.76793    256.50475    353.42684   -152812.75    152813.02   -96.922096    35.451464 
164908000    281.78172    185.64495    409.16048    -152835.1    152836.57   -223.51553    35.455377 
164912000    301.07025    456.51102    368.02729   -152849.25       152832    88.483738    35.457944 
164916000    286.64192    230.17684     441.9096   -152863.61    152869.39   -211.73276    35.452533 
164920000    243.68105    186.20227    244.92415   -152896.48    152910.81   -58.721887    35.446945 
164924000    264.43376    323.01604    315.05967   -152907.27     152937.6    7.9563641    35.444121 
164928000    289.89846    427.41353    456.94339   -152968.11    152961.32   -29.529854    35.442962 
164932000    263.85046    322.34128    508.12567   -152997.37    153003.32   -185.78438    35.446874 
164936000    286.10459    300.84487    298.71471   -153022.83    153044.64    2.1301532    35.444657 
164940000    299.61352     298.0855    455.60157   -153057.24    153065.34   -157.51607    35.440783 
164944000    274.48086     427.1739    244.61675   -153054.87    153072.23    182.55715    35.448797 
164948000    262.67118     288.3282    207.62664    -153056.9    153077.06    80.701558    35.445448 
164952000    304.25105    354.37654     338.3343   -153082.38    153084.64    16.042239    35.448296 
164956000    274.75248    483.25331    372.21082   -153096.32    153111.58     111.0425    35.444432 
164960000    298.16476    262.07827     307.0505   -153125.76    153122.47   -44.972228    35.441807 
164964000    259.36813    293.55645    310.79413   -153144.02    153165.12   -17.237678    35.439208 
164968000    279.97333    342.81798    358.78751   -153158.24    153177.53   -15.969526    35.436075 
164972000    270.22572    380.82575    273.11819   -153172.23    153181.81    107.70755    35.437382 
164976000     281.5749    304.91864    432.43847   -153198.26     153216.7   -127.51983    35.429456 
164980000    283.61341    293.26711    241.12549   -153198.47    153217.62    52.141619    35.432587 
164984000    270.21346    198.62688    331.67429   -153221.68    153234.23   -133.04741    35.428848 
164988000    301.92784    351.10925    360.65392   -153242.75    153248.14   -9.5446669    35.427571 
164992000    276.02781    326.56189    286.41126   -153265.34     153274.5    40.150633    35.426208 
164996000     287.5644    381.86194    143.15626   -153295.04    153303.25    238.70569    35.425244 
165000000    298.65387    272.41749    279.58727   -153335.63    153341.42   -7.1697753    35.425848 
165004000    264.12447    295.24166    355.37219   -153336.51    153371.26   -60.130536    35.424747 
165008000    260.04919    181.77413     314.3523   -153337.87    153383.02   -132.57817    35.426741 
165012000    263.84984    282.28574     281.0265   -153368.29    153406.96    1.2592412    35.422147 
165016000    238.54545    371.60494    239.63204   -153387.99    153420.12     131.9729    35.415693 
165020000    267.29777    288.75391     215.3924   -153423.77    153439.68    73.361516    35.417167 
165024000    284.88775      299.943    362.08979   -153444.74     153455.7    -62.14679    35.415403 
165028000    320.56386    591.05353    305.07144    -153508.6    153496.07    285.98209    35.414435 
165032000    268.47416    350.12278    301.19487    -153517.2    153543.95    48.927902    35.415383 
165036000    258.95245    305.71643     229.4871   -153524.68    153536.26    76.229329     35.42019 
165040000    295.68928    530.21201    489.97984   -153560.85    153565.03    40.232173    35.418038 
165044000    348.15402    313.20672    291.04839   -153625.59    153583.53    22.158335    35.418644 
165048000     302.4543    417.88358     282.3865   -153611.66    153610.76    135.49709    35.422027 
165052000    313.32986    397.49976    284.96147   -153643.45    153633.05    112.53829    35.422637 
165056000    264.52553    443.93097    318.91948   -153655.27    153671.39    125.01149    35.421813 
165060000    284.71641    184.78235    314.96591   -153656.09    153667.09   -130.18355    35.424087 
165064000    308.61077    420.88105    280.46197   -153705.83    153709.59    140.41908    35.427121 
165068000     288.8734    398.67259    245.98927   -153733.33    153735.88    152.68332    35.422689 
165072000    263.99731    247.13229    224.73866   -153755.61    153761.77    22.393632    35.426048 
165076000    288.23445    176.41095    237.54486    -153771.9    153779.45   -61.133916    35.425209 
165080000    272.25871    217.94833    427.58089   -153763.99    153789.06   -209.63256    35.425139 
165084000    305.31116    412.17449    160.05342    -153812.9    153799.34    252.12108      35.4237 
165088000    283.83969    389.72444    461.45314   -153830.93    153812.02   -71.728695    35.421802 
165092000     293.0646    376.86841    363.88854   -153843.23    153841.61    12.979874    35.424739 
165096000    309.98173    479.70736    315.44045   -153872.01     153859.6    164.26691    35.425807 
165100000    317.80614    431.99215    198.32993   -153881.58    153880.05    233.66221    35.426019 
165104000     285.2181    506.61821    330.01613   -153883.78    153888.15    176.60207    35.430079 
165108000    277.46271    256.64759    398.13948   -153864.43    153875.67   -141.49189    35.430356 
165112000    310.88144    432.35228    405.81802   -153869.06    153874.29    26.534264    35.426564 
165116000    321.57631    324.62509    518.43671   -153880.23    153867.38   -193.81162    35.423035 
165120000     273.5354    452.32232    308.14262   -153893.52    153898.69    144.17969    35.421642 
165124000    301.91883    344.09015    311.34119   -153915.97    153906.67    32.748965    35.420508 
165128000    329.65135    361.55489    375.55555   -153947.17    153918.92   -14.000659    35.424603 
165132000    293.44138    350.07109    492.80257   -153954.74    153944.02   -142.73148    35.421308 
165136000    296.61349    645.14548    273.02553   -153993.98    153992.69    372.11995    35.420143 
165140000    282.84938    206.39758    311.91834   -154022.68    154012.97   -105.52077    35.415013 
165144000    266.32844    453.17633    330.54977   -154048.49    154052.37    122.62657    35.414999 
165148000    321.12468    542.57715    311.24313   -154071.96    154065.91    231.33402    35.415649 
165152000    298.85637     300.0269    257.55278   -154080.61    154089.67    42.474126    35.416868 
165156000    309.37324    184.82667    282.27858   -154115.75    154111.16   -97.451913    35.409873 
165160000    265.80583    372.78909    318.92393   -154146.89    154143.42    53.865161    35.413221 
165164000    264.13262    375.41154    354.23466   -154169.46    154181.94    21.176876     35.41588 
165168000    279.76118    322.64693    266.03868   -154178.95    154182.68    56.608243    35.413584 
165172000     305.0661    328.61897    283.42884   -154211.54    154218.19    45.190133    35.418217 
165176000    265.29843    406.56019    285.43204   -154241.05    154261.65    121.12815     35.41732 
165180000     317.0603    194.65459    462.39048   -154287.16    154252.56    -267.7359    35.415984 
165184000    293.24874    487.79552    238.90614   -154291.57    154309.26    248.88938    35.417525 
165188000    267.37751    198.23408    369.33872   -154307.39     154330.8   -171.10464    35.414751 
165192000    273.53347    386.10034    294.06573   -154339.39    154365.62    92.034612    35.410461 
165196000    284.16151    468.62536    293.51255   -154382.32    154380.26    175.11281     35.41311 
165200000    256.52414    272.79166    199.61991   -154369.32     154393.5     73.17175    35.414611 
165204000    283.91016    346.25774    252.94566   -154404.68    154407.79    93.312079    35.413657 
165208000    280.00721    386.51489     277.8786   -154426.35    154429.15    108.63629    35.413998 
165212000    285.36575    152.29541    285.51956   -154442.42    154460.18   -133.22416    35.413352 
165216000     275.2482    232.63428    221.58297   -154471.86    154486.35    11.051305    35.411418 
165220000    266.07258    439.75451    233.54609   -154505.22       154524    206.20842    35.415346 
165224000    298.54289     390.8304    642.00574   -154544.78    154547.42   -251.17534    35.413005 
165228000    294.79183    330.55096    326.76572   -154565.89    154568.12    3.7852495    35.410805 
165232000     296.7443    404.84522    319.42092   -154582.62    154568.22    85.424296    35.413029 
165236000    286.38896    399.36158    308.25533   -154603.42    154606.79     91.10625     35.41353 
165240000    312.07598    315.77942    207.48214   -154647.29    154643.08    108.29728    35.419331 
165244000    283.01989    491.30795    265.37537   -154680.63    154697.93    225.93259    35.418956 
165248000    284.78352    600.20368    335.41624   -154696.17     154700.9    264.78744    35.417644 
165252000    274.85768    240.24717    297.51129   -154704.98    154729.11   -57.264113     35.42095 
165256000    300.39927    383.74583    224.29389   -154746.99    154725.33    159.45194    35.423225 
165260000    286.15751    220.29963    384.71864   -154734.37    154758.37     -164.419    35.420554 
165264000    278.39937    276.33763    367.47249   -154760.99    154762.66   -91.134869    35.418353 
165268000    260.51054    348.00777    284.32871   -154753.88    154783.21    63.679055    35.415839 
165272000    299.22183    280.53744    595.57241   -154774.48    154782.08   -315.03497    35.412186 
165276000    278.83451    247.37146    255.05557   -154815.97    154818.87   -7.6841065    35.413152 
165280000    274.22291    340.70611     273.4494   -154841.38    154848.37    67.256708      35.4128 
165284000    278.63757    308.57576    433.40742   -154842.37    154860.54   -124.83166    35.409896 
165288000    278.45124    374.25999    495.16415   -154878.19    154886.12   -120.90416    35.408811 
165292000     285.6538    278.83858    268.93869   -154903.94    154918.37     9.899889    35.410341 
165296000    284.67129    568.59277    351.69732   -154949.25    154957.22    216.89545    35.407394 
165300000    283.82035    377.54069    313.66447   -154971.41    154963.54    63.876226    35.408273 
165304000    255.16569    441.82283    312.43988   -154998.59    155025.04    129.38294    35.403679 
165308000    266.48787     428.0376    410.38268    -155044.4    155058.44    17.654924    35.403289 
165312000    281.27918    388.81649    188.11772   -155117.88    155111.55    200.69878    35.405373 
165316000    268.53371    195.97687    428.11834   -155121.09    155146.86   -232.14147    35.401202 
165320000    273.50457    302.41464    348.63608   -155158.37    155169.56    -46.22144    35.401693 
165324000    300.83572    376.60892    429.38989   -155192.71    155192.71    -52.78097    35.399428 
165328000    279.02868     422.9635    285.99692   -155219.09    155213.12    136.96658    35.394045 
165332000    272.10657    340.90764    246.75027   -155226.29    155253.17    94.157369    35.394389 
165336000    248.70854    237.07223    333.26674   -155258.85    155268.01   -96.194512    35.393866 
165340000    275.88156    320.96373    226.93507   -155263.39    155278.35    94.028655       35.394 
165344000    279.22683    320.03975    233.85192   -155278.22    155268.13     86.18783    35.395073 
165348000    321.42123    227.51709    257.06133   -155306.28    155274.76   -29.544239    35.394554 
165352000    316.33199    503.80199    204.34888   -155342.37    155316.02     299.4531    35.396905 
165356000    294.07306    315.01195    350.03323    -155340.3    155344.99   -35.021281    35.393869 
165360000    274.12223    308.37078    319.96959   -155349.07    155370.85   -11.598808    35.394673 
165364000    287.93058    520.18662    359.82514   -155369.84    155383.16    160.36148    35.397378 
165368000    269.89901    347.54865    285.56707   -155385.67    155410.13    61.981581    35.393526 
165372000    283.79946    464.24719    340.32908   -155389.32    155409.07    123.91811    35.390783 
165376000     251.6025    277.67468    260.86771   -155394.12    155433.28    16.806974    35.393532 
165380000    264.54083    367.45669    451.55172   -155405.66    155439.84   -84.095028    35.394062 
165384000    278.65193    310.36911    376.24671   -155430.39    155450.91   -65.877603    35.398412 
165388000    282.77534    280.32949    472.34271   -155448.32     155464.6   -192.01322    35.396174 
165392000    310.84173    414.17713    245.47445   -155511.26    155487.83    168.70268    35.393478 
165396000    271.74924    427.71629    448.26136   -155518.24    155536.11   -20.545065    35.394498 
165400000    294.20849    355.75064    304.03004   -155516.54    155528.26    51.720596    35.392708 
165404000    261.84533    252.73771    298.63599   -155543.09    155565.51   -45.898274    35.394496 
165408000    279.27895    239.78777    292.80512   -155587.55    155580.65   -53.017348    35.396361 
165412000    288.45857    351.11737    447.54316   -155598.85    155593.61   -96.425792    35.397129 
165416000    288.14068    386.54229    187.86181   -155622.46    155617.53    198.68047    35.397006 
165420000    310.24859    443.31809    290.86768   -155650.39    155642.35    152.45041    35.401141 
165424000    275.00238    310.17732    344.55439   -155666.28    155672.51   -34.377073    35.397518 
165428000    275.03224    469.70067    308.46548   -155690.08    155702.09    161.23519     35.39635 
165432000    279.18209    311.90996    261.98602      -155694    155710.52    49.923934    35.394229 
165436000    298.13829    363.72914    227.29108   -155720.03    155726.27    136.43806    35.393982 
165440000    267.05798    480.10654    277.80035   -155720.22    155745.51    202.30619     35.39302 
165444000    288.94638    393.70435    338.29302   -155761.98    155755.43     55.41133    35.402171 
165448000    270.15409    473.34312    254.90262   -155777.34    155803.16     218.4405    35.408018 
165452000    281.02898    337.67814    269.26174   -155793.15    155794.17    68.416394    35.409444 
165456000    257.35301    531.10698    297.44087   -155789.09    155820.79    233.66611    35.407292 
165460000    296.12044    264.30523    319.42749   -155802.51    155810.62   -55.122258    35.410334 
165464000    263.16114    421.91818    356.16874   -155812.41    155829.89    65.749435    35.407862 
165468000    308.62395    231.55909    400.09378   -155859.13    155838.86   -168.53469     35.40918 
165472000    277.49905     581.4817    238.08408   -155886.57    155901.12    343.39761    35.408369 
165476000    315.12524    626.91226    407.20056   -155923.93     155919.5     219.7117    35.403914 
165480000    260.80569    373.37065    240.52527    -155936.7     155952.1    132.84539    35.409213 
165484000    251.95431    453.96473    251.38211   -155945.07    155972.43    202.58261    35.406133 
165488000     304.6769    311.09633    443.42258   -155966.65    155978.21   -132.32625     35.40428 
165492000    280.60373    232.53911    404.02823   -155982.76    155990.19   -171.48912    35.408033 
165496000     267.7434    300.39485    279.32649   -156008.21    156018.18    21.068362    35.409415 
165500000    277.82317    499.53609    329.04646   -156013.21    156018.51    170.48963    35.409982 
165504000    291.49394    382.58629    454.73965    -156036.3    156023.56   -72.153361    35.407293 
165508000    310.07619    547.69912    199.51662   -156056.86    156037.63     348.1825    35.411224 
165512000    324.67199    272.75321    271.99945    -156104.2    156083.22   0.75376571     35.40756 
165516000    316.18682    274.36131    286.79314   -156119.21    156101.34   -12.431828    35.404116 
165520000    290.36672    301.64167    308.33351   -156138.63    156147.04   -6.6918415    35.398615 
165524000    281.69657    302.23311    578.92513   -156162.37    156173.79   -276.69202    35.402409 
165528000    266.70212    427.49002    381.23905   -156188.26     156210.7    46.250973    35.408146 
165532000    283.23901    433.85253    451.44851   -156199.01    156224.67    -17.59598     35.40802 
165536000    282.08997    273.65519    405.93045   -156240.62    156240.57   -132.27526    35.408275 
165540000    249.77903    285.36744    382.65506   -156269.25    156297.99   -97.287619    35.408797 
165544000    248.75815    241.20334    416.27565      -156311    156327.96   -175.07231    35.409414 
165548000    262.80373    357.21481     347.2197   -156304.54    156328.92    9.9951091    35.406537 
165552000    262.76082      327.953    200.01881   -156307.93    156338.59    127.93419    35.407901 
165556000    270.60573    418.67408     296.0007   -156328.16    156367.57    122.67339    35.407651 
165560000    284.06712    661.92257    294.84967   -156392.58    156396.56    367.07289     35.41161 
165564000    292.82853    299.84811    325.48393   -156410.21    156392.95    -25.63582    35.410466 
165568000    294.28679    436.62096    404.17845   -156396.24     156402.5    32.442511     35.41051 
165572000    301.32885     394.6053    336.48836   -156422.03    156398.28    58.116938    35.417359 
165576000    293.78569     430.5671    268.46629   -156423.72    156421.55    162.10081    35.422544 
165580000    275.33365    276.05794    329.25587   -156438.84    156451.01   -53.197928    35.423126 
165584000    286.00884    373.70004    416.86369   -156468.19    156484.58   -43.163652    35.423765 
165588000     269.6319    383.95503    356.17778   -156485.57    156513.32    27.777254    35.424331 
165592000    305.97438    503.08793    300.88936   -156535.23     156508.4    202.19857    35.430379 
165596000    291.40026    210.40952    266.83676   -156545.51    156548.73   -56.427239    35.428824 
165600000    288.98648    346.51817    287.99907   -156562.53    156585.19    58.519103    35.428878 
165604000    289.99998    397.25401    289.11217   -156604.57    156626.48    108.14184    35.432899 
165608000    285.85751    386.49991     395.0837   -156649.82    156649.53   -8.5837859    35.430052 
165612000    263.59947    262.00415    385.72704   -156642.29    156668.71   -123.72289    35.429681 
165616000    258.84827    148.28215    348.20019   -156670.11    156713.16   -199.91804    35.429197 
165620000    289.55305    389.08192    500.66685   -156694.46    156709.88   -111.58493    35.425492 
165624000      277.738    364.42203    386.73229   -156724.66    156736.55   -22.310258    35.424261 
165628000    245.32702    212.14114    163.78559   -156733.04    156743.44     48.35555     35.42031 
165632000     263.2342    370.59598    284.70028   -156736.97    156761.82    85.895695    35.412983 
165636000    293.35552    369.65747    376.70522   -156766.17    156759.07    -7.047752    35.411942 
165640000    269.83887    206.15652    357.98898   -156778.32    156785.39   -151.83246    35.413297 
165644000     303.5161    358.34593    271.86897   -156815.54     156814.7    86.476964    35.415295 
165648000    284.66318    345.14035      380.924   -156830.34    156838.36   -35.783653     35.41693 
165652000    269.19455    441.89159    245.62579   -156841.03    156868.49     196.2658    35.418895 
165656000    261.71027    416.17374    379.73044   -156849.68    156873.61    36.443304    35.417855 
165660000    241.21556    419.93134    269.04671   -156871.17    156891.94    150.88463    35.423182 
165664000     267.1906     289.9347      384.177   -156893.78    156910.35   -94.242301    35.425584 
165668000    292.64404    268.29549    300.10219    -156929.9    156927.33   -31.806706    35.426826 
165672000    263.15187    490.42879     226.1272    -156933.7    156945.11    264.30159    35.435395 
165676000    296.65122    294.90532    424.36679   -156957.96    156964.32   -129.46148    35.434116 
165680000    260.91318     350.9153    311.06117   -156948.15    156973.83     39.85413    35.430155 
165684000    310.13668    553.19801      320.915   -156992.57    156981.67    232.28302    35.437178 
165688000    291.68049     240.9174     320.1517   -156991.47    156994.46   -79.234301    35.440277 
165692000    264.15363    255.40315    330.89945   -157011.67    157021.89   -75.496296    35.441565 
165696000    299.48109    285.81019    399.60048   -157037.43    157045.58   -113.79029     35.44146 
165700000    291.58625    277.28282    249.84118   -157040.26    157044.87    27.441634    35.438289 
165704000    297.37166    325.69481    240.05057   -157022.77    157020.89    85.644237    35.443536 
165708000     266.5471    300.01052    310.42643   -157042.43    157061.53   -10.415919    35.444448 
165712000    284.28007    447.75395    548.81976   -157062.53    157080.66   -101.06581    35.443233 
165716000    292.67168    398.02526    318.09903   -157094.62    157103.02    79.926225    35.440556 
165720000    272.86183    496.56171    326.14556   -157112.71    157136.44    170.41614    35.441273 
165724000    278.57535    246.10664    339.91138    -157153.9    157160.99   -93.804739    35.436911 
165728000    243.51862    412.58889    195.34725   -157175.05    157206.21    217.24164    35.442028 
165732000    252.24159    383.65253    387.04688   -157180.78    157196.09   -3.3943473    35.444015 
165736000    278.73193     296.6162    197.45001      -157227    157250.31    99.166189    35.440301 
165740000    256.01947    174.32147    222.89548   -157233.84    157260.44   -48.574009    35.441488 
165744000    303.39175    326.82567    446.81988   -157264.54    157263.22   -119.99421    35.439676 
165748000    278.59357    315.76169    371.55612   -157272.61    157283.79   -55.794426    35.440934 
165752000    311.96308    408.94674    433.99825   -157311.39    157292.96    -25.05151    35.442245 
165756000    271.81449    376.35799    214.97552    -157325.4    157348.59    161.38247    35.444894 
165760000    281.31569    385.86025    239.67051   -157337.79     157342.9    146.18973    35.449395 
165764000    283.04812    337.65872    294.09478   -157350.84    157381.19    43.563945    35.449669 
165768000    287.85239    498.90594    265.52037   -157378.45       157397    233.38556     35.44687 
165772000     290.8333    260.77821    237.83299   -157395.73    157396.45    22.945221    35.443751 
165776000    290.42424    307.03614    341.83197   -157444.39    157442.26   -34.795831    35.438714 
165780000    277.28156    274.18072    295.96405   -157467.79    157477.43   -21.783326    35.441197 
165784000    295.42241    479.32021    349.69879   -157509.44    157505.97    129.62142    35.440441 
165788000    271.94378    687.40824     391.7081   -157518.45    157526.78    295.70014    35.437355 
165792000    283.02334    445.51849    265.58789   -157534.77    157539.77     179.9306    35.436559 
165796000    297.16523    356.27134    319.24908    -157565.9    157570.75    37.022267    35.439425 
165800000    286.73644    356.67373    327.30939   -157620.78    157629.95    29.364337    35.442782 
165804000    300.03204    401.58965    633.96037   -157643.88    157628.82   -232.37073    35.439958 
165808000    318.46477     318.5286    699.51998   -157674.91    157654.79   -380.99138    35.437695 
165812000     304.9863    314.24652    214.83743   -157691.86    157679.29    99.409094    35.435925 
165816000     318.5375    757.15612    181.09586   -157720.45    157695.06    576.06026    35.440205 
165820000    311.51894    474.78936     286.8818   -157737.84    157742.76    187.90756    35.440225 
165824000    264.04269    248.66365    424.23154   -157740.88    157766.31   -175.56789    35.438493 
165828000    307.38195    412.07055    398.69705   -157776.32    157771.65    13.373496    35.439913 
165832000    316.97982    545.02383    275.43719   -157795.89    157791.89    269.58665    35.440251 
165836000    276.06746    512.43162    427.88505   -157797.45    157808.19    84.546569    35.446163 
165840000    270.30396    125.01739    378.64688   -157803.99    157821.27   -253.62949    35.447478 
165844000    293.33207    347.95723    278.98479   -157829.52    157835.61    68.972441    35.447202 
165848000    301.01292    337.05763    315.35468   -157837.26    157838.71    21.702953    35.443627 
165852000    275.88006    335.61051    318.71584   -157853.12    157857.74    16.894664      35.4412 
165856000    289.67741     354.4151    338.68591   -157863.79    157872.48    15.729187    35.444942 
165860000    297.73503    329.63155    563.93557   -157883.62    157893.05   -234.30402     35.44332 
165864000    263.36917    328.96969    472.28247   -157900.16    157937.25   -143.31278    35.445254 
165868000    270.72117    330.48153    231.21379   -157930.96    157939.71    99.267743    35.438937 
165872000    257.46723    388.36353    293.93737   -157939.25    157967.71     94.42616    35.435772 
165876000    289.23781    250.49294    342.56538   -157967.13    157975.55   -92.072442    35.432423 
165880000    287.44071    321.21129    330.33052   -157974.09    157989.33   -9.1192321    35.431094 
165884000    296.57378    412.87395    287.10486   -158012.32    158020.01    125.76909    35.429124 
165888000    257.56648    260.07692    318.27657   -158024.97    158054.09   -58.199655    35.434137 
165892000     272.1368    298.03046     313.7669   -158038.61    158071.39   -15.736446    35.438579 
165896000    298.81603    568.32422    316.88285   -158052.36    158069.85    251.44137     35.43667 
165900000    283.99819    251.94054     245.3874   -158106.99    158095.85    6.5531336    35.436901 
165904000    266.63089     330.0181    302.65556   -158109.48     158122.1    27.362542     35.43355 
165908000    291.83999    274.24608    375.37084   -158111.04    158122.43   -101.12476     35.43316 
165912000    267.27059     185.2641    258.29353   -158114.44    158134.04   -73.029427    35.432287 
165916000    293.60223     312.3972    252.25944    -158121.9    158140.85    60.137762    35.428935 
165920000    276.30235    292.87849    282.95849   -158151.29    158157.95         9.92    35.434353 
165924000    256.42988    293.93758    443.17595   -158153.64    158171.39   -149.23836     35.44002 
165928000    301.83766    414.31943    335.77223   -158171.23    158173.49    78.547207    35.439475 
165932000    261.97082     403.6507     240.3622    -158184.9    158205.67     163.2885    35.438591 
165936000    259.87551    244.97435    358.49923   -158192.09    158223.05   -113.52488    35.440088 
165940000      292.861    210.77999    420.67924   -158237.25    158247.76   -209.89925    35.441354 
165944000      236.861    204.06057    300.98659   -158242.57    158263.46   -96.926019    35.443935 
165948000    266.83333    392.70275    325.05876   -158272.29    158299.53    67.643995    35.448834 
165952000    252.66248    431.58182    230.24166   -158292.64    158316.57    201.34016    35.451305 
165956000    283.23439     346.3472    270.92204    -158304.8    158321.23    75.425166    35.449105 
165960000    323.22529    248.87542    340.60562   -158345.61    158313.63   -91.730192    35.447802 
165964000    287.48355    519.68133    292.20838   -158352.15    158369.91    227.47295    35.452695 
165968000    265.59801    288.05917    313.94366   -158362.57    158390.34   -25.884493     35.45018 
165972000    304.96001    413.18687    337.04873   -158400.02     158413.7    76.138141    35.446522 
165976000    267.79551    326.42701    233.55155   -158429.88    158442.89    92.875458    35.440426 
165980000    262.52234    285.74248    509.70822   -158456.63    158480.33   -223.96574    35.435645 
165984000     279.8483    330.01907    322.40673   -158474.07    158486.59     7.612342     35.43494 
165988000    268.96035    332.87788    340.91636   -158518.16    158505.25   -8.0384871    35.433546 
165992000    310.54894    450.87689    295.14807   -158534.42    158529.42    155.72882    35.431881 
165996000    322.93923    193.77485      507.166   -158570.71    158560.85   -313.39116    35.433168 
166000000    275.37494    366.85161    310.53823    -158583.7     158592.7    56.313382    35.438407 
166004000    281.60781    244.81467    279.16517   -158603.38    158614.06   -34.350502    35.437831 
166008000    305.21135     443.0204    299.34036   -158637.92     158643.1    143.68004     35.44248 
166012000    274.79303    392.45411     372.6769    -158643.9    158669.07    19.777208    35.436584 
166016000    275.68659     462.9391     388.1588   -158666.11    158675.36      74.7803    35.435224 
166020000    309.78902    450.85499    456.21506   -158678.86    158669.46   -5.3600744    35.439725 
166024000    284.41068    440.17274     332.9184   -158694.24     158713.2    107.25434    35.438677 
166028000    262.61983    330.64849     222.3444   -158683.52    158723.19     108.3041     35.44301 
166032000    279.51934    478.65243    363.33089   -158702.84    158728.97    115.32154    35.443197 
166036000    271.14931    488.54341    287.03493   -158717.83    158739.81    201.50848     35.44402 
166040000    299.10655    273.60719    543.62291    -158740.2    158734.94   -270.01571    35.439308 
166044000    272.16133    391.66661    374.78518   -158749.24     158751.9    16.881434    35.439676 
166048000    257.06044    214.51919    329.38215   -158763.83    158791.03   -114.86297    35.444015 
166052000    294.32742    331.12026    291.86015   -158798.25    158815.38    39.260106    35.437641 
166056000    303.89248    416.53689    238.28569    -158809.7    158810.65     178.2512    35.436977 
166060000    294.44223    468.33518    676.74639   -158823.83       158818   -208.41122    35.438016 
166064000     281.9941    585.72265    232.96215   -158847.18    158856.55     352.7605    35.440737 
166068000    283.13283    278.79273    450.37061   -158878.41    158896.16   -171.57788    35.440876 
166072000    295.67458    273.37952    530.18526   -158889.54    158891.77   -256.80574    35.447286 
166076000    283.32018    356.74016    172.28825   -158908.72    158930.21    184.45191    35.450828 
166080000    279.63878    335.67621    442.19218    -158919.1    158931.65   -106.51597    35.448364 
166084000    301.49008    330.49189      400.592    -158950.7    158968.07   -70.100106    35.447953 
166088000    277.46536    348.50821     335.2464   -159006.06    159030.02    13.261812    35.449501 
166092000    251.54482    247.68025    392.57446   -159028.29    159077.16   -144.89421    35.447288 
166096000    287.55965    336.70676    388.58784   -159074.55    159082.84   -51.881081    35.449007 
166100000    310.48552    533.38423    578.12767   -159097.91    159089.09   -44.743438    35.449119 
166104000    263.24267     307.0132    463.75933   -159114.92    159136.66   -156.74612    35.451023 
166108000    282.69199    316.37097     244.9213   -159143.54    159159.07    71.449661    35.456163 
166112000    283.74493    362.51305    410.98777   -159183.68     159194.2   -48.474722    35.454654 
166116000    263.07689    209.24777    160.18758   -159194.11    159224.43    49.060192    35.459361 
166120000    314.48734    312.38886     339.5387   -159222.67    159223.86    -27.14984    35.457578 
166124000    280.30271    354.13562    205.64707   -159223.06    159238.32    148.48855    35.455816 
166128000    285.67669    202.17955    442.32511   -159256.05     159269.9   -240.14556    35.453527 
166132000    285.39164    414.34526    298.26799   -159291.18    159308.87    116.07727    35.459728 
166136000    305.78198    364.85302    214.54494   -159318.61    159310.09    150.30808    35.458733 
166140000    305.95075    333.06502    280.99563   -159324.87    159330.02    52.069393     35.46021 
166144000    275.44481    396.78995    331.53939   -159350.76    159364.36    65.250564    35.454241 
166148000    245.87125    357.40308    250.07572   -159361.08    159400.24    107.32736    35.463067 
166152000     259.2644    397.99487    250.34968   -159383.84    159418.69    147.64519    35.469766 
166156000    281.32521    162.58735    265.18584    -159438.8    159446.05   -102.59848    35.464761 
166160000    262.33561    204.38881    290.26952    -159460.3     159513.3   -85.880719    35.460262 
166164000    275.98813     462.7832    409.63682   -159532.69    159551.89    53.146381    35.463859 
166168000    283.88306    417.61442    251.99668   -159563.82    159580.95    165.61774    35.463829 
166172000    288.75271    267.18126    368.16505   -159591.22     159594.9   -100.98378    35.469215 
166176000    273.77112    324.55445    441.50983   -159603.76    159616.25   -116.95538    35.465596 
166180000    271.53557    435.90789    272.22821   -159623.53    159659.78    163.67968    35.469945 
166184000    279.20908    175.30965     478.6284   -159663.78    159661.11   -303.31875    35.468925 
166188000    273.39681    351.70532    151.32946   -159700.48    159703.28    200.37586    35.464766 
166192000    289.13318    405.81661      226.459   -159719.21     159726.8     179.3576    35.464289 
166196000    320.04576    175.35511    614.63701   -159753.04    159745.96   -439.28191    35.458235 
166200000    280.17496    233.02062     412.9551   -159746.07    159751.78   -179.93448    35.457516 
166204000    251.66829     203.2175    270.10731   -159738.63    159777.74   -66.889809    35.457841 
166208000    264.99831    390.91451    226.20641   -159784.48     159805.4     164.7081    35.457192 
166212000    304.34736      345.038    329.14949   -159837.65    159827.21    15.888512    35.458329 
166216000    322.49387    292.57881     521.1992   -159861.07    159850.68   -228.62039    35.455873 
166220000    296.47258    239.15251    379.39399   -159893.64    159901.47   -140.24147    35.449411 
166224000    277.06293    628.06365    347.20527   -159919.46    159918.94    280.85838    35.451097 
166228000    275.11506    521.52237    161.14623   -159940.68    159954.96    360.37614    35.449184 
166232000    285.02305    320.31616    168.77494   -159954.87    159959.63    151.54121    35.450833 
166236000    288.38666    588.13575    281.75739   -159967.51    159983.14    306.37836    35.448501 
166240000    275.41468    419.91941    358.04195   -159957.96    159986.94    61.877459    35.446571 
166244000    310.77773    374.16391    498.49627    -159979.5    159991.02   -124.33237    35.446751 
166248000    271.82649    262.13056    272.11529   -159983.13    160012.46   -9.9847299    35.449244 
166252000    245.86051    238.55786     313.4495   -160010.03    160045.13   -74.891644    35.449528 
166256000    278.93507    257.82106    290.25377   -160050.06    160060.51   -32.432715    35.450155 
166260000    279.84195    202.39144    354.02585   -160085.23    160094.47   -151.63441    35.448402 
166264000    254.70488    367.58927    221.35165   -160098.64    160126.12    146.23762    35.452422 
166268000    283.42799    417.54355    339.39336   -160132.02     160145.3    78.150184    35.450332 
166272000    283.14982    487.18428    245.09465   -160142.29     160161.2    242.08963    35.447263 
166276000     284.0717    188.87325    336.67782   -160153.15    160171.17   -147.80457    35.448174 
166280000     293.2132    325.94552    480.81483   -160185.36    160195.79   -154.86931    35.445148 
166284000    309.14617     171.5656    375.83116   -160199.75    160200.64   -204.26556    35.442837 
166288000    291.00956     509.0757    362.28146   -160239.46    160250.66    146.79424    35.443055 
166292000    282.65643    285.80116    299.80078   -160248.49    160260.19   -13.999614    35.441342 
166296000    281.67944    200.57106    234.54554   -160242.57    160255.92   -33.974476    35.441171 
166300000    265.76723    507.60595    209.05611   -160257.39       160271    298.54984    35.441064 
166304000    303.69834    351.82393    361.43767   -160279.78    160281.34   -9.6137385    35.443665 
166308000    286.31103    400.17688    341.73755   -160300.93    160328.75    58.439325     35.44581 
166312000    290.60748    439.22687      186.335   -160360.39    160353.02    252.89187    35.444997 
166316000    268.59602    502.81615    284.33686   -160371.32    160404.98    218.47929    35.445718 
166320000    270.52638    254.90842     207.3416   -160359.55    160400.01    47.566816    35.449535 
166324000    290.55274    276.33782    497.33239   -160401.66    160398.04   -220.99457    35.445703 
166328000    275.87239    407.64573    411.70785    -160401.1    160425.73   -4.0621213     35.44853 
166332000    284.18562      370.751    305.32615   -160450.18    160458.85    65.424857    35.446564 
166336000    311.49553    581.66077    576.18185    -160445.5    160447.27    5.4789104    35.444807 
166340000    288.86411    321.29813    403.30192   -160466.23    160466.96   -82.003788    35.444422 
166344000    281.50989    277.99841       189.54   -160480.26    160486.42    88.458411    35.449101 
166348000    271.73844    400.57942    218.36829    -160481.2    160519.39    182.21113    35.449783 
166352000    273.87661    498.20185    397.95415   -160499.39    160521.76     100.2477    35.448571 
166356000    239.76334    207.80184    416.14565   -160519.18    160559.35   -208.34381    35.447961 
166360000    286.91118    398.49335    379.14339   -160567.55    160577.87    19.349955    35.446725 
166364000    283.25312    213.97676    283.27178   -160595.62    160600.93   -69.295018    35.447582 
166368000    299.19659    467.43969    160.09229   -160613.69    160635.64     307.3474    35.449769 
166372000    286.62227    496.48294    331.68899   -160643.85    160655.16    164.79396    35.454843 
166376000    253.32403      355.613    257.53103   -160644.59    160685.34     98.08197    35.456161 
166380000    288.97337    349.10833    325.27144   -160702.91    160712.76    23.836894    35.462301 
166384000    270.70974    323.22926    299.98027   -160727.01    160747.13    23.248984     35.46319 
166388000    279.43681    526.47129    356.60473    -160766.5    160792.41    169.86657    35.466183 
166392000    262.89195    364.41403    209.85949   -160810.34    160825.91    154.55455    35.469769 
166396000    264.70636    372.27779    277.98021   -160837.56    160870.32    94.297573    35.470278 
166400000    296.05568    375.76709    322.23056   -160870.19    160876.89    53.536524    35.469253 
166404000     288.6276    313.82638    453.32476   -160881.95    160894.45   -139.49837    35.465677 
166408000     275.4549    388.86905    267.48521   -160899.47    160926.97    121.38384     35.46767 
166412000    286.43791    184.68331    357.99865   -160939.41    160941.62   -173.31534    35.469597 
166416000      284.068    335.96177    180.03518    -160944.4    160955.84     155.9266    35.470749 
166420000    256.65279    316.99636     299.7799   -160958.47    160978.53    17.216454    35.467768 
166424000    266.65618    237.12272    262.28058   -160968.57    160994.79    -25.15786    35.468544 
166428000    294.29334    328.51533    260.89522   -161003.47    160989.27    67.620115    35.469905 
166432000    270.18293    468.62614    359.20392   -161004.82    161027.16    109.42222    35.470925 
166436000     274.0147    210.82638     149.0488    -161039.1    161057.76    61.777581    35.466189 
166440000    262.92409    351.74009    234.13705   -161068.54    161083.68    117.60303    35.464818 
166444000    250.78775    128.06364     366.2537   -161088.88    161101.17   -238.19006    35.459314 
166448000    281.34441    619.21136    439.27807   -161104.76    161141.85    179.93329    35.459893 
166452000    254.90972    353.62448    248.27833    -161130.6    161162.44    105.34615    35.464974 
166456000    286.13817    284.81727    289.04789   -161185.35    161186.22   -4.2306147    35.465978 
166460000    263.84793    457.79063    318.83049   -161225.14    161247.77    138.96014     35.46241 
166464000    284.56323    451.76133    258.23166   -161226.96     161240.9    193.52967    35.461299 
166468000    279.33849    411.63067     334.9487   -161264.17    161271.47    76.681965    35.460694 
166472000    285.04335    447.09501    322.12809   -161298.22    161289.42    124.96691    35.460171 
166476000    288.64188    335.09894    498.84539   -161320.04    161315.06   -163.74644    35.462964 
166480000    285.11415    255.62313     416.1976   -161331.39    161334.88   -160.57447    35.467913 
166484000    270.18596    280.01633    447.73494   -161356.33     161374.8   -167.71862    35.465312 
166488000    276.82981    382.13044    202.68393   -161379.01    161400.26    179.44651    35.467067 
166492000    254.97546    294.66136    386.82275   -161384.34    161413.59    -92.16139    35.470216 
166496000    271.25054    293.15379    249.23738   -161409.68    161427.04    43.916403    35.470283 
166500000    284.11883    378.38763    437.67253   -161447.42    161442.78   -59.284901    35.471456 
166504000      259.731    180.74663    224.02356   -161464.61     161472.2    -43.27693    35.472787 
166508000    310.58186    318.76847    487.65602   -161467.71    161478.96   -168.88755    35.470161 
166512000    283.49183    550.01963    291.18443   -161512.43    161525.93    258.83521     35.47017 
166516000    308.38174    307.21691    401.39394   -161544.27    161549.61   -94.177035    35.466081 
166520000    264.32309    356.42356    317.93053   -161557.05    161570.67    38.493028    35.465638 
166524000    275.19595    542.32692    335.76927   -161577.67    161602.37    206.55765    35.466205 
166528000    298.24732    609.88628    424.84091   -161593.18     161604.5    185.04537    35.465201 
166532000    274.71197    386.15406    399.05373   -161620.77    161628.64   -12.899663    35.466776 
166536000    279.66159    257.97683    337.87992    -161645.5    161667.01    -79.90309    35.465716 
166540000    289.30705    531.75545    314.89402   -161660.34    161657.17    216.86143    35.469857 
166544000    272.78575    138.94209    294.80887   -161663.61    161682.57   -155.86677    35.468031 
166548000    274.75977     168.5575    361.14309   -161683.93    161714.17   -192.58559    35.466871 
166552000    241.79845    272.42455    343.49085   -161695.53    161735.52     -71.0663    35.462414 
166556000    276.99753    271.06883    225.18665      -161732    161770.51    45.882173    35.465006 
166560000    277.87812    313.28455    363.36176   -161777.87     161785.6   -50.077201    35.465663 
166564000    294.01193    176.46714    470.43379   -161806.42     161808.5   -293.96666    35.467038 
166568000    276.04642    281.73157    256.89924   -161822.93    161827.66     24.83233    35.462622 
166572000    269.28827    324.94121    410.68099   -161828.34    161839.01   -85.739785    35.466448 
166576000    270.26423    478.89522    285.19094   -161860.64    161871.93    193.70428    35.466866 
166580000    287.16572    332.80802    552.89842   -161874.63    161878.16    -220.0904    35.460674 
166584000    285.81214    349.12045    290.82787   -161914.08    161908.36    58.292584    35.465717 
166588000    289.87362    295.58995    399.00005   -161908.49     161914.3   -103.41009      35.4625 
166592000    299.29526    623.36429    309.45529   -161957.89    161951.96      313.909    35.469932 
166596000     282.0225    356.25374     343.3188   -161970.72    161971.52    12.934944    35.472565 
166600000    284.47451    408.37357    138.47902   -161982.76    161998.96    269.89454    35.473603 
166604000    320.22559    419.79764    320.83862   -162032.49    162011.43    98.959013    35.475318 
166608000     306.7046    280.98767    137.63646   -162043.62    162041.51    143.35121    35.477967 
166612000    273.98229    314.65877    213.36215   -162054.62    162076.49    101.29662    35.476918 
166616000    310.86945    511.54231    366.10783   -162084.43    162075.93    145.43448    35.476894 
166620000    333.81178    316.61982    384.92291   -162109.43    162110.39   -68.303091    35.476468 
166624000    302.65489    257.03632     427.5552   -162155.48    162152.02   -170.51887    35.475866 
166628000    303.72993    290.53371    269.76701   -162184.38    162178.81    20.766695    35.475572 
166632000    297.04515    333.95774    150.65894      -162203    162220.16     183.2988    35.477795 
166636000    303.19978    377.27972    373.91611   -162247.27    162232.43    3.3636086    35.474104 
166640000    275.12632    302.42735    458.73613   -162252.11    162270.09   -156.30877    35.473373 
166644000    262.79402    319.48953    332.20294   -162254.61    162259.44    -12.71341    35.469916 
166648000    276.18513    373.03178    261.03366   -162271.69    162280.96    111.99812    35.467068 
166652000    278.57188     506.2632    381.99421   -162308.68    162324.94    124.26898    35.467437 
166656000    290.17297    256.23365     411.4613   -162337.12    162334.84   -155.22765    35.467484 
166660000    277.82498      441.059    324.56543   -162381.14    162397.77    116.49357    35.468349 
166664000    256.17553    331.60568    200.50476   -162440.11    162459.26    131.10091    35.468311 
166668000    299.46245    252.83954    525.86273   -162466.38    162480.92   -273.02319    35.461827 
166672000    303.14425    598.37867    323.67396   -162451.39    162458.36    274.70471    35.460484 
166676000    274.54255    511.88946    270.21477   -162436.95    162454.52    241.67469    35.461315 
166680000    310.47926    348.98664    296.89052   -162482.16    162479.22    52.096118    35.457506 
166684000    276.66318    198.75927    495.02164   -162489.67    162511.26   -296.26238    35.454293 
166688000     290.7722    342.96913    253.89506   -162528.21    162527.91    89.074066    35.453549 
166692000    263.39206    335.76883    190.06137   -162543.45    162552.18    145.70746    35.456409 
166696000    315.79773    289.28778    328.42253   -162552.06    162554.44   -39.134756    35.460559 
166700000    298.88731     350.5078    302.33618    -162588.9     162595.9    48.171625    35.459935 
166704000    273.80655    264.65734    422.21343   -162599.73     162620.6   -157.55609    35.461857 
166708000    264.52333     232.1207    349.40022   -162656.34    162671.91   -117.27952    35.454857 
166712000    295.33964    501.94921    203.62783    -162709.7     162703.8    298.32138    35.457058 
166716000    269.12497    244.92639    343.01686   -162716.64    162737.53   -98.090469    35.456436 
166720000    289.42379    258.38615     650.4833   -162743.01    162743.81   -392.09715    35.453885 
166724000    257.16345    308.15846    367.84378   -162737.56    162775.57   -59.685314    35.454164 
166728000    277.99996    219.41663    391.87532   -162745.68    162779.05   -172.45869    35.455509 
166732000    278.08067    361.67427    455.61167   -162785.44    162810.96   -93.937397    35.452885 
166736000    278.18001    360.78716    444.91362   -162804.39    162822.16   -84.126458     35.45308 
166740000    298.99171    389.02583    327.52848   -162839.71    162836.68    61.497353    35.452537 
166744000    291.56395    368.94847    322.97359   -162851.69    162867.15    45.974877    35.452217 
166748000    268.86137    200.64464    353.16407   -162837.28    162873.48   -152.51943    35.447164 
166752000     242.7748    238.81205    274.38792   -162863.41    162910.53   -35.575868    35.449243 
166756000     305.1777     326.8485    454.26151   -162896.99    162886.91   -127.41301    35.444417 
166760000    275.87663    450.80877    253.98721   -162910.89     162916.4    196.82156    35.446751 
166764000    279.49918    283.18471    323.00145   -162912.46    162929.45   -39.816741    35.447505 
166768000    278.29016    388.53636    239.14085   -162920.36    162941.71    149.39551    35.451005 
166772000    274.28926    237.20816    430.12969   -162955.51     162988.6   -192.92153     35.45051 
166776000    277.04972    405.27109    332.50815   -163016.03    163026.32    72.762941    35.451428 
166780000    259.19048    409.08814    379.54531    -163030.5    163049.15    29.542837    35.450215 
166784000    276.15262     594.8326    375.72656   -163082.36    163089.98    219.10604     35.44419 
166788000    280.34362    366.51121     342.2494   -163098.13       163116    24.261811    35.439625 
166792000    295.00698    249.24322    220.48759   -163118.42    163124.08    28.755632    35.442413 
166796000    323.07555    393.79799    221.45147   -163152.37    163141.95    172.34652     35.44378 
166800000    255.18625    333.36058    274.33116   -163163.95       163195    59.029423    35.444402 
166804000    267.84374    273.26325    351.06014   -163196.81    163206.34   -77.796889    35.439283 
166808000     283.7487    321.36146    410.25967   -163202.61    163220.06   -88.898206    35.439834 
166812000     270.0898    224.15028      267.853   -163235.81    163248.37   -43.702719    35.442037 
166816000    311.39076    436.64405    359.08018   -163264.19    163262.83    77.563866    35.444958 
166820000    285.99179    331.74659    308.35235   -163269.14    163294.75    23.394235    35.446911 
166824000    287.61582    290.36433    184.72059   -163270.01    163286.97    105.64375    35.453547 
166828000    288.64818     267.3324    405.58929   -163276.27    163296.64   -138.25689    35.447573 
166832000    244.00104    285.46605     214.1252   -163288.59    163320.44    71.340851    35.449289 
166836000      286.297    229.84842    323.17586   -163315.46       163314    -93.32744    35.450962 
166840000    309.56698    340.82807    490.83765   -163356.36    163323.97   -150.00957    35.449134 
166844000     273.7298    378.45466    244.52992   -163364.36    163385.12    133.92475    35.454708 
166848000    294.09874    405.24062    278.42523   -163390.94    163388.86    126.81539    35.452512 
166852000    328.59239    519.49678    468.25017   -163403.71    163389.91    51.246606    35.456759 
166856000    252.34438    280.03305    218.72864   -163406.39    163445.41    61.304406    35.460767 
166860000     289.8498    359.42567    273.84277   -163438.94    163436.67      85.5829    35.464594 
166864000    278.21052    414.69256    337.70687    -163449.5    163451.52    76.985688    35.464822 
166868000    306.38718    435.19493    311.98145   -163460.41    163459.49    123.21348    35.467526 
166872000    278.84564    195.13432     305.3107   -163459.73    163469.34   -110.17638    35.467868 
166876000    304.16742    266.03838    207.04148   -163484.94    163494.62    58.996896    35.464433 
166880000    312.10131    492.35891    444.77999   -163507.84    163501.97    47.578915    35.465425 
166884000    274.84684    281.07613    302.00656   -163526.34    163537.09   -20.930429    35.462503 
166888000    276.25206    297.45368    343.88667   -163549.02    163560.85   -46.432993    35.467817 
166892000    276.10761    416.77359    307.83334   -163579.38    163597.31    108.94025    35.467191 
166896000    293.29924    325.70502    265.36681   -163594.79    163600.97    60.338212    35.471953 
166900000    289.47004    331.76649    468.78402   -163626.67    163642.78   -137.01753    35.470506 
166904000    286.81915    215.30984    754.86909    -163638.6    163639.95   -539.55925    35.466299 
166908000    286.02302    468.38705    354.20133   -163656.27    163656.84    114.18572    35.463026 
166912000    280.57556     536.0247    381.04258   -163685.69     163693.7    154.98211    35.464895 
166916000    291.83655    272.18462    332.73074   -163715.79    163730.31   -60.546124    35.463867 
166920000     270.9983    305.35329    263.82268   -163751.48    163751.86    41.530606    35.463622 
166924000    266.55493     219.6618    258.73023   -163764.83    163776.53   -39.068432    35.458839 
166928000     281.9148    404.12274    258.03745   -163794.99    163799.49    146.08529    35.458682 
166932000    271.08078    237.71635    313.14248   -163811.56    163815.22   -75.426139    35.458797 
166936000    289.62386    368.49646    333.50071    -163825.7    163836.83    34.995754    35.460777 
166940000    297.06637    216.63159    377.11076   -163834.69    163839.86   -160.47918    35.458615 
166944000    281.64794    431.82754    179.69622   -163873.42    163890.07    252.13132    35.456657 
166948000    278.67391    347.90548    330.41764   -163876.39    163896.56    17.487844    35.460726 
166952000     285.9005    308.67626    307.93641   -163879.03    163898.34   0.73985354     35.46149 
166956000    296.62396     367.8256     462.3974   -163894.03    163910.77   -94.571797    35.462629 
166960000    282.49753     157.5961    379.26337   -163937.52    163949.97   -221.66727    35.461229 
166964000    276.78717    421.64821    353.58389   -163948.81    163959.95    68.064313    35.462059 
166968000    297.97901    324.02295    401.57415   -163977.66    163973.96   -77.551203    35.458498 
166972000     279.1761    210.30527    273.03903      -164041    164041.38   -62.733752    35.463319 
166976000    258.45819    312.60135    335.33928   -164052.33    164072.11   -22.737936    35.466523 
166980000    261.50192    225.32469    526.23612   -164075.21    164108.97   -300.91143    35.463188 
166984000    270.51294    491.85333    252.67148   -164125.46    164140.27    239.18186    35.462213 
166988000    258.56927    381.81236    362.16471   -164145.24     164171.2    19.647658    35.458492 
166992000    277.83903     203.3862    289.08951   -164155.15    164176.62   -85.703305    35.458115 
166996000    284.33788    250.35424    123.00208   -164171.47    164190.18    127.35216    35.459034 
167000000    272.76146    435.74206    403.78987   -164170.95    164188.89    31.952186    35.460899 
167004000    262.42774    348.63109    167.46595   -164208.01    164238.31    181.16514    35.460734 
167008000    263.85606    476.94016    331.73898   -164244.47    164269.09    145.20117    35.456497 
167012000    274.88033    537.59561     361.5041   -164279.98     164298.9     176.0915    35.459491 
167016000    270.40755    453.60739    323.71422   -164310.16    164334.25    129.89317    35.458686 
167020000    261.73439    370.93556    293.70553   -164338.21    164369.59    77.230022    35.456258 
167024000    282.88744    392.95037    352.33069   -164340.39    164371.56    40.619676    35.458042 
167028000    284.81408    581.73958    203.82314   -164374.27    164393.28    377.91644    35.459078 
167032000    253.75132    270.08879    483.69014   -164372.91    164410.17   -213.60134    35.462488 
167036000    300.37059    283.21926     427.1578   -164424.49    164418.73   -143.93854    35.462049 
167040000    285.19687    374.48297    418.73165   -164425.99    164452.02    -44.24868       35.462 
167044000    278.78995    427.46992    175.88333   -164454.62     164479.1    251.58659    35.466184 
167048000    264.56075    533.52219    325.42986    -164471.8    164497.28    208.09233    35.469995 
167052000    301.26988    198.00242     546.1767   -164488.36    164481.24   -348.17428    35.467993 
167056000    273.91233    488.14999    339.99425      -164490    164518.52    148.15574    35.468892 
167060000    284.97187     289.0324    240.32879   -164556.55    164552.24    48.703611    35.467047 
167064000    294.40816    437.60214    425.15229   -164570.48    164573.55    12.449855    35.462681 
167068000    295.07914    333.10896    175.11532   -164597.93    164610.98    157.99363    35.462438 
167072000    283.62887    342.31586    342.29949   -164613.64    164615.42  0.016370429    35.465105 
167076000     295.7185    355.04723    411.51514   -164643.16    164639.88   -56.467917    35.468977 
167080000    320.94922    537.38994    396.26567   -164630.03    164639.65    141.12427    35.469689 
167084000    277.40866    262.59868    189.05219      -164629    164644.86    73.546497    35.468134 
167088000    271.89292    225.84759    216.69786   -164641.39    164670.83    9.1497288     35.46601 
167092000     280.2857    398.32247    251.36197   -164650.24    164673.27     146.9605    35.468084 
167096000    303.07409    748.08964    280.80207   -164685.06    164693.41    467.28757    35.470809 
167100000    275.82384     505.3015    251.83321   -164721.19    164742.71    253.46829    35.472066 
167104000    259.23046    498.42221    435.98561    -164739.8    164774.78      62.4366    35.472504 
167108000      286.398    376.75111    391.38153   -164769.67    164782.95   -14.630429     35.47478 
167112000    308.52432      378.099    395.16877   -164809.04    164796.78   -17.069764    35.473482 
167116000    284.33363    471.39947    250.90469   -164818.55    164822.21    220.49478    35.475754 
167120000    271.70905     244.8196    372.36528   -164828.81    164847.13   -127.54568    35.474608 
167124000    270.74788    301.36626    220.31063   -164857.46    164875.88    81.055634    35.473231 
167128000    266.39138    321.42402    368.24005   -164897.25    164915.06   -46.816029    35.473075 
167132000    276.71636    148.96297     250.3336   -164921.48     164953.2   -101.37063    35.474745 
167136000    265.38104    354.09038    431.03288   -164947.56    164970.75   -76.942503    35.470721 
167140000    281.99922    245.38237    435.72381   -164973.38    164968.32   -190.34144    35.467499 
167144000     283.1273    530.43993    147.29775   -164992.36    165005.38    383.14218    35.468906 
167148000     281.9024    391.03576     282.3765   -165003.51    165040.17    108.65925    35.465582 
167152000    278.35066    305.78612    315.93791    -165011.3     165029.5   -10.151791    35.463245 
167156000    295.17855    343.79434    400.39415   -165064.33    165048.24   -56.599815    35.461234 
167160000    265.11555    403.76478     235.2098   -165105.73    165116.05    168.55498    35.462705 
167164000    253.61191    283.34767    231.61655   -165129.89    165153.55    51.731126     35.46215 
167168000    244.17655    265.03351     227.7928   -165139.88    165153.89    37.240706    35.463541 
167172000    291.73566    312.18698    355.58553   -165171.05    165186.27   -43.398547    35.459306 
167176000    265.24603    466.23952    332.19634   -165174.86    165198.84    134.04318    35.459336 
167180000    286.98292    323.42954    493.07426   -165200.83    165201.82   -169.64471    35.454583 
167184000    273.98988     554.3798    323.93694   -165210.15    165231.46    230.44286    35.453929 
167188000    295.70662    377.04879    230.54673    -165249.7    165236.78    146.50206    35.448533 
167192000    244.50433    393.53195     191.8316   -165225.51     165254.5    201.70035    35.446472 
167196000    260.09919    630.98753    290.34769   -165254.39    165280.27    340.63984    35.445346 
167200000    282.29796    298.95307    406.51049    -165272.1    165290.64   -107.55741    35.447333 
167204000    292.49326    368.17433    548.90972   -165290.24    165299.75   -180.73539    35.444747 
167208000     276.1548    319.53563    316.84127   -165314.68    165322.48     2.694361    35.442799 
167212000    280.05372    499.32744    278.86859   -165342.38    165340.16    220.45885    35.446124 
167216000    282.66779    225.62399    481.38957   -165356.49    165381.11   -255.76558    35.440141 
167220000    275.34995     321.0854    228.85461    -165389.9    165407.22    92.230789    35.437103 
167224000    281.52817    421.42603    501.50506   -165411.46    165407.97    -80.07903    35.440124 
167228000    294.84831    337.81539    410.17808   -165426.67    165438.42   -72.362689    35.433288 
167232000    298.24953    600.96586    246.29435   -165469.83    165460.07     354.6715    35.430915 
167236000    318.05315    389.91267    404.09899   -165476.24    165468.75   -14.186326    35.429017 
167240000    284.73346    251.15266    320.74242   -165490.87    165502.69    -69.58976    35.426499 
167244000    269.62835    340.90469    260.42234      -165509    165533.96     80.48235    35.427038 
167248000    308.12647    431.44567    393.35388   -165553.94    165545.03     38.09179    35.423877 
167252000    252.92015    298.83311    153.35649   -165560.52    165582.54    145.47662    35.431226 
167256000    270.24623    222.44848    421.71346   -165616.52    165622.62   -199.26499    35.426515 
167260000    263.97782    168.94535    311.97097   -165630.55    165641.56   -143.02562    35.427752 
167264000    276.32692    346.17537    252.09553   -165657.85    165676.09    94.079843    35.430745 
167268000    261.14798    321.57405    234.23973    -165652.9    165694.37    87.334321    35.430734 
167272000    237.78637    230.67974    241.67153   -165655.84    165690.85   -10.991797    35.428716 
167276000    260.94388    239.66377    263.67903   -165679.63    165709.32   -24.015263     35.42615 
167280000    290.49284     316.5618    315.96444   -165737.17     165741.8   0.59736645    35.425191 
167284000    280.83613    340.15721    350.51356   -165760.75    165780.44   -10.356354    35.431144 
167288000     287.8423    268.45499    310.97768   -165804.09    165811.26   -42.522686    35.433924 
167292000    255.14687    403.89226    222.25561   -165794.83    165844.12    181.63665    35.434549 
167296000    300.54354    419.40302    285.90134   -165815.62    165824.38    133.50168     35.43155 
167300000    275.26876    407.54781    299.31926   -165831.19    165819.81    108.22855    35.435924 
167304000    268.62469    389.18301    349.89289   -165823.59    165847.55    39.290123    35.439108 
167308000    314.68347    420.63702    597.80877   -165835.36    165827.75   -177.17175    35.441017 
167312000    284.04402    390.95457    223.81739   -165877.69    165893.06    167.13718    35.438833 
167316000    281.24978    412.82656    224.27107   -165905.26     165926.5    188.55549    35.439784 
167320000    255.25267    116.40777    339.01148   -165910.65    165940.23   -222.60371    35.440715 
167324000    281.80613    210.93833    416.02891   -165953.14     165961.3   -205.09059    35.440854 
167328000    294.81225    312.15855    298.30849   -165976.29    165979.31     13.85006    35.444496 
167332000     299.7577     497.1705    284.91308   -166003.04    166008.17    212.25742    35.447219 
167336000    278.38602    287.59045    121.74771   -166027.44    166040.21    165.84274    35.447658 
167340000    268.56431    281.24778    325.31709   -166030.57    166055.63   -44.069306     35.44936 
167344000    287.99928    318.02984     389.5018   -166035.09    166053.04   -71.471965    35.446789 
167348000    275.21814    349.12144    300.61618    -166045.6    166075.21    48.505266     35.44737 
167352000    250.69585    349.27295    404.37431   -166087.49       166124   -55.101363    35.448626 
167356000    290.56941    209.05956    276.96652   -166123.02    166144.99   -67.906959    35.447208 
167360000     266.3216    430.65342    392.38043   -166172.47    166203.25     38.27299    35.452083 
167364000    268.63879    402.13157    203.00304   -166201.54    166232.59    199.12853    35.454503 
167368000     268.9334    418.25604    255.25269   -166227.02    166235.55    163.00336    35.456996 
167372000    272.09611    393.65648    206.57858   -166229.58    166256.45     187.0779    35.454152 
167376000    275.87368    234.22064    244.73628    -166240.6    166241.69    -10.51564    35.450618 
167380000    291.73734    415.51577    270.42579   -166243.87    166254.04    145.08999    35.449712 
167384000    292.23918    266.19238    280.19049   -166252.05    166262.79   -13.998111     35.44939 
167388000    274.46314    336.73876    291.65498   -166283.39    166297.48    45.083783    35.450673 
167392000     293.8994    363.64752    356.87222    -166301.2    166309.89     6.775301    35.448568 
167396000    275.64012    421.94089    421.94871   -166313.37     166334.7 -0.0078185066    35.447315 
167400000    294.45857    333.61902    258.99084   -166323.39    166342.05    74.628188    35.445498 
167404000    280.12338    352.71201    392.91457   -166367.21    166378.62   -40.202559    35.446272 
167408000    268.03423    300.38613    339.84948   -166375.46    166387.03    -39.46335    35.447493 
167412000    257.71763    340.09174    227.56343   -166387.08    166417.82    112.52831    35.444652 
167416000    281.88049    335.40149    229.77645   -166400.07    166440.84    105.62504    35.446554 
167420000    290.77114    247.99445    378.95869   -166428.84    166431.01   -130.96424    35.446733 
167424000    282.60675    590.88593    343.87668   -166462.91    166462.23    247.00926    35.452922 
167428000    287.29783    391.36525    362.99661   -166467.54    166494.01     28.36864    35.450247 
167432000    266.21057    274.10748    323.30209   -166475.17    166522.11   -49.194611     35.45468 
167436000    267.73682    319.94363     235.9612   -166497.97    166517.17    83.982423    35.453473 
167440000    280.29252    396.46618    232.93234   -166517.81    166541.47    163.53384    35.454272 
167444000    298.14974    344.16008    287.60063   -166550.49    166552.94    56.559451    35.459953 
167448000    300.66109    379.89288    332.56085   -166600.13    166584.87    47.332028     35.45976 
167452000    291.40299     295.5957    319.09693   -166632.99    166630.89   -23.501228    35.462825 
167456000    286.40777    345.83918    369.17564   -166640.27    166640.34   -23.336466    35.465783 
167460000    297.41252    470.90042    237.21437   -166650.36    166666.35    233.68605     35.46508 
167464000    308.96807    463.42952    412.45219   -166683.31    166669.87    50.977331    35.463503 
167468000    260.06978    276.07084    330.82797   -166685.63     166707.2   -54.757125     35.46046 
167472000    262.07263     181.4138    250.74412   -166707.59    166721.07   -69.330316    35.458055 
167476000    267.63156    494.26562    296.36906   -166723.43    166761.63    197.89656     35.45807 
167480000    271.16627    397.76476    237.93963   -166745.05     166765.9    159.82513    35.455058 
167484000     267.0582     333.8019    373.81225   -166750.92    166787.62   -40.010351    35.454788 
167488000    287.16577    287.10978    246.29386   -166820.87    166805.11    40.815921    35.453803 
167492000    277.61767    354.08329    195.47567   -166799.28    166825.77    158.60762    35.455701 
167496000    272.99936    245.88949     289.4263   -166805.55    166829.61   -43.536807    35.458296 
167500000    259.80581     377.0164    449.81399   -166837.28     166859.4   -72.797594     35.45873 
167504000    282.04995     404.4148    277.42739   -166849.36    166865.78    126.98741    35.459284 
167508000    268.10555    187.04253    227.87157   -166868.96    166896.19   -40.829044    35.460778 
167512000    285.23363    428.11529    255.57963   -166915.92    166925.24    172.53566    35.459078 
167516000    300.85857    438.05581    343.28147   -166954.45    166963.92    94.774334    35.462557 
167520000    291.35176     483.4335     302.6512   -166945.26       166960    180.78231    35.466995 
167524000    278.51488    379.87404    328.53593   -166955.84    166964.22    51.338115    35.462279 
167528000    294.42303     524.8984    599.35335   -166982.72    166986.12   -74.454953    35.461654 
167532000    284.72103    348.61557    363.84443   -167012.52    167011.04   -15.228861    35.459742 
167536000    287.93317    237.57046    228.93338   -167033.69    167055.04    8.6370856    35.458922 
167540000    258.29941     341.6726    301.80068   -167043.08    167063.01    39.871918    35.457481 
167544000     298.8263    558.09783    254.76245   -167061.74    167081.45    303.33538    35.462186 
167548000    277.27845    297.52983    297.55935    -167069.8    167066.52 -0.029515406    35.466109 
167552000    277.16303    490.85009     226.8035   -167059.89    167080.82    264.04659    35.470108 
167556000    289.43278    272.87463    299.59119   -167079.39    167103.45   -26.716552    35.472489 
167560000    272.10521    493.50543    274.40724   -167102.81    167123.33    219.09819    35.474798 
167564000    262.43516    344.99176    211.66121    -167110.7    167134.15    133.33055    35.468224 
167568000     290.1218    278.07945    250.74348   -167162.29    167153.71     27.33597    35.463801 
167572000    268.08536    303.88852    504.38667   -167160.23    167171.69   -200.49815    35.470447 
167576000    281.33154     319.7422    409.72709    -167197.4    167203.22   -89.984886    35.468796 
167580000    284.46408    265.35968    258.34958   -167197.12    167203.26    7.0101048    35.473685 
167584000    292.67172    571.99608    333.04461   -167201.71    167208.29    238.95147      35.4734 
167588000    288.74016    262.75626    294.56985   -167237.12    167238.83   -31.813583    35.477049 
167592000    279.17122    364.45467      384.326    -167271.8    167274.87   -19.871332    35.474684 
167596000    279.57969    352.29123    185.99627   -167301.21    167312.78    166.29496    35.474885 
167600000    283.14681    407.20988    436.74695   -167318.37    167340.23   -29.537071    35.475964 
167604000    258.58242    282.27483    244.99262   -167360.63    167379.67    37.282213    35.471802 
167608000    289.29582    374.86426    417.71343   -167371.06    167392.27   -42.849173    35.476219 
167612000     276.9664    338.76149    289.45175   -167412.45    167409.21    49.309733    35.473563 
167616000     279.6697    373.95222    512.25814   -167454.59    167451.24   -138.30592    35.467832 
167620000    266.94105    343.21013    286.25727   -167498.84     167520.9    56.952861    35.469213 
167624000    241.59113    390.98583    281.03557   -167504.53    167543.84    109.95026    35.462548 
167628000    270.54659    394.85325     516.9136   -167548.03    167576.93   -122.06035    35.459185 
167632000    279.39672    568.85284    254.62227   -167573.21    167581.96    314.23057    35.464497 
167636000    294.70707    373.49957    200.91834    -167577.6    167592.42    172.58123    35.466681 
167640000    261.95876    206.00571    343.46868   -167586.14    167609.44   -137.46296     35.46794 
167644000    304.01433    504.94664    244.47246    -167620.4    167638.88    260.47418    35.465177 
167648000    303.53495     296.5778    211.27242   -167647.47    167648.06    85.305379    35.460755 
167652000    288.76361    363.37006    294.91531   -167707.82     167703.7    68.454754    35.460715 
167656000    266.59155    245.15094    503.92734   -167705.42     167721.3    -258.7764    35.457912 
167660000    311.48842    696.81504    362.05546   -167724.93     167719.2    334.75958    35.456884 
167664000    280.26461    214.80659    401.39023    -167736.2    167745.59   -186.58364    35.450708 
167668000     310.5078    435.49693    322.59536   -167782.28    167789.66    112.90157    35.458087 
167672000    282.95637    291.28568    378.19725    -167793.7       167811   -86.911577     35.45572 
167676000    298.85157    441.09814    518.98967   -167814.81    167804.65   -77.891532    35.457246 
167680000    272.75107    334.61977    189.05647   -167796.04    167798.85     145.5633    35.460837 
167684000    296.60412    183.14582    180.60057   -167833.43    167827.58    2.5452479    35.462302 
167688000    282.39841    406.02134    373.72283   -167857.29    167865.44    32.298508    35.458076 
167692000    273.78875    252.02996    160.30414    -167875.3    167894.34    91.725822    35.458185 
167696000    298.67992    205.78845    265.21705   -167898.54    167893.47   -59.428596    35.460452 
167700000    278.30405     271.3789    246.15656   -167933.26     167949.7    25.222342     35.46187 
167704000    273.30081    344.18544    325.58861   -167928.89    167947.57    18.596834    35.462937 
167708000    269.82339    288.93431    376.02853   -167960.98    167989.44   -87.094212    35.461161 
167712000    283.41278    252.92682     441.5682   -167971.46    167982.44   -188.64138     35.45883 
167716000    288.00014    386.07511    321.02774   -167985.53    168001.89     65.04737    35.461759 
167720000    281.11101    376.68665    314.93683   -167987.08    167986.63    61.749825    35.458568 
167724000    276.45453    346.84825    341.25056   -167987.87    168011.66    5.5976924    35.463337 
167728000    262.04209    285.25865     268.5257   -168011.05    168043.45    16.732943    35.459122 
167732000    262.54251    247.93661    255.95678   -168048.15    168059.67   -8.0201686    35.454617 
167736000    281.03056     367.5949    419.14945   -168080.77    168080.42   -51.554549    35.454624 
167740000    305.66232    238.58077    236.27823   -168102.09     168084.3    2.3025406    35.455604 
167744000    289.37931    464.26201    372.59592   -168128.62    168128.12    91.666098     35.45441 
167748000    316.40911    518.18487    393.49969   -168140.58    168138.55    124.68518    35.450223 
167752000    295.13898    421.71602    334.29033   -168144.55    168143.63    87.425686    35.453631 
167756000    254.11087     308.8981    269.51205   -168149.35    168188.34    39.386051    35.460421 
167760000    273.82479    326.31606     481.6391   -168158.12    168175.26   -155.32304    35.461341 
167764000    316.02247    766.61013    418.71137    -168205.9    168200.08    347.89875     35.46109 
167768000    278.53306    459.60445    457.83597   -168200.84    168229.57      1.76848    35.461183 
167772000    263.90178    273.64478    263.17245   -168235.17    168258.51     10.47233    35.460915 
167776000    300.16329    405.04526    345.93301   -168271.86    168270.53    59.112255    35.461516 
167780000    258.37924    301.60429    263.68345   -168277.87    168314.72    37.920842     35.46035 
167784000    293.92895    349.16629    366.56144   -168296.13    168303.85   -17.395156    35.458114 
167788000    276.19171     364.7754    326.81409    -168307.8    168328.75    37.961311     35.45711 
167792000    278.27334    492.18754    470.31732   -168357.95     168385.7    21.870227    35.463731 
167796000    270.19046    447.50315    194.57652   -168393.89    168413.02    252.92663    35.463245 
167800000    294.53482    355.72263    313.72525    -168417.1    168424.37    41.997379    35.467764 
167804000    280.17795    653.51676    255.47605   -168425.29    168437.81     398.0407    35.470211 
167808000    297.96216    360.98058     407.7777   -168463.87    168460.57   -46.797122    35.469864 
167812000    307.92078    524.38272    366.48382   -168468.99    168481.31    157.89889    35.467011 
167816000    287.41246    544.34906    192.76294   -168486.55    168493.03    351.58612    35.466157 
167820000     250.3474    272.39587    398.21538   -168479.38    168529.28   -125.81951    35.470689 
167824000    291.86786    351.89788    346.58055   -168535.94    168523.76    5.3173312    35.469258 
167828000     261.5738    260.64235    269.17891   -168532.34    168544.68   -8.5365569    35.473016 
167832000    309.10615    306.10694    329.51637   -168550.44    168539.24   -23.409426    35.474564 
167836000    290.27881    526.78919    198.62973   -168557.13    168563.46    328.15946    35.480939 
167840000    312.33743    376.06285    483.81764   -168561.43     168561.3   -107.75479    35.484512 
167844000    282.80134    169.93581    264.99885   -168575.64    168605.65   -95.063034    35.483441 
167848000    267.32478    289.77325    301.51919   -168600.62    168622.75   -11.745935    35.482861 
167852000    284.98682    340.62501    418.31422    -168640.3    168649.02    -77.68921    35.484977 
167856000     306.3844    493.15849    295.84233   -168650.93     168662.6    197.31616    35.487532 
167860000     270.2328    302.36886    330.87213   -168676.87    168699.57    -28.50327    35.485534 
167864000     292.1235    311.11762    317.18642   -168681.24    168696.21   -6.0687956    35.483036 
167868000    280.33559     426.8792    206.38781   -168696.81    168711.74    220.49139     35.48542 
167872000    269.44111    353.41773    488.36125   -168718.44    168749.04   -134.94352    35.488638 
167876000    277.47158    380.26789    332.32874   -168750.67    168762.37    47.939145    35.487163 
167880000    289.89863    398.60944    313.15785   -168757.36     168771.1     85.45159    35.490756 
167884000    279.96757    523.22532    258.07228   -168768.75    168782.13    265.15304    35.495753 
167888000    291.90296    479.61128    217.27224   -168809.63    168813.18    262.33905    35.495432 
167892000    309.13181    420.99283    389.42631   -168821.21    168810.98     31.56652    35.491083 
167896000    289.54458    281.95955    352.11252   -168828.88     168846.7   -70.152972    35.488872 
167900000    289.14606    280.91466    387.74156   -168877.07    168894.43    -106.8269     35.49031 
167904000    252.40039    299.27499    309.19507   -168875.29    168921.79   -9.9200799    35.486418 
167908000    285.76745    498.17885    334.36985   -168896.11    168893.53    163.80901    35.483594 
167912000    311.53429    418.33947    457.05002   -168917.08    168918.31   -38.710549    35.484973 
167916000    295.26007    262.53144    363.03324   -168931.61    168946.03    -100.5018    35.482804 
167920000    280.18572    170.64782    397.44852   -168917.21    168944.54    -226.8007     35.48421 
167924000    301.95991    319.83321    558.64835   -168933.95     168929.9   -238.81514    35.484201 
167928000    276.17226    187.38731    303.34383   -168936.45    168950.08   -115.95652    35.488832 
167932000    300.76232    376.56752    245.15296   -168980.42    168970.94    131.41456    35.492467 
167936000     265.9724    344.30464    216.76559   -168995.91    169017.45    127.53905    35.491043 
167940000     314.8823    548.06565    209.00153   -169040.83    169031.78    339.06412    35.495522 
167944000    286.86045    409.78716    356.61574   -169064.28    169069.75    53.171422    35.491864 
167948000    274.97171    316.69744    351.60476    -169092.2    169106.79   -34.907316    35.494874 
167952000     282.7337    427.66275    218.13081   -169080.84    169104.64    209.53194    35.496512 
167956000    270.17082    342.47479    260.91626   -169083.86    169092.42    81.558537    35.498663 
167960000    282.14679    339.15659    421.45634   -169093.64    169120.13   -82.299755     35.49934 
167964000    284.63067    367.01443    347.98029   -169100.99    169142.95     19.03414    35.499081 
167968000    256.97491    388.67234    338.98462   -169101.68    169146.15    49.687711    35.503479 
167972000    275.84571    401.15523    292.60891   -169143.78    169156.97    108.54632    35.505417 
167976000    246.09424    375.83344    318.16931   -169155.95    169180.62    57.664129     35.50486 
167980000    325.11889    335.33264    720.58681   -169190.82    169168.95   -385.25416    35.501477 
167984000    273.90205    464.98254    397.07584   -169206.34    169222.15    67.906707    35.499025 
167988000    286.81859     294.3913    160.49582   -169257.86    169262.48    133.89549    35.498618 
167992000    279.19258     204.8403    209.04161   -169269.23    169286.46   -4.2013099    35.499291 
167996000    277.01254    323.78788    213.66771   -169279.96    169304.11    110.12017    35.496236 
168000000    265.57424    420.51473    387.83154   -169290.53    169312.99    32.683189    35.492597 
168004000    247.31558    597.81289    211.58316   -169306.08    169325.09    386.22973    35.492532 
168008000    279.63647    222.73984     197.7197   -169323.83    169326.72    25.020133     35.49694 
168012000    269.49377    380.96402    225.50982   -169332.51    169351.87     155.4542    35.499124 
168016000    291.86213     389.3813    413.94478   -169376.96    169390.76   -24.563484    35.500885 
168020000    240.81495    275.85542    311.47512   -169379.99     169414.2   -35.619706    35.496856 
168024000    295.58586    332.30815    229.73045   -169413.54    169437.51     102.5777    35.497252 
168028000    262.88056    314.33493    109.61135   -169458.36    169482.26    204.72358    35.504216 
168032000    282.98027    458.59258    297.55106   -169501.34    169505.05    161.04152    35.510374 
168036000    291.50848     268.8917    273.10701   -169519.45    169534.88   -4.2153135    35.512345 
168040000    290.68357    508.19294    268.64338    -169560.7    169553.91    239.54956    35.508906 
168044000    313.01289    297.44944     460.0702   -169578.75     169576.8   -162.62076    35.511164 
168048000    278.96225    383.90257    216.27222   -169602.26    169619.21    167.63035    35.511277 
168052000    287.73062     424.5554    362.26368    -169627.7    169634.98    62.291717    35.511177 
168056000    300.47909    461.44687    391.03846   -169642.68    169637.34     70.40841    35.508977 
168060000    263.92694    458.59751    274.18419   -169639.41    169673.59    184.41332    35.510779 
Loop time of 5393.36 on 1 procs for 32000000 steps with 196 atoms

Performance: 640.788 ns/day, 0.037 hours/ns, 5933.221 timesteps/s
99.9% CPU use with 1 MPI tasks x no OpenMP threads

MPI task timing breakdown:
Section |  min time  |  avg time  |  max time  |%varavg| %total
---------------------------------------------------------------
Pair    | 1594.9     | 1594.9     | 1594.9     |   0.0 | 29.57
Bond    | 2688.7     | 2688.7     | 2688.7     |   0.0 | 49.85
Neigh   | 65.42      | 65.42      | 65.42      |   0.0 |  1.21
Comm    | 9.643      | 9.643      | 9.643      |   0.0 |  0.18
Output  | 3.9571     | 3.9571     | 3.9571     |   0.0 |  0.07
Modify  | 1000.2     | 1000.2     | 1000.2     |   0.0 | 18.54
Other   |            | 30.52      |            |       |  0.57

Nlocal:    196 ave 196 max 196 min
Histogram: 1 0 0 0 0 0 0 0 0 0
Nghost:    0 ave 0 max 0 min
Histogram: 1 0 0 0 0 0 0 0 0 0
Neighs:    3867 ave 3867 max 3867 min
Histogram: 1 0 0 0 0 0 0 0 0 0

Total # of neighbors = 3867
Ave neighs/atom = 19.7296
Ave special neighs/atom = 5.87755
Neighbor list builds = 308791
Dangerous builds = 0

write_restart FINALCONFIG

Total wall time: 1:34:23
