LAMMPS (16 Mar 2018)
# 1. INITIALIZATION
#allows pair, bond, bending and dihedral interactions
atom_style molecular

  # periodic (video game) boundaries in all cartesian directions
boundary p p s

  # uses real units (instead of units based on pair potential parameters).  List of units used in manual
units real

###########
# 2. ATOM DEFINITION
##########

   ##
   # Read in data from starting configuration file
   ##

#read_data chainconfig.dat

 #use to restart
read_restart RESTART
  orthogonal box = (-400 -400 -0.0371648) to (400 400 123.895)
  1 by 1 by 1 MPI processor grid
  196 atoms
  194 bonds
  192 angles
  190 dihedrals
  2 = max # of 1-2 neighbors
  2 = max # of 1-3 neighbors
  4 = max # of 1-4 neighbors
  6 = max # of special neighbors

   ##
   # Specify the nature of the bond interactions
   ##


bond_style harmonic
bond_coeff 1 450 1.54

special_bonds lj 0.0 0.0 0.0 angle no dihedral no

angle_style harmonic
angle_coeff 1 62.1  114.00

dihedral_style opls
dihedral_coeff * 1.4110 -0.2708 3.143 0.0

mass * 14.0

pair_style lj/cut 14.0
pair_coeff 1 1 0.0912 3.95 14.0
#pair_modify tail yes

group twistables type 3
6 atoms in group twistables
group freeze type 2
6 atoms in group freeze
fix startend freeze setforce 0.0 0.0 0.0
fix startend0 twistables setforce 0.0 0.0 0.0

################
# 3.  Simulation Settings
###############

neighbor        2.0 bin
neigh_modify    every 1 delay 0 check yes



# Define some variables
variable Lx          equal xhi-xlo   # Ang
variable Ly          equal yhi-ylo   # Ang
variable Lz          equal zhi-zlo   # Ang

variable dz          equal ${Lz}/30  # Ang
variable dz          equal 123.93194371632/30  

variable zzlo        equal zlo+0.05  # Ang
variable zzhi        equal zhi  # Ang
variable vol         equal ${Lx}*${Ly}*${Lz}  # Ang^3
variable vol         equal 800*${Ly}*${Lz}  
variable vol         equal 800*800*${Lz}  
variable vol         equal 800*800*123.93194371632  
variable TEMP        equal 300.00 # K
variable TThi        equal 320.00 # K
variable TTlo        equal 280.00 # K
variable dt          equal 1.25 # fs

timestep     ${dt}
timestep     1.25

variable zlo1      equal ${zzlo}+2.7
variable zlo1      equal 0.0128352418400019+2.7
variable zlo2      equal ${zzlo}+8.4
variable zlo2      equal 0.0128352418400019+8.4
variable zhi1      equal ${zzlo}+115.5
variable zhi1      equal 0.0128352418400019+115.5
variable zhi2      equal ${zzlo}+121
variable zhi2      equal 0.0128352418400019+121

# heat layers

region          hot  block  INF INF INF INF ${zlo1} ${zlo2}
region          hot  block  INF INF INF INF 2.71283524184 ${zlo2}
region          hot  block  INF INF INF INF 2.71283524184 8.41283524184
region          cold block INF INF INF INF ${zhi1} ${zhi2}
region          cold block INF INF INF INF 115.51283524184 ${zhi2}
region          cold block INF INF INF INF 115.51283524184 121.01283524184
compute         Thot all temp/region hot
compute         Tcold all temp/region cold


# 1st equilibration run
fix             1 all nvt temp ${TEMP} ${TEMP} 50
fix             1 all nvt temp 300 ${TEMP} 50
fix             1 all nvt temp 300 300 50
thermo          100
run             8000
Neighbor list info ...
  update every 1 steps, delay 0 steps, check yes
  max neighbors/atom: 2000, page size: 100000
  master list distance cutoff = 16
  ghost atom cutoff = 16
  binsize = 8, bins = 100 100 16
  1 neighbor lists, perpetual/occasional/extra = 1 0 0
  (1) pair lj/cut, perpetual
      attributes: half, newton on
      pair build: half/bin/newton
      stencil: half/bin/3d/newton
      bin: standard
Per MPI rank memory allocation (min/avg/max) = 9.689 | 9.689 | 9.689 Mbytes
Step Temp E_pair E_mol TotEng Press Volume 
   20000            0    2361.5478    8035.3217     10396.87    -9.355847     79316447 
   20100    214.25459    2352.5069    8001.9975    10479.042   -9.2449667     79316447 
   20200    288.56957    2309.2196    8114.8504    10591.803   -9.5365414     79316447 
   20300    311.61627    2376.9422    8036.4823    10594.554   -9.1851478     79316447 
   20400    274.09992    2315.5636    8089.7645    10564.651   -9.5207449     79316447 
   20500    328.73444    2384.6988     8036.023    10611.801   -9.1078563     79316447 
   20600    295.07963    2350.5971    8050.7303    10572.845   -9.3767927     79316447 
   20700    284.12194    2339.2767    8085.8556     10590.28   -9.4074498     79316447 
   20800    297.34306    2347.2781    8072.6536    10592.765   -9.5029107     79316447 
   20900    306.11071    2352.2402    8043.4396    10573.609   -9.4225651     79316447 
   21000     300.5324    2359.4024    8070.8407     10604.93   -9.2665388     79316447 
   21100    314.66411    2336.1703    8070.4889     10589.56   -9.4677423     79316447 
   21200    286.35215    2378.3092    8027.1659     10571.92   -9.3414016     79316447 
   21300    295.73653    2376.3414    8057.3798     10605.62    -9.328333     79316447 
   21400    273.12645    2355.5259    8065.5413    10579.824   -9.3940118     79316447 
   21500    292.69954    2359.7512     8050.964    10580.849   -9.3463399     79316447 
   21600    304.81615     2312.726    8090.5529    10580.456   -9.6355163     79316447 
   21700    298.01106    2369.7435    8051.2492    10594.214   -9.1315075     79316447 
   21800    290.59764    2334.2627    8088.3437    10591.519   -9.6129804     79316447 
   21900    296.44629    2392.5005    8015.9157    10580.728   -9.1492938     79316447 
   22000    288.44538    2354.9879     8066.624    10589.273   -9.4916464     79316447 
   22100    262.37966    2355.2478    8029.4372    10537.195   -9.3277813     79316447 
   22200    301.62793    2343.6399    8062.3004    10581.264   -9.2316506     79316447 
   22300    287.07737    2358.2006    8071.3837     10596.45   -9.3270147     79316447 
   22400    282.71388    2404.7381    8000.7904    10569.858   -9.0681459     79316447 
   22500    319.02482    2325.1652    8092.9017    10603.503   -9.6020572     79316447 
   22600    291.12895    2403.2935    8000.4636    10572.978   -9.1605902     79316447 
   22700    332.39022    2373.9359    8046.2869    10613.427    -9.291927     79316447 
   22800    294.91351    2374.7128    8034.5252    10580.659   -9.4035398     79316447 
   22900    314.01836    2349.1168    8049.5838    10581.226   -9.4554333     79316447 
   23000     308.9144    2387.5553    8038.6877    10605.802   -9.2326914     79316447 
   23100    294.66959    2296.3757    8105.1689    10572.824   -9.7957093     79316447 
   23200    311.18767    2406.5487    8023.0861    10610.515   -8.9102693     79316447 
   23300    298.07766    2351.6878    8059.8684    10584.816   -9.5559752     79316447 
   23400    302.25354    2364.4688    8044.9397    10585.096   -9.2279063     79316447 
   23500    327.35967    2352.7443    8069.9945    10613.019   -9.3761787     79316447 
   23600    292.57661    2347.2639    8061.6694    10578.996    -9.295257     79316447 
   23700    320.22908    2368.2652    8061.4626    10615.864   -9.2299221     79316447 
   23800    287.34393    2302.9981    8107.9937    10578.013   -9.6468674     79316447 
   23900    307.69049    2433.4291    7986.0741    10598.351   -8.9781689     79316447 
   24000    269.67607    2321.0188    8097.8601     10575.63   -9.6977976     79316447 
   24100    310.47865    2391.8537    8017.0477    10589.369   -9.2047488     79316447 
   24200    293.41631    2361.3841    8050.2825    10582.217   -9.5032015     79316447 
   24300    299.63635    2362.9613    8046.1515    10583.279   -9.3487861     79316447 
   24400    292.62765    2331.5209    8071.0339    10572.647   -9.5714037     79316447 
   24500    294.41451    2374.1481    8026.8996    10572.178   -9.1787408     79316447 
   24600    338.35841    2318.2353    8074.7042    10589.613   -9.5574484     79316447 
   24700    269.93816    2392.0938    7999.7467    10548.744   -9.2392673     79316447 
   24800    297.12317       2363.4    8045.4505    10581.556   -9.3781343     79316447 
   24900    301.53536    2353.2677    8057.2629      10585.8   -9.3737589     79316447 
   25000    282.13613     2356.049    8049.4443    10569.487   -9.3311888     79316447 
   25100    314.10982    2341.0842    8070.5298    10594.193   -9.3587186     79316447 
   25200    277.66544    2353.2624    8054.0677    10568.725   -9.3462976     79316447 
   25300    282.40646    2350.8202    8069.9679    10584.939   -9.2910648     79316447 
   25400    308.01868    2348.3289     8069.733      10597.1   -9.2598713     79316447 
   25500    280.13667    2362.1317     8053.698    10578.661   -9.2406281     79316447 
   25600     292.9789    2380.0961    8048.4046    10598.797   -9.2203637     79316447 
   25700    278.39447    2368.3505    8049.5707     10579.74   -9.3839357     79316447 
   25800    295.34732      2315.35     8099.678    10586.701   -9.6688157     79316447 
   25900    278.62916    2383.7904    8047.7046     10593.45   -9.0752021     79316447 
   26000    298.58946    2360.0759    8058.9735    10592.607   -9.3104108     79316447 
   26100    292.57353    2353.6667    8054.5927     10578.32   -9.5252589     79316447 
   26200    304.36695    2341.8809    8075.5402    10594.337   -9.4176364     79316447 
   26300    299.18668    2357.7071    8059.5431    10591.155   -9.2522266     79316447 
   26400    274.11508    2325.8605    8078.3294    10563.521   -9.6664884     79316447 
   26500     327.8501    2399.1437    8011.5143    10601.223   -9.0391576     79316447 
   26600    305.58871    2324.9401    8070.5512    10573.117   -9.5197878     79316447 
   26700    315.73978    2368.0054    8044.5806    10596.112    -9.252459     79316447 
   26800    283.15785    2329.3342    8099.3015    10593.223   -9.2614003     79316447 
   26900    270.41119    2322.2933    8093.7946    10573.266   -9.4846059     79316447 
   27000    311.48401    2374.9511    8052.7607    10608.764   -9.4400258     79316447 
   27100    276.95193    2355.5446    8056.6399    10573.165   -9.3674481     79316447 
   27200    341.43501    2366.2348    8037.6757    10602.372   -9.2987165     79316447 
   27300     246.8212    2360.7346    8059.8396    10564.041   -9.2203373     79316447 
   27400    262.56317    2352.3724    8081.3081    10586.297   -9.4245727     79316447 
   27500    293.89531    2334.8906    8085.5867    10591.306   -9.2864512     79316447 
   27600    286.76295    2313.1686    8082.6151    10562.467   -9.4878647     79316447 
   27700    289.87024    2371.0334     8058.696    10598.219   -9.3368178     79316447 
   27800    274.90575    2380.5236     8027.181    10567.496   -9.2039648     79316447 
   27900    333.61604    2321.9654     8083.222    10599.104   -9.5647349     79316447 
   28000     311.6658    2346.1035    8053.6764    10580.938   -9.3721644     79316447 
Loop time of 2.09 on 1 procs for 8000 steps with 196 atoms

Performance: 413.398 ns/day, 0.058 hours/ns, 3827.759 timesteps/s
100.0% CPU use with 1 MPI tasks x no OpenMP threads

MPI task timing breakdown:
Section |  min time  |  avg time  |  max time  |%varavg| %total
---------------------------------------------------------------
Pair    | 0.79239    | 0.79239    | 0.79239    |   0.0 | 37.91
Bond    | 1.2024     | 1.2024     | 1.2024     |   0.0 | 57.53
Neigh   | 0.0098133  | 0.0098133  | 0.0098133  |   0.0 |  0.47
Comm    | 0.0050061  | 0.0050061  | 0.0050061  |   0.0 |  0.24
Output  | 0.0018303  | 0.0018303  | 0.0018303  |   0.0 |  0.09
Modify  | 0.064573   | 0.064573   | 0.064573   |   0.0 |  3.09
Other   |            | 0.01399    |            |       |  0.67

Nlocal:    196 ave 196 max 196 min
Histogram: 1 0 0 0 0 0 0 0 0 0
Nghost:    0 ave 0 max 0 min
Histogram: 1 0 0 0 0 0 0 0 0 0
Neighs:    3909 ave 3909 max 3909 min
Histogram: 1 0 0 0 0 0 0 0 0 0

Total # of neighbors = 3909
Ave neighs/atom = 19.9439
Ave special neighs/atom = 5.87755
Neighbor list builds = 20
Dangerous builds = 0
velocity        all scale ${TEMP}
velocity        all scale 300
unfix           1

# Second Equilibration
fix             1 all nve
fix             hot all langevin ${TThi} ${TThi}  50.0 599804  tally yes
fix             hot all langevin 320 ${TThi}  50.0 599804  tally yes
fix             hot all langevin 320 320  50.0 599804  tally yes
fix             cold all langevin ${TTlo} ${TTlo} 50.0 27859 tally yes
fix             cold all langevin 280 ${TTlo} 50.0 27859 tally yes
fix             cold all langevin 280 280 50.0 27859 tally yes
fix_modify      hot temp Thot
fix_modify      cold temp Tcold


variable        tdiff equal c_Thot-c_Tcold
thermo_style    custom step c_Thot c_Tcold f_hot f_cold v_tdiff
thermo          4000
run             1600000
Per MPI rank memory allocation (min/avg/max) = 10.44 | 10.44 | 10.44 Mbytes
Step c_Thot c_Tcold f_hot f_cold v_tdiff 
   28000    341.07851    429.27633           -0           -0   -88.197819 
   32000    323.00874    283.62265   -29.098882    24.759701     39.38609 
   36000    326.80195    287.88459   -61.334251    54.922425    38.917368 
   40000    338.06847    266.90772   -92.979261     75.18486    71.160742 
   44000    260.92769    371.52248   -90.502099    70.270778    -110.5948 
   48000    271.78237    428.11796   -120.09465    131.50614   -156.33559 
   52000    264.21259     375.9741   -142.02192    166.26158   -111.76151 
   56000    240.28487    212.57704   -156.44618    166.63762    27.707833 
   60000    361.44608    340.14913   -173.55566    187.62098    21.296952 
   64000    499.23288    214.28388   -207.55778    219.74507    284.94899 
   68000    225.87904    417.73822    -217.2318    232.35863   -191.85917 
   72000    392.92753    193.82725    -260.6799    264.03061    199.10029 
   76000    310.58466    418.75125   -267.81097    291.54173   -108.16658 
   80000    276.69189    209.53262   -287.10553    320.11328    67.159271 
   84000    327.45705    428.70275   -305.64032    324.91476    -101.2457 
   88000    226.96995    309.93862   -321.95579    344.76852   -82.968677 
   92000    280.70337    396.30391   -331.84089    360.98695   -115.60053 
   96000    281.91289      241.114   -355.65405    379.96338    40.798898 
  100000    317.21869    439.08996   -388.14854    376.78216   -121.87127 
  104000    261.16439    252.83185   -409.86301    406.82464    8.3325414 
  108000    279.66747    575.33386   -418.19969    438.76573   -295.66639 
  112000    271.12373     312.5503   -450.02311    475.98558   -41.426571 
  116000    205.15068    175.79528   -453.81415    487.23497    29.355398 
  120000    520.82317    302.38877   -480.04099    500.26232     218.4344 
  124000    296.62573     415.9513   -509.06697    529.95959   -119.32557 
  128000    306.36178     400.0108   -506.28948    533.37134   -93.649021 
  132000    420.95626    361.77858   -542.68824    528.74228    59.177682 
  136000    448.15365    323.06979   -550.53479    555.79784    125.08387 
  140000    485.80151    488.06384   -575.51322    591.89417   -2.2623262 
  144000    224.48722    134.63018   -604.39759    595.54773    89.857036 
  148000    260.58844    430.10632   -602.98784    599.80096   -169.51788 
  152000     236.4717    239.27913   -602.55501    624.78358    -2.807431 
  156000    377.83573    318.27291   -642.84056    643.59141    59.562811 
  160000    346.76056    413.18377    -642.5867     662.4604   -66.423213 
  164000    511.32216    212.04273   -685.22046    685.54762    299.27944 
  168000    292.19042    189.06052    -710.3381    718.62256     103.1299 
  172000    287.66364    331.36861   -726.44385    729.84857    -43.70497 
  176000    330.34401    547.64362   -715.99572    747.87828   -217.29961 
  180000    339.43826    561.23099   -752.08762    782.20807   -221.79273 
  184000    319.88581    247.41819   -767.19296    782.13667    72.467621 
  188000      316.642    457.05804   -804.03708    806.48742   -140.41604 
  192000    530.75923    263.98073   -823.77117     817.3687     266.7785 
  196000    413.80135    337.74613   -858.92467    867.19549    76.055218 
  200000    232.58875    343.60255   -897.02503    896.19151   -111.01379 
  204000    345.31895     405.9634   -887.91343    900.57308   -60.644451 
  208000    551.60167    277.47751   -922.35832     916.1524    274.12416 
  212000    255.63234    536.37614   -915.88972    904.48403    -280.7438 
  216000    397.96741    471.28133   -918.48082    930.16671    -73.31392 
  220000    308.89038    351.85389   -937.71335    968.46086   -42.963502 
  224000    353.53778    313.27091   -984.02844    977.53431    40.266868 
  228000    373.60665     290.0182   -990.15504    1038.3084    83.588446 
  232000    223.62137    173.13731   -1000.8855     1035.555    50.484059 
  236000    553.67844    280.08997   -1007.2911    1051.8611    273.58847 
  240000    405.98402    300.64894   -1049.7899    1071.1675    105.33508 
  244000    246.09881    326.42124   -1073.6784    1080.6402   -80.322428 
  248000    172.56132    292.56201   -1096.3795    1094.4843   -120.00069 
  252000    485.83157    166.58015   -1139.0885    1126.6559    319.25142 
  256000     342.1421    489.12925   -1191.8973    1179.0506   -146.98715 
  260000    244.71952    327.14552   -1188.3487    1194.1393   -82.425999 
  264000    429.71082    279.71234   -1197.8047    1222.0026    149.99848 
  268000    504.42306    306.54253   -1206.6878     1222.388    197.88053 
  272000    255.69154    284.39576    -1224.389     1216.742   -28.704221 
  276000    252.80877    351.00784   -1241.9036    1270.4532   -98.199079 
  280000     300.0613     224.3108   -1266.9444    1286.4176      75.7505 
  284000    247.61372    337.07355   -1278.4108    1317.0496   -89.459824 
  288000    286.53909    157.17837    -1333.652    1351.4641    129.36073 
  292000    345.18366    199.86946    -1355.859    1360.4983     145.3142 
  296000    332.12073    279.68626   -1391.0476    1401.1824    52.434468 
  300000    280.04977     414.8178   -1423.5393    1439.5526   -134.76803 
  304000    296.84863    282.96907   -1454.9851    1476.3016    13.879567 
  308000     454.9289    485.15195   -1487.9895    1504.5221   -30.223055 
  312000    427.98938    195.80589   -1497.3661    1515.4146    232.18349 
  316000    342.27924    338.85969   -1502.1147    1520.5619    3.4195549 
  320000    325.53433    347.32867   -1548.2193    1529.2884   -21.794341 
  324000    316.61719    278.54276   -1565.2195    1572.0824    38.074424 
  328000    457.10052    358.33514   -1581.7835    1582.6907    98.765386 
  332000    538.11133    222.17495    -1597.992    1609.8598    315.93638 
  336000    423.86594    279.01749   -1595.7053    1629.7238    144.84845 
  340000    272.41625    239.11597   -1628.5395    1640.4889    33.300276 
  344000    418.65146    396.56452   -1652.6632    1669.4547    22.086938 
  348000    540.99799    138.42993   -1688.2181    1705.5835    402.56806 
  352000    344.36539    324.77839   -1703.2295    1713.0669    19.587001 
  356000     245.8135    373.41904   -1731.3498    1757.1246   -127.60553 
  360000    234.71783    274.15736   -1732.5454    1776.2753   -39.439535 
  364000     427.7741    218.04567   -1764.6906    1803.7605    209.72843 
  368000    315.36357    235.86166   -1808.0392    1823.1354    79.501914 
  372000    383.98875    255.87242   -1830.3976     1841.103    128.11633 
  376000     386.5349    506.73681   -1864.4378    1872.7622   -120.20191 
  380000    452.08011      256.191   -1898.2807    1899.3145    195.88911 
  384000    304.13581    328.04357    -1906.322    1929.6741   -23.907761 
  388000    525.97217    416.52194   -1913.9009    1915.0139    109.45022 
  392000    352.25267    228.30389   -1926.1281    1938.6964    123.94878 
  396000    305.51944    215.96082   -1959.6326    1977.8117    89.558627 
  400000    293.42068    238.60864   -1963.8769    1987.5567    54.812038 
  404000    310.45513     386.1381   -1983.9027    2006.9962   -75.682969 
  408000    410.47836    275.79071   -1992.6665    2037.3506    134.68765 
  412000    505.70414     250.1948   -2024.3285    2048.5881    255.50934 
  416000    282.89864    309.39456   -2026.9461    2056.1666   -26.495916 
  420000    449.56495    404.81112   -2084.5422     2076.091     44.75383 
  424000    342.38102    293.00022   -2096.3345    2107.8807    49.380791 
  428000    329.79788    360.94171   -2087.4508    2115.7829   -31.143826 
  432000    278.14962    289.54291   -2117.2867    2116.9999   -11.393291 
  436000     231.0982    291.61305   -2140.3371    2150.4283    -60.51485 
  440000    459.50148    319.28413    -2156.982    2166.2218    140.21736 
  444000    238.07839    378.52562   -2165.0782    2193.4084   -140.44723 
  448000    301.81931    170.41396   -2190.7319    2205.0917    131.40535 
  452000    326.30583    520.88022   -2214.2903    2230.6809   -194.57439 
  456000    582.39517    297.04495   -2216.3954    2239.1033    285.35022 
  460000    246.53778    235.79797   -2246.5284    2269.3796    10.739805 
  464000     404.5363    258.78511   -2242.9292    2263.3584    145.75119 
  468000    241.57098    188.44702   -2270.1357    2287.9457    53.123966 
  472000    405.99118    202.12429   -2320.0965    2319.0965    203.86688 
  476000    270.17229    448.77586   -2342.8185    2349.9182   -178.60356 
  480000    412.32663    353.10442   -2335.4854    2368.8082    59.222201 
  484000    171.67573    293.35859   -2353.9825    2403.8672   -121.68286 
  488000    398.51728    222.54084   -2391.0187    2405.3126    175.97643 
  492000    237.25478    350.54499   -2435.8276    2446.2753   -113.29021 
  496000    407.05127    212.83591   -2443.4446     2448.437    194.21537 
  500000    200.23219    284.76955   -2433.2768    2457.2814   -84.537358 
  504000    337.76884    618.70673   -2437.2012    2462.2363   -280.93789 
  508000    337.80469    198.87747    -2467.248    2480.5676    138.92721 
  512000    547.81306    435.53887   -2489.3298    2498.2417    112.27419 
  516000    408.00888    400.35674   -2532.0633    2508.5105    7.6521416 
  520000    580.57741    282.09833   -2522.1207    2544.0244    298.47908 
  524000    333.32311    365.18584   -2533.8356    2534.6747   -31.862735 
  528000    459.04134    339.98866    -2538.017     2554.679    119.05268 
  532000    340.98768    472.00397   -2550.8285    2576.2404   -131.01628 
  536000    360.99397    366.98834   -2563.4225    2588.1009   -5.9943615 
  540000    420.99416    520.26276     -2593.99    2599.0469   -99.268607 
  544000    254.92981    280.81222    -2605.194    2605.7498   -25.882412 
  548000     480.7314    261.23443   -2641.8764    2646.7404    219.49697 
  552000     198.3345    375.65084   -2660.4259    2668.1678   -177.31634 
  556000    490.50933    290.95254   -2694.0739    2722.5611    199.55678 
  560000    189.98696    301.38061   -2714.3707    2728.1874   -111.39366 
  564000    256.19392    277.37746   -2732.5132    2755.1452   -21.183545 
  568000    312.95857    249.03919   -2742.4705    2762.1054    63.919379 
  572000    427.42952    207.10093   -2740.0888     2768.966    220.32859 
  576000    453.50252    174.97387   -2759.3969    2798.3311    278.52865 
  580000    296.13814     306.2448   -2775.6143    2794.6127   -10.106664 
  584000      295.245    191.31373   -2798.4933    2809.1144    103.93128 
  588000    337.58111    244.05896   -2803.2907     2830.143    93.522142 
  592000    339.77484    253.32584   -2824.4348    2833.6627    86.449001 
  596000    327.90145    487.94669   -2823.4406    2828.3408   -160.04524 
  600000    284.57859    249.62639    -2840.588    2861.9776    34.952201 
  604000    417.54786    247.74902   -2883.7263    2904.1213    169.79884 
  608000    451.99301     216.4434   -2882.7603    2914.0796    235.54961 
  612000    304.45909    180.94575   -2915.1691     2898.578    123.51335 
  616000    237.54273    304.90239   -2962.5739    2954.6703   -67.359658 
  620000     613.4743    275.90782   -2975.7089    2986.1909    337.56648 
  624000    297.82298    290.69256   -2976.8545    2988.7024    7.1304158 
  628000     552.3138    356.00922   -3013.6218    2990.8345    196.30458 
  632000    382.54268    377.43438   -3013.0119    3027.0426    5.1083047 
  636000     461.5998    412.29811   -3051.5124    3064.4708    49.301693 
  640000    428.42169    212.96721   -3059.2885     3078.129    215.45449 
  644000    332.16718    148.30777   -3084.5377    3116.8077    183.85941 
  648000    292.78522    332.70923    -3108.582    3123.4129   -39.924009 
  652000    416.19195    366.61159   -3114.8912    3149.0577    49.580357 
  656000    258.32599    324.39557    -3143.494    3152.5958   -66.069576 
  660000    455.11648    199.22576   -3152.1282    3173.4852    255.89071 
  664000     359.7428    321.63304   -3195.1283    3192.0383    38.109765 
  668000    288.67813    303.18335   -3215.2749    3227.1071   -14.505218 
  672000    445.50044    284.08501   -3257.8572    3273.2789    161.41543 
  676000    535.28434    216.14077   -3303.2078    3293.7487    319.14357 
  680000    414.26599    529.45724   -3284.9035    3317.0255   -115.19124 
  684000    357.67375    408.62276   -3297.4355    3333.0094   -50.949011 
  688000    585.78028    330.46684   -3313.6563    3344.8072    255.31344 
  692000    459.56711      275.182   -3332.4203    3324.4203    184.38511 
  696000    320.40379    239.02298   -3357.7615    3366.7282    81.380811 
  700000     199.2578    298.18297   -3360.4914    3362.8581    -98.92517 
  704000    583.40257    493.18297   -3360.8639    3383.7535      90.2196 
  708000     379.6956    248.11167   -3382.4682    3399.7563    131.58394 
  712000    391.73456    522.67771   -3396.7038    3406.6157   -130.94315 
  716000    241.78924    277.47989   -3402.1514    3447.2257   -35.690644 
  720000    390.59397    254.14761   -3430.0355    3451.9992    136.44636 
  724000    273.12342    297.90465   -3459.9439    3465.2909   -24.781225 
  728000    471.01122    293.66095   -3497.8845    3499.7208    177.35026 
  732000    330.46231    330.62999   -3516.1228    3526.7171   -0.1676811 
  736000    289.00694     500.0596   -3550.1747    3538.5458   -211.05266 
  740000    372.71237    366.06518   -3551.3636    3569.3494    6.6471862 
  744000    293.02768    352.50773   -3555.5597    3585.6162   -59.480055 
  748000    389.84114    307.67672   -3614.0024    3618.4074    82.164416 
  752000    397.25052    152.35517   -3636.5547    3640.3306    244.89535 
  756000    413.83016    305.24891   -3652.9757    3654.6358    108.58125 
  760000    364.95099    286.04205   -3650.8794     3674.252    78.908938 
  764000    380.36386     199.1439   -3671.5733    3688.1438    181.21996 
  768000    287.56771    220.06306   -3691.0927    3696.6794    67.504655 
  772000    353.13865    294.85476   -3704.5028    3717.3671     58.28389 
  776000    324.86739    226.69983   -3748.5798     3749.731    98.167551 
  780000    587.25906    302.12031    -3756.089    3777.3764    285.13875 
  784000    405.16317    273.84176    -3778.155    3770.7877    131.32142 
  788000    337.76896    351.43572   -3789.3467    3797.3577   -13.666754 
  792000    354.53194    557.92171    -3819.446     3817.578   -203.38977 
  796000     285.6944    411.28328   -3837.1511    3830.2691   -125.58888 
  800000    325.26977    516.25313   -3835.3516    3825.3129   -190.98336 
  804000    236.91389      220.598   -3864.5026    3866.9931    16.315881 
  808000    393.90173    407.77557   -3869.8877    3893.7432   -13.873833 
  812000    409.46226    113.58727   -3893.1157    3907.4322      295.875 
  816000    451.65889    570.27379   -3945.1936    3955.0859    -118.6149 
  820000    580.78809    357.78789   -3972.0627    3965.6191     223.0002 
  824000    335.91009    256.77285   -3985.9298    3991.7286     79.13724 
  828000    492.97332    445.86218   -4003.8873    3993.1464    47.111145 
  832000    384.02441    235.79151   -4018.0691    4007.0743     148.2329 
  836000    296.35837    253.89913   -4027.3394    4035.1919     42.45924 
  840000    475.45467      341.469   -4056.0069     4058.376    133.98567 
  844000     339.7239    335.29285   -4072.7241    4097.0411    4.4310521 
  848000    576.74852    323.22256   -4088.2826    4108.3713    253.52597 
  852000    370.37111    329.99257   -4130.7902     4154.573    40.378533 
  856000    370.37035    263.64851   -4150.5452    4179.2237    106.72184 
  860000    427.49497    142.70822   -4175.1411    4192.0393    284.78676 
  864000    334.92327    300.28163   -4197.0468    4210.4676    34.641639 
  868000    453.07289    437.08453   -4220.3076    4218.8046    15.988355 
  872000    145.53902    431.28861   -4240.2388    4240.8311   -285.74959 
  876000    402.85248    159.45796   -4239.2926    4274.4259    243.39452 
  880000    384.12849    282.32354   -4283.8635    4305.9156    101.80495 
  884000    627.22215    266.52767   -4320.6215    4321.9683    360.69448 
  888000    324.30272    227.68388   -4331.7518    4352.7435    96.618842 
  892000    399.66028    363.90247   -4343.5966    4381.7063    35.757816 
  896000    343.81349    338.44859   -4389.2846    4402.9245    5.3648985 
  900000    210.08147    320.84807   -4395.5315    4437.4213   -110.76659 
  904000    287.12005    274.53148   -4403.1712    4421.9458    12.588571 
  908000    154.67359    274.83348   -4420.2991    4464.2012   -120.15989 
  912000    418.16979    314.21768   -4434.5687    4469.4065    103.95211 
  916000    412.05333    264.76855   -4475.7324    4487.9101    147.28478 
  920000    290.64639    310.36769   -4500.0911    4519.7901   -19.721306 
  924000    261.74874    413.51128   -4514.7955    4529.0168   -151.76254 
  928000     443.3139    198.84917   -4531.9517    4553.9394    244.46473 
  932000    554.33848     469.8419   -4541.8837    4549.0075    84.496583 
  936000    526.81195    466.36769   -4543.6267    4558.0587     60.44426 
  940000    205.79623    244.94805   -4571.8469    4599.1692   -39.151818 
  944000    411.90338    203.56479   -4601.6423    4628.2499    208.33859 
  948000    442.56242    170.79157   -4643.2145     4639.102    271.77085 
  952000    423.11235    277.96548   -4600.9104     4662.709    145.14687 
  956000    315.07283    482.02181   -4659.2304    4666.8922   -166.94897 
  960000     384.8256    281.13188   -4651.3023    4680.0587    103.69372 
  964000    609.52151    303.95324    -4687.403    4701.1701    305.56828 
  968000    475.30355     532.9866    -4713.774    4724.6019   -57.683049 
  972000      411.512    241.21047   -4733.3535    4756.5146    170.30153 
  976000    495.66894    179.81359   -4760.0647    4764.0435    315.85534 
  980000    317.90319     231.6135   -4772.4491    4762.0625    86.289691 
  984000    281.67594    550.33136   -4788.1774    4787.5427   -268.65542 
  988000    328.75746    293.52959   -4826.5908    4813.6568    35.227866 
  992000    485.22686     350.5278    -4848.037    4858.0348    134.69906 
  996000     449.8088    334.54159   -4860.6557    4875.6441    115.26722 
 1000000    383.15001    211.00163    -4861.014    4893.7746    172.14838 
 1004000    303.80177    233.26847   -4904.8681    4923.4082    70.533299 
 1008000    264.37233    375.88034   -4941.5957    4949.9357   -111.50801 
 1012000    343.77408     319.5365   -4949.6206    4994.9921    24.237577 
 1016000     300.4427    479.07985   -4983.7367    4991.5605   -178.63715 
 1020000    322.48615    296.17713   -4961.9372    4982.5938    26.309022 
 1024000    460.04536    187.40351    -5009.454    5017.9094    272.64185 
 1028000    371.43215    249.95515   -5000.5724    5019.6833      121.477 
 1032000    389.08107    295.28539   -5018.3468    5032.6577    93.795677 
 1036000     447.7691    437.35631   -5030.6334    5025.9213    10.412784 
 1040000     465.3821    304.63811   -5060.8747      5067.52    160.74398 
 1044000    366.23147     345.8428   -5077.7543    5106.2345    20.388667 
 1048000    437.53463    322.95245   -5084.6585    5098.6231    114.58218 
 1052000    443.83681    314.96164   -5112.5585    5143.5098    128.87517 
 1056000    372.22877    377.44599   -5127.9965    5149.9605   -5.2172125 
 1060000    277.80399    328.68842   -5179.3402    5190.0726    -50.88443 
 1064000    354.97114    314.99477   -5181.4408    5211.2603    39.976371 
 1068000     425.0464    168.06092   -5190.8815    5214.9912    256.98548 
 1072000    308.10124    241.94989   -5226.1059    5230.4667    66.151348 
 1076000     285.7328    269.82768   -5233.5615    5269.4423    15.905124 
 1080000    198.44829      422.437   -5252.9547    5269.8819   -223.98871 
 1084000    291.13528    308.09451   -5228.0116    5251.9812   -16.959231 
 1088000    417.51587    232.03397    -5262.232     5279.481     185.4819 
 1092000     294.6451    157.11171   -5271.6444    5292.9664    137.53339 
 1096000    365.47778    397.16272   -5303.5118    5308.5043   -31.684938 
 1100000     517.6008    259.28506   -5305.0585    5320.4444    258.31573 
 1104000    279.23888    432.95892   -5323.2487    5332.9657   -153.72005 
 1108000    273.79336    466.19028   -5358.8356    5344.9859   -192.39692 
 1112000    241.47979    410.95331   -5362.3611    5362.9185   -169.47352 
 1116000    228.22803    361.53849   -5389.9258    5384.0033   -133.31046 
 1120000     527.5754    529.84352   -5404.2453    5402.5537   -2.2681231 
 1124000    288.13118    437.13403    -5392.616    5421.5209   -149.00285 
 1128000    439.36589    333.17977   -5425.7222    5443.9545    106.18612 
 1132000    439.39175    299.77718   -5437.4083    5441.7203    139.61457 
 1136000    393.53928    265.43343   -5456.9471    5461.8133    128.10586 
 1140000    282.95697    261.62485   -5458.9772    5478.5092    21.332124 
 1144000    197.52749    322.55749   -5458.0127    5486.7614      -125.03 
 1148000     299.4529    322.38178   -5476.9355    5509.2901    -22.92888 
 1152000    265.09838    345.72911   -5498.5043     5538.736   -80.630732 
 1156000    368.74201    349.50948   -5531.8454    5558.7374    19.232527 
 1160000    475.03426    292.13817   -5555.6015    5566.3339    182.89608 
 1164000    304.97357     321.1718    -5567.703    5584.1226   -16.198235 
 1168000    500.45095    437.93455   -5577.9549     5586.512    62.516401 
 1172000    459.72715    502.32777   -5614.8663    5587.7717   -42.600621 
 1176000    191.40782    313.96535   -5611.2094    5626.6342   -122.55753 
 1180000    280.08765    255.23949   -5625.7738    5643.8136    24.848155 
 1184000     231.4353    295.78325   -5642.5545    5672.0569    -64.34795 
 1188000    327.33181    340.36441   -5669.0001    5692.8696   -13.032596 
 1192000    504.86995    309.72046   -5686.4736    5711.0412    195.14949 
 1196000    304.04192    459.55713   -5697.7312    5718.5586   -155.51521 
 1200000    401.17186    300.91341   -5731.3555    5737.3675    100.25845 
 1204000    451.99878    315.57942   -5746.9989    5762.7335    136.41936 
 1208000    432.56722    228.32674   -5735.3929    5767.6005    204.24048 
 1212000    207.70114    245.03681   -5788.2461    5782.7512   -37.335676 
 1216000    455.33298    411.12065   -5800.2316    5806.0639    44.212329 
 1220000    402.37396    212.97106   -5825.4596    5846.6995     189.4029 
 1224000    345.28487    416.61126   -5839.5193    5860.6321   -71.326389 
 1228000    434.34875    247.46613   -5870.8843    5878.1541    186.88261 
 1232000    420.37283    246.56989   -5867.7933    5869.7582    173.80295 
 1236000    365.96508    566.79534   -5864.7827     5870.695   -200.83026 
 1240000     208.1288    165.05452   -5862.4126    5869.1934    43.074283 
 1244000    350.49952    199.55583   -5871.2389    5859.6038    150.94369 
 1248000      481.104    279.94261   -5885.2123    5885.5485     201.1614 
 1252000    415.48138     253.1172   -5868.1387    5881.0285    162.36418 
 1256000    436.27146    146.84471   -5892.3893    5921.5539    289.42675 
 1260000     423.7532    322.62919   -5921.2712    5944.4691    101.12401 
 1264000    279.85916    324.66867   -5913.0084    5949.8039   -44.809509 
 1268000    302.72252    281.88318   -5939.7783    5966.4218    20.839337 
 1272000    374.18108    374.17015   -5943.1608    5970.2931  0.010927475 
 1276000    221.52761    223.03164   -5977.7017    5985.2116   -1.5040381 
 1280000     630.5384    304.94528   -6019.9006    5998.7244    325.59312 
 1284000    482.44735    336.23838   -6039.5095    6050.2928    146.20896 
 1288000    304.35414    376.71908   -6046.4721    6068.2545    -72.36494 
 1292000    277.69265    353.20568   -6072.8316    6106.9245   -75.513032 
 1296000    290.92612    197.64318   -6084.9569    6121.2958    93.282941 
 1300000    411.48474    187.23707   -6117.7864    6143.2724    224.24767 
 1304000    407.08882    368.37456   -6136.9755    6165.9426    38.714261 
 1308000    248.35742    398.75141   -6126.8543    6157.7183     -150.394 
 1312000    214.16858    368.45848   -6151.1008    6175.2364   -154.28989 
 1316000    430.71063     138.8346   -6159.6102    6168.2931    291.87603 
 1320000    401.84442    450.53273   -6147.3659    6176.3348   -48.688318 
 1324000    446.73861    289.33846   -6170.5772     6176.151    157.40015 
 1328000     408.4751     198.7098   -6207.9551    6194.5534    209.76529 
 1332000    376.36512    245.67371   -6219.4777    6229.6885    130.69141 
 1336000    457.43773    232.60667   -6209.6541    6252.4272    224.83106 
 1340000    267.39015    360.11627   -6221.9681    6236.1786   -92.726122 
 1344000    595.84929    358.67239   -6248.4415    6260.5857     237.1769 
 1348000     523.8076    251.15939   -6277.0926     6286.344     272.6482 
 1352000    221.08005    228.43208   -6266.1802    6312.5496   -7.3520372 
 1356000    414.63784    322.70133   -6293.3286    6328.9261    91.936503 
 1360000      427.921    425.31536   -6333.2741    6335.2209    2.6056399 
 1364000    306.62483    226.45284   -6358.5495    6362.1185    80.171987 
 1368000    219.76461    507.54522   -6371.7693    6375.9311   -287.78061 
 1372000    436.87274    266.29347   -6368.2047    6416.1373    170.57927 
 1376000    326.86583    440.19632   -6408.1051    6410.5217   -113.33049 
 1380000    184.58577    274.19707   -6427.6845    6420.2289   -89.611301 
 1384000    393.80769    256.93451   -6440.5873    6439.1668    136.87317 
 1388000     381.1976    275.42696   -6428.3472    6454.6697    105.77064 
 1392000    153.68798     367.5699   -6444.4564    6485.9378   -213.88192 
 1396000    315.34485    228.62167   -6478.7342    6494.2491    86.723179 
 1400000    319.06804    238.58128   -6480.7051    6502.3474     80.48676 
 1404000    433.39349    269.75283   -6510.8627    6528.5078    163.64066 
 1408000    419.36872    357.59819   -6525.9416    6543.6422    61.770532 
 1412000    189.65693    263.42904   -6554.2319    6566.8672    -73.77211 
 1416000    417.58082    284.90708   -6580.8875    6611.3776    132.67375 
 1420000     391.6088    247.53419   -6613.6073    6633.6652    144.07461 
 1424000    339.71369    444.59597   -6633.0821    6638.5496   -104.88228 
 1428000    314.91053    303.22899   -6657.4455    6663.5435    11.681539 
 1432000    615.95054    564.90382   -6681.5441    6689.4994    51.046718 
 1436000    442.62711    237.42337   -6709.5105    6733.2039    205.20374 
 1440000    242.61808    205.61225   -6714.8705    6728.6172    37.005831 
 1444000    416.79793    286.25812   -6731.8473    6762.9067    130.53981 
 1448000    406.49161    163.17806    -6752.291    6776.4499    243.31355 
 1452000    527.91946    244.42312   -6783.8706    6799.7665    283.49634 
 1456000    232.74792    142.10395   -6783.4582    6807.3737    90.643973 
 1460000    496.41591    391.81019    -6802.791    6807.9795    104.60573 
 1464000    292.02749    411.33738   -6817.9157    6821.8204   -119.30989 
 1468000    205.69193    291.68756   -6838.3013    6850.9037   -85.995635 
 1472000    260.35271    270.72121   -6864.4211     6870.901   -10.368501 
 1476000    462.28549    294.01199   -6885.1983    6900.5311     168.2735 
 1480000    316.90471    136.61546   -6895.5305    6921.4848    180.28924 
 1484000     356.9521    461.54236   -6934.0474     6938.325   -104.59027 
 1488000    317.34034    282.21938   -6971.3525    6996.7769     35.12096 
 1492000     335.2161    454.17346   -6987.2902    7005.7253   -118.95737 
 1496000    408.29744    536.85928   -7006.6745    7015.4332   -128.56184 
 1500000    358.95296    252.56317   -7034.4521    7037.7438     106.3898 
 1504000    347.28482    423.20146   -7016.6202    7049.1873   -75.916643 
 1508000    425.77847    239.28429   -7041.7629    7055.4832    186.49418 
 1512000    426.38893    185.02695    -7039.233    7108.0527    241.36199 
 1516000    312.49812    416.65072   -7090.2836    7114.0415   -104.15259 
 1520000     410.4719    299.98507   -7125.2098    7144.7343    110.48683 
 1524000    335.86341    308.62182   -7147.2422    7175.3944    27.241591 
 1528000    278.42815    304.61969   -7155.8153    7183.8453   -26.191538 
 1532000    476.41399    265.11408   -7191.8281    7221.1965     211.2999 
 1536000    293.64067    268.33417   -7208.3749    7226.3777    25.306494 
 1540000    334.20437    429.23211   -7258.1836    7259.4384   -95.027743 
 1544000    246.96961    330.27692   -7251.8598    7271.4156   -83.307311 
 1548000    239.75643    229.69231   -7288.3683    7296.7119    10.064125 
 1552000    452.93861    231.30086   -7270.8971    7307.2936    221.63775 
 1556000    336.13166    379.47001     -7285.39    7308.8297    -43.33835 
 1560000     333.5848    399.76029   -7306.2073    7322.4144   -66.175494 
 1564000    329.68866    160.35021   -7325.1555    7359.7913    169.33845 
 1568000    243.24242    597.20543   -7338.2472     7349.648   -353.96301 
 1572000    382.79553    225.18163   -7358.2938    7386.4409     157.6139 
 1576000    366.09425    289.65867   -7367.3928    7392.3427    76.435583 
 1580000    373.28305    290.90977    -7364.768    7392.3906    82.373282 
 1584000    434.97797    337.69947   -7424.1512    7443.3657      97.2785 
 1588000    494.34154    289.38006    -7444.608    7472.6412    204.96148 
 1592000    226.01825    405.02088   -7448.0119    7483.5685   -179.00262 
 1596000    312.01626    273.61164     -7490.28    7518.4678    38.404614 
 1600000    338.66409    291.04837   -7515.8724     7525.613    47.615725 
 1604000    375.49101     374.1278   -7541.9698    7546.2771    1.3632022 
 1608000     190.8296    414.33008   -7565.2621    7579.4697   -223.50048 
 1612000     396.3926    393.70212   -7605.9595    7598.7985    2.6904755 
 1616000    466.81874    324.53102   -7633.4735    7643.4887    142.28772 
 1620000     367.4614    473.30115   -7642.2353     7654.442   -105.83975 
 1624000    356.06644    424.13595   -7655.7232    7677.4202   -68.069507 
 1628000    320.67436    425.64451   -7667.8353    7695.2193   -104.97015 
Loop time of 507.317 on 1 procs for 1600000 steps with 196 atoms

Performance: 340.615 ns/day, 0.070 hours/ns, 3153.845 timesteps/s
100.0% CPU use with 1 MPI tasks x no OpenMP threads

MPI task timing breakdown:
Section |  min time  |  avg time  |  max time  |%varavg| %total
---------------------------------------------------------------
Pair    | 161.87     | 161.87     | 161.87     |   0.0 | 31.91
Bond    | 246.28     | 246.28     | 246.28     |   0.0 | 48.55
Neigh   | 2.5228     | 2.5228     | 2.5228     |   0.0 |  0.50
Comm    | 1.0908     | 1.0908     | 1.0908     |   0.0 |  0.22
Output  | 0.015028   | 0.015028   | 0.015028   |   0.0 |  0.00
Modify  | 92.626     | 92.626     | 92.626     |   0.0 | 18.26
Other   |            | 2.91       |            |       |  0.57

Nlocal:    196 ave 196 max 196 min
Histogram: 1 0 0 0 0 0 0 0 0 0
Nghost:    0 ave 0 max 0 min
Histogram: 1 0 0 0 0 0 0 0 0 0
Neighs:    3917 ave 3917 max 3917 min
Histogram: 1 0 0 0 0 0 0 0 0 0

Total # of neighbors = 3917
Ave neighs/atom = 19.9847
Ave special neighs/atom = 5.87755
Neighbor list builds = 5265
Dangerous builds = 0
unfix 1


# PRODUCTION

fix             1 all nve
fix             hot all langevin ${TThi} ${TThi}  50.0 52804  tally yes
fix             hot all langevin 320 ${TThi}  50.0 52804  tally yes
fix             hot all langevin 320 320  50.0 52804  tally yes
fix             cold all langevin ${TTlo} ${TTlo} 50.0 297859 tally yes
fix             cold all langevin 280 ${TTlo} 50.0 297859 tally yes
fix             cold all langevin 280 280 50.0 297859 tally yes
fix_modify      hot temp Thot
fix_modify      cold temp Tcold


variable        tdiff equal c_Thot-c_Tcold
thermo          4000

dump gigo all atom 40000 dump.cords_xyz.dat
dump_modify gigo scale no
dump vfgigo all custom 4000 dump.velo.dat id vx vy vz fx fy fz

# thermal conductivity calculation
# # reset langevin thermostats to zero energy accumulation
#
compute         ke all ke/atom
variable        temp atom c_ke/1.5/0.0019872

fix             ave all ave/time 100 40 4000 v_tdiff ave running
thermo_style    custom step temp c_Thot c_Tcold f_hot f_cold v_tdiff f_ave

#compute         layers all chunk/atom bin/1d z lower 0.05 units reduced
compute         layers all chunk/atom bin/1d z lower ${dz} units box
compute         layers all chunk/atom bin/1d z lower 4.131064790544 units box
fix             2 all ave/chunk  100 40 4000 layers v_temp file profile.langevin

dump mydump2 all xyz 40000 prod-coord.xyz
dump_modify mydump2 element C S S

run             32000000
Per MPI rank memory allocation (min/avg/max) = 11.82 | 11.82 | 11.82 Mbytes
Step Temp c_Thot c_Tcold f_hot f_cold v_tdiff f_ave 
 1628000    296.03568    320.67436    425.64451           -0           -0   -104.97015            0 
 1632000    275.94602     645.4079    315.60762   -29.280431    10.689746    329.80028    40.558468 
 1636000    273.62225    281.43613    262.22329   -36.482201     26.28074    19.212834    43.191911 
 1640000    277.41224    271.78706    318.17122   -51.163553    39.063752   -46.384163    39.126735 
 1644000    278.97233    260.69781    487.67209   -74.488122     57.41481   -226.97428    39.061906 
 1648000    303.35662    350.60772    337.16157   -93.590295    92.847913    13.446145    38.598474 
 1652000    297.45253    345.03635    471.07022   -105.46594    109.76153   -126.03387       44.143 
 1656000    286.37232    257.61456    264.73104   -149.70197    134.76796   -7.1164805    44.505185 
 1660000    292.11242    589.81419    372.86058   -148.70524    146.90807    216.95361    42.635958 
 1664000    266.09646    455.34204    243.76198   -158.76298    166.76301    211.58006    44.031213 
 1668000    259.14159    333.50361    301.27782   -162.93952    170.27946    32.225782    43.470759 
 1672000    301.60077    527.14416    266.70593   -181.51488    171.49954    260.43823    41.343988 
 1676000    265.30847    224.76852    209.23652   -175.31215    173.37868    15.531992    39.994508 
 1680000    294.56116    289.56165    221.73267   -192.48433    183.55344    67.828983     38.63587 
 1684000    284.59369    538.91753    216.39001   -215.16109    194.58389    322.52752    37.737244 
 1688000    268.24115    304.63535    471.09789   -248.71877    245.47828   -166.46254    35.796008 
 1692000    296.48259    392.82884    470.48554   -272.73488    261.86415     -77.6567    35.597479 
 1696000    267.92344    215.16477    352.23366   -262.86303    286.06147   -137.06889     37.69978 
 1700000    291.53834    367.91571    488.82886   -296.08409    286.76355   -120.91315    38.411301 
 1704000    253.98133    253.86155    290.52663   -303.97819    294.95776   -36.665078    39.500627 
 1708000    282.91697    386.81957    316.08986   -305.55866    298.04762     70.72971    39.199048 
 1712000    258.50469      347.613    341.16364   -321.50597    330.99849    6.4493625     37.16344 
 1716000    275.17312    567.14874    190.58228   -336.54534    363.36988    376.56646    36.910593 
 1720000    285.38957    369.88753    359.25436   -340.80125     343.8945    10.633166    36.051923 
 1724000     303.5269    480.61607    200.70046   -345.88008    336.11961    279.91562    36.682616 
 1728000     299.0864    318.52232    326.45604   -356.30583    342.98348   -7.9337182    36.143114 
 1732000    303.84657    480.07468    274.66303   -383.66628    371.44611    205.41165    36.596389 
 1736000    287.64088    473.33737    282.74118   -415.08417    404.08036     190.5962     36.60359 
 1740000    307.11964    404.89227    229.96229   -447.68143    411.68612    174.92998     37.34489 
 1744000     297.8362    188.18727    212.51788   -439.15178    424.65827    -24.33061    37.544331 
 1748000     272.5005    469.66131    248.42427   -468.46297    478.57559    221.23703    37.884025 
 1752000    277.56714    317.80279    232.99034    -469.9853    475.44882    84.812453     37.03243 
 1756000    276.34496    372.90955    295.80482   -505.92574    507.22881    77.104727    37.441537 
 1760000    283.72862    249.55823    172.14775   -519.39242    522.03187    77.410479    37.494092 
 1764000    270.45117    438.54107    231.22258   -546.05724    555.11693    207.31849    38.919654 
 1768000    287.58721    442.71309    505.71973   -581.11791    575.46957   -63.006636    38.507028 
 1772000    285.97239    278.30449    596.04751   -616.33088    600.88339   -317.74302     37.93886 
 1776000    290.59947    330.20087    252.01388   -625.98523     599.8523    78.186991    37.905149 
 1780000    274.08248    291.15756    319.67757   -636.18341    627.27091   -28.520001    37.191538 
 1784000    285.63326    351.28172    162.72269    -656.4005    649.37491    188.55902    37.249767 
 1788000    314.03085    300.87275    231.35557   -680.82613    649.67274     69.51718    37.922891 
 1792000    271.34505    325.82994     306.2732   -701.57784    693.51323    19.556741    38.284465 
 1796000    314.26764    334.99566    358.77694   -723.19422    704.30197   -23.781278    36.909005 
 1800000     285.7274    333.37161    239.34723   -747.69735    742.03655    94.024379    37.888027 
 1804000    330.83177    200.66204    345.97462   -779.41669    740.77985   -145.31258    37.366007 
 1808000    268.43014    283.08974    486.60427   -764.93705    767.32442   -203.51453    37.522261 
 1812000    290.13277    322.79655    250.97947   -794.90602    790.08026    71.817077    38.001212 
 1816000    288.62724    225.80873    365.76189   -823.56659     805.3792   -139.95315    37.823771 
 1820000    271.52138    358.92328    231.24945   -849.13355    821.54917    127.67383    37.890047 
 1824000    293.89133    215.02058    447.70297   -859.22673    849.28459   -232.68239    37.447511 
 1828000    305.62535    199.30398    435.30101   -887.82812    851.83277   -235.99703    37.811123 
 1832000     326.4475    596.65742    218.38708   -907.90833    871.98095    378.27034    37.727813 
 1836000    299.97365    347.95202    240.58888   -920.38753    911.21515    107.36314    37.446907 
 1840000    278.20705    343.74691    370.09428   -937.23265    937.46308   -26.347374    37.605026 
 1844000    283.99377     462.4193    228.20576   -967.01415    950.04053    234.21354    37.846017 
 1848000    243.27301    372.42593    359.67674   -962.28034     981.2888    12.749184    38.062772 
 1852000    280.87116    486.94261    278.42646   -991.83859    981.01944    208.51615    37.595377 
 1856000    266.67047    345.65004    254.20393   -986.07565    984.64011    91.446111    37.298136 
 1860000    286.40346    259.04245    410.41539   -979.25048    981.45934   -151.37294    37.208327 
 1864000    277.02308    328.00832    355.45783   -983.77318    976.22867   -27.449513    36.998477 
 1868000    308.85946     543.2254    406.04848   -1000.9356    997.84097    137.17692    37.168209 
 1872000    287.87578    208.67512    317.63179   -1033.6292    1016.6764   -108.95667    37.135443 
 1876000    285.46841    607.98368    357.97689   -1029.3241     1039.064     250.0068    37.121647 
 1880000    292.70748      427.626     346.6354   -1041.5344    1023.2596    80.990602    37.130009 
 1884000    290.32341    356.16316    481.17762    -1052.013    1028.3264   -125.01447    37.329985 
 1888000    286.46847    350.05082    250.15383   -1061.7624    1052.2981    99.896987    37.490492 
 1892000    286.90037    307.16735    375.78835   -1089.1717    1077.0436   -68.621007    37.593299 
 1896000    272.14988    429.92266    217.78806   -1123.8087    1091.1162     212.1346    37.580586 
 1900000    305.33631    313.49411    328.09643    -1137.651    1117.8614   -14.602325    37.673191 
 1904000    284.86992    231.27727    207.37935   -1178.7303    1163.5265    23.897917    37.207263 
 1908000     303.0897    374.34097    282.20779   -1183.8014     1175.938    92.133185     37.34352 
 1912000     310.0694    389.98476    318.47934   -1177.6501    1154.1733    71.505414     37.59539 
 1916000    303.42322    286.44707    325.61876   -1190.4912     1159.772   -39.171685    37.256323 
 1920000    308.91622    298.50993     370.3047   -1195.1216    1182.7679   -71.794773    37.434029 
 1924000    269.65955    301.14455    168.03039   -1205.7607     1210.182    133.11416    37.229761 
 1928000    307.89657    362.28307    339.13883   -1223.0938    1204.0407    23.144236    36.995159 
 1932000    274.73834    307.54926    332.42611    -1258.645    1240.4315   -24.876854    37.568104 
 1936000    272.90405    148.69284    295.05726   -1230.2366    1242.1279   -146.36442    37.453685 
 1940000    300.85705    277.25494    406.45487   -1265.1477     1243.006   -129.19993    37.774591 
 1944000    299.49193    381.97667    239.99506   -1289.7264    1261.6263    141.98161     38.16963 
 1948000     276.9234    482.37326    513.64664   -1299.5567    1296.6927   -31.273382    38.179614 
 1952000    277.74737    274.70218    329.62958   -1327.1256    1308.0884     -54.9274    38.969722 
 1956000    276.46292    274.18581    300.67409   -1340.4965    1343.6514   -26.488283    38.731959 
 1960000    303.07529    472.22553    339.04407   -1368.9089    1356.3987    133.18146    38.939409 
 1964000    298.31732    272.79899    413.98969   -1383.3108    1378.6824    -141.1907    38.897191 
 1968000    262.72197     392.6492    269.15093   -1407.0216    1409.9729    123.49827     38.72901 
 1972000      301.123    230.94385     527.7739   -1419.9546    1406.9362   -296.83005    38.612154 
 1976000    274.95257    258.88406    219.72675    -1442.411    1430.4028    39.157308    38.863213 
 1980000    263.20788    348.82122    345.28665   -1455.0668    1467.3183    3.5345655    38.908151 
 1984000    277.08777    449.71372    328.93679   -1466.3355    1470.1422    120.77692    39.124636 
 1988000    308.83635    559.08164    188.60187    -1465.507    1466.9563    370.47976    39.210085 
 1992000    299.59676    308.82218    256.24233   -1458.7513    1456.7836    52.579846    38.745758 
 1996000    269.55434    311.80204    374.78472   -1504.4451    1472.9652   -62.982678    38.360968 
 2000000    274.99569    409.53403    291.87239   -1546.0669    1553.2017    117.66165    38.803245 
 2004000    264.46122    366.10684    245.74456   -1569.1417    1563.7553    120.36227    38.931388 
 2008000    264.00814    296.08213    247.82361   -1575.6076    1583.2258    48.258517    38.882846 
 2012000    312.01972    577.11665    309.67215   -1615.7967    1592.6622     267.4445    38.938301 
 2016000    260.84663    282.57823    303.96036   -1587.5159    1591.6408   -21.382132    38.896055 
 2020000    269.85286     332.5494    223.86518   -1609.9202    1616.3636    108.68423    38.870918 
 2024000    343.70776    444.34982    315.86471   -1648.7452    1608.1971    128.48511    38.904064 
 2028000      289.689    352.93616    411.66498   -1636.5176    1625.5433   -58.728821    38.677344 
 2032000    295.51071    472.82206    514.62745   -1650.8969    1643.0053   -41.805388    38.894515 
 2036000    267.72495    430.02599    293.62896   -1674.1706    1653.9216    136.39703    39.032704 
 2040000    279.22405    502.59412    387.09257   -1685.0754    1682.7104    115.50155    39.154265 
 2044000    254.02891     372.3455     196.0227   -1687.6666    1700.4377     176.3228    39.166645 
 2048000     293.2746    385.58826    420.54468   -1708.3122     1717.737   -34.956423    38.931162 
 2052000    269.52349    404.20516    303.28384   -1730.8679    1752.0856    100.92132    38.897788 
 2056000    284.39972    505.12509    308.27326   -1780.5218     1776.942    196.85183    39.129867 
 2060000    288.38631    323.80997    316.30127   -1832.5157     1804.714    7.5087037    39.229646 
 2064000    290.01347    444.37252    353.54834   -1830.9754    1820.1921     90.82418    39.309753 
 2068000    256.51714     324.1135    267.68286   -1834.7149    1843.5329    56.430646     39.07103 
 2072000    283.90319     462.6741    391.51081    -1873.507    1860.7927    71.163291    38.935515 
 2076000    262.89305    280.78853    352.26668   -1884.5648    1886.5129   -71.478149    39.000055 
 2080000    269.74854    155.63926    184.66127   -1901.1904    1915.1102   -29.022008    39.113583 
 2084000    271.18788    332.41781    364.66425   -1935.3371    1948.0937   -32.246445    38.892587 
 2088000     288.6768    530.54733    184.19074   -1953.3639    1948.2408    346.35659    38.769358 
 2092000    268.61053    401.91235    206.52735   -1974.1066    1988.4774      195.385    38.626041 
 2096000    275.31838    210.86087    379.62596   -2004.7263     1995.563   -168.76508    38.469521 
 2100000    286.98069     250.6528    271.15608   -2040.3883    2052.2606   -20.503277    38.469972 
 2104000    286.30719    404.48945    377.25004   -2067.4825    2070.6067     27.23941    38.477981 
 2108000    287.35088     292.3986    294.61521   -2083.1737    2089.4526   -2.2166033    38.276732 
 2112000    305.99477     346.5079    504.76244   -2115.0955    2109.5272   -158.25454     38.13041 
 2116000    281.94621    335.92725    201.40006   -2149.8638    2143.8648    134.52718    38.046317 
 2120000    280.05548    355.25476    278.17672   -2165.5949     2151.062    77.078034    37.976183 
 2124000    295.19199    348.32627    434.17991   -2187.1829    2187.6651   -85.853646    38.238923 
 2128000    310.62894    235.47785    345.46707   -2216.3451    2215.5094   -109.98922    38.231445 
 2132000    283.29888    459.00561    406.39229   -2269.2942    2249.3685    52.613319    38.368805 
 2136000     273.0188    321.00184    181.09056   -2298.8517    2287.8407    139.91128     38.43143 
 2140000    266.56949      224.104    320.75514   -2336.5586     2349.601   -96.651143    38.282723 
 2144000    287.63925    351.98922    411.27453   -2370.4878    2343.3487   -59.285311     38.22984 
 2148000    287.58756    270.58313    508.30172    -2378.299    2369.3356   -237.71859    38.004622 
 2152000     240.6547    266.67804    262.76549    -2384.028    2411.6852      3.91255    38.117938 
 2156000    281.31054     313.6325    236.70415   -2406.6206    2393.4997    76.928349     38.19611 
 2160000    262.02918    385.50561    229.78284   -2413.5713    2430.1525    155.72278    38.149482 
 2164000    249.18519    272.52743    214.00148   -2412.4212    2448.4694     58.52595    38.313084 
 2168000    303.48238    332.78596    552.19934   -2431.9226    2428.2707   -219.41338    38.395117 
 2172000    277.50684    319.47623    363.68918   -2462.8769    2470.4028   -44.212951    38.303308 
 2176000    281.32406     192.0541    458.20854   -2512.1044    2502.3721   -266.15444    38.511936 
 2180000    304.82442    264.85532    324.13231   -2521.4815    2492.9046   -59.276991    38.331083 
 2184000    292.19091    435.79092     490.4627   -2526.3334    2526.8151   -54.671779    38.121281 
 2188000    273.08085    314.75964    317.42377   -2549.8959    2535.6397   -2.6641316     38.17982 
 2192000    275.40575    360.20208    299.09727   -2557.5876    2550.4436    61.104812    38.251079 
 2196000    284.23894    313.82199    363.69571   -2571.7671    2577.8873   -49.873722     38.12958 
 2200000    282.79397      581.289    205.08065   -2601.7719     2591.515    376.20834    38.126302 
 2204000    289.85767    366.92803    277.14469   -2617.4692    2599.8289    89.783341    37.886768 
 2208000    291.16579    263.05339    308.15975   -2647.1464    2637.1772   -45.106368    37.611956 
 2212000    272.72945    279.70855    180.69676   -2643.0111    2642.4289    99.011788    37.724299 
 2216000    296.37052    327.55009      287.257   -2649.1716    2652.5318     40.29309    37.787197 
 2220000     266.5602    358.70952    340.86831    -2658.594     2671.646    17.841207    37.795351 
 2224000    287.20262    234.32369    379.62689   -2675.8514    2678.7993    -145.3032    37.482032 
 2228000    307.65572    385.67827    249.80741   -2719.9422    2716.7081    135.87087    37.438425 
 2232000    286.33136    236.88834    462.61878    -2751.589    2730.7526   -225.73044    37.430109 
 2236000    284.43301    295.75497    249.37758    -2767.336    2763.7404     46.37739    37.506919 
 2240000    302.19522    289.78498    229.67121     -2811.68    2788.1643    60.113766    37.530128 
 2244000    260.31011     425.1564    264.99889   -2808.6689    2806.2608    160.15751    37.500386 
 2248000    262.95454    353.78554     226.5142   -2812.8837    2815.4621    127.27133    37.551271 
 2252000    288.96665    530.86709    367.30896   -2825.9197    2820.3001    163.55813    37.756421 
 2256000    301.42387    422.28865    337.77026   -2859.8136    2850.5276    84.518386    37.818496 
 2260000    282.80407    253.02294    342.34188   -2855.9693    2858.6632   -89.318938    37.838637 
 2264000    265.00315    412.57882    367.60702   -2908.5727    2895.6581    44.971802    37.960886 
 2268000    281.86869    379.52982    300.67043   -2896.3944     2889.852    78.859394    38.026752 
 2272000    298.04095    399.65582    155.20693   -2936.2947    2912.8456    244.44889    38.051301 
 2276000    280.13524    257.56554    407.80279   -2918.6034      2912.17   -150.23725    37.921148 
 2280000    291.42308    216.66766    345.06994   -2956.5015    2931.2938   -128.40228    37.929826 
 2284000    286.01909    699.43295    368.54854   -2984.5704    2981.9994    330.88441    38.236809 
 2288000    306.54144    511.00071    286.30443     -3000.39    2998.3983    224.69628    38.217549 
 2292000    295.04172     568.6335    272.67778    -3039.141    3039.1443    295.95572    38.199495 
 2296000    304.29324    758.25259    266.89918   -3059.1049    3037.6056    491.35342    38.511829 
 2300000    320.86159    521.19641    362.59975   -3093.8144    3051.3507    158.59666     38.61469 
 2304000    290.16133    395.16799    260.17887   -3089.5762    3070.7514    134.98912    38.604609 
 2308000    304.16444    329.41406    757.20701   -3114.6139    3104.1422   -427.79296    38.372038 
 2312000    272.91414    395.12234    204.33819   -3116.5751    3114.4918    190.78414    38.564289 
 2316000    291.67499    406.40251    219.70282   -3117.0339    3126.2485    186.69969    38.594389 
 2320000    304.34058    260.58131    324.38942   -3153.4828    3137.1056   -63.808104    38.552492 
 2324000    302.26635    365.40715    512.67805   -3177.5658     3148.902    -147.2709    38.548689 
 2328000    282.45351    327.18787    262.27286   -3175.6336    3166.7129    64.915016    38.519276 
 2332000    270.64337    346.54181     340.7246   -3192.9281    3200.1257    5.8172108    38.578706 
 2336000    275.62908    319.10801    242.08673    -3219.161    3226.4434     77.02128    38.690734 
 2340000     273.4276    422.86525     452.2676   -3249.8928    3258.0595   -29.402341    38.352427 
 2344000    287.04161    239.24278    290.98007   -3291.1342    3288.8135   -51.737299    38.501503 
 2348000    257.27153    427.41694    372.75799   -3286.7619     3304.646    54.658947    38.611448 
 2352000    279.27535    377.93796    280.64657   -3302.9264    3307.5151    97.291392    38.741543 
 2356000    274.95861    319.93932    532.17786   -3338.4712    3344.6209   -212.23854    38.762764 
 2360000    276.89303    197.19821    496.41713   -3363.5972    3350.4199   -299.21891    38.595531 
 2364000    296.89443    346.85323    298.02605   -3381.4163    3356.0198    48.827184    38.515187 
 2368000     289.7675     342.9171     363.2302   -3387.0866     3376.112    -20.31311    38.430765 
 2372000    315.34507    472.82874    341.21879   -3419.5207    3391.7358    131.60995    38.272608 
 2376000    280.88625    521.91655    318.41636    -3430.092    3425.4016    203.50019    38.329501 
 2380000    308.26011    469.94398     378.8351   -3468.8943    3452.5291    91.108879    38.385496 
 2384000    333.16741    407.03639    314.76654    -3471.432    3430.9372    92.269846     38.33061 
 2388000    277.19574    283.51429    338.73004    -3476.987    3473.4779   -55.215744    38.439027 
 2392000    277.02417    244.02698    297.58744   -3500.0312    3496.8252   -53.560451    38.463966 
 2396000    280.45915    435.79858    398.29758   -3515.4609     3509.235    37.501009    38.239917 
 2400000    274.37877    369.19442     403.8953   -3517.9167    3535.3043   -34.700883    38.203574 
 2404000    274.40238    373.64102      365.432   -3537.3273    3549.4826    8.2090247    38.068998 
 2408000    294.70519    444.85868    418.37568   -3562.4934    3559.9324    26.482994     38.09031 
 2412000    278.53969    451.02441    445.27986   -3595.3338    3570.5325    5.7445542    37.986395 
 2416000    291.21506    285.09253    445.88014   -3604.7886    3590.9279   -160.78762    38.036717 
 2420000    300.25794    317.82556    281.16627   -3629.9272    3606.5902    36.659288    38.053065 
 2424000    300.15856     227.9142    302.67924   -3638.1919    3615.3562   -74.765043     38.11446 
 2428000    283.74035    493.80762     466.8801   -3635.5213    3613.7481    26.927512    38.032417 
 2432000    285.78571    479.55565    510.25426   -3651.7138    3653.9015   -30.698614    38.023644 
 2436000    263.47896    289.48309    287.76275   -3651.8106    3656.3579    1.7203431    37.856264 
 2440000    278.24391    96.579938     339.4839   -3653.5516    3664.0456   -242.90396    37.692351 
 2444000    271.10479    334.69689      296.789   -3695.5589     3682.817    37.907885    37.837525 
 2448000    293.57936    330.62703    256.59213   -3713.6275    3695.9561    74.034906    37.948763 
 2452000    309.17578    312.01298    413.48329   -3743.0559    3727.4037    -101.4703    38.000402 
 2456000    306.10152    337.11807    220.99185   -3743.7417    3738.9292    116.12622    38.008826 
 2460000    289.06443     279.2969    377.28425   -3729.2611    3740.5248    -97.98735    38.149731 
 2464000    262.94203     470.5126    161.49026   -3779.8349    3789.7999    309.02234    38.288974 
 2468000    291.11521    279.26229    444.79677   -3798.0077    3792.4594   -165.53448    38.225049 
 2472000    274.14383    628.08858    269.26795   -3838.2945    3831.7449    358.82063    38.259132 
 2476000    272.05348    286.24209    534.26292   -3834.6807    3832.1761   -248.02083    38.277583 
 2480000    265.75344     382.7724    474.58181   -3820.7419    3825.3107   -91.809413    38.239922 
 2484000    258.16269    368.88621    182.80693   -3830.1485    3847.9714    186.07928    38.293066 
 2488000    283.14345    380.82858    340.98156   -3849.9378    3854.5031    39.847019    38.278376 
 2492000    289.30695    258.39502    315.21847   -3900.9981    3877.2279   -56.823452    38.278745 
 2496000    291.28575    344.15921    299.55597   -3911.0593    3899.5966    44.603239     38.40055 
 2500000    328.79433    540.63042    384.14722   -3930.5925    3919.5395    156.48321    38.482441 
 2504000    275.94792    413.18162    402.16297   -3949.2063    3940.4296    11.018651    38.490981 
 2508000    308.41135    337.44028    240.77938   -3975.1224    3944.8453      96.6609     38.24684 
 2512000    331.61818    389.59591    272.29804   -3996.7305    3960.8541    117.29786      38.4065 
 2516000    293.28903    534.14862    316.65764    -4000.528    4002.6151    217.49098    38.384289 
 2520000    294.61122    190.42542    288.97845   -4029.5239    3993.8829   -98.553028     38.31701 
 2524000    283.60614    296.97517    251.96222   -4021.2378    4029.5115    45.012953    38.220342 
 2528000    255.11891     229.2972    380.68198   -4052.7911    4073.4789   -151.38478    38.228836 
 2532000    266.35901    514.32905    211.68543   -4085.9632    4097.2226    302.64362    38.210602 
 2536000    270.02694    388.85012    288.84963   -4106.4606    4125.3758     100.0005    38.184675 
 2540000    262.42077    209.86529     252.5816   -4131.2386    4150.2821    -42.71631    38.017514 
 2544000    277.74645    466.19396    260.62963   -4164.5232    4162.2619    205.56432    38.116485 
 2548000    264.28827    333.88564    355.34986   -4190.0144    4192.9166   -21.464217    38.092674 
 2552000    277.79925    278.18336    248.58406   -4226.9569    4232.4444      29.5993     38.24045 
 2556000    268.36585    337.00873    217.46347   -4227.5657    4234.1603    119.54527    38.336738 
 2560000    278.45988      190.023    421.06004   -4250.4016    4243.6741   -231.03704    38.306867 
 2564000    281.15818    336.20677    264.26349   -4267.8946    4247.9064    71.943274    38.285758 
 2568000    272.12428    429.55608    425.72588   -4249.0638    4256.3227    3.8301958    38.394713 
 2572000    245.54724    279.88763    218.04258    -4287.356    4298.5599    61.845051    38.500306 
 2576000     302.0395    357.27936    258.85931   -4307.5641     4289.246    98.420046    38.524875 
 2580000    295.24467    641.90938    354.16741   -4331.4525    4321.5041    287.74197    38.773632 
 2584000    291.60686    362.67845    393.43629   -4357.9677    4354.4396   -30.757848    38.698958 
 2588000    281.67037    331.87343    134.25571   -4359.8854    4356.9164    197.61772    38.675048 
 2592000     273.5848    312.77032     198.7057   -4389.5245     4367.838    114.06462    38.722998 
 2596000    262.14921    437.36994     253.6687   -4393.3291    4391.0214    183.70124    38.758503 
 2600000     269.2653    320.48319    252.29217   -4400.2321    4404.8501    68.191023    38.787354 
 2604000    319.47225    451.51552    284.38196   -4458.8786    4423.5782    167.13356    38.898877 
 2608000    277.25871     404.7797    353.91506   -4463.6782    4449.1856    50.864645    38.806372 
 2612000    281.13945    370.70748    432.84708   -4493.2968    4487.0552     -62.1396    38.775931 
 2616000    276.60022    343.66029    322.51114   -4484.2276    4505.4257    21.149143     38.74156 
 2620000    281.84634    253.44557    328.15308   -4515.3038    4513.4768   -74.707506    38.674259 
 2624000     269.1532    439.53091    266.40419   -4545.0915    4551.1351    173.12672    38.684033 
 2628000    283.01717    298.92947     124.1279   -4568.0438    4565.4415    174.80157    38.813167 
 2632000    297.70362    298.81209    298.66434   -4584.9362    4559.5417   0.14775434    38.883239 
 2636000    290.52247    371.07773     341.1411   -4579.2141    4585.5489     29.93663    38.868493 
 2640000    285.63958    442.57523    152.34945   -4602.8175    4589.5474    290.22578    38.830566 
 2644000    272.00303    197.95118    392.76559   -4583.9022    4603.8203   -194.81441    38.705519 
 2648000    293.40284    304.34346    390.71203   -4613.1006     4599.394   -86.368574    38.640716 
 2652000    276.77995    236.04459    280.24425   -4627.2231    4621.0644   -44.199666    38.639728 
 2656000     254.1182    417.16619    370.83245   -4623.3859    4634.5658    46.333734     38.58533 
 2660000    290.10883    332.96677     259.6974   -4652.4529    4640.6308    73.269367    38.541645 
 2664000     259.5592    375.01448    266.51387   -4663.4612    4669.2656    108.50061    38.427761 
 2668000    307.71922    369.57081    340.27101   -4706.2223    4692.1522    29.299805    38.469059 
 2672000     298.9644    415.30922    306.10175   -4718.5234    4716.8791    109.20747    38.430724 
 2676000    278.75015    373.44552    212.32921   -4752.9503    4742.5914    161.11631    38.398894 
 2680000    260.80312    377.34111     277.8294   -4748.2595    4762.5363    99.511715    38.525079 
 2684000    280.91387    363.68479    319.93519   -4781.0108    4794.4665      43.7496    38.589434 
 2688000    262.98416    290.39011    353.08438   -4763.2621    4785.5162   -62.694268    38.596747 
 2692000    273.39226    284.06141     252.7855   -4811.1593    4799.4198     31.27591    38.417071 
 2696000    271.61342     417.4614    392.89123   -4836.6256     4837.562    24.570166    38.327409 
 2700000    288.36013    511.51705     653.0112   -4860.4721    4863.2594   -141.49415    38.296802 
 2704000    296.37345    322.60985    337.48775   -4867.6436    4863.2668   -14.877898     38.41673 
 2708000    284.53554    331.26001    367.04487    -4876.101     4870.089   -35.784859    38.525516 
 2712000    288.83075    349.46241    223.19587   -4879.0091    4875.9687    126.26654    38.507711 
 2716000    280.98353    553.36406    249.86318   -4907.9888    4918.8042    303.50088    38.489988 
 2720000    298.93901    246.81086    480.68592   -4925.7804    4907.8154   -233.87506    38.261538 
 2724000    273.92991    277.58667    286.81288   -4971.7554    4968.6486   -9.2262068    38.319555 
 2728000    294.37793    448.73608    354.49405   -4990.1975    4983.3235    94.242025     38.16152 
 2732000    285.77086    155.54052    294.65183   -4977.8235    4975.3453    -139.1113    38.128444 
 2736000    289.55833    222.75737    442.99796   -4972.8574    4968.7848   -220.24059    38.095949 
 2740000    272.29232    226.34347    332.94223   -4977.5924    4990.0288   -106.59876    38.106044 
 2744000    276.72809    483.47177    301.88286    -4997.369    4999.2076    181.58891    38.037991 
 2748000    318.69723    437.21085    404.37151   -5035.2838    5006.9776    32.839343    37.936774 
 2752000    282.33473    217.62733    248.96599   -5037.3827     5045.759   -31.338656    37.770933 
 2756000    310.19268    426.97556    349.91606   -5081.1556     5068.376    77.059505    37.754142 
 2760000    284.49237     238.5836    264.59363   -5096.1988    5095.9831   -26.010027    37.709534 
 2764000     258.6654     464.9496    228.35089   -5127.5847    5132.7096    236.59872    37.807486 
 2768000    277.45117    242.99302    482.84681   -5132.6173    5134.7982   -239.85379    37.764896 
 2772000    299.64497    484.16524    332.08179   -5152.6869    5144.8878    152.08345    37.876719 
 2776000    266.10104    364.68685    500.08089   -5159.8496    5146.0357   -135.39404    37.790121 
 2780000    273.65941    319.87235     213.7065   -5204.1613    5202.1632    106.16585    37.808345 
 2784000    278.31792    391.15192    259.53654   -5234.7146    5236.7049    131.61539    37.805996 
 2788000    306.93973    374.66307    304.03718    -5272.222    5273.5637    70.625887    37.825806 
 2792000    270.24071    455.74818    147.08315   -5319.2684    5315.8328    308.66502    37.761999 
 2796000     281.2329    325.06105    421.78856   -5323.6058    5332.0209   -96.727509    37.703549 
 2800000    268.77862    249.89991    287.11824    -5365.526    5373.8352   -37.218336    37.789304 
 2804000    294.05482     281.9339    456.04658    -5391.738    5386.1012   -174.11268    37.795908 
 2808000    294.82767    491.08447    313.81601   -5415.5926     5404.581    177.26846    37.811365 
 2812000    297.34541    329.48497    310.90505   -5403.1295     5394.657    18.579913    37.980098 
 2816000    304.30801    249.33877    378.29433   -5409.7623    5394.8581   -128.95556    37.875741 
 2820000    248.95269    327.86261    233.65855   -5426.3596    5436.7322    94.204061    37.899463 
 2824000    330.05448    326.58457    274.95402   -5472.0201    5449.3326    51.630554     37.97582 
 2828000    254.33744    315.85326    312.34803   -5481.3521    5499.8986    3.5052332    37.950943 
 2832000    278.76338    363.81102    194.53237   -5494.9354    5513.1107    169.27865    37.968248 
 2836000    280.76958    426.73201    184.75926   -5521.3702    5534.7724    241.97275    37.910935 
 2840000    269.88388    486.93828    371.56546   -5559.4208    5560.7199    115.37282    37.919018 
 2844000    272.28018    456.09059    338.10433   -5604.8367    5593.9529    117.98625    37.888244 
 2848000    281.25311    311.37836    232.63486   -5608.2694    5611.1228    78.743503    38.019669 
 2852000    284.81925    335.13997    541.69073   -5639.4616    5629.8264   -206.55077    37.941374 
 2856000    298.20111     267.5274    181.92753   -5653.3295    5650.6571    85.599869    38.017037 
 2860000    273.76281    456.28443    259.78259    -5676.925    5667.5673    196.50183    38.068429 
 2864000    313.43963    459.25309    288.82806   -5700.6482    5667.8515    170.42503    38.092506 
 2868000     287.0721    542.43027    423.98711   -5696.4034    5674.2187    118.44316    38.089109 
 2872000    296.48131    440.69857    340.77958   -5729.9905     5696.895    99.918992    38.182974 
 2876000    296.39066    441.70857    395.37471   -5733.7437    5715.4345    46.333853    38.196778 
 2880000    319.11241    293.48644    428.02222   -5772.4174    5738.1418   -134.53578    38.157278 
 2884000    266.17026    260.68791    476.51549   -5773.6911    5766.5448   -215.82758    38.170837 
 2888000    305.40776    273.21716    389.47154   -5790.9819    5791.1775   -116.25438    38.032384 
 2892000    297.21117    343.47598    356.13012   -5824.9426    5817.4643   -12.654134     37.95407 
 2896000    291.89778    633.38002    508.64436   -5840.5615     5836.723    124.73566    38.004316 
 2900000    271.30517    384.02043    305.09194   -5845.7434    5840.1926    78.928491    38.001596 
 2904000    309.22349    539.06401    297.89573   -5872.0022    5851.0025    241.16828    38.181569 
 2908000    303.79971    298.73279    288.95212   -5881.8928    5872.7139    9.7806768    38.240096 
 2912000    300.79445    347.66704    319.62585    -5896.127    5891.7653    28.041189    38.177533 
 2916000    269.23072     258.0994    235.10386   -5914.7359    5928.1197    22.995545    38.159461 
 2920000    256.26667    167.48583    507.99645   -5931.9775    5952.5585   -340.51063    38.220122 
 2924000    299.18119    315.60562    358.45247   -5971.6401    5960.6153   -42.846853    38.176323 
 2928000    295.11913    540.08634    394.21395   -5976.8294    5972.0491     145.8724    38.228745 
 2932000    297.09557    619.45438       270.15   -5979.9756    5976.2376    349.30438    38.185892 
 2936000    297.52258    380.65916    416.75512   -6017.4844    5982.5756   -36.095962    38.141605 
 2940000    288.26614    338.98702     334.9425   -6032.3054     6020.714    4.0445177     38.17758 
 2944000    262.56272    360.07418     325.3909   -6034.1806    6041.6767    34.683277    38.367763 
 2948000    270.99651    277.32855    256.72198   -6047.3326    6055.0398     20.60657    38.340719 
 2952000     268.7646    339.80936    333.32753    -6056.668    6081.0249    6.4818297     38.38217 
 2956000    284.86134    331.00893    343.25343   -6065.7449    6074.0067   -12.244492    38.367922 
 2960000      286.009    287.78975    205.69061   -6089.0413    6070.6957    82.099141    38.319794 
 2964000    277.66147    338.91205    399.36925   -6097.0921     6087.526   -60.457192    38.225832 
 2968000    278.64859     461.2426    293.02402   -6103.3842    6100.4996    168.21859     38.22206 
 2972000    289.27484    288.23113    169.79415   -6139.0096    6140.8159    118.43698    38.232156 
 2976000    302.84728     478.7445    260.37004   -6161.7943    6138.9636    218.37446    38.274483 
 2980000    265.79479    419.35638    277.38527   -6177.5954    6187.9024     141.9711    38.140789 
 2984000    258.40934    232.98133    276.57822   -6190.1811    6218.2209   -43.596891    38.105901 
 2988000    262.31617    417.27231    322.92001   -6194.1277    6203.3067    94.352306    38.125048 
 2992000     287.4168    520.00378    511.64541   -6227.7362    6223.9485    8.3583685    38.145258 
 2996000    277.40527    181.53488    296.30076   -6245.1482    6245.5653   -114.76589    38.215862 
 3000000    285.78787    552.18572    247.57007   -6274.1895    6265.4468    304.61566    38.210165 
 3004000     293.1943    544.92665    319.62182   -6304.0836    6308.5879    225.30484    38.196619 
 3008000    283.06228    334.02146    287.48698   -6321.7886     6311.824    46.534484    38.273556 
 3012000    315.69729    192.64069    331.66254   -6325.8415    6326.1674   -139.02185    38.378502 
 3016000    282.02488    147.52528    295.73362   -6344.1704     6361.473   -148.20834    38.448134 
 3020000    289.82769    414.85523    305.77046   -6363.4137    6357.4202    109.08477    38.449553 
 3024000    335.91789      282.456    537.49348   -6415.0547    6378.5522   -255.03748     38.27834 
 3028000    298.11788    345.02361    329.27313     -6431.36    6432.7421    15.750481    38.286042 
 3032000    300.66006    368.39329    322.18809    -6456.261    6453.1046    46.205199    38.170852 
 3036000    302.99338    463.77095    511.51734   -6477.0694    6460.2435   -47.746392     38.15761 
 3040000    299.95578    466.29431    201.88223   -6524.4374    6510.7275    264.41207    38.221624 
 3044000    292.99737    184.15361    295.86096   -6513.8869    6516.0303   -111.70735    38.240851 
 3048000    254.06097    331.31575    270.79079   -6519.3858    6543.8834    60.524957    38.365076 
 3052000    273.23923    462.67451    288.84302   -6534.8979    6543.9075    173.83149    38.341978 
 3056000    253.43052    215.29887    292.70853   -6546.9372    6546.9353   -77.409658    38.253825 
 3060000    262.63742    220.47106    159.26234   -6561.0179    6572.1957    61.208715    38.078113 
 3064000    272.13823    239.35759    315.77034   -6564.3579     6567.679   -76.412754    38.105356 
 3068000    268.16249    377.95643    273.15009   -6572.2909    6579.2032    104.80634    38.174081 
 3072000    281.17856     326.5079    293.70573   -6622.6085    6619.8857    32.802179    38.168082 
 3076000    271.45131    343.76618    276.96173     -6662.83    6652.3665    66.804452    38.178602 
 3080000    291.62114    200.49016    221.75576   -6646.5793    6641.4764     -21.2656    38.317571 
 3084000    289.03842    368.22309    421.44913   -6667.3367    6650.5548   -53.226039    38.198032 
 3088000    256.83362    365.32487     257.3443   -6668.2892    6697.1092    107.98057     38.27558 
 3092000    285.19789    207.58017    403.19507   -6702.5831    6711.8373    -195.6149    38.299318 
 3096000    297.76954    342.75247    608.29695   -6723.6805    6718.1601   -265.54448    38.213923 
 3100000    264.84815    348.59256    285.03773   -6717.7963    6740.6206    63.554824    38.261988 
 3104000    259.72739    236.56484    132.53532    -6729.297    6756.9596    104.02952    38.234755 
 3108000    266.37528    334.45436    226.95756   -6751.6228    6764.9763     107.4968    38.146587 
 3112000    278.83428    477.98512    260.09885   -6779.3212    6791.7531    217.88627    38.085075 
 3116000    260.97974    436.26321    386.65246   -6818.5884    6815.7333    49.610757    38.095257 
 3120000     283.2627    369.97142    178.85924   -6834.7948     6817.258    191.11217    38.089001 
 3124000    326.77748    446.36462    294.66828   -6873.6014    6837.6627    151.69635    38.037958 
 3128000    319.02679    516.05929     285.6439   -6889.7198     6867.817    230.41538    37.975333 
 3132000    284.44647    368.33018    243.61818   -6916.2374    6890.1651      124.712    37.865112 
 3136000    276.99544    328.42873    324.21883   -6903.3879     6918.927    4.2098989     37.89362 
 3140000    292.67295    503.23601    278.87645   -6928.9148     6916.446    224.35956    37.850784 
 3144000    297.93005    389.74868    615.75191    -6950.013    6942.1315   -226.00323    37.916034 
 3148000    268.02994     253.9275    359.29739   -6966.1077    6980.8263    -105.3699    37.874984 
 3152000    288.06684    428.84144    189.60211   -6979.9201    6989.7483    239.23934    37.924697 
 3156000    281.07923    489.85079     301.6161   -7011.4312    6999.6351    188.23469    37.905319 
 3160000    271.06696    375.34439    292.44134   -7020.1658     7023.473    82.903051    37.864674 
 3164000    272.67622    314.22965    195.96405   -7027.0061    7045.4974     118.2656    37.855687 
 3168000    279.77184    270.15074    228.48661   -7071.8307    7075.1441    41.664128    37.839081 
 3172000    288.55347    295.47343    415.11894   -7080.5145    7075.7366   -119.64551    37.787748 
 3176000    256.20847    522.47642    221.21883   -7058.3848    7080.4298    301.25759    37.747969 
 3180000     289.5931    341.54665     333.6253   -7101.3983    7091.9821    7.9213513    37.715747 
 3184000    269.61741    254.94103    315.35683   -7087.4068    7085.5394   -60.415803    37.688963 
 3188000    281.91353    299.80985     377.2013   -7112.3028      7106.46   -77.391453    37.630849 
 3192000    315.70186    350.98435    218.87811   -7156.3786    7134.3176    132.10623    37.552491 
 3196000    274.21652    445.27032    339.28648   -7191.9423    7191.4621    105.98384    37.580247 
 3200000    269.34078    375.69797    199.37532   -7210.8853    7201.9306    176.32265    37.487479 
 3204000    271.63487    313.42873    338.44186   -7210.1423    7200.1148   -25.013137    37.577642 
 3208000    278.25809    349.65839    168.66358    -7205.272    7224.4015    180.99481     37.63317 
 3212000    306.58336    233.07706    361.84487   -7240.7319    7213.8217    -128.7678    37.574848 
 3216000    295.34478    691.04613    228.09969   -7260.6386    7255.8655    462.94644    37.602835 
 3220000    295.27939    637.68241     258.6906   -7288.5017    7273.3543    378.99181    37.656322 
 3224000    302.68202    588.64787    320.80943   -7321.0453    7298.8987    267.83844    37.728961 
 3228000    309.91262    304.93974    438.49829   -7325.8412    7323.6987   -133.55855    37.688498 
 3232000     290.6842    334.32225    312.87123   -7337.3319    7336.6109    21.451011    37.691985 
 3236000    268.60299    375.26799    171.81269    -7354.429    7338.6244     203.4553    37.688465 
 3240000    286.33817    627.07703    439.50168   -7370.3217    7370.6031    187.57534    37.827569 
 3244000    281.46715    374.25153    321.95465   -7374.2203    7382.7705    52.296873    37.830667 
 3248000    273.41463    250.05926    256.48258   -7396.1365    7397.2956   -6.4233195    37.904199 
 3252000    261.93338    275.60385    217.73198   -7390.5966    7421.8558    57.871873    37.930634 
 3256000    271.33877    362.44374     348.3828   -7427.6249     7428.707     14.06094    37.944521 
 3260000    287.67306    339.55135     404.3822   -7439.4083    7437.5008   -64.830846    37.946678 
 3264000    286.61906    638.46928    454.07893   -7460.8612    7452.3363    184.39035    37.954022 
 3268000    304.76123    290.74947    357.09806   -7491.6823    7475.8144   -66.348598    37.906234 
 3272000    293.25649    323.81797    301.94049    -7535.316    7523.3429    21.877485    37.833434 
 3276000    269.42208    235.19883    453.81217   -7557.8847    7542.8215   -218.61335    37.779997 
 3280000    264.93599    308.88512    450.66408   -7554.1471     7565.871   -141.77897    37.768661 
 3284000    268.14767     306.2869    439.34007   -7582.1506    7598.5916   -133.05317    37.713188 
 3288000    308.16959    386.20054    221.73395   -7619.9307    7596.0356    164.46658    37.757573 
 3292000    308.15678     316.2916    374.44863   -7611.8765    7607.5367   -58.157031    37.679782 
 3296000    318.21593    544.16561     400.8454   -7636.8324    7631.2102    143.32021    37.554035 
 3300000    279.65602    431.87533     248.5282   -7668.4331    7663.4704    183.34712    37.619493 
 3304000    286.69308    391.16703    331.14383   -7681.7095    7673.6305      60.0232    37.607333 
 3308000    271.36734    255.25552    350.28597   -7673.7811    7685.3557   -95.030446    37.726164 
 3312000    308.06523    604.01888    446.10028   -7718.5026    7722.0564     157.9186     37.72851 
 3316000    259.93702     298.2955    157.97131   -7746.5043    7756.7769    140.32419    37.737142 
 3320000    299.97138    467.13789    251.03856   -7788.5356    7793.9184    216.09933    37.710622 
 3324000    256.71208    326.07193     301.7729    -7803.432     7832.736    24.299022    37.667129 
 3328000    248.90723    272.42356    303.00267   -7795.8977     7837.935   -30.579109    37.716295 
 3332000    289.54427    271.08177    339.53469   -7822.5301     7827.304   -68.452918    37.698017 
 3336000    282.92658    288.65773    311.31669   -7829.2486    7841.5816   -22.658964    37.731807 
 3340000    266.09551    335.20838    295.34954   -7830.8383    7833.6731    39.858847    37.674742 
 3344000    283.20935    337.28688    290.64911   -7857.3373    7860.8538    46.637766    37.607173 
 3348000    285.40606    380.87147    251.65198   -7873.8313    7858.9109     129.2195    37.538193 
 3352000    270.49716    285.07364    285.49053    -7890.178    7881.2613  -0.41688197    37.503954 
 3356000    271.79352    258.19576    246.19626   -7931.2971    7925.8348      11.9995    37.471272 
 3360000    271.02925    334.75749    519.61011   -7944.8551    7944.5526   -184.85262    37.438935 
 3364000    253.43198    396.30634    267.47368   -7951.0037    7979.3219    128.83267    37.385064 
 3368000    298.24664    406.54359     328.6547   -7958.6603    7965.2434    77.888895    37.394377 
 3372000    300.18019    347.36571     332.9749   -7989.4727    7981.6328    14.390805    37.426732 
 3376000      316.537    239.94885    350.26177   -8018.2915    7995.4639   -110.31292    37.346025 
 3380000    263.49205    241.02961    189.26561   -8003.1178    8023.4711    51.764002    37.352048 
 3384000    279.28058    321.08281    163.52166   -8037.4429    8039.3635    157.56115    37.410007 
 3388000    296.82105    553.15564    300.08042   -8073.4261    8079.5094    253.07522    37.403664 
 3392000    266.13797    387.71434    297.95516   -8071.0783    8093.7668    89.759182    37.498335 
 3396000    284.57558    271.48096     351.1688   -8115.3332    8104.0402   -79.687835    37.504205 
 3400000    293.50276    319.85716     344.1007   -8155.6344    8136.2081   -24.243544    37.468579 
 3404000    264.08578    242.67712    320.47174   -8162.9475    8171.5519   -77.794618    37.375541 
 3408000    271.74571    502.42637     497.3308   -8189.6023    8200.8885    5.0955612    37.359404 
 3412000    263.30047    414.46029    193.20756   -8221.6523    8220.0422    221.25273    37.382302 
 3416000    278.93561    327.66851    218.49023   -8249.2508     8240.178    109.17827    37.343468 
 3420000    308.46909    421.39899    253.22231   -8297.4708    8277.9977    168.17668    37.341331 
 3424000    287.10147    214.62215    278.15957   -8317.3482    8313.9049   -63.537423    37.324382 
 3428000    294.64396    517.11734      327.659   -8357.8034    8338.3603    189.45833    37.296406 
 3432000    254.52089    372.13474    375.99009   -8353.0292    8380.6955    -3.855344    37.257509 
 3436000    278.61633    225.49597    315.76592   -8374.1114    8377.7589   -90.269954    37.238172 
 3440000    262.58619    437.97724    498.16234   -8396.6582    8423.5978     -60.1851    37.224632 
 3444000    280.57564    377.52724    337.12748   -8424.5816    8430.3231    40.399763     37.16167 
 3448000    272.00401    191.90831    221.81221   -8455.2797    8473.2746   -29.903896    37.127815 
 3452000    292.95831    522.41129    230.45667   -8497.6314    8495.6546    291.95462    37.112292 
 3456000    248.67903     476.4753    121.74039   -8525.0119    8520.9875     354.7349    37.099018 
 3460000    262.25543    291.27934    441.77796   -8509.0054    8539.6257   -150.49862    37.136292 
 3464000    254.94415    245.58235    166.36666   -8533.1281    8524.0038    79.215687    37.166803 
 3468000    279.24061    335.08991    410.74663   -8531.3666    8531.1717   -75.656719    37.203998 
 3472000    260.20989    147.51135    234.40358    -8545.059    8561.7103   -86.892231    37.141702 
 3476000    270.21786    396.80731    460.13243   -8587.5139    8591.6963   -63.325121    37.157068 
 3480000    269.37791    237.94649    238.95479   -8597.3268    8603.6015   -1.0082941     37.21418 
 3484000    287.38342    287.30619    536.57135   -8599.6276    8590.6179   -249.26516    37.286171 
 3488000    258.12859    225.52005    410.55502   -8588.3689    8597.8618   -185.03497    37.197973 
 3492000    271.67335    212.27065    237.48753   -8579.5726    8602.5839   -25.216877    37.181032 
 3496000    276.78801    375.35018    375.94586   -8598.8799    8610.1737  -0.59567411    37.175601 
 3500000    265.48529    284.17672    360.94466   -8614.0833    8614.3654   -76.767943    37.222717 
 3504000    275.74501    316.09778    410.46764   -8637.0828    8647.1418   -94.369864    37.234047 
 3508000    273.97459     270.5679    331.09118   -8666.1433    8670.5867   -60.523277    37.250143 
 3512000    279.52853    347.86886     266.6157   -8685.0078    8687.8592    81.253158    37.248995 
 3516000    295.30216    254.32024    456.21713   -8696.2374    8700.3998   -201.89688     37.29034 
 3520000    313.83464    500.30378    251.01212   -8725.7351    8699.6574    249.29167     37.29427 
 3524000    275.09026    503.63598    403.17672   -8728.5181    8729.8762    100.45926    37.428949 
 3528000    273.28763    585.27653    354.82949   -8751.5853    8749.9363    230.44704     37.44161 
 3532000    288.27784    372.91809    313.01256   -8783.6203    8784.1713    59.905535    37.358694 
 3536000    291.09396    455.58931    200.13102   -8774.5939    8787.9571    255.45829    37.417117 
 3540000    278.83216    268.33336    347.51564   -8814.6907    8799.3537   -79.182278     37.40113 
 3544000    271.48946    256.59705    208.88324   -8828.9823    8848.0036    47.713816    37.399296 
 3548000    300.37639     307.7849    283.58277   -8841.4698    8829.9019    24.202138    37.317363 
 3552000    277.53123    334.85709    176.45263   -8860.6832    8852.9455    158.40446     37.34938 
 3556000    277.25502    252.36216    382.51519   -8851.2578    8859.2307   -130.15303    37.322974 
 3560000    288.59432    257.62364    471.80312   -8859.1807    8853.3421   -214.17948    37.264966 
 3564000      304.751    290.14538    370.97971   -8899.8018    8874.8748   -80.834331    37.313013 
 3568000      274.548    367.07092    246.94744   -8894.7749    8894.5648    120.12348    37.279649 
 3572000    300.02962    578.58501    492.31313   -8904.0192    8907.9886    86.271878    37.332363 
 3576000    322.72096    382.29964    384.58007   -8931.9635    8910.2884   -2.2804284    37.292847 
 3580000     276.1384    387.98514     194.2877   -8934.1928    8939.8826    193.69744    37.277393 
 3584000    276.23793    429.96853    303.69599   -8947.7142     8948.081    126.27254    37.238454 
 3588000    287.66985    317.68597    456.36837   -8950.6203    8931.5389    -138.6824    37.256492 
 3592000    287.87865    398.98407     177.7171   -8971.0963    8965.1514    221.26697    37.327086 
 3596000    267.26117     322.8679    301.07213    -8985.785    8974.2783    21.795773    37.415844 
 3600000     281.7465    347.35524    228.04282   -8996.6237    8986.4207    119.31242    37.407746 
 3604000    286.53665    232.59518    158.64857   -9000.3685    8995.4981    73.946617    37.326616 
 3608000    298.24581    271.47448     282.4424   -9021.5174     9015.413    -10.96792    37.331118 
 3612000    304.83486    457.59141    317.09062   -9053.6336    9032.8005    140.50079    37.337649 
 3616000     268.9121    408.52808    194.43483   -9038.8552    9053.0802    214.09325    37.349236 
 3620000    258.71058    280.65915    328.15328   -9029.3564     9039.681   -47.494138    37.353539 
 3624000    260.31045    149.77711    343.31279   -9039.3573    9056.7773   -193.53568    37.420812 
 3628000    271.63149    365.78612    303.79244   -9053.7607    9066.1619    61.993679    37.443472 
 3632000    239.11182    262.91943    277.44605   -9071.2839    9091.3118   -14.526619      37.4552 
 3636000    262.78236    489.39096    361.24551   -9109.6037     9126.798    128.14545    37.431511 
 3640000    294.47102    395.37334    280.45258   -9117.8062    9113.0637    114.92076    37.476252 
 3644000    281.50168    272.69974     392.0744   -9132.7217    9150.0636   -119.37466    37.449771 
 3648000     288.2867    358.74076    320.04302   -9158.9971    9163.6295    38.697741     37.45912 
 3652000     300.0462       365.75    313.37808   -9181.3136    9162.1152    52.371923    37.464186 
 3656000    276.60296    294.76626    256.48639   -9195.1445    9186.7823     38.27987    37.383828 
 3660000    280.30287    418.65035    361.16829   -9209.4388    9193.7137    57.482057    37.334781 
 3664000      319.393     383.7901    225.06376   -9240.0737    9215.5702    158.72634    37.341694 
 3668000    275.25045    322.49873    239.89215   -9237.1114    9232.7739     82.60658    37.338454 
 3672000    288.78408    353.85623    305.05716   -9259.4817    9248.8088    48.799066    37.274388 
 3676000    265.82251    490.69853    247.21476   -9242.1238    9238.9822    243.48377    37.341971 
 3680000    250.32575     237.2264    394.22432    -9224.653    9243.5708   -156.99792    37.345379 
 3684000    276.23195    453.02914    199.92182   -9272.3279    9250.3886    253.10732    37.385799 
 3688000    306.61068     388.3542    495.10714   -9265.1481    9256.3008   -106.75294    37.278759 
 3692000    274.68654    272.42239    341.53107   -9271.5511    9277.2414   -69.108675    37.252089 
 3696000    283.24763    722.89966    252.17185   -9281.8087    9280.7514    470.72781    37.271089 
 3700000    285.41632    336.48913    356.18409   -9285.7749    9285.0156   -19.694967    37.293353 
 3704000    317.33743     433.5399    423.26236   -9309.7741    9292.9025    10.277544    37.281822 
 3708000    287.15677    231.17536    173.92337   -9311.8354    9307.9939    57.251998     37.26557 
 3712000    290.39811    458.14649    434.17651   -9321.7092    9329.3262    23.969972    37.232548 
 3716000    275.84482    351.77632    462.77516   -9351.4647    9360.1866   -110.99884    37.255652 
 3720000    274.06741    496.55135    202.88683   -9378.8582    9377.6348    293.66452     37.19577 
 3724000    299.64376    439.59395    266.29062   -9418.6823     9407.896    173.30333    37.175914 
 3728000    282.28613    230.01777    288.53552   -9414.0261    9421.7632   -58.517754    37.211088 
 3732000    273.25829    481.22548    224.20224   -9429.8537    9446.6247    257.02325    37.211368 
 3736000    296.35916    345.70498    271.04101   -9491.2134    9470.7609     74.66397     37.26339 
 3740000    290.25415    349.71671    263.65044   -9479.5345    9485.8373    86.066272    37.270954 
 3744000    256.61442    338.96652    322.76028   -9478.1172    9488.4107    16.206243    37.290434 
 3748000    282.71009    213.14439    382.37587   -9524.1204    9495.9862   -169.23147     37.32261 
 3752000    308.89154    229.09833    313.71236   -9544.2047    9536.1817   -84.614033    37.395091 
 3756000    254.33617     191.5991    196.83731   -9557.1054    9574.2021   -5.2382156    37.370235 
 3760000    273.19922     378.2229    422.65742    -9549.606    9556.0974   -44.434529    37.330688 
 3764000    281.99428    274.26835    274.35274   -9575.5332    9574.2137 -0.084393876    37.329281 
 3768000    291.46168    330.80458     288.8811   -9604.6132    9594.9648    41.923479    37.304518 
 3772000    315.38259    266.45272    221.97859   -9628.9264    9613.1989    44.474131    37.249603 
 3776000    289.65211    240.68024    293.77927   -9658.8632    9646.8293   -53.099029    37.259899 
 3780000    302.40748    315.93551    288.87527   -9689.6333    9648.4053    27.060243    37.165472 
 3784000    293.56121    537.23556    393.21062   -9704.0434    9702.9601    144.02494    37.175945 
 3788000    271.16527    240.09986    179.66164   -9728.6063    9722.4609    60.438221    37.151263 
 3792000    272.62597    251.52757    206.57472   -9743.3925     9754.343    44.952853    37.189731 
 3796000    273.89654    213.50538    406.45016   -9762.1651    9773.3198   -192.94478    37.243962 
 3800000    273.11124    300.58398    421.77895   -9802.2823    9804.5764   -121.19497    37.205004 
 3804000    275.93711    404.26376    323.61691   -9811.3067    9822.3306    80.646851    37.140472 
 3808000    267.83204    287.68104    315.17575   -9833.3818    9852.0648   -27.494712    37.179055 
 3812000    283.95764    410.91166    489.27435     -9860.24    9850.3104   -78.362688    37.231285 
 3816000    300.72823    380.02465    369.18266   -9906.2828    9895.7541    10.841994    37.261646 
 3820000    267.62355     370.5031    288.34819   -9912.9432    9922.1197     82.15491    37.310903 
 3824000    270.80791    252.51445    257.35585   -9933.0723    9940.0026   -4.8414085    37.311594 
 3828000    258.00426    341.64333    340.81155   -9958.8693    9954.5525    0.8317819    37.289166 
 3832000    256.76543    438.95152    172.16259   -9971.3931    9986.6757    266.78893    37.303798 
 3836000    282.74201    267.25715     286.4139   -9974.4465    9974.9077   -19.156749    37.305547 
 3840000    306.18135     554.6912    333.20734   -9986.6436    9984.0527    221.48386    37.319913 
 3844000     271.8683    371.05966    287.70641   -9996.9815    10015.595    83.353248    37.260361 
 3848000    269.48627    335.88336    303.80247   -10027.908      10031.6    32.080888    37.215296 
 3852000    292.35361    363.09516    331.88612   -10038.039    10024.664    31.209041    37.162783 
 3856000      269.411    430.81024    279.66857    -10057.96    10055.055    151.14167    37.123674 
 3860000    294.45971    249.77275    375.97057   -10085.658    10092.817   -126.19782    37.070812 
 3864000    287.76245    425.65445       341.97    -10114.49     10105.99    83.684452    37.142161 
 3868000    277.31529     348.3705    378.04961    -10146.83    10144.536   -29.679112    37.120394 
 3872000    286.94532    213.55897    358.12035   -10169.343    10181.608   -144.56138    37.100064 
 3876000    295.09542    503.02485    298.28235   -10212.191    10186.885     204.7425    37.109552 
 3880000    286.33615    442.62454    368.24983   -10216.562    10228.127    74.374712    37.074507 
 3884000    266.93475    388.02352    339.06164   -10225.016    10233.185    48.961875     37.14254 
 3888000    297.42504    400.27738    357.60245   -10221.463    10230.425    42.674929    37.133596 
 3892000    281.72452    493.16549    281.38851   -10268.906    10257.246    211.77698    37.204925 
 3896000    309.49123    296.99369    223.14047   -10297.355    10274.653    73.853217    37.186121 
 3900000    281.35939    303.52383     360.3229   -10300.162    10310.185   -56.799064    37.197876 
 3904000    295.10004    298.71989    392.60759   -10326.543    10323.879   -93.887706    37.207539 
 3908000    274.65467    331.08538    392.01282   -10318.089    10321.069   -60.927443    37.266781 
 3912000    292.05657    281.23635    352.99772   -10344.528    10327.489   -71.761373    37.301119 
 3916000    301.13852    525.08594    253.74805   -10337.104     10341.27    271.33789     37.29174 
 3920000    296.82708     451.8013      373.958   -10357.153    10369.513    77.843298    37.291339 
 3924000     271.6236    221.82575     327.9066   -10372.503    10376.293   -106.08084    37.271114 
 3928000    266.46287    235.47648     277.6885   -10416.561    10427.356   -42.212019    37.259623 
 3932000    312.57071    279.81402    437.05256   -10447.879     10432.37   -157.23854    37.243308 
 3936000    296.25918    467.62783    342.01717   -10489.315      10484.4    125.61067    37.264261 
 3940000    289.76564    447.24271    238.56502   -10483.676    10483.311    208.67769    37.242444 
 3944000    305.36353    551.66129    304.85627   -10507.104    10501.695    246.80502    37.310315 
 3948000    264.54733    327.63174    388.04198   -10513.118    10524.416   -60.410241    37.308873 
 3952000    265.72435    259.50487    373.77692   -10509.064    10529.994   -114.27205    37.348754 
 3956000    282.85385    279.65681    374.74726   -10516.369    10522.239    -95.09045    37.367101 
 3960000     283.2637    315.40079    270.19141   -10516.349     10532.59    45.209381    37.363723 
 3964000    289.73625    298.40687    318.86098   -10551.444    10539.015   -20.454113    37.356418 
 3968000    284.66447    253.30203    168.53717   -10561.628    10554.409    84.764865    37.358844 
 3972000    249.32273    220.82568    439.82256   -10576.524    10592.081   -218.99688    37.341972 
 3976000    272.47385    400.55911    286.79783   -10601.558    10600.085    113.76128    37.349117 
 3980000    281.60325    573.32566     287.3163   -10596.374    10629.344    286.00936    37.368106 
 3984000     272.8774    403.85892    205.09488   -10614.925    10633.494    198.76404    37.412585 
 3988000    262.80693    276.77366    420.62857   -10625.436    10643.748   -143.85491    37.328659 
 3992000    282.38497    305.50806    256.65925   -10658.778    10661.088    48.848813    37.314933 
 3996000    288.26076     333.3201    215.72504   -10663.663    10672.489    117.59506    37.291135 
 4000000    283.58597    209.58719    277.71032   -10677.109    10673.384   -68.123135    37.318718 
 4004000    299.64911    350.95792    179.69442   -10674.007    10673.336     171.2635     37.27426 
 4008000    294.43676    353.45042    352.34384   -10685.236    10693.988    1.1065765    37.269282 
 4012000    306.52896    601.08944    253.00348    -10719.87    10721.271    348.08596    37.268724 
 4016000    263.61097    390.14091    359.75377   -10723.352    10748.705     30.38714    37.307245 
 4020000    231.18639    200.52701    166.48896   -10732.513    10775.257    34.038048     37.24417 
 4024000    258.89761    124.13374    282.92746   -10767.081     10785.02   -158.79372    37.192352 
 4028000    265.31304    240.07771    245.35308   -10778.834    10799.943   -5.2753722    37.153553 
 4032000     291.6005    239.12054    362.93546    -10805.75    10795.163   -123.81492    37.155202 
 4036000    270.35671    355.69922    272.68608   -10819.878    10825.555    83.013142    37.139693 
 4040000    301.63456    253.38214    276.37894   -10847.692    10831.396   -22.996801    37.094356 
 4044000    286.94031    388.94147    242.27642   -10862.806    10850.222    146.66505    37.049616 
 4048000    279.84473    209.97855    350.35394   -10859.224    10867.508   -140.37539    37.043509 
 4052000    249.51384    379.74352    227.63022   -10873.525    10884.231     152.1133    37.045397 
 4056000    289.38819    423.32672    497.50477   -10897.477    10898.621   -74.178047    37.027581 
 4060000    285.62439    280.21917    234.04927   -10915.724    10925.514    46.169898    36.973644 
 4064000    275.42558     403.7675    453.33474   -10940.772    10942.731   -49.567245    36.980711 
 4068000    262.29741    377.20083    186.26058   -10963.267    10970.806    190.94025    37.040835 
 4072000    280.37334    256.96619    335.58074   -10974.829    10970.565   -78.614551    37.076219 
 4076000    283.45621    469.75447    334.74106   -10992.815    11009.756    135.01341    37.091747 
 4080000    265.76541     391.8926    296.79911   -10997.696    11024.023      95.0935    37.030958 
 4084000    308.36982      474.282    444.98982   -11060.972    11028.045    29.292178     37.03214 
 4088000    298.48672     468.0519    245.39255   -11060.337    11058.243    222.65936    37.053139 
 4092000    296.07293     538.9348    151.15538   -11051.822    11052.874    387.77942    37.134953 
 4096000    276.79048    250.97891    257.48547   -11055.689    11060.604    -6.506553    37.092132 
 4100000    301.34761    373.54455    520.69742   -11085.319    11081.603   -147.15287    37.061348 
 4104000    254.50034    290.73445    324.24314   -11095.449    11125.352   -33.508695    37.035018 
 4108000    287.52874    222.38981     465.0853   -11147.526     11146.64   -242.69549    37.045648 
 4112000    290.03963    285.24781    240.67422   -11167.934     11162.15    44.573595    37.025922 
 4116000    288.74724    320.28517    365.69553   -11189.159    11192.373   -45.410357    37.030099 
 4120000    280.50845    432.73782    225.24813   -11203.004    11218.522    207.48969     37.05061 
 4124000    269.36379    478.80786    271.04549    -11221.58    11238.769    207.76237    37.008559 
 4128000    308.05076    136.27247    195.49359   -11250.273    11247.682   -59.221127    37.004276 
 4132000    286.22412    512.10015    326.57942   -11268.892    11270.507    185.52074    36.965803 
 4136000    254.20677    384.86416    269.80843    -11299.58     11318.33    115.05572    36.901353 
 4140000    286.53258    497.90809    362.09993   -11324.765    11331.199    135.80816    36.871663 
 4144000    279.10459     365.4497    572.83218   -11349.818     11347.86   -207.38248    36.851802 
 4148000     265.0047    181.95304    272.48883   -11339.662    11368.884   -90.535783     36.90817 
 4152000    279.67494    532.06343    375.77962   -11385.578     11406.18    156.28381    36.926827 
 4156000    276.30011    329.82321    423.32552   -11416.943    11425.441   -93.502305    36.920186 
 4160000    274.23995    390.40747    287.93828    -11432.96    11421.371     102.4692    36.922822 
 4164000    280.42185    319.72124    228.84048   -11448.488    11455.107    90.880761    36.908333 
 4168000    303.51465    326.08452     367.7858     -11465.2    11462.796   -41.701281    36.885123 
 4172000    262.74312    334.50889    198.44968   -11487.715    11491.913     136.0592    36.879706 
 4176000    298.60118     418.0201    425.96062   -11509.835    11529.622   -7.9405175    36.858533 
 4180000     262.7418    470.47298    301.46366   -11511.713    11546.314    169.00932    36.881892 
 4184000    288.78818    304.23761    394.01403   -11541.662     11544.03    -89.77642    36.897689 
 4188000     256.7306    340.85363    156.87805   -11537.004    11562.025    183.97558    36.915414 
 4192000    281.67584    493.62739    412.84556   -11559.933    11570.822    80.781832    36.955093 
 4196000    275.43308    394.54102    182.41582   -11585.013    11589.337    212.12521    36.924061 
 4200000    271.26792    318.03954    381.52319   -11604.081     11611.64   -63.483654    36.964661 
 4204000     297.1958    405.21593    225.59462   -11633.287    11631.759    179.62131    36.948557 
 4208000    274.53684    264.51631    235.91425   -11633.782    11643.426    28.602051    36.910514 
 4212000    267.64812    467.37455    228.49475   -11657.384    11663.526     238.8798    36.937574 
 4216000    277.05998    241.35866    305.08172    -11659.76     11662.31   -63.723063    36.926114 
 4220000    283.18228    315.05622    325.80741   -11698.759    11694.424   -10.751181    36.919893 
 4224000    288.76349     342.8109    303.30603   -11701.043    11698.146    39.504866    36.926654 
 4228000    293.12602    527.44294    445.50018   -11723.847    11721.849    81.942759    36.877629 
 4232000    303.90543    494.03341    302.95024   -11745.291    11727.174    191.08318    36.917243 
 4236000    274.73871    167.42858    496.79102   -11737.279    11754.306   -329.36244    36.890818 
 4240000    288.68542    295.04205    435.74402   -11758.242     11761.93   -140.70197    36.796688 
 4244000    248.51041    352.56274    308.73384   -11774.764      11806.6    43.828909    36.820954 
 4248000    277.76948    471.22553    398.16478   -11785.618    11796.517    73.060754    36.809877 
 4252000    265.99777    345.91445    328.52624   -11787.605    11797.814    17.388207    36.808246 
 4256000    289.81891    317.15089    331.37737   -11808.534    11816.442   -14.226475    36.805827 
 4260000    299.84348     461.0611    318.18581   -11832.379    11808.083    142.87529    36.876578 
 4264000    275.90961    433.55411    198.89482   -11846.179    11850.883    234.65928    36.897841 
 4268000    308.62594    538.59405    399.21684   -11873.593    11880.283    139.37721    36.911649 
 4272000    276.81936    341.90401    429.92605   -11864.423    11891.132   -88.022033    36.920453 
 4276000    255.51912    281.87299    236.41715   -11860.996    11894.397     45.45584    36.896338 
 4280000    253.73561    346.02985     256.7075   -11898.197    11914.402    89.322349    36.908583 
 4284000    320.12833    210.19646    469.48191   -11920.333    11918.002   -259.28545    36.922853 
 4288000    278.02505    308.20772    341.37144   -11926.488    11946.572   -33.163717    36.923597 
 4292000    270.45549    201.02789    262.57038   -11960.725    11967.541   -61.542489    36.897405 
 4296000    258.83034    373.52433     185.8109   -11992.139    11987.214    187.71344    36.919311 
 4300000     299.5807    356.90425    359.71821   -12002.287    11996.212   -2.8139568    36.934239 
 4304000    292.33707    539.10023    367.08287   -12024.103    12030.573    172.01736    36.976925 
 4308000    304.24266    404.22482    392.88727   -12041.901    12043.314    11.337543    36.980187 
 4312000    288.94549    415.35082    171.72985   -12054.805    12053.094    243.62097    36.917096 
 4316000    304.25005    418.40115    251.65224   -12094.974    12086.502     166.7489    36.932982 
 4320000    291.89316    243.56857    211.03503    -12104.48    12105.065    32.533541    36.943999 
 4324000    289.60532    285.89038    457.35335   -12111.365    12114.014   -171.46297    36.951595 
 4328000    254.16807    305.83499    293.21224   -12111.602    12133.222    12.622751    36.970447 
 4332000    297.39678    375.89629    345.65702   -12140.528    12152.024    30.239269    36.983328 
 4336000    298.26311    308.69641    311.48691   -12182.656    12171.313   -2.7905069    36.969904 
 4340000    295.86653    420.10487    503.82439    -12197.78    12171.062   -83.719526    36.977837 
 4344000    276.98714    379.34033    397.02135   -12209.963    12209.807   -17.681018    36.948372 
 4348000     312.7943    377.72448    262.55692   -12234.994    12201.279    115.16756    36.948219 
 4352000    302.47319    333.72387    272.35484   -12226.217    12221.017    61.369037    36.965088 
 4356000    293.26373    425.84768    291.66374    -12254.58    12247.994    134.18394    36.947174 
 4360000    266.94623    354.50195    234.31022   -12276.061    12284.275    120.19173    36.917895 
 4364000    319.65795    357.56316    230.05571   -12313.655    12309.488    127.50745    36.879637 
 4368000    292.38771    214.23516    361.16891   -12325.487      12318.6   -146.93375    36.888609 
 4372000    274.26998    239.69748    268.77959   -12346.482    12369.227   -29.082109     36.91854 
 4376000    304.05749    420.42672    260.41744   -12369.038     12360.74    160.00928    36.957869 
 4380000    311.37465    428.08582    286.52355   -12405.079    12369.901    141.56226    36.926552 
 4384000    296.38911    273.74737    439.48594   -12390.839    12390.537   -165.73857     36.93575 
 4388000    280.17027    512.90804     341.9793   -12391.558    12389.007    170.92873    36.936599 
 4392000     301.5766    303.83452     362.1239   -12394.023     12390.15   -58.289372    37.025337 
 4396000    264.35003     269.2126    455.29107   -12429.988    12432.228   -186.07847    37.011643 
 4400000    269.18333    400.73073    391.94738   -12426.151    12446.531    8.7833554    37.009337 
 4404000    293.89723      166.399     363.0386   -12446.772    12453.807    -196.6396    36.964428 
 4408000    281.48441    382.28062     462.4938    -12485.35     12487.93   -80.213181    36.947493 
 4412000    278.88726    166.89308    256.19179   -12501.215    12514.747   -89.298712     36.89401 
 4416000    293.76831    267.18483    381.63152   -12538.924     12528.69   -114.44669    36.850512 
 4420000    299.12259    206.05219    522.57574   -12572.568    12543.685   -316.52354    36.824203 
 4424000    283.61384    459.70292    361.03382   -12580.599    12589.146    98.669107    36.847966 
 4428000    288.36674    229.78753    420.27523   -12612.732    12610.181    -190.4877    36.845726 
 4432000    314.24305    286.91828    489.31224   -12627.504    12616.128   -202.39396    36.852298 
 4436000    265.15818    241.57298    385.12348   -12656.785    12669.028    -143.5505    36.882585 
 4440000     284.0248    422.12259    316.61256   -12680.707    12691.667    105.51003    36.868764 
 4444000    281.82892    306.11191    323.53021   -12684.452    12694.438   -17.418299    36.862156 
 4448000    279.35633    167.54353    270.21747   -12712.531    12701.016   -102.67395     36.80078 
 4452000    279.07323    494.52708    199.92414   -12719.984    12725.768    294.60294    36.838431 
 4456000    279.36643    236.29281    405.85556   -12737.576    12734.687   -169.56276    36.788506 
 4460000    292.42977    354.30265    229.35026   -12755.674    12754.469    124.95239    36.805641 
 4464000    273.86336    360.78079    389.99868   -12766.852     12794.48   -29.217888    36.835434 
 4468000    282.92629    318.57325    167.55582   -12762.395    12785.009    151.01743    36.896064 
 4472000    264.53254    307.92486    210.00959   -12778.331    12783.817    97.915274    36.885059 
 4476000    304.55201    546.81638    321.27964   -12821.629    12825.636    225.53674    36.903038 
 4480000     281.9845    254.29037    188.83175   -12854.639    12864.466    65.458615    36.904213 
 4484000     295.1561    403.45419    277.49263   -12869.058    12881.739    125.96156     36.89771 
 4488000    279.89837     418.4354    408.33377   -12889.019    12895.768    10.101635    36.843336 
 4492000    249.19825    263.56071    376.53327   -12889.485     12921.86   -112.97256    36.823655 
 4496000    255.31947    230.65747    321.25948   -12898.808    12912.273   -90.602011    36.793738 
 4500000    296.74379    285.17506    339.10374   -12938.301    12947.902   -53.928686    36.856872 
 4504000    259.00112    215.35752    412.23728   -12952.653     12978.74   -196.87976    36.884399 
 4508000    256.55051    223.19619    309.56576   -12972.006     12987.69   -86.369577    36.832091 
 4512000    233.45185    294.86897    137.44156    -12982.61    13032.453     157.4274    36.782628 
 4516000    270.60873    249.29721     333.6719   -13009.033    13040.607   -84.374691     36.83628 
 4520000    286.89408     265.0161    490.57022   -13051.907    13058.075   -225.55412    36.831892 
 4524000    286.48267    369.56077    271.92241   -13070.157    13084.411    97.638356    36.846208 
 4528000    262.32255    252.87903    356.16206   -13089.615    13108.585   -103.28303    36.929173 
 4532000    251.97443    435.56881     200.9505   -13087.431    13128.307    234.61831    36.958626 
 4536000    264.65307    330.32993    275.85629   -13119.439    13134.689     54.47364    36.990624 
 4540000     279.8042    306.90575    322.21107   -13142.653    13139.849   -15.305318    36.977868 
 4544000    311.52252    453.93856    350.07365   -13170.213    13163.215    103.86491    36.997482 
 4548000    292.35412    295.01033    237.47478   -13194.368    13184.098    57.535549    37.016546 
 4552000    290.07518    459.16707    305.38419   -13204.522    13208.958    153.78288    37.030286 
 4556000    307.14189    423.72243    305.59311   -13219.183    13216.855    118.12932    37.015827 
 4560000    308.87742    581.94903    311.92219    -13249.61     13232.25    270.02683    36.989579 
 4564000    275.62805    377.80141    292.95817   -13254.975    13265.214    84.843237    36.987525 
 4568000    300.95431    380.54287    337.19499   -13289.632    13278.122    43.347881    36.940829 
 4572000    272.45794    261.68142    355.76787   -13267.072    13299.508   -94.086447    36.917778 
 4576000    323.84213    698.73089    462.90602   -13321.177    13298.918    235.82488    36.947962 
 4580000    278.32851    345.23632    331.65645   -13296.451    13311.116    13.579871    36.939471 
 4584000     298.3188    398.19865    310.97342   -13321.755    13310.079    87.225228    36.961413 
 4588000    287.05962    591.21042     258.8798   -13325.575    13338.987    332.33061    36.976452 
 4592000    237.78934    324.24349    241.52629   -13325.303     13352.72    82.717199    36.967531 
 4596000    250.92431    340.76046    329.16568   -13344.523    13372.637    11.594784    36.922362 
 4600000    274.42906    304.00564    271.55635   -13349.702    13354.998    32.449293    36.918666 
 4604000    271.56555    299.68623    546.64731   -13347.257    13353.135   -246.96109    36.960752 
 4608000     329.6412    522.30702    478.00624   -13386.667    13363.793     44.30078    37.012659 
 4612000    299.12766    439.34236     299.3986   -13412.525    13399.822    139.94376    37.028976 
 4616000    244.34775    252.88928    208.94792   -13400.196    13429.316    43.941366    37.032884 
 4620000    293.92772    264.59369    281.69012   -13439.603    13452.253   -17.096432    37.030805 
 4624000    274.40821    241.14994    469.67352   -13461.148     13469.26   -228.52357    36.981748 
 4628000    254.02205    280.26784    235.88787   -13432.273     13471.22     44.37997    36.994904 
 4632000    264.39695    365.19309    449.12098   -13461.972    13492.751   -83.927898    36.976236 
 4636000    271.83876    256.67193    210.39681   -13474.432    13479.595    46.275114    36.949804 
 4640000    298.89935    650.91915    255.08892   -13509.822    13495.219    395.83023    37.020993 
 4644000    283.55651    476.75374    206.02037   -13512.064    13535.413    270.73336    37.003831 
 4648000    269.15766    207.38688    380.65519   -13528.327    13541.087   -173.26831    37.032441 
 4652000    305.07177    338.46294    264.35752   -13564.325    13570.116    74.105415    37.002902 
 4656000    266.68904    351.75861    351.13819   -13605.461    13613.648   0.62041495     36.99315 
 4660000    297.94044    347.55405    200.22895   -13610.547    13619.957    147.32509    37.016656 
 4664000    303.58349    531.09101    253.64378   -13625.735    13613.809    277.44723    37.060289 
 4668000    273.73825    329.62153     215.7244    -13632.59    13638.604    113.89713    36.998957 
 4672000     271.6184    305.46159    456.70871   -13633.356    13661.973   -151.24713    36.983475 
 4676000     297.3398    361.60317    346.51701   -13670.823    13676.805    15.086156    36.987193 
 4680000    268.30585    289.83064    179.17721   -13677.616     13712.52    110.65342    37.004046 
 4684000     269.4337    376.75481    421.77335   -13696.665    13721.404   -45.018546    37.034986 
 4688000    302.91272    304.04876    309.78279   -13749.538    13759.526   -5.7340278    37.005212 
 4692000    283.16877    506.39122    300.70301   -13777.674    13789.932    205.68821    36.975615 
 4696000    297.41871    352.72578    428.59909   -13806.565    13795.658   -75.873305    36.949904 
 4700000    302.47434    641.86494    260.28121   -13825.569    13822.522    381.58374    36.963502 
 4704000    317.04831    319.80551    322.91976   -13836.941    13833.281   -3.1142472    36.995053 
 4708000    307.51986    367.98155      180.269   -13860.447     13847.62    187.71254    36.955444 
 4712000    323.91602    426.87317    378.35676   -13846.208    13829.828    48.516414    37.016586 
 4716000    292.23312    425.48629    383.89097   -13872.639    13865.303    41.595324    37.046029 
 4720000    267.38664    430.03941     242.9356   -13920.624    13932.223    187.10381    37.066504 
 4724000    284.04181    448.33577    215.78698   -13931.007    13923.805    232.54879    37.102408 
 4728000    261.04029    166.93752    427.67122   -13892.584    13915.709    -260.7337    37.093867 
 4732000    265.21787     307.2071    281.55817    -13936.39    13952.026    25.648937    37.112001 
 4736000    277.89897    316.90526    309.79394   -13961.259     13959.72    7.1113185    37.118753 
 4740000    267.42913    140.96217    217.37447   -13992.491    13988.938    -76.41231    37.119901 
 4744000    296.41334    349.21671    464.59397   -13989.584     13989.25   -115.37726    37.084378 
 4748000    313.32823    493.36431    265.02039   -14024.091    14007.702    228.34391    37.074812 
 4752000    271.48318    285.84725    476.95934   -14029.796    14037.951   -191.11209     37.04677 
 4756000    279.41698    199.21288    262.56772    -14044.45     14068.16    -63.35484    37.031149 
 4760000    292.74087    506.22759    313.68843   -14099.425    14107.446    192.53916     37.04865 
 4764000    258.59851    382.50207    274.89058     -14128.7    14140.006     107.6115    37.047837 
 4768000    294.43164    455.74287    402.14049   -14137.634     14155.07    53.602378    37.068408 
 4772000    251.45886    327.36189    433.63332   -14150.386    14178.978   -106.27143    37.064482 
 4776000    300.87675    466.39881    149.19898   -14170.732    14178.677    317.19983    37.086408 
 4780000       299.08    379.62592    364.61028   -14200.489    14204.315    15.015634    37.110839 
 4784000    290.33484    285.85919     243.8499   -14235.304    14224.284    42.009293    37.116264 
 4788000    267.63353    262.32105    333.71121   -14235.677    14235.471   -71.390157    37.146147 
 4792000    284.64051    357.17854    240.92601   -14268.257    14255.957    116.25253    37.149843 
 4796000    298.72888    271.92633    397.35987   -14264.351    14274.341   -125.43354    37.164659 
 4800000    281.57287     405.0311    198.45663    -14272.91    14294.988    206.57447    37.173247 
 4804000     268.6581    392.50314    175.25833   -14295.648    14305.552    217.24481    37.163092 
 4808000    289.33911    422.20252    353.26374   -14327.707    14337.342    68.938778    37.144679 
 4812000     261.2259    230.30276    267.33829   -14359.783    14377.932   -37.035521    37.166648 
 4816000    253.88266    246.01113    233.14511    -14367.65    14407.271    12.866016    37.171795 
 4820000    266.04435    269.85415    307.80813   -14384.845     14400.51   -37.953974     37.17791 
 4824000    268.38877    264.27394    201.56019   -14398.314    14420.326    62.713745    37.180881 
 4828000    295.74048     332.1341    267.10538     -14437.6    14436.149    65.028721    37.236456 
 4832000    277.11938    375.43077    234.32425   -14455.282    14458.433    141.10652    37.237119 
 4836000    286.89791    569.48034    408.28071   -14464.079    14476.846    161.19963    37.201276 
 4840000    298.14556    321.63082    141.92536   -14495.221    14495.552    179.70546    37.229283 
 4844000    281.88645    482.45755    245.17482   -14525.968    14530.227    237.28273    37.238045 
 4848000    302.31796    365.51321    295.01094   -14508.496    14529.924    70.502273    37.239537 
 4852000    274.32366    423.57706    256.72816   -14544.636      14565.4     166.8489     37.25119 
 4856000    292.42346    377.33437    230.16682   -14598.449    14596.558    147.16755    37.233334 
 4860000     287.1953    235.59262     193.4337   -14624.643    14618.506    42.158929    37.304631 
 4864000    307.33383    339.33611    300.09761   -14652.371    14638.894    39.238501    37.325452 
 4868000    305.99039    446.65002    318.39238   -14687.916    14688.767    128.25765    37.305101 
 4872000    292.36881    600.08993    391.20969    -14705.42    14707.898    208.88024     37.28132 
 4876000    238.78108    303.82817    273.20671   -14715.086    14739.241    30.621464    37.273564 
 4880000    250.05321    427.79865    417.52508   -14752.143    14755.121    10.273564     37.24442 
 4884000    290.95287    354.13296    354.20697   -14785.337    14772.419 -0.074013142    37.205637 
 4888000    292.95389    211.39552    313.38848   -14793.945     14795.89   -101.99297     37.20397 
 4892000    271.62968    454.79977    339.77153   -14810.277    14809.131    115.02824    37.209018 
 4896000    276.84594    405.74485      254.354   -14829.203    14846.352    151.39085    37.230204 
 4900000    273.83368    378.86186    279.02731   -14842.403    14856.074    99.834547    37.218136 
 4904000    274.33599     396.1043    406.04295   -14866.973     14885.61   -9.9386515    37.264732 
 4908000    274.22969    308.85377    344.89696   -14873.629    14874.686   -36.043189    37.315205 
 4912000    271.56245    208.83936    175.32196   -14895.257    14919.062    33.517393    37.317523 
 4916000    285.82202    224.18378    409.36454   -14906.457    14910.852   -185.18076    37.319737 
 4920000    284.94569    430.31719    323.75196   -14915.346    14934.128    106.56522    37.313555 
 4924000    270.00927    562.71582    344.38822   -14949.381     14961.39    218.32759    37.298185 
 4928000    285.45915    265.99115    349.50255   -14949.663    14972.311   -83.511396    37.254332 
 4932000    304.49878    336.57517    371.72835   -14988.872    14984.695   -35.153177    37.271677 
 4936000    305.27554    215.76876    419.43484   -15020.687    15000.543   -203.66608    37.287883 
 4940000    277.86508    189.75063    356.69287   -15006.241    15021.145   -166.94224    37.311545 
 4944000    273.39616    196.93278    380.83456   -15034.398    15046.821   -183.90178    37.320207 
 4948000     264.8946    351.29454     294.4432   -15037.758    15056.927    56.851339    37.334153 
 4952000    276.84162     501.5671    369.82491   -15054.453    15075.387     131.7422     37.33315 
 4956000    243.13899    232.24074    301.91671    -15047.89    15092.408   -69.675965    37.375903 
 4960000    314.21847    368.83509    258.50917   -15114.179    15097.379    110.32592    37.359313 
 4964000    272.48142    204.12824    285.17202    -15082.29    15123.211   -81.043775    37.389207 
 4968000    264.11268    240.50352    244.05834   -15110.343    15119.037    -3.554823     37.38049 
 4972000    275.61246    326.84221    289.35408   -15125.331    15136.065    37.488128    37.421703 
 4976000    262.79766    346.83809    320.19315   -15134.143    15146.596    26.644937    37.429557 
 4980000    296.55859     430.8542    441.17882   -15161.142    15177.002   -10.324612    37.391731 
 4984000    303.32124    479.29807     342.1861   -15196.898    15200.624    137.11197    37.402588 
 4988000    282.74347    370.91404    413.19915    -15191.16    15200.636   -42.285106    37.428778 
 4992000    282.85254    515.91171    182.43479   -15221.162    15221.569    333.47692    37.411664 
 4996000    289.24613    569.36641    134.67784   -15216.503     15221.13    434.68856    37.372756 
 5000000    277.30749     343.3383    162.26177   -15238.145     15249.69    181.07653    37.354143 
 5004000     284.6039    276.66533    366.87792   -15239.211    15261.897   -90.212585    37.330466 
 5008000    293.44486    311.83212    287.08962   -15279.185    15304.728    24.742497    37.337237 
 5012000    246.31477    603.95133    142.32058   -15286.491    15314.143    461.63075    37.321527 
 5016000    278.85815     405.4479     326.2968   -15311.779    15337.244    79.151099    37.318948 
 5020000    274.35342    437.37167    360.15416   -15361.715    15360.735    77.217506    37.323597 
 5024000    276.13563    245.49427    343.80251    -15355.37    15373.914   -98.308247    37.267441 
 5028000    267.40594    397.76394    256.78777   -15373.351    15397.838    140.97617    37.259942 
 5032000    287.80362    455.69318    324.55735   -15400.234    15391.564    131.13583    37.270113 
 5036000     313.1162    268.09956    409.76554   -15409.997    15406.228   -141.66598    37.315363 
 5040000    299.79218    392.24855     541.9353   -15432.938     15431.22   -149.68675    37.299413 
 5044000    282.19883    289.82541    364.97255   -15462.907    15463.498    -75.14714    37.232801 
 5048000    303.63289    175.59511    276.98044   -15494.733    15491.384   -101.38533    37.207055 
 5052000    260.64842    361.96423    178.47749   -15520.334    15520.552    183.48674    37.218697 
 5056000    283.02861     251.3358    413.93228   -15505.969     15523.82   -162.59647      37.2409 
 5060000    280.44306    400.96269    380.17084   -15506.954    15518.288    20.791857    37.247824 
 5064000     278.1014    223.01385    157.17859   -15525.274    15540.429    65.835256    37.222797 
 5068000    283.92678    446.82722    237.49091   -15564.437    15573.423    209.33632    37.204421 
 5072000    325.29848    284.74485    407.02728   -15591.082    15574.397   -122.28243    37.155112 
 5076000    306.34898    362.63024    454.75105   -15597.664    15593.907   -92.120811     37.14691 
 5080000    308.51092    471.48892    423.40551   -15601.533    15587.845    48.083412    37.136452 
 5084000    294.93001    524.50285    244.69439   -15618.473    15604.961    279.80846    37.128423 
 5088000    282.30512    314.78836    239.79608    -15635.21    15641.061    74.992282    37.107943 
 5092000      325.583    315.35297    246.27696   -15644.225    15608.138    69.076008    37.126488 
 5096000    301.95135    564.60289    403.16325   -15659.438    15646.434    161.43964    37.079103 
 5100000    267.98906     253.1404    282.39697   -15688.701    15684.289   -29.256565    37.093888 
 5104000    306.48035    363.62588    351.47622   -15731.028    15706.042    12.149652    37.095601 
 5108000    297.93304    455.41103    192.82153   -15723.206    15729.853     262.5895    37.117746 
 5112000    286.14856    313.43423    240.36815   -15737.721    15755.549    73.066074    37.140278 
 5116000    288.44127     282.8959    250.01225   -15740.704    15765.787    32.883654    37.162946 
 5120000    254.52155    455.42465    154.77587   -15749.301    15777.019    300.64878    37.198554 
 5124000    276.74892    204.06122    316.17409   -15750.622    15760.232   -112.11288    37.195394 
 5128000    305.54675    355.99562    452.76652   -15755.974    15738.208   -96.770901    37.190071 
 5132000    296.60358    333.66614    201.09774   -15754.833    15754.146     132.5684    37.179243 
 5136000    264.06562    328.90419    162.89438   -15753.635    15790.279    166.00982    37.180504 
 5140000    284.95228    315.22105    226.13543   -15766.868    15774.058    89.085616    37.204978 
 5144000      281.279    420.28015    278.05229   -15823.398    15823.703    142.22787    37.231754 
 5148000    282.17648    529.38213    399.89495    -15843.58    15855.941    129.48718    37.208733 
 5152000     276.6679    493.06366    314.80413   -15854.853    15878.142    178.25953    37.217278 
 5156000    286.90318    468.47298    301.73789   -15879.157    15897.201    166.73509     37.18875 
 5160000    272.59121    314.78059     238.1661   -15922.382    15918.186    76.614492    37.171492 
 5164000    300.02759    626.64975    366.66579   -15962.671    15950.032    259.98396    37.190936 
 5168000    272.19467     369.9811    257.67709    -15955.75    15959.415    112.30401    37.219439 
 5172000    286.93502     643.6262    284.23123   -15977.701    16003.455    359.39497    37.236977 
 5176000    298.13147    349.04489    342.62376   -15996.341    16023.243    6.4211267    37.265625 
 5180000    268.04201    265.69639    369.68311   -16018.175    16034.185   -103.98673    37.227624 
 5184000    303.82252    421.21138     290.9672   -16034.186    16030.477    130.24418    37.251266 
 5188000    320.49993    392.62467    230.00769   -16061.388     16034.53    162.61698    37.235399 
 5192000    298.84638    440.85879    448.15245   -16062.463    16062.763   -7.2936588    37.222241 
 5196000    262.48883    236.27004    354.62502   -16074.174    16086.741   -118.35498    37.201947 
 5200000    307.09222    280.83928    288.07844   -16082.869    16096.423   -7.2391645    37.183131 
 5204000    284.11414    321.34359    314.88484   -16088.913    16112.823    6.4587484    37.205474 
 5208000    291.06197    447.32169    281.21315   -16133.337    16128.172    166.10854    37.225442 
 5212000    248.16775    324.17783    312.03747   -16153.878    16179.199    12.140362    37.188655 
 5216000    274.65149    299.42221    149.06545   -16193.622    16217.628    150.35676    37.215919 
 5220000    269.79107    354.62275    314.62636    -16217.13     16250.08    39.996392    37.214299 
 5224000    265.94379    364.85563    269.95505   -16251.131    16260.747    94.900582    37.212729 
 5228000    272.26918    375.78591    236.61368   -16298.154    16281.182    139.17223    37.202127 
 5232000    300.18434    443.07349    297.85225   -16329.635    16314.425    145.22123    37.192681 
 5236000    288.95887    292.56349    621.30962   -16356.524    16335.462   -328.74613    37.170299 
 5240000    311.18248    507.89188    256.58863     -16395.2     16376.39    251.30325    37.177835 
 5244000    307.95858    381.85984    272.62308   -16405.487     16401.31    109.23677    37.163223 
 5248000    292.74123    266.64218    308.57016   -16426.331     16419.39   -41.927987     37.13894 
 5252000    314.29508    280.85177    354.21486   -16436.472    16440.988   -73.363095    37.124942 
 5256000    277.25174    445.02017    308.36843   -16468.191    16489.477    136.65174     37.10189 
 5260000    318.99849    251.80479    376.31264   -16509.289    16485.067   -124.50785    37.084416 
 5264000    293.53055    357.56685    458.30769   -16515.059    16513.558   -100.74084    37.087665 
 5268000     253.1589    203.84199    204.20257   -16534.528    16550.553  -0.36057634    37.066885 
 5272000    282.19943     290.1983    157.30508     -16564.3     16578.47    132.89323    37.049717 
 5276000    279.57827    237.71941    656.24154   -16588.109    16587.285   -418.52213    36.991262 
 5280000    316.41026    469.18971    220.80412   -16622.164    16596.612    248.38559    36.996638 
 5284000     268.9977    409.52973    257.34068   -16617.811     16640.76    152.18905    37.008473 
 5288000     260.9867     451.8865     342.2196   -16619.395    16633.861    109.66689    36.961965 
 5292000    268.88772    221.35033     389.8726   -16631.568    16645.809   -168.52227    36.980141 
 5296000    302.57042    425.41024    311.76178   -16647.082    16661.648    113.64847    36.942039 
 5300000    292.48645    569.82187    214.60462    -16699.79    16703.954    355.21725    36.920512 
 5304000    313.16028     317.8345    320.18803   -16753.105     16735.88   -2.3535323    36.883033 
 5308000     284.8969    375.73302    350.28474    -16766.26    16767.093    25.448281    36.863868 
 5312000     270.3781    391.38094    390.58737   -16780.168     16790.02   0.79356368    36.891736 
 5316000    240.33027    235.71645    197.17245   -16797.796    16844.205    38.543996    36.860455 
 5320000    254.68953    282.96226    388.16489   -16829.913    16869.427   -105.20263    36.856349 
 5324000    287.04314    298.86992    351.84382   -16864.209     16879.58   -52.973906    36.892298 
 5328000    313.15803    503.15213    320.19576   -16892.238    16882.874    182.95636     36.88409 
 5332000    274.13323    503.70505    297.59773   -16900.018     16914.25    206.10732    36.942704 
 5336000    279.12949    309.38344    265.02358   -16914.463    16937.783    44.359867    36.920687 
 5340000    269.69293    327.49656    210.44524   -16930.216     16947.06    117.05133    36.930205 
 5344000     265.9792    424.74554    293.35121   -16950.603    16974.394    131.39433    36.952764 
 5348000    248.80121    360.25548     315.9939   -16969.916    16998.675    44.261585    36.951001 
 5352000    282.62676    361.99204    355.47973   -16989.272    16994.142    6.5123125    37.001303 
 5356000    263.95947    400.49375    273.39841   -17018.408    17038.904    127.09534    36.987496 
 5360000    267.20717    244.74662    384.77318   -17026.508    17052.258   -140.02656    36.993357 
 5364000    284.41946    194.86403    211.20452   -17069.799    17082.565   -16.340491    36.998804 
 5368000     288.7689    390.24145    382.15525   -17075.209    17075.379    8.0862022    36.978978 
 5372000    281.42306    393.11133    395.68608   -17097.024    17095.723   -2.5747502    36.980755 
 5376000    284.43034     358.9573     474.5154    -17109.35    17103.462    -115.5581    36.949552 
 5380000    289.75383    366.00131    407.34918   -17137.616    17133.562   -41.347874    36.975494 
 5384000    289.37447    542.63732    234.91626   -17164.776    17158.401    307.72106    36.974209 
 5388000    297.52517    313.96102    372.04384   -17167.415    17167.953   -58.082818    36.990595 
 5392000    297.81976     392.7678    294.93061   -17176.706    17174.914    97.837194    37.029994 
 5396000    282.54257    323.57827    311.04078   -17195.443    17206.498    12.537494     37.00944 
 5400000    269.12365     207.7593    370.32354   -17224.487    17255.679   -162.56425    37.035382 
 5404000    286.86605    513.62122    250.29222   -17275.945    17275.499      263.329    37.050166 
 5408000    289.96961    346.58815    253.12042   -17271.594     17293.81     93.46774    37.082488 
 5412000    245.82837    353.88476    268.25866   -17262.354    17289.941    85.626098    37.064934 
 5416000    261.25575    364.39897    298.91305   -17288.013    17297.723    65.485918    37.049736 
 5420000     300.4747    338.59284    337.95125   -17319.223    17312.651   0.64158816    37.021111 
 5424000    277.28392    237.95758    287.02899   -17302.877    17314.779   -49.071403    37.030522 
 5428000    257.18712    491.29716    273.82803   -17335.905    17343.114    217.46912     37.01865 
 5432000    288.74239    279.49679    242.75581   -17344.673    17363.149    36.740975    37.027807 
 5436000    287.21846    296.87998    427.90641   -17359.331    17366.253   -131.02643    37.029503 
 5440000     273.8166    347.40984    390.37376   -17372.987    17382.763   -42.963923     37.02613 
 5444000    283.69367    355.79206    365.33028   -17390.762    17414.179   -9.5382187     37.00989 
 5448000    283.76882    254.95443    419.75706   -17400.799    17418.527   -164.80262    37.002911 
 5452000    272.95939    378.89689    155.95555   -17436.326    17460.417    222.94134    36.976661 
 5456000    276.15711    457.40063    184.67085   -17457.445    17498.352    272.72978    36.996551 
 5460000    276.80502    457.74677    332.16645   -17506.126    17507.079    125.58031    37.021466 
 5464000    293.50475    283.04318    313.84736   -17536.592    17527.201   -30.804173    37.019394 
 5468000    266.66884    327.81907    394.16117   -17530.987    17551.035     -66.3421    37.056328 
 5472000    251.64646    304.56713    398.86702   -17527.047    17569.079   -94.299887    37.065129 
 5476000    301.29723    229.47607    379.82827   -17565.715    17576.266    -150.3522    37.076179 
 5480000    309.80154    391.87553    389.12591   -17590.021    17598.025    2.7496185    37.096745 
 5484000    255.55634      271.338    478.23957   -17592.983    17622.935   -206.90158    37.083985 
 5488000    263.53138    445.75286    417.25073   -17649.869    17648.747    28.502128    37.062035 
 5492000    287.76291    404.66576    280.57972   -17669.738    17666.869    124.08604    37.051185 
 5496000    285.25298    390.27869    315.39157   -17696.155      17689.9    74.887127    37.057758 
 5500000    281.71217    370.72866    337.79002   -17703.704    17707.104    32.938643    37.039088 
 5504000    287.82188    149.90721    299.07132   -17720.093    17719.922   -149.16411    37.026246 
 5508000    285.10458      333.152    150.53274    -17734.65    17748.529    182.61927    37.088162 
 5512000    311.06105    411.82826    331.71207   -17758.434    17729.967    80.116187     37.13257 
 5516000     288.2862    522.82473    219.49602   -17761.459    17771.551    303.32871    37.142684 
 5520000    268.07746    363.57736    487.71256   -17779.482    17791.859    -124.1352    37.185634 
 5524000    288.14994    242.24739     446.2783   -17790.959    17804.911   -204.03091    37.176579 
 5528000    280.36089    315.30175    295.15997   -17810.715    17819.541    20.141777    37.176383 
 5532000    274.81345    373.31034     300.9897   -17840.567    17848.125    72.320638    37.146705 
 5536000    276.36198    330.60549    235.99804   -17872.514    17865.858    94.607454    37.127202 
 5540000    288.14916    367.44292    339.74458   -17880.856    17892.378    27.698343    37.103663 
 5544000    259.47198    268.84535    382.68091    -17888.09    17901.628   -113.83556    37.088249 
 5548000     293.7342    410.03148    242.28174   -17906.441     17921.03    167.74975    37.071856 
 5552000    267.55412     428.7865    478.87479   -17927.961    17945.768   -50.088294     37.04896 
 5556000    295.79209    437.93159    111.29235   -17994.044    17983.662    326.63924    37.068256 
 5560000     301.9156    417.42393    190.76821   -18010.942    18000.089    226.65572    37.065592 
 5564000    290.58281    415.92979    539.14689    -18044.97    18053.265    -123.2171    37.076383 
 5568000    264.43233    253.44337     212.2374   -18068.731     18098.97    41.205976    37.051682 
 5572000    273.35572    434.79568    471.12122   -18110.856    18111.822    -36.32554    37.041003 
 5576000    259.57954    446.15623    496.18124   -18116.942    18129.256   -50.025007    37.050018 
 5580000    278.82536    543.32209    263.23646   -18121.213    18140.019    280.08564    37.051043 
 5584000    309.94323    245.53154    371.70267   -18160.918    18149.258   -126.17114    37.095776 
 5588000    277.24356    357.72693    228.25236   -18155.786    18160.639    129.47458    37.126993 
 5592000    288.76388    218.75035    281.41041   -18164.119     18185.44   -62.660064    37.140457 
 5596000    251.57181    337.41638    231.13406   -18174.689    18211.487    106.28232    37.110181 
 5600000    256.53054    270.55528    351.92746    -18183.04    18217.919   -81.372186    37.148239 
 5604000    280.11933    436.75438     288.4214   -18223.259      18245.7    148.33298    37.182129 
 5608000    282.27596     275.7551    239.80752   -18227.881    18241.685    35.947575    37.205682 
 5612000    280.82803    484.37706    462.89604   -18229.796    18247.649    21.481023     37.21679 
 5616000    275.04415    273.23219    440.51909   -18249.451    18257.532    -167.2869    37.235357 
 5620000    271.61361    344.56612    334.43674   -18267.099    18274.817    10.129381    37.252501 
 5624000    287.34186    355.49125    237.25219   -18296.463    18303.683    118.23906    37.229429 
 5628000     269.0763    451.45296    373.51382   -18318.257     18322.75    77.939137    37.214431 
 5632000    288.95037    384.93321    429.18516   -18339.501    18362.653   -44.251957    37.201577 
 5636000    281.25207    245.20577    442.22725   -18360.897    18363.138   -197.02148     37.16886 
 5640000     301.0634    265.41103    280.09658   -18394.354    18383.768   -14.685547    37.182719 
 5644000    288.46349    202.03438    331.41953   -18405.385     18412.84   -129.38515    37.171367 
 5648000     268.3264    278.24303    306.97992   -18400.809    18436.995   -28.736891    37.132083 
 5652000    282.55555    307.61514    299.85455   -18428.467    18450.446    7.7605948     37.12255 
 5656000    280.66664     368.1604    454.11121   -18439.314    18446.768   -85.950812    37.163907 
 5660000    289.66951     546.5518     425.0942   -18452.188      18465.1     121.4576    37.137026 
 5664000    289.39235     268.9041     281.5041   -18493.801    18482.701   -12.600003    37.137102 
 5668000    272.71618       665.39    389.13591   -18523.029    18517.957    276.25409    37.126938 
 5672000    308.47531    239.18195    311.78493   -18539.911    18512.844   -72.602985    37.151509 
 5676000    300.27822    288.79112    535.49277   -18557.365    18561.815   -246.70165    37.130307 
 5680000    306.34893    474.03329    376.22431   -18586.831    18583.917    97.808987     37.14054 
 5684000    289.06149    248.20908    310.56286   -18568.629    18573.773   -62.353786    37.123301 
 5688000    276.97691    315.06478    430.33059   -18578.602    18589.464   -115.26581    37.110202 
 5692000    313.01883    254.28221    178.70693   -18609.536    18600.911    75.575279    37.132516 
 5696000    295.63201    242.72659     339.4226   -18625.732    18616.165   -96.696008    37.170634 
 5700000    271.20254     305.1845     326.4375   -18641.427    18655.002   -21.253004    37.196656 
 5704000    283.65916    204.54183    365.06859    -18650.63    18646.761   -160.52675    37.186774 
 5708000    287.45306     347.3585    327.08042    -18678.38    18662.273    20.278076    37.193134 
 5712000    271.71548    441.88349    447.33619   -18698.688    18691.104   -5.4526986    37.198509 
 5716000    280.56339    508.08296    417.60113   -18749.263    18727.398    90.481828    37.212251 
 5720000    268.36556    429.66714    403.95061    -18741.14    18737.716    25.716524    37.192619 
 5724000    298.98934    314.35983    270.97629   -18773.218    18778.821    43.383542    37.167315 
 5728000    290.42668    404.76207    308.04588   -18796.474    18805.653    96.716197    37.164706 
 5732000    283.16721    296.49694    215.72633   -18821.832    18813.001    80.770604    37.216097 
 5736000    283.55645    281.59126    367.68347   -18808.993     18811.43   -86.092217    37.218016 
 5740000    277.93895    235.48168    278.05527   -18849.819    18840.354   -42.573588    37.220119 
 5744000    283.78944    357.85475    225.55466   -18847.151    18865.264    132.30009     37.21637 
 5748000    279.47791    356.73945    265.75045   -18886.093    18892.508    90.988991    37.212773 
 5752000    282.30833    409.13248    372.41189   -18909.324    18897.267    36.720596    37.239034 
 5756000    269.80775    409.14507    259.15331   -18920.071    18938.764    149.99176    37.203899 
 5760000    274.71446     268.8703    278.36944   -18949.353    18969.495   -9.4991432    37.242706 
 5764000    286.54365    370.61844    243.84836   -18983.053    18989.256    126.77008    37.224884 
 5768000    269.68637      245.854    490.33325   -19006.402    19030.676   -244.47925    37.271557 
 5772000    273.27513    247.17131    576.76475   -19032.506    19046.392   -329.59344    37.265341 
 5776000    316.92293    154.14226    388.06016   -19086.091    19069.739   -233.91791    37.282126 
 5780000    252.08085    440.70509    384.12617   -19107.591    19136.373    56.578925     37.34002 
 5784000     289.5279    398.62536    396.18299   -19133.002    19157.949    2.4423692    37.340808 
 5788000    280.16236    421.47208    365.17761   -19170.585    19177.461    56.294474    37.356006 
 5792000     286.7573    330.70396       376.91   -19171.214    19179.493   -46.206036     37.39221 
 5796000    257.55285    214.80505    304.98053   -19188.679    19225.116   -90.175481    37.399859 
 5800000    280.45577    346.44874    266.14064   -19225.788    19238.587    80.308102    37.401929 
 5804000    315.58641    488.65905    379.44392   -19264.642    19257.127    109.21512    37.416103 
 5808000    268.16851    206.91651    311.48509   -19274.517    19285.399   -104.56858    37.414899 
 5812000    283.38274    383.78291    188.64597   -19269.546     19282.27    195.13695    37.403506 
 5816000    303.94628    402.82199    314.47171   -19283.167    19292.433     88.35028    37.390517 
 5820000     309.8015    319.24082    571.29903   -19300.954    19301.254    -252.0582    37.370955 
 5824000    287.32642     191.1644    421.07312   -19309.021    19318.522   -229.90872    37.395313 
 5828000     261.2394     256.1034     311.6955    -19329.96    19344.743   -55.592103    37.433417 
 5832000    296.09245    451.11164     371.0091    -19367.27    19375.851    80.102536    37.406162 
 5836000    314.57086    540.18352    234.19513   -19370.137    19380.247    305.98839    37.384701 
 5840000    276.81205    353.57817    346.96707   -19382.886    19394.621       6.6111    37.376401 
 5844000    251.81813    409.60495    306.20049   -19386.694    19410.817    103.40446    37.386831 
 5848000    249.58307    355.70783    183.58992   -19408.186    19439.551    172.11791    37.394401 
 5852000    269.57495    296.53229     422.3547   -19439.006    19449.394   -125.82241    37.368749 
 5856000    283.37313    272.04332    296.01101   -19457.788    19464.423   -23.967688    37.346156 
 5860000    314.48638    291.12119    285.81679   -19469.335    19478.401    5.3044007    37.328167 
 5864000    267.11047    445.89886    175.53722   -19479.439    19495.369    270.36164    37.327992 
 5868000    272.70395     394.0305     349.5672   -19490.109    19488.112      44.4633    37.311077 
 5872000    287.06281    354.10321    312.66437   -19485.885    19505.211    41.438839    37.290235 
 5876000    284.88787    443.48575    396.52533    -19522.26    19540.039    46.960419     37.31595 
 5880000    264.41639    263.72313    217.37469   -19550.462    19573.611    46.348439    37.303473 
 5884000    280.10895    189.56732    444.57669   -19563.068    19563.843   -255.00937     37.28529 
 5888000    286.12235    359.64697    519.86515   -19533.889    19561.248   -160.21818     37.26954 
 5892000    297.32558    269.44287    232.05078   -19571.934    19561.185    37.392094    37.325342 
 5896000     293.7792    502.07264    271.94756   -19577.398    19584.606    230.12507    37.362264 
 5900000    290.95502    352.11308    310.51205   -19590.033    19595.463    41.601029    37.349925 
 5904000    282.99979    452.80316    318.52886   -19594.186    19608.919     134.2743    37.358035 
 5908000    284.34925    431.08354    191.71682   -19602.906    19614.011    239.36672    37.356519 
 5912000    296.86177     380.8457    154.39276   -19613.941     19624.31    226.45294    37.356925 
 5916000    274.57234    412.89259     261.6457   -19641.179    19648.524    151.24689    37.371153 
 5920000    302.18797    457.55862    300.15149    -19644.01    19632.704    157.40713    37.339861 
 5924000    266.27173    318.88447     462.7227       -19655    19658.305   -143.83822     37.33374 
 5928000    294.54874    381.76634    278.19337   -19684.568    19704.324    103.57298    37.363949 
 5932000    282.39596    365.46597    200.86448   -19733.949    19738.199    164.60148    37.380844 
 5936000    280.44358    439.86762    256.59644   -19765.364    19776.011    183.27118    37.373449 
 5940000    281.99744     418.1979    223.97948   -19778.107    19799.958    194.21842    37.370963 
 5944000    301.89892    288.96061    210.12949   -19796.777    19825.432    78.831114    37.356763 
 5948000    266.43392    373.20372     456.9757   -19811.638    19827.069   -83.771976     37.33977 
 5952000     247.2655    279.15313    171.99118   -19821.675    19846.991    107.16195    37.332089 
 5956000    288.85095    318.94543     396.3955   -19861.064    19870.078   -77.450068    37.316343 
 5960000    289.68044    390.45011    246.91509   -19875.419    19898.606    143.53502    37.331029 
 5964000    274.60783    419.66891    228.22342   -19897.477    19912.912    191.44549    37.315441 
 5968000    253.79012    283.59862    349.74969   -19905.714    19923.039   -66.151068    37.282778 
 5972000    282.77866    181.86749    208.88822   -19937.455    19935.749   -27.020735    37.262537 
 5976000    290.17559    454.21303     288.7577   -19967.768    19966.909    165.45533    37.273832 
 5980000    306.29982    262.70454    263.45318   -19992.531    19975.252  -0.74864408     37.30373 
 5984000    272.86521    479.49878    245.78213   -19997.027    20000.945    233.71665    37.290234 
 5988000    257.42897    178.65854    244.98235   -19976.138    20019.345   -66.323804    37.297967 
 5992000    278.02982     431.0022    324.37402   -20012.653    20035.075    106.62818    37.274933 
 5996000    268.47562    374.52143    432.15999   -20030.644    20051.306   -57.638568    37.303466 
 6000000    302.05451    183.84212    250.85198   -20035.284    20033.652   -67.009854    37.329371 
 6004000    290.61074    467.84293     429.5935   -20050.082    20065.162    38.249426    37.319201 
 6008000    299.05534    283.81985    342.81955   -20050.234    20057.907   -58.999691    37.310357 
 6012000    276.23315    362.12386    215.44028    -20045.82    20066.429    146.68357    37.334963 
 6016000    272.82778    350.94201    153.12236   -20065.268    20087.254    197.81964     37.33681 
 6020000    317.18136    387.76372    254.94884   -20093.625    20076.949    132.81488    37.338846 
 6024000    275.19489     350.6393    254.36961   -20102.997     20117.35    96.269691    37.357848 
 6028000     268.2663    447.05122    177.05775   -20132.245    20145.266    269.99347    37.392857 
 6032000     293.7046     326.0809    270.15414   -20161.896    20159.104     55.92676    37.405331 
 6036000    305.67674    370.28443    489.65778   -20175.484    20169.532   -119.37335    37.417431 
 6040000    287.95176    192.34797    459.36224   -20183.372    20194.058   -267.01427    37.412158 
 6044000    286.34287     259.1756    255.81734   -20190.918    20202.426    3.3582554    37.436972 
 6048000    264.02079    414.03158    278.56273   -20214.649    20232.352    135.46885    37.428794 
 6052000    279.01317    439.82247      311.615   -20245.037    20235.842    128.20748    37.402302 
 6056000    281.38159    417.82968    428.15375   -20235.716    20265.294   -10.324068    37.394248 
 6060000    276.80541    444.84127       507.33   -20259.527    20269.992   -62.488733    37.390176 
 6064000    295.27912    220.27128    344.88261   -20298.165    20284.898   -124.61133    37.427404 
 6068000    283.09679    341.71239    289.91545    -20345.05    20324.112    51.796933    37.457951 
 6072000    276.99378    395.41569    541.47808   -20344.824     20351.36   -146.06238    37.466442 
 6076000    276.79877    298.90611    268.46255   -20364.901    20372.058     30.44356    37.470448 
 6080000    290.64534    206.49451     323.3432   -20371.061    20386.573   -116.84869    37.428334 
 6084000    281.65731    392.03668    287.27005    -20395.19    20403.773    104.76662    37.449897 
 6088000    280.44246    276.47903    288.18847   -20400.782    20422.465   -11.709439    37.465977 
 6092000    274.01414    335.66931    421.95857   -20455.857    20466.715   -86.289259    37.487986 
 6096000    289.16464    294.28487    624.45008   -20459.982    20479.034   -330.16521    37.511645 
 6100000    299.78692    298.68351    322.12296   -20495.266    20493.874   -23.439445     37.49961 
 6104000    292.89533    440.87784    343.69608   -20495.828    20516.113    97.181755    37.481131 
 6108000    300.58987    377.03725    242.03868   -20526.857    20516.174    134.99856    37.492779 
 6112000    335.69348    516.96068    360.58315   -20570.814    20554.943    156.37753    37.492969 
 6116000    259.43479    541.32214      264.688   -20555.645    20576.281    276.63415    37.464191 
 6120000    261.35936    572.62526    401.61402   -20553.156    20569.344    171.01124      37.4538 
 6124000    301.10502    579.52316    355.96432   -20566.831    20571.866    223.55884    37.455951 
 6128000    312.12395    276.90062    384.71775   -20585.311    20592.739   -107.81714    37.451529 
 6132000    296.20749    456.07409    326.14517   -20622.739    20627.587    129.92892    37.459771 
 6136000    297.65661    393.81016    386.70979   -20664.168    20658.778    7.1003778    37.443788 
 6140000    288.42481    376.08401    303.95309   -20662.825     20673.68    72.130926    37.431969 
 6144000     267.1216    323.13547     428.9318   -20665.383    20684.083   -105.79633    37.423424 
 6148000    242.63402    384.93754    342.27346    -20673.14    20711.105    42.664079    37.466655 
 6152000    268.56224    173.78635    269.56894   -20698.598     20705.85   -95.782587    37.474926 
 6156000    279.72436     270.0906    203.22378   -20718.734    20739.675    66.866815    37.476178 
 6160000    320.92329    500.98128     282.6146   -20749.783    20749.917    218.36667      37.4914 
 6164000    306.78488    436.52221    375.18381   -20763.645    20781.844    61.338394    37.486708 
 6168000    257.39986    341.64603    186.47229   -20803.026    20831.416    155.17374    37.477017 
 6172000    286.11551     370.5024    320.51014   -20829.415    20855.272    49.992255    37.460346 
 6176000    263.05228    289.21518    210.79834   -20851.914    20894.038    78.416845    37.426352 
 6180000    272.16706    210.88103     332.0386   -20874.071    20875.215   -121.15757    37.426682 
 6184000    320.74627    485.51331    399.49108   -20915.807    20917.723    86.022228    37.415332 
 6188000    274.32525    477.93297    319.33783   -20929.789    20956.073    158.59514    37.430334 
 6192000    251.53706    257.95164    240.43363   -20963.758    20981.544    17.518008    37.434011 
 6196000    281.93851    438.40531    221.47756   -20966.348     20983.19    216.92775    37.446668 
 6200000    283.64677     477.4405    265.31814   -20953.054    20974.959    212.12236    37.452981 
 6204000    281.05602    379.92938    243.89799    -21003.59    21015.596    136.03139    37.439744 
 6208000    289.83483    266.63942    348.87561   -21017.593     21010.21   -82.236191    37.458341 
 6212000    288.06631    231.66671    345.09563   -21036.978    21036.731   -113.42892    37.446606 
 6216000    258.54431    456.56489    360.10102   -21043.006    21068.092    96.463875    37.434063 
 6220000    268.70295    219.15021    301.73722   -21064.639    21080.104   -82.587006    37.408864 
 6224000    270.40082    488.48509    255.51366   -21069.345    21083.837    232.97143    37.402004 
 6228000     262.9038    247.85215    312.39473   -21089.211    21110.892   -64.542582    37.416846 
 6232000     290.1988    307.16495    357.64067    -21099.98    21109.433   -50.475718    37.429833 
 6236000    261.13795     515.8405    306.89328   -21135.923    21136.421    208.94722    37.459412 
 6240000    262.18121    362.52814    553.60594   -21148.151    21165.336    -191.0778     37.42977 
 6244000    240.26662    239.62071    379.65897   -21166.014    21195.297   -140.03826    37.414831 
 6248000    275.09279    441.81263    258.41058   -21183.217    21208.611    183.40205    37.439982 
 6252000    294.22885    441.99095    365.33682   -21209.596    21206.693    76.654128    37.434792 
 6256000    301.03574    389.49528    297.25016   -21221.106    21216.984    92.245123    37.461051 
 6260000    282.20965     424.1419    242.27225   -21228.484    21238.287    181.86965    37.433171 
 6264000     249.2539    209.73622    512.80964   -21217.594    21255.009   -303.07342    37.438801 
 6268000    270.60583    337.77105    308.55204   -21231.146    21241.183    29.219008    37.434606 
 6272000    280.99027     292.6804    296.10432   -21255.602    21280.516   -3.4239183    37.455291 
 6276000     264.1188    303.39463    295.16464   -21305.288    21314.713     8.229993    37.468004 
 6280000    293.63903    366.96685    264.78104   -21302.143    21303.764    102.18581    37.482074 
 6284000    294.51568     504.2093    498.09366   -21299.762    21298.552    6.1156369    37.470929 
 6288000    315.13556    386.07676    263.09581   -21287.691    21270.713    122.98095    37.508353 
 6292000    262.92979    224.08464    289.03117   -21315.422    21322.205   -64.946532    37.487903 
 6296000    301.99249    420.79085     373.4941   -21344.766    21334.833    47.296753    37.495528 
 6300000    278.05711    377.20515    357.16556   -21363.145    21380.604    20.039593    37.476262 
 6304000    293.24179    357.10953    239.44415    -21400.99    21392.062    117.66539    37.459081 
 6308000    269.10729    259.25969    204.73481   -21412.123    21442.822    54.524883    37.475758 
 6312000    264.99952    307.27659    278.16207   -21435.825    21469.039    29.114523      37.4862 
 6316000    290.39308    326.12026    367.82668   -21465.956    21483.561    -41.70642    37.469867 
 6320000    281.66373    240.22074    405.83705   -21493.689     21491.93   -165.61631    37.476764 
 6324000    305.04955    269.63055    279.72589   -21491.712    21479.026   -10.095345    37.525312 
 6328000    281.30961    293.02081    482.51017   -21501.773    21528.135   -189.48936    37.534683 
 6332000    297.41126    312.34744    320.59883   -21534.531    21535.114   -8.2513893    37.499469 
 6336000    294.76658    406.14854    307.10373    -21561.34    21557.286    99.044807     37.48132 
 6340000    239.48092    531.42862    250.31474   -21563.931    21596.005    281.11388    37.552379 
 6344000    290.89798    358.66552    318.93933   -21575.838    21594.919    39.726193    37.571204 
 6348000    295.91655     383.3508    220.20535   -21602.376    21590.267    163.14545     37.59771 
 6352000    267.93818    340.54066    333.61704   -21608.537    21636.291    6.9236148    37.582932 
 6356000     286.3669    178.27527    398.43465    -21626.37    21647.519   -220.15938    37.575722 
 6360000    303.78583    325.80717    301.21996   -21671.167    21677.187    24.587208    37.583495 
 6364000    269.52498    182.55857    438.02356   -21701.185     21712.51   -255.46499    37.583157 
 6368000    314.97533    435.82837     268.6338   -21734.027    21724.558    167.19457      37.5713 
 6372000    277.39793    601.15271    179.58559    -21742.49    21764.174    421.56712    37.557726 
 6376000    278.93908    468.05402    225.36511   -21781.162    21785.758    242.68891    37.537565 
 6380000    256.15795    212.42343    150.94963   -21798.163    21837.259    61.473794    37.523602 
 6384000    258.17688    323.01891    206.14975   -21812.968    21846.383    116.86917    37.518649 
 6388000    264.53488    448.67106    206.51349    -21834.39    21850.816    242.15757    37.530931 
 6392000    323.30305    402.16697    357.18844   -21878.045     21859.78    44.978524    37.526338 
 6396000    253.74813    242.85449    319.99008   -21840.353    21875.919   -77.135591    37.518378 
 6400000    253.05727    367.00891    447.79542   -21862.906     21887.63   -80.786514    37.519417 
 6404000    272.58246    268.87879    230.53707   -21859.169    21889.005    38.341713    37.532992 
 6408000    291.49241    370.40361    278.14525   -21922.531    21914.735    92.258354      37.5462 
 6412000    286.15108    340.14235    336.24107   -21922.305    21940.254     3.901283    37.526956 
 6416000    242.51945    355.66586    333.38921   -21930.619      21972.6    22.276651     37.51387 
 6420000    277.35422    226.15091    380.23534   -21979.026    21980.019   -154.08443    37.510183 
 6424000     260.2589    225.60079    263.36704   -22001.587     22024.36   -37.766253    37.509807 
 6428000    283.85599      357.421     221.4717   -22040.007    22026.895     135.9493    37.521301 
 6432000    269.78386    308.37117    290.30724   -22053.145    22068.331    18.063932    37.552375 
 6436000    305.90531    283.60018    360.17619   -22079.452    22072.358   -76.576005    37.537789 
 6440000    291.01223    348.98919    279.69901    -22087.72    22083.771    69.290186    37.543322 
 6444000    247.53878    83.141347    217.65374   -22097.163    22113.621    -134.5124    37.536402 
 6448000    276.65998    233.18221    361.00418   -22124.903    22138.463   -127.82198    37.536831 
 6452000    318.13235    660.44817    233.33836   -22158.233    22152.674    427.10981    37.551559 
 6456000    282.16032    353.46573    379.18954   -22163.176    22188.022   -25.723814    37.570805 
 6460000    281.07074    326.01147    408.83941   -22182.732     22200.85   -82.827941    37.572905 
 6464000     285.0916    501.65765    438.34407   -22192.234    22193.806    63.313588    37.578974 
 6468000    285.94769    408.88943     203.4834   -22213.559    22201.721    205.40603    37.573868 
 6472000    300.40522    385.41116    312.58765   -22253.351    22238.249    72.823513    37.559782 
 6476000    298.89643    478.95969    211.82443   -22280.898    22274.111    267.13525    37.567864 
 6480000    265.64608    320.85061    256.48443   -22261.422    22281.473    64.366176    37.526957 
 6484000    299.03624    367.08022    418.62961   -22273.898    22273.346   -51.549395    37.514035 
 6488000    294.74914    578.18244    256.33775    -22282.82    22288.482    321.84469    37.520309 
 6492000    283.26344    534.10541    305.41125   -22298.939    22314.316    228.69415    37.500674 
 6496000     268.1583    196.67925    397.71075   -22310.814    22318.052    -201.0315    37.496501 
 6500000    260.84634    251.97216    412.29584   -22322.309    22345.068   -160.32368    37.497486 
 6504000    298.25684    348.39433    364.63913   -22352.532    22359.529   -16.244795    37.460353 
 6508000    305.36676    346.36677    586.45974   -22366.469    22361.563   -240.09297    37.440306 
 6512000    267.77022    203.83896    371.45487   -22370.933    22368.122   -167.61591     37.39584 
 6516000    271.61087    383.98995    332.35482   -22393.221    22415.129    51.635122    37.414786 
 6520000    297.31471    399.07376    172.78754   -22431.032    22428.173    226.28622    37.415872 
 6524000    290.84958    293.63059    263.49731   -22464.398    22469.451    30.133277    37.399183 
 6528000     290.1736    241.70286    177.02667    -22469.81    22471.684    64.676192     37.39611 
 6532000    261.76559    449.48945    244.63308   -22485.767    22499.747    204.85637    37.416648 
 6536000    301.43304    280.68087    267.67824   -22489.769    22504.619    13.002639    37.402587 
 6540000     286.4205    318.49794    474.71248   -22509.723    22529.743   -156.21453    37.342298 
 6544000    304.39648    293.88205    215.42265   -22542.297    22538.599    78.459404    37.335693 
 6548000    299.12492     216.9924    346.20683   -22563.523    22565.992   -129.21443    37.328673 
 6552000    273.30461    388.22654    251.69998   -22588.943    22608.258    136.52656    37.328655 
 6556000    238.83498    261.18518    380.34933   -22608.385    22646.255   -119.16415    37.329956 
 6560000    264.73163    304.45925    235.43259   -22622.411    22651.744    69.026661    37.316827 
 6564000    288.83702    446.08305    413.75238   -22629.402    22653.002     32.33067     37.30748 
 6568000    291.21457    257.27535    360.83093   -22651.122    22670.611   -103.55558    37.329601 
 6572000    283.84798    357.59547    364.98158   -22664.508    22687.746   -7.3861155     37.35944 
 6576000    267.71528    412.38273    239.33125   -22700.431    22716.322    173.05148    37.388726 
 6580000    290.02514    513.18849    207.84698   -22713.737    22737.314    305.34151    37.405709 
 6584000    284.80203    370.68669    432.27831   -22728.343    22756.458   -61.591624    37.410369 
 6588000    289.61874     278.8362    402.62797   -22768.708    22777.118   -123.79177    37.404353 
 6592000    262.05868    299.07366    360.94265     -22775.4    22818.199   -61.868983    37.411723 
 6596000    269.49417    302.08682    524.58729   -22808.184    22828.072   -222.50046    37.405417 
 6600000    281.32715     328.5424    274.99236   -22816.665    22824.821    53.550035      37.4292 
 6604000    261.35966    195.77907    285.28788   -22818.081    22850.937   -89.508816    37.424624 
 6608000    271.10881    372.53734    339.02663   -22841.398    22870.355    33.510702    37.448655 
 6612000    289.53185    225.68763    197.39515    -22856.65    22863.881    28.292485    37.458257 
 6616000    303.00357    432.02315    320.82883   -22871.863    22859.112    111.19431    37.483884 
 6620000    279.27329    342.81612    359.39388   -22849.676    22877.299   -16.577754    37.496449 
 6624000     292.3536    210.77871    238.73371   -22910.099    22906.272   -27.954993    37.497042 
 6628000    259.20188    320.11823    261.01802   -22894.821    22904.948    59.100211    37.496933 
 6632000    294.98756    383.45631    351.42415   -22918.679    22926.202    32.032161    37.479795 
 6636000    306.62222    323.02262    209.74678   -22960.571    22955.215    113.27585    37.515051 
 6640000    283.93644    308.71509     306.6913   -22944.889    22963.158    2.0237944    37.491265 
 6644000    295.29697    346.62304    295.07916   -22953.443    22957.261    51.543875    37.503739 
 6648000    301.51308    269.77664    419.85159   -22969.771    22976.056   -150.07495    37.486355 
 6652000    265.55941    170.03536    352.25191   -22974.614    22996.096   -182.21655    37.523441 
 6656000    276.28575    291.08424    279.33566    -22995.48    23032.849    11.748577    37.518397 
 6660000    272.02456    481.58839    273.39301   -23014.997    23043.208    208.19538     37.50019 
 6664000    256.17647    283.87431    324.12547   -23019.836    23066.211   -40.251169    37.503761 
 6668000    281.35015    305.42154    378.22276   -23062.918    23091.834   -72.801213    37.497677 
 6672000    241.20414    237.96363    310.01702   -23103.799    23126.543   -72.053388     37.50418 
 6676000    260.17615     296.4033     371.0999   -23115.292    23139.821   -74.696593    37.511772 
 6680000    280.88118    424.81803    308.79372   -23144.418    23154.578    116.02431    37.496087 
 6684000    300.38209    461.65389    491.08506   -23158.935    23168.573   -29.431166    37.497781 
 6688000    298.16626    423.11382    390.72266   -23182.521    23195.802    32.391162    37.520316 
 6692000    286.27998    343.15542    408.76594   -23198.907    23206.038   -65.610524     37.51175 
 6696000     291.6111    431.57624    302.04713   -23208.123    23222.838    129.52911     37.52116 
 6700000    272.40981    266.50145    233.51347   -23238.452    23244.449    32.987978    37.530951 
 6704000    286.11927    489.11743    292.28549   -23282.273    23300.107    196.83194    37.502247 
 6708000     306.6512    464.44701    503.60019   -23313.658    23310.084   -39.153184    37.515427 
 6712000    265.73349    367.44028    320.74531   -23316.037    23342.917     46.69497     37.51755 
 6716000    256.80877    374.49293    249.40802   -23320.293    23361.285     125.0849    37.512577 
 6720000    277.07789    261.36684    306.84364   -23357.856    23367.742   -45.476805    37.528086 
 6724000    248.79912    368.55784     290.0043   -23392.277    23410.673    78.553535    37.517611 
 6728000    286.64397    380.91625    331.28203   -23392.121    23403.146    49.634217    37.519857 
 6732000    271.93577    405.77509    310.12418   -23388.403    23407.905    95.650908    37.511743 
 6736000     287.3428    326.53379    378.12545    -23397.55    23423.819   -51.591656    37.509339 
 6740000     272.5857    336.73898    534.47352   -23418.725    23446.186   -197.73454    37.478702 
 6744000    307.05288    214.49799    333.98634   -23462.516     23450.22   -119.48835    37.453823 
 6748000    298.57367    291.97192    353.11409   -23473.973     23483.28   -61.142166    37.449514 
 6752000    300.63092    346.98376    388.73307   -23498.111    23494.894   -41.749309    37.459039 
 6756000    261.63747    462.95998    174.17949   -23514.818    23526.067    288.78049    37.490804 
 6760000    256.17322    264.44264    337.08807   -23523.271    23557.235   -72.645435    37.494835 
 6764000    272.17195    265.82091    287.71211   -23557.154    23577.656   -21.891201     37.51946 
 6768000    267.88899    401.35333    234.78388   -23579.866    23600.649    166.56945    37.518372 
 6772000    272.87576    478.23858    312.33537   -23576.649    23600.617    165.90321    37.544222 
 6776000    281.96696    487.51828    547.96616   -23592.821    23609.336   -60.447883    37.540377 
 6780000    272.24364    427.45208    318.56174   -23590.122    23623.428    108.89034    37.523231 
 6784000    249.56805    281.00081    265.92352   -23635.159    23665.138    15.077286    37.511842 
 6788000    297.84149    348.90132    373.89331   -23667.204    23683.164   -24.991987    37.479952 
 6792000    285.32762    355.80645    400.50982   -23660.282    23683.792   -44.703377    37.486545 
 6796000    290.13679    248.72904    265.55248   -23688.233    23683.168   -16.823442    37.470159 
 6800000    272.19309    250.34913     324.9747   -23676.598    23681.267    -74.62557     37.46571 
 6804000    290.17279    350.81888     508.8146   -23680.689    23711.593   -157.99571    37.457093 
 6808000    286.88424    415.78209     362.9414   -23684.745    23725.308    52.840697    37.455955 
 6812000    263.86688    359.96562    335.40731   -23721.395    23751.387     24.55831    37.454437 
 6816000    275.95556    393.84923    323.28855   -23760.159    23786.926    70.560679    37.457919 
 6820000    286.27294    453.23866    281.36812   -23781.041    23812.195    171.87054    37.463393 
 6824000    301.38921    318.69596    283.44722   -23789.646      23795.6    35.248747    37.455089 
 6828000    280.75685    252.50188    320.50756   -23804.406    23844.007   -68.005675    37.444306 
 6832000    290.95253    378.16712    277.17253   -23819.817    23833.474    100.99459    37.428034 
 6836000    306.56313    357.42906    277.11745   -23858.776    23861.021    80.311613    37.428686 
 6840000    284.50433    327.36627    340.61529   -23883.374    23902.778   -13.249014    37.450461 
 6844000    290.99539    367.80224    263.42373   -23916.278    23912.116    104.37851    37.447789 
 6848000    301.78568    277.86324     326.4273   -23946.336    23961.098   -48.564057    37.435699 
 6852000    263.47497    237.48645    384.33948   -23929.623     23980.65   -146.85303    37.422661 
 6856000    295.63523    465.15628    389.63415   -23945.643    23970.277    75.522122     37.43465 
 6860000    299.61768    366.20753    449.19185   -23969.558    23977.191   -82.984315    37.420501 
 6864000    277.66497    425.54863    303.37323    -23976.12    23997.536     122.1754    37.426163 
 6868000    274.98573    372.92341     182.4365   -24026.703    24028.136    190.48691    37.439686 
 6872000    312.66464    216.65001    321.45853   -24052.031    24047.615   -104.80853    37.444094 
 6876000    294.78222    385.78986    358.51297   -24058.859    24062.286     27.27689    37.458137 
 6880000    283.57757     223.8777    523.92301   -24065.572    24068.222   -300.04531    37.439512 
 6884000    275.64102    473.05856    347.47025   -24079.864    24103.366    125.58831    37.435633 
 6888000    304.07721     297.1894    254.82963   -24101.654    24104.472    42.359766    37.436036 
 6892000    320.41113    308.72327    381.65631   -24140.658     24145.92   -72.933039    37.394015 
 6896000    277.08386    393.74981    453.36353   -24154.242    24159.694   -59.613724    37.365477 
 6900000    300.07587    398.14817    260.69414   -24170.781    24185.173    137.45402    37.347417 
 6904000    263.88066    277.55507    367.74254   -24206.981    24231.592   -90.187461    37.355009 
 6908000    284.78307    290.27698    360.39735   -24223.169    24235.725   -70.120374    37.356406 
 6912000     291.2465    356.96966    276.56957   -24221.507    24246.375    80.400082    37.351427 
 6916000    261.60988    235.36265     180.2686   -24250.497    24270.694    55.094053    37.348228 
 6920000    323.41854    241.47503    377.83098    -24293.33    24286.788   -136.35594     37.32746 
 6924000    308.39933    314.13028     373.4869   -24316.305     24318.77   -59.356617    37.337766 
 6928000    277.92564    468.81267    328.47298   -24338.584     24333.78     140.3397    37.349924 
 6932000    319.19256    477.76501    306.41969   -24338.833    24342.244    171.34532    37.349573 
 6936000    301.70674    474.27385    342.65017   -24352.231    24332.933    131.62368    37.332072 
 6940000    316.20339    458.98269    331.95247    -24380.53    24366.884    127.03022    37.331123 
 6944000    304.18909     267.2934    219.07784    -24391.51    24408.506    48.215563    37.342049 
 6948000    272.66328    427.38313    456.13253   -24405.512    24435.543   -28.749399     37.34982 
 6952000    284.24368    253.51445    319.67433   -24419.302    24441.119   -66.159876    37.348701 
 6956000    300.20524    360.85008     283.9124   -24451.988    24453.322    76.937678    37.339353 
 6960000     244.1508    335.55591    308.14603   -24451.169    24485.908    27.409881    37.345429 
 6964000    300.35943    358.37363     255.7721   -24467.437    24481.542    102.60153    37.326668 
 6968000    258.32153    422.71927    320.82555   -24485.909    24494.062    101.89372    37.313233 
 6972000    309.50744     620.7245    402.25956   -24499.201    24497.108    218.46495    37.317617 
 6976000    281.53871    238.48199    321.82237    -24513.66    24517.624   -83.340377    37.291456 
 6980000    305.55648    531.01713    317.35944    -24549.74    24552.155    213.65769    37.320657 
 6984000    269.90176    393.34175    522.76478   -24582.033    24589.299   -129.42303    37.299276 
 6988000    286.32129    488.77224    262.11354   -24612.829    24637.173     226.6587    37.308294 
 6992000     286.8216     357.2842    436.74244   -24628.483     24639.73    -79.45824    37.290637 
 6996000    267.63951    265.07558    355.11784   -24627.708    24661.833   -90.042258    37.275346 
 7000000    276.44183    387.11453    425.18482   -24643.637    24670.335   -38.070294    37.314118 
 7004000     270.1494    292.33696    313.83758    -24685.47    24698.958   -21.500622    37.281902 
 7008000    274.76033    202.11009    279.93058   -24716.317    24745.112   -77.820491    37.278617 
 7012000    307.81157    367.03094      345.604   -24746.091    24739.021    21.426938    37.269748 
 7016000    285.63299    376.02963    298.08001   -24739.649    24740.661    77.949624    37.277373 
 7020000    285.02573    361.12665    226.37238   -24756.416    24753.229    134.75427    37.282442 
 7024000    298.13955    559.84056    289.05665   -24761.899    24764.982    270.78391    37.277983 
 7028000    284.00659    405.75495    311.99793    -24786.85     24801.66     93.75702    37.279599 
 7032000    280.17072    320.59642     252.9759   -24805.443    24825.301     67.62052    37.269854 
 7036000    281.56368    451.32351    304.12132   -24814.991    24823.491    147.20219    37.256548 
 7040000    265.77156     277.8548    389.15739   -24836.917    24863.197   -111.30258    37.287841 
 7044000    277.42028    344.82228    461.75755   -24864.499    24867.047   -116.93527    37.318658 
 7048000    289.82493    410.23911    313.75564   -24877.629    24878.496    96.483466    37.322374 
 7052000    315.63628    442.97105    415.50958    -24881.97     24893.95    27.461476    37.311338 
 7056000    300.91533    251.87731     497.4481   -24883.825    24886.375   -245.57079    37.317269 
 7060000    276.25763     446.6003    277.77549    -24904.56    24920.708    168.82481    37.336149 
 7064000    269.10256    339.58815     177.4195    -24910.78    24925.244    162.16865    37.329571 
 7068000    257.37614    344.39529    279.90076   -24894.395    24938.846    64.494525    37.343617 
 7072000    290.84672    435.57958    498.76108   -24937.237    24965.296   -63.181494    37.327824 
 7076000    280.38166    533.16631    420.72426    -24968.76    24985.143    112.44205    37.317413 
 7080000     259.3387      255.534    255.03406   -24983.935    25018.185   0.49993265    37.307628 
 7084000    289.82266    440.24908    414.02924   -25013.984     25018.28    26.219843    37.319476 
 7088000    291.64227    241.94325     518.0116    -25026.58    25044.373   -276.06835    37.310706 
 7092000    285.04374    222.42037     325.7124   -25022.908    25048.023   -103.29203    37.326059 
 7096000    300.59764    265.56972    469.07227   -25046.259    25051.337   -203.50255    37.332197 
 7100000     270.3118     272.4983    283.82364    -25054.46    25081.011   -11.325344    37.320523 
 7104000    283.28852    220.03816    326.85825   -25067.082    25096.375   -106.82008    37.313986 
 7108000    265.87699    327.76009    279.96013   -25085.459    25108.174    47.799959    37.331372 
 7112000    266.96735     479.2818    235.78246   -25093.692    25120.984    243.49934    37.342559 
 7116000    284.80231    387.47778    292.73823   -25109.743    25130.484    94.739548    37.355551 
 7120000    320.77123    404.76056    429.56876   -25149.587    25149.576   -24.808192    37.359056 
 7124000    285.65835    474.27746    266.43791    -25153.67    25180.806    207.83954    37.352782 
 7128000    268.73598    539.70118    161.43276   -25181.281    25197.816    378.26841     37.37174 
 7132000    289.42053     343.8369    525.29989   -25177.557     25201.42   -181.46299    37.383326 
 7136000    248.83669    327.63228    339.98845   -25174.198    25223.954    -12.35617     37.39138 
 7140000    296.97521    460.36748     486.7982   -25238.384    25232.645   -26.430723    37.406582 
 7144000     310.5064    299.51525    379.62153   -25264.318    25278.329   -80.106277    37.380543 
 7148000    252.52763     190.2105    344.87306   -25268.744    25327.639   -154.66256    37.341308 
 7152000    271.37365    224.55263    294.54768   -25302.067    25327.888   -69.995051    37.346993 
 7156000    287.75323    242.51176    372.87949   -25306.884    25325.347   -130.36773    37.359738 
 7160000    275.11164     281.0752    355.56664   -25330.772    25358.723   -74.491441     37.35089 
 7164000    253.55899    590.13159    314.10587   -25350.073    25397.991    276.02571    37.370229 
 7168000    247.70056    330.56669    235.60894    -25363.45    25414.575     94.95775    37.392079 
 7172000    309.71491    790.59188     260.8315   -25384.198    25402.061    529.76038    37.420872 
 7176000    283.12387    330.04727    467.59818   -25406.144    25422.873   -137.55091    37.417857 
 7180000     256.2705    482.43931    245.66718   -25425.821    25474.306    236.77213    37.439208 
 7184000    272.23367     531.0382    409.76559   -25471.575    25491.018     121.2726    37.447386 
 7188000    260.24413    431.21974    242.68349    -25485.58    25497.728    188.53625    37.433892 
 7192000    286.93967     250.1278    359.31185   -25499.873    25515.177   -109.18405     37.40259 
 7196000    272.92031    283.39854    309.70156   -25517.765    25537.206   -26.303023    37.432249 
 7200000    285.63158    521.06821    270.32699   -25522.994    25524.835    250.74122    37.417668 
 7204000    272.62797    358.60626    127.00578   -25534.045    25557.138    231.60048    37.422105 
 7208000    273.10721    300.61114    249.55364   -25548.802    25568.754    51.057502    37.412393 
 7212000    275.29932     331.3432     438.8172   -25548.987    25564.319   -107.47399    37.427999 
 7216000    249.45814     235.4914    316.55753   -25574.095    25594.133    -81.06613    37.435765 
 7220000    267.88126    302.29166    431.38339    -25599.24    25623.698   -129.09173    37.406369 
 7224000    295.45619    241.78359    322.72148   -25617.108     25637.55    -80.93789    37.433213 
 7228000    283.40919    232.41802    376.10256    -25626.07    25646.531   -143.68454    37.432791 
 7232000    266.34541    328.47922    260.99401   -25624.437    25676.322    67.485213     37.42193 
 7236000    253.94247    266.36606    356.28073   -25663.182    25707.613    -89.91467    37.420613 
 7240000     290.7033    389.48613    334.48182    -25677.31    25695.234    55.004314    37.432392 
 7244000    264.48195    261.23462    286.02162   -25697.147    25725.516   -24.787001    37.432635 
 7248000      284.052    409.37148    427.30069   -25704.679    25719.288   -17.929213    37.417862 
 7252000    308.32162    320.67261    331.39712   -25733.248    25731.738    -10.72451    37.393216 
 7256000    285.20602    238.19073    251.33715    -25756.09    25750.159   -13.146424     37.40279 
 7260000    287.61426    298.41636    211.19253   -25755.112    25768.326    87.223824    37.410795 
 7264000    234.94239    209.83794    266.18652   -25742.311    25788.799    -56.34858    37.399337 
 7268000    257.13256    332.29015    326.91821   -25798.159     25820.24    5.3719402    37.391014 
 7272000    294.89552     472.3101    404.92162   -25830.325    25841.622    67.388481    37.369601 
 7276000    302.19968    373.09237    185.76903   -25845.711    25863.833    187.32334    37.374747 
 7280000    278.56358    381.37072    322.10667   -25840.783    25871.447    59.264045    37.349001 
 7284000    300.93523    341.86303    320.00459   -25865.171    25880.745    21.858442    37.355997 
 7288000    273.10572    452.49193    384.26896   -25871.943      25890.1    68.222965    37.322013 
 7292000    292.29897    438.35725    575.84349   -25876.891    25888.173   -137.48624    37.341132 
 7296000    271.75464    369.17247    377.23745   -25887.638    25910.447   -8.0649831    37.335066 
 7300000    284.81908    496.33925    340.45235   -25929.655    25947.165     155.8869    37.375517 
 7304000    287.52767    339.97928    323.17658   -25943.354    25947.039    16.802698    37.366915 
 7308000     263.0567    311.95817    239.92074    -25943.78    25974.962    72.037428    37.364559 
 7312000    261.25854    522.96468    203.63731   -25963.933    25994.616    319.32737    37.346972 
 7316000    298.52877    296.76967    434.77857   -26004.019     26012.95    -138.0089     37.33707 
 7320000    264.58445    349.03554    175.00784   -26007.535    26029.367     174.0277    37.331076 
 7324000    280.34402    376.35448    207.09485   -26053.806    26073.552    169.25963    37.358638 
 7328000    284.35737    412.82459    293.45523   -26084.551    26097.326    119.36936    37.355339 
 7332000    283.02954    347.13685     344.4321   -26099.598    26128.206    2.7047495    37.328157 
 7336000    276.99233    508.93454    215.83404   -26125.858     26133.99     293.1005    37.356927 
 7340000    273.40969    285.70558    311.64436   -26125.888    26133.316   -25.938784    37.348176 
 7344000    303.53947    416.29209    312.17222   -26144.352    26151.627    104.11987    37.314002 
 7348000    280.95378    280.40018    287.15656   -26174.159    26177.702    -6.756381    37.305617 
 7352000    284.40843    303.94149      275.055   -26191.887    26201.437    28.886494    37.278785 
 7356000    285.66666    480.39472    233.24686   -26227.734    26236.815    247.14787    37.288396 
 7360000    235.44648    287.60597    369.59426   -26232.839    26266.519   -81.988285    37.295875 
 7364000    288.35605    398.25654    189.38383   -26249.714    26274.499    208.87272    37.294371 
 7368000    294.03542    470.06051    440.71172   -26267.181    26270.235    29.348787    37.295887 
 7372000     288.1043    485.02998    484.53542   -26259.277    26271.786   0.49456169     37.28451 
 7376000    275.73134    450.48901    402.01576   -26273.082    26282.777    48.473252    37.303539 
 7380000    284.77048    501.48593    337.87033   -26278.255    26298.297    163.61559    37.306232 
 7384000    301.58101    332.03762    304.23032   -26309.987    26313.514    27.807296    37.315023 
 7388000    269.03063    397.30169    315.28309   -26316.811    26330.317    82.018596    37.289011 
 7392000    294.00161    426.55473    340.24638   -26332.749    26336.696    86.308358    37.303238 
 7396000    283.60002    522.54792    332.86227   -26327.908    26341.463    189.68565    37.289169 
 7400000    279.33137    311.93596    307.66493    -26353.41    26363.143    4.2710306    37.278391 
 7404000    262.13674    515.27228    170.57964   -26367.936    26391.775    344.69264    37.302172 
 7408000    267.90801    145.57176    260.65596   -26386.208    26416.395    -115.0842    37.319751 
 7412000    281.24138    410.68403    150.74374   -26398.309    26410.221    259.94029    37.284606 
 7416000     301.9332    301.78908    451.92829   -26425.373    26408.598   -150.13921    37.283931 
 7420000    292.74864    441.92464    444.74987   -26446.705    26456.514   -2.8252359    37.285919 
 7424000    274.70304    362.28764    262.15411    -26454.91    26479.382    100.13353    37.288863 
 7428000    248.70175    231.20304     191.9063   -26461.294    26504.822    39.296737    37.264741 
 7432000    289.00191    376.49049    307.94831   -26496.174    26515.102    68.542181    37.259584 
 7436000    288.27249    450.69526    333.96205   -26530.533    26539.271    116.73321    37.255651 
 7440000     282.9098    374.52175    233.10167    -26556.48    26558.001    141.42007    37.244635 
 7444000    289.55703    214.51875    246.50938   -26568.159    26577.056   -31.990626    37.249348 
 7448000    283.78603    347.29385    322.39763   -26593.134     26624.76    24.896217    37.221588 
 7452000    283.12788    395.25461    299.40411    -26631.81    26646.154    95.850498    37.232096 
 7456000    288.67803    442.63588      377.234   -26644.071    26667.518    65.401884    37.235193 
 7460000    277.04647    271.02666    433.44044   -26659.739    26689.739   -162.41378    37.228664 
 7464000     267.6912    362.26697    375.30457   -26674.269    26693.137   -13.037598    37.250789 
 7468000    273.47411    269.14168    425.86103   -26709.599    26716.202   -156.71935    37.241018 
 7472000    284.32841    473.51538    291.19979   -26728.502    26737.362    182.31559    37.239259 
 7476000    258.85682    316.41111    310.56676   -26751.217    26759.582    5.8443478    37.228078 
 7480000    313.86614    356.40448    340.58901   -26764.331    26758.977    15.815461    37.249999 
 7484000     279.3131    351.46489    421.44481   -26778.137    26779.419   -69.979918    37.231576 
 7488000    281.27692    290.95694    689.86351   -26780.713    26777.553   -398.90657    37.255751 
 7492000    268.23669    486.48599     227.5354   -26798.912    26820.244    258.95059    37.254451 
 7496000    283.47631    397.41146    245.65673   -26820.458    26825.722    151.75473    37.272859 
 7500000    281.16999    466.18268    331.56999   -26817.131    26819.376    134.61269    37.255506 
 7504000     286.7909    405.50285    250.84086   -26855.378    26850.359    154.66199    37.264674 
 7508000    289.52302    282.18359    383.59103   -26882.413    26873.802   -101.40744    37.265341 
 7512000    290.90681     406.6557    309.68523   -26892.342    26900.524    96.970467    37.264236 
 7516000    301.82026     309.8233    595.27892   -26915.797    26924.116   -285.45562     37.27564 
 7520000    291.56022    260.14003    479.52908   -26908.674    26927.639   -219.38905    37.285036 
 7524000    293.51264    638.43967    220.15968    -26953.26     26962.38    418.27999    37.272485 
 7528000    284.01805    209.95037    360.97885   -26985.248    26988.859   -151.02848    37.282469 
 7532000    316.04902    348.91102    320.87836   -27015.926    27007.423    28.032665     37.28321 
 7536000      298.818    416.23862    361.23775   -27014.792    27015.417    55.000875    37.297346 
 7540000    293.62847    271.10225    291.51861   -27047.873    27049.043    -20.41636    37.280881 
 7544000    301.10844    475.32722    241.60385   -27048.577    27060.617    233.72336     37.28951 
 7548000    254.24553    396.86666     175.5282   -27065.959    27091.361    221.33845    37.275827 
 7552000    303.44877    443.92675     537.0738   -27101.647      27102.4   -93.147041    37.267033 
 7556000      280.757     379.4733    174.50104   -27132.237    27133.309    204.97225    37.257961 
 7560000    273.79542    328.69583    336.45676   -27159.449    27162.072   -7.7609245    37.243967 
 7564000    262.08879    218.02301    333.90969   -27163.369    27202.571   -115.88667    37.236792 
 7568000    296.75044    642.98161     235.1615   -27197.857    27210.498    407.82011    37.216568 
 7572000     266.1373     182.4894    273.63425   -27203.134    27215.282   -91.144855    37.178229 
 7576000      289.686    304.65494     427.2833    -27237.96    27225.656   -122.62835    37.161254 
 7580000    272.85365    363.27478    162.77155   -27223.472    27244.794    200.50323     37.17906 
 7584000     291.8895    450.33608    300.07823   -27236.488    27255.369    150.25785    37.170474 
 7588000    257.53185    261.40053    249.01514   -27270.482    27279.314     12.38539    37.153782 
 7592000    264.26675    410.40509    149.58066   -27256.426    27295.908    260.82443    37.167961 
 7596000    314.58914      355.995    451.93106   -27285.782    27297.963   -95.936063    37.173027 
 7600000    284.62443    400.41673    407.75748   -27310.249    27336.468   -7.3407486    37.162246 
 7604000    269.30226    335.14519    162.00758   -27333.807     27348.91    173.13761     37.17643 
 7608000    308.91883    449.90915    375.66687   -27379.134    27373.002    74.242279    37.179417 
 7612000     285.1518    442.84355     410.5614   -27372.873    27390.174    32.282146    37.170121 
 7616000    280.36769    194.36591    561.58975   -27371.982    27390.503   -367.22384    37.167494 
 7620000    277.25877    441.98449    315.58707   -27402.579     27426.24    126.39741    37.176333 
 7624000    273.16682    256.90342    294.72367   -27438.423    27449.525   -37.820246     37.15202 
 7628000    301.64729    445.06474    281.57617   -27473.275    27479.209    163.48856    37.142503 
 7632000    299.04933    285.68546    400.01862   -27502.995    27496.437   -114.33316      37.1235 
 7636000    304.29286    460.24307    395.03147   -27534.566    27528.248    65.211594      37.1407 
 7640000    257.37078    345.08564    227.41225   -27516.236    27524.973    117.67339    37.145445 
 7644000    297.78427    478.78766    443.05914   -27524.031    27524.842    35.728515    37.157341 
 7648000    251.99017       247.92    280.10195   -27542.828    27577.326   -32.181953    37.132445 
 7652000    270.66879     219.7873    390.67232   -27555.506    27583.941   -170.88502    37.095753 
 7656000     285.9372    525.83509    403.29432   -27594.378    27607.661    122.54077    37.091604 
 7660000    280.26892    508.15226    394.19619   -27632.506    27653.124    113.95607    37.096676 
 7664000    295.42146    415.29997     274.5371   -27630.914    27661.487    140.76287     37.10301 
 7668000    286.24527    236.97541    531.66336   -27650.126    27683.587   -294.68795    37.101118 
 7672000    280.29779    272.06269    284.50041   -27683.353    27707.199   -12.437715    37.094693 
 7676000     259.0242    276.89973    500.07903   -27671.054    27716.861    -223.1793    37.065348 
 7680000    269.59251    203.67515    284.37547   -27694.076    27711.747   -80.700322    37.084577 
 7684000    310.31046    339.42939    449.40658   -27699.708    27714.781   -109.97719     37.07315 
 7688000    247.35132    428.36613    266.72099   -27700.515    27760.935    161.64514    37.068006 
 7692000    306.80162    523.16743    465.07418   -27739.777    27729.842    58.093259    37.045978 
 7696000     256.6727    292.84068    317.42941   -27741.224    27778.172   -24.588728     37.02028 
 7700000    320.59609     326.2213    501.60589   -27786.403    27773.074   -175.38459    37.015977 
 7704000    284.91089    430.56054    215.54492   -27793.136    27802.706    215.01562    36.997464 
 7708000    258.96337    313.44223    309.51182   -27809.582    27845.427    3.9304086    36.967673 
 7712000     279.0597    339.89146    317.71388   -27832.657    27849.736     22.17758    37.000441 
 7716000    290.11608    309.95956    281.47254   -27862.324    27866.986    28.487019    36.971466 
 7720000    268.12006    291.83458    219.98744   -27871.103     27902.12    71.847132    36.951174 
 7724000    329.59128    610.49389    524.01989     -27914.2    27912.872    86.474007    36.936976 
 7728000     261.2481     232.8094    338.16906   -27940.318    27962.939   -105.35966    36.927412 
 7732000    290.08827    523.92047     261.1218    -27940.26    27942.281    262.79867    36.910533 
 7736000    273.49316    387.45356    332.46838   -27960.216    27989.904    54.985184    36.914021 
 7740000     264.0735    257.90235    313.07681   -27951.281    27980.724   -55.174458    36.910785 
 7744000    276.25487    269.17549     228.8289   -27965.411    27982.754    40.346589    36.900251 
 7748000    273.13361     313.5327     335.5432   -27960.426    27975.179   -22.010501    36.894835 
 7752000    302.92342    532.44098     404.4547   -28012.506    27995.944    127.98628    36.889219 
 7756000    286.53588    355.70617    250.41589   -28021.558    28034.932    105.29028    36.901455 
 7760000    279.00242    319.88148    351.28825   -28022.834    28047.529   -31.406773    36.907656 
 7764000    245.46097    264.77532    229.20801   -28055.396    28097.978    35.567303    36.934641 
 7768000    294.07813    296.51057    270.93481    -28083.42    28100.139    25.575759    36.929429 
 7772000    282.37722    367.48747    239.94543   -28101.656    28127.387    127.54204    36.952864 
 7776000    286.32152    457.81383    311.61955   -28164.063    28166.177    146.19428    36.952297 
 7780000    258.57592    326.47199     333.3083   -28172.734     28198.13   -6.8363136    36.950336 
 7784000    268.29356    293.11588     468.8236   -28184.371    28207.039   -175.70772    36.940091 
 7788000    256.62945    184.04922     120.4292   -28199.575    28239.843    63.620021    36.947243 
 7792000    299.05655    451.65628    248.76436   -28235.049    28224.636    202.89192    36.945499 
 7796000     289.1025     330.3268    428.89273   -28245.804    28269.394   -98.565932    36.929418 
 7800000    296.31426    426.40238    381.82189   -28278.349    28290.466    44.580487    36.915604 
 7804000    273.22797    377.52105    275.40409   -28306.449    28320.137    102.11696    36.934126 
 7808000    297.60839    418.82835    241.52769   -28323.969    28349.957    177.30066    36.929009 
 7812000    267.01482    332.07491    669.41275   -28360.523        28363   -337.33784    36.927621 
 7816000    279.48774    367.50462    327.03108   -28379.718    28405.923    40.473535    36.936782 
 7820000    263.00949    248.04271     521.5018   -28378.535    28396.937   -273.45909    36.918378 
 7824000    280.21637    296.24542    420.92439   -28412.386     28426.16   -124.67897    36.932174 
 7828000    288.27332    254.54094    324.84715   -28435.274    28455.706   -70.306208    36.937237 
 7832000    255.17019    261.44756    209.09796    -28433.21    28460.206    52.349603     36.94229 
 7836000    280.37679    224.45446    246.19724   -28450.106    28472.383   -21.742787    36.925271 
 7840000    282.76025    360.42536    253.29851    -28481.24    28514.632    107.12685     36.94394 
 7844000    277.69119    430.22162    300.43603   -28521.448    28544.193    129.78559     36.93816 
 7848000    306.77014    385.83518     289.3786   -28570.794    28562.994    96.456578    36.927574 
 7852000    288.14255    302.24073    211.56655   -28565.197    28587.571     90.67418    36.926329 
 7856000     286.9714    261.45712    151.27942    -28601.66     28588.36     110.1777    36.945736 
 7860000    261.49184    197.84628    340.19351   -28610.966     28615.14   -142.34724    36.934823 
 7864000    292.34456    411.88445    358.90287   -28642.106    28651.184    52.981582    36.957088 
 7868000    281.49374    435.28467    370.39178     -28662.1    28678.314    64.892898    36.968413 
 7872000    254.27568    205.86525    553.44175   -28677.282    28686.808    -347.5765    36.970934 
 7876000     289.3089    339.99974    281.77458   -28671.947    28690.269    58.225154     36.98301 
 7880000    295.93969    351.50311    331.08282   -28694.173     28710.12    20.420289    36.970187 
 7884000     278.4626    342.83556       484.65   -28723.506    28754.992   -141.81444    36.962559 
 7888000    310.23494    508.41226    337.19603   -28756.955    28757.548    171.21623    36.968137 
 7892000    282.26975    333.74849    234.87946   -28788.015    28786.475    98.869035    36.983678 
 7896000    309.41103    523.34068    304.71367   -28780.823    28799.785    218.62701    36.977099 
 7900000    278.66209    341.45738    251.04535   -28793.226    28801.346    90.412035    37.004597 
 7904000    317.74132    385.40944     298.2828   -28834.989    28811.779     87.12664    37.024229 
 7908000    268.35387    350.93324    268.79495    -28826.76    28846.711     82.13829    37.016587 
 7912000    259.56077    379.64644     420.5819    -28810.75    28847.528   -40.935456    37.012646 
 7916000     286.3027    262.22164    282.43899   -28837.768    28867.482   -20.217357    36.986152 
 7920000    270.76171    504.75812    205.40365   -28850.719    28865.504    299.35447    36.974311 
 7924000    263.01677    274.61635    270.18989   -28861.335    28897.791    4.4264683     36.98254 
 7928000     292.0986    513.58706    267.85805   -28908.703    28921.784    245.72901    36.981951 
 7932000    276.17258    316.07382     303.3202   -28938.147    28953.944    12.753628    36.990211 
 7936000    284.35766    487.98892    315.81795   -28968.043     28978.95    172.17096      36.9855 
 7940000    280.30771    493.87449    335.29895   -29014.312    29016.118    158.57554    36.959086 
 7944000    295.76991    477.84256    513.92217   -29045.822     29054.78   -36.079611    36.926032 
 7948000    281.76461    308.67588     317.7286   -29053.094    29072.916    -9.052724     36.91532 
 7952000    280.31871    342.71686     327.2037   -29056.531    29083.096    15.513161    36.933585 
 7956000    289.48178    282.95744     413.8301   -29085.222    29107.013   -130.87266    36.910751 
 7960000    264.94825    377.09402    330.15848   -29082.028    29125.349     46.93554    36.910579 
 7964000    263.49836    289.05374    368.97566   -29117.017     29162.06   -79.921918    36.902837 
 7968000    283.59049     442.6908    337.47875   -29145.566    29161.224    105.21205    36.879228 
 7972000    301.37989    245.27479    240.40034   -29176.227    29185.978    4.8744577    36.877922 
 7976000    278.79302    450.99752    294.21721   -29205.339    29220.189    156.78031    36.903525 
 7980000    304.12491      369.031    341.16142   -29224.184    29222.911     27.86958    36.908803 
 7984000    281.04815    515.11008    264.49504    -29234.57    29265.355    250.61505    36.918995 
 7988000    262.47137     304.1556    313.20914   -29240.412    29280.332   -9.0535403     36.89029 
 7992000    289.06721    322.94738    431.83159   -29287.182    29309.291   -108.88421    36.890003 
 7996000    283.52635    246.54761    390.82609   -29316.881    29327.106   -144.27847    36.890565 
 8000000    278.44109    424.42841    340.07477   -29322.802    29352.119    84.353637    36.900669 
 8004000    281.45554    552.80327    334.59812   -29335.975    29354.317    218.20515    36.908222 
 8008000    242.17298    343.80618    422.59171   -29355.314    29408.635   -78.785522    36.893197 
 8012000    251.12681    465.92176    347.87261   -29395.464    29425.709    118.04915    36.918501 
 8016000    295.37395    318.01687     306.1588   -29420.024    29431.203    11.858074    36.903659 
 8020000    261.45323    649.18652     316.5212   -29428.917    29440.787    332.66531    36.905582 
 8024000    258.96182    205.80416    246.20101   -29449.992    29477.898   -40.396854    36.906733 
 8028000    284.82107    385.30375    435.50412   -29468.828    29504.421   -50.200368    36.915318 
 8032000    274.88499    411.12809    323.16375   -29508.895    29536.608    87.964332    36.923614 
 8036000    291.41622    400.92488    510.46588   -29507.331    29540.137     -109.541    36.920588 
 8040000    282.11642    418.72781    455.25955   -29536.808    29559.817    -36.53174    36.921907 
 8044000    286.77658    575.24244    551.55245   -29538.417    29574.615    23.689986     36.92554 
 8048000    265.38243    527.22441    264.22176   -29585.325    29610.499    263.00265    36.930882 
 8052000    301.77436    353.41233    274.29064   -29615.104    29614.261    79.121694    36.930485 
 8056000    279.63969    378.11734    291.69286   -29643.785    29660.264    86.424487    36.907342 
 8060000    310.11627    453.10876    305.60012   -29656.044    29645.828    147.50865    36.912224 
 8064000    272.69601    136.63614    284.98499   -29647.713     29666.65   -148.34885    36.904406 
 8068000    307.25895    252.73365    295.19064   -29685.003    29670.516   -42.456986    36.895366 
 8072000    255.07559    339.79456    359.78662   -29682.551    29702.484   -19.992061    36.917547 
 8076000    297.42851    424.71577    393.26468   -29734.673    29723.952    31.451098    36.917637 
 8080000    287.38647    389.04119    223.31755   -29722.938    29739.052    165.72364     36.89482 
 8084000    280.86554    214.72091    358.75891   -29745.865    29768.894   -144.03801    36.886178 
 8088000    270.31699     253.7928    443.81589   -29776.183     29805.36   -190.02309    36.881415 
 8092000    276.71038    171.12676    243.62072   -29785.441    29811.778   -72.493957    36.854626 
 8096000    298.43123     320.3672    260.34789    -29815.58    29834.989    60.019312    36.830063 
 8100000    275.48686    289.21859    206.53939    -29835.37    29850.147    82.679204    36.823356 
 8104000    281.05894    272.45854    363.91334   -29851.223    29878.987   -91.454806    36.814302 
 8108000    283.06855     416.3876    258.29787   -29865.642    29898.648    158.08973    36.801069 
 8112000    291.90796    339.43994    302.43701   -29893.236    29909.301     37.00293    36.811896 
 8116000    290.00664     396.2347    493.23357   -29906.585    29933.654   -96.998864    36.810988 
 8120000    282.36487    514.76741    251.07832     -29941.9    29952.655    263.68909    36.808692 
 8124000     262.3171     487.3662     214.5925   -29942.103    29971.858    272.77369    36.819614 
 8128000    261.72468    379.31945    341.13512   -29941.177    29987.312    38.184333    36.846836 
 8132000    281.01597    267.10566    499.18839   -29969.705    29977.484   -232.08273    36.849205 
 8136000    319.84138    583.25525    348.29237   -30003.761    29980.237    234.96288    36.868952 
 8140000    287.23391    574.86254    292.61104   -29998.196    30030.003    282.25149    36.855526 
 8144000    269.31646    456.84122    272.56594    -29992.67    30032.647    184.27528    36.859084 
 8148000    260.89932    206.10645    302.83853   -30024.043    30052.359   -96.732077    36.867171 
 8152000     259.9545    175.87603    184.75677   -30038.738    30083.712   -8.8807381    36.858431 
 8156000    301.19163    305.52352    329.18216   -30049.262    30068.814   -23.658646    36.848747 
 8160000    245.29442    341.70936    241.86176   -30066.455    30098.212    99.847597    36.853805 
 8164000    285.84774    383.73372    255.95725   -30063.727    30091.421    127.77646    36.856292 
 8168000    261.99701    316.98224    447.64691   -30101.218    30123.961   -130.66467    36.840881 
 8172000    282.38817    381.77594    444.58445   -30138.783    30161.767   -62.808515    36.823689 
 8176000    282.19525    282.83197     295.1771   -30146.307    30190.879   -12.345131    36.821496 
 8180000    316.45304    494.49368    357.79035   -30173.859    30190.497    136.70334    36.828917 
 8184000    289.94391    320.36357    243.35837   -30171.669    30202.561      77.0052    36.857265 
 8188000    255.09992    316.58235    295.21324   -30197.915    30200.079    21.369117    36.858333 
 8192000    315.83118    568.00526     507.3694   -30203.574    30189.748    60.635863    36.837657 
 8196000    279.79063    414.05135    339.51904   -30233.177    30226.643    74.532312    36.841454 
 8200000    295.92721    357.55561     346.2387   -30258.303    30271.608    11.316913    36.836664 
 8204000    296.41586    518.85974    257.43383   -30306.976    30305.341    261.42591    36.857677 
 8208000    298.07005    384.62184    281.73835   -30323.983    30320.826    102.88349    36.874007 
 8212000    294.22018    277.65873    436.27866   -30360.755    30361.206   -158.61993    36.891565 
 8216000    297.84622    646.44794    333.57078   -30374.487    30378.112    312.87716    36.876705 
 8220000    295.56335     263.6657    353.75072   -30410.682    30412.255   -90.085023    36.863969 
 8224000     266.0442    345.83342    290.06523   -30426.743    30450.734    55.768189     36.89183 
 8228000    303.79681    323.17984    385.61705   -30460.558    30477.869   -62.437208    36.928252 
 8232000     279.7908    496.94322    406.75067   -30462.872    30485.201    90.192547    36.943403 
 8236000    268.20274    369.31525    236.51009   -30499.751    30509.457    132.80516    36.959033 
 8240000    276.65293     474.3558    362.74635   -30531.508    30539.558    111.60946    36.931431 
 8244000    286.48273    538.06854    290.10297   -30548.241    30576.143    247.96557    36.910085 
 8248000    332.22965    336.62738    466.24472   -30587.936    30579.094   -129.61734    36.892003 
 8252000    273.44544    319.10127    345.16412   -30589.668    30620.112   -26.062848    36.888689 
 8256000    268.84414    592.84711    429.38185    -30606.45    30658.399    163.46526    36.886996 
 8260000     275.8039    504.69392    242.15025   -30649.027    30668.784    262.54366    36.920163 
 8264000    281.35017    309.68392    291.02461    -30667.64    30703.277    18.659309    36.924023 
 8268000    300.60821    504.67476     270.5429   -30695.796    30708.596    234.13187    36.900009 
 8272000    317.13476    456.46424    362.83043   -30709.465    30709.776    93.633813    36.896056 
 8276000    298.90339    455.13106    304.58749   -30734.277    30746.269    150.54356    36.901744 
 8280000    267.65152    432.29865    292.05739   -30750.697    30774.465    140.24126     36.90877 
 8284000    271.94776    379.75536    316.95987   -30770.361    30788.549    62.795492    36.923398 
 8288000    265.55853    346.78799    356.62171   -30803.967    30825.706   -9.8337266     36.92478 
 8292000    283.63646    430.10626    487.76225   -30821.746    30840.946   -57.655986    36.928614 
 8296000    258.14572    307.08268    371.80564   -30806.241    30840.205   -64.722958    36.913912 
 8300000    250.83681    265.00854    254.13816    -30820.15    30855.772    10.870386    36.911534 
 8304000    271.66283    386.44833    299.87832   -30822.695    30866.907    86.570013    36.921157 
 8308000    257.17171     331.6051     288.9378   -30812.705    30856.948      42.6673      36.9467 
 8312000    281.79546    299.75669    389.81742   -30834.998    30842.625   -90.060722    36.935429 
 8316000    272.71895    300.44526    327.22975   -30878.441    30893.608   -26.784491    36.922332 
 8320000     288.8944    419.38284    201.19705   -30902.946    30917.474    218.18579    36.922486 
 8324000    270.69402    228.31939    300.98522    -30943.43    30961.111   -72.665835    36.910861 
 8328000    287.23732    447.00606    445.00039   -30930.036    30957.013     2.005673    36.895317 
 8332000    288.99933    278.02838    343.95696   -30974.894    30997.643    -65.92858    36.874911 
 8336000    301.19878    432.29065    289.01139    -31017.23    31032.595    143.27926    36.862866 
 8340000    295.36632    533.14798     296.4276   -31035.892    31041.916    236.72038    36.872388 
 8344000    283.96848    456.93699    260.54166   -31021.748    31046.166    196.39533    36.874532 
 8348000    258.24562    335.34356    289.55495   -31030.986    31060.126    45.788612     36.86418 
 8352000    256.26372    209.45428    331.95271   -31048.554    31064.856   -122.49843    36.881725 
 8356000    274.55371    488.99732    265.77213   -31065.481    31105.709    223.22518     36.88183 
 8360000    268.29532    282.93819    215.84497    -31113.05    31117.151    67.093219    36.879682 
 8364000     294.2978     280.0528    262.54577   -31128.587    31140.365    17.507037    36.874957 
 8368000    273.31441    364.41333    262.50833   -31144.825     31159.87      101.905    36.868714 
 8372000    298.16533    334.26958    194.44471   -31170.716    31177.737    139.82486    36.868748 
 8376000    283.48405    419.68291    280.73323   -31168.243    31217.849    138.94968    36.875827 
 8380000    295.57582    387.74354    443.98182       -31214    31223.914   -56.238279    36.878449 
 8384000    289.27189    378.15362    275.88241   -31224.714    31227.155    102.27121    36.865528 
 8388000    269.79926    291.80908    352.89828   -31217.161    31252.617   -61.089191     36.85957 
 8392000    305.38076    447.84412     278.7009   -31247.824    31261.226    169.14323    36.855051 
 8396000    289.38711    340.58386    285.62186   -31253.459    31272.638    54.962002    36.839814 
 8400000    277.08324    422.15012    325.46435   -31282.049    31289.116    96.685771    36.858697 
 8404000    262.41678    258.94397    330.15019   -31283.548    31317.722    -71.20622    36.856198 
 8408000    271.02319    520.88874     270.9245   -31320.951     31336.01    249.96423    36.888798 
 8412000    277.25939    387.33072     365.4559   -31341.274    31376.273    21.874821     36.88377 
 8416000    280.91687     279.9999    319.83067   -31355.685    31375.783   -39.830768    36.879241 
 8420000    287.46433    398.00882    414.55602   -31384.434    31393.528   -16.547201    36.857545 
 8424000    274.75745    308.58136    305.67328   -31384.263    31406.486    2.9080762    36.881744 
 8428000     292.8258    341.95184    374.94602   -31414.015    31420.964   -32.994189    36.905277 
 8432000    304.71431    421.65247    331.35697   -31427.998    31419.089    90.295491    36.899475 
 8436000    297.06534    292.92409     336.7963   -31439.403    31444.215   -43.872214    36.873779 
 8440000    270.16338    299.84252    229.81046   -31453.538    31474.527    70.032059    36.873127 
 8444000    296.93719    180.36003    377.56065    -31492.73    31506.143   -197.20063    36.870039 
 8448000    260.16818    438.87636    249.61973   -31484.322    31530.609    189.25663    36.868609 
 8452000    277.07214    324.90395    321.40535   -31513.725    31540.442    3.4986023    36.871355 
 8456000    271.34613    349.78295    302.45621   -31541.138    31557.568    47.326746    36.862088 
 8460000      287.307    308.12147    216.34325   -31542.307    31570.081     91.77822    36.845057 
 8464000    297.33596    230.83872    351.51389   -31580.661    31596.745   -120.67516    36.830601 
 8468000    296.35821    459.59664    459.22364   -31598.262        31606   0.37299912    36.815509 
 8472000    272.48291    251.50558    338.82026     -31631.8      31649.6   -87.314681    36.819487 
 8476000    272.45051    272.35793    439.83331   -31666.552    31683.772   -167.47538    36.810073 
 8480000    287.59813    306.98579      237.637   -31676.114    31701.942    69.348793    36.815849 
 8484000    253.39989    175.46092    362.13436   -31678.294    31715.928   -186.67344    36.828231 
 8488000    297.15795    367.01585    309.03043   -31699.135    31712.009    57.985423    36.825248 
 8492000    258.20426    425.87589    330.38844   -31720.281    31748.476    95.487453    36.835478 
 8496000    289.14511       429.83    397.92917   -31741.765     31753.08    31.900837    36.827846 
 8500000    299.29194    311.71154    192.15425   -31764.839    31772.114    119.55729    36.830979 
 8504000    296.03291    535.81257     374.9928   -31749.303    31765.361    160.81978    36.835342 
 8508000    306.06319    697.29596    234.66453   -31779.697    31767.068    462.63143    36.846369 
 8512000    291.97654    362.20366    400.45535   -31738.433    31760.608   -38.251685    36.830985 
 8516000    282.38296    376.50135    393.15364   -31757.572    31773.641   -16.652289    36.831207 
 8520000    271.70335    430.09051    339.50301   -31763.692    31785.378    90.587493    36.833793 
 8524000    277.80824    330.59381    398.20237   -31784.786    31819.126   -67.608561    36.810372 
 8528000     295.0372    353.05262    464.83843   -31820.526     31839.05   -111.78581    36.792379 
 8532000    277.19686    449.36876    313.96531   -31827.643    31856.661    135.40345    36.801374 
 8536000    277.79454    519.87652    458.65552   -31852.032    31866.587    61.221003    36.788562 
 8540000    274.28497    343.79687    276.15979   -31885.943    31894.122    67.637085    36.778258 
 8544000    265.53506    279.48623    447.87929   -31892.471    31911.506   -168.39306    36.762127 
 8548000    275.63634    328.36752     333.8507   -31919.287    31930.732   -5.4831845     36.78379 
 8552000    268.46858    279.56997    288.60429   -31928.769     31952.49   -9.0343202    36.801518 
 8556000    274.04615    281.73716    335.17318   -31958.429    31965.118   -53.436018    36.800743 
 8560000    261.80899    343.33173     316.8934   -31983.264    32027.112     26.43833    36.803644 
 8564000     280.7942    399.79872    176.78213   -32008.648     32031.58    223.01659     36.80283 
 8568000    291.55244    362.55677    318.63002    -32043.16    32059.471    43.926749    36.802979 
 8572000    301.30133    372.23059    375.61706   -32080.607    32086.079   -3.3864763    36.795587 
 8576000    264.66826    258.17969    345.53207   -32090.421    32109.367   -87.352374     36.77438 
 8580000    295.24783    508.61171      549.431   -32124.383    32123.249   -40.819291    36.776099 
 8584000    277.77966    386.19916    295.96427   -32143.967    32166.489    90.234886    36.769015 
 8588000    290.67501    498.63107    290.75152   -32174.421     32202.25    207.87955    36.777355 
 8592000    294.44687    399.68199      246.175   -32221.056    32241.175    153.50699    36.774302 
 8596000    280.12029    365.66218    272.92076   -32232.863    32251.641    92.741413    36.773964 
 8600000    285.14099    495.75095    320.76707   -32256.595    32276.494    174.98387    36.775281 
 8604000     291.3262    363.43431    308.47149   -32273.732    32286.069    54.962824    36.789497 
 8608000    292.97185    433.74379     358.7037   -32310.994    32321.403    75.040089    36.796559 
 8612000    290.74586    416.93568    257.65491   -32312.353    32345.744    159.28077    36.801688 
 8616000    272.46197    480.45024    169.18494   -32329.622    32365.599     311.2653     36.78484 
 8620000     287.5824     262.0585    167.30779   -32344.477    32374.526    94.750709    36.791418 
 8624000    270.10899    344.64254    180.45063   -32386.784     32418.18    164.19191    36.796483 
 8628000    279.11788    341.27742    285.85482   -32418.014    32421.199    55.422593    36.798003 
 8632000    305.98881    421.03088     501.6198   -32425.246    32420.638   -80.588922    36.795149 
 8636000     298.0702    476.94526    525.23112   -32434.067     32446.74   -48.285858    36.787956 
 8640000    301.00661     205.4821    486.31365   -32472.944    32479.448   -280.83155    36.783985 
 8644000    266.89419    327.39182    265.44095   -32478.324    32508.591    61.950874    36.770459 
 8648000    282.75171     294.6532    337.83802   -32466.497    32504.201   -43.184819    36.753049 
 8652000    294.53397    419.96843    294.78883   -32514.585    32518.001    125.17961    36.754843 
 8656000    282.68918    273.94005     315.6046   -32518.883    32534.522   -41.664555    36.765377 
 8660000    296.62966    372.68691    375.84653   -32539.009    32555.469   -3.1596178    36.761617 
 8664000     293.7025    425.17118    447.52419   -32551.702    32557.891    -22.35301    36.756691 
 8668000    295.58517    473.57623    327.13015   -32574.591    32579.264    146.44608    36.773286 
 8672000    298.19467    316.09479    319.46175   -32591.248    32606.781   -3.3669624    36.758573 
 8676000    279.09532    368.37232     312.2133   -32581.317    32609.633    56.159026    36.758384 
 8680000     313.9546    442.08904    366.55479   -32615.044    32636.058    75.534255    36.777393 
 8684000    298.17726    461.53014    224.80598   -32623.104    32647.985    236.72416    36.770707 
 8688000     285.4739    253.73589    261.73841   -32670.567    32669.607   -8.0025107     36.75901 
 8692000    291.04657    355.75934     428.1721   -32688.943    32680.937   -72.412761    36.748029 
 8696000    265.65952    457.86219    354.79593   -32691.194    32710.499    103.06626    36.754253 
 8700000    277.30205    544.16437    354.76468   -32696.338    32726.214    189.39969    36.768092 
 8704000    312.20503    654.81734    392.72514   -32735.754    32742.207    262.09221    36.764461 
 8708000    275.38337    413.84543    430.19211   -32717.006    32761.447    -16.34668    36.778882 
 8712000     270.3425    290.67376    402.30219   -32716.915    32743.406   -111.62842    36.800816 
 8716000    274.93839    495.37123    370.73577   -32739.492    32763.153    124.63546    36.815073 
 8720000    273.97237    354.69578    194.29138   -32762.428    32761.498     160.4044    36.805564 
 8724000     294.4318    511.37352    325.44592   -32776.612    32791.995    185.92761    36.812777 
 8728000    287.64082    421.70969    351.11158   -32785.548    32816.724    70.598116     36.81728 
 8732000    277.71662     162.1134    360.04743   -32789.663    32807.802   -197.93403    36.791641 
 8736000    301.70559    329.03587    249.14708   -32807.195     32831.87    79.888784    36.795736 
 8740000    295.05009    182.34044    408.77479   -32839.082    32846.792   -226.43435    36.795176 
 8744000    310.98038    434.80269    245.97105   -32846.934    32854.501    188.83164    36.802137 
 8748000    273.87137    470.13807    219.83083   -32871.661    32891.137    250.30724    36.789313 
 8752000    252.81586    423.21044    289.06699   -32861.004    32884.919    134.14344    36.812337 
 8756000    282.02048     745.5838     247.1603   -32881.205    32885.368     498.4235    36.830568 
 8760000    297.04902    464.18627    228.47681   -32924.004    32929.299    235.70946    36.825036 
 8764000    311.62969    379.53615     384.1995   -32949.336    32948.677   -4.6633532    36.818287 
 8768000     299.2607    216.66368    446.53321   -32970.466    32945.056   -229.86953    36.811658 
 8772000    277.67425    245.89751    231.51055   -32966.067    32971.694    14.386956    36.791949 
 8776000    278.64899    346.06161    306.90007   -32968.151    32998.576     39.16154     36.79918 
 8780000    264.61811    381.11816    361.26045   -32986.456    33012.083    19.857706    36.792042 
 8784000    271.95077    192.51003    195.09916    -33001.37    33029.151   -2.5891332    36.798704 
 8788000    271.19368    276.58413    218.52875   -33012.285    33045.861    58.055385    36.785777 
 8792000    260.58065    308.51539    197.05038   -33022.684    33055.293      111.465    36.781723 
 8796000    254.04747    316.23117    163.76852   -33042.001    33079.274    152.46265    36.774506 
 8800000    289.03913    342.29617    378.01195   -33040.552     33065.47   -35.715775    36.802792 
 8804000    303.75335    294.72198    270.58306   -33062.577    33067.432    24.138915    36.801946 
 8808000    294.06618    355.37863    377.71886   -33086.949    33090.769   -22.340233    36.779485 
 8812000    287.08864    230.53285    398.09443   -33081.138     33113.69   -167.56158    36.781392 
 8816000    274.92071    572.46242    245.53389   -33107.963    33128.237    326.92853    36.767363 
 8820000    274.09273    384.07792    379.79794   -33125.819    33157.081    4.2799777    36.767933 
 8824000    273.32989     504.3375    280.34919   -33159.691    33173.505    223.98831     36.75817 
 8828000     250.3278    444.16963    356.84796   -33160.354    33179.932    87.321666    36.757523 
 8832000    311.59903    219.36723    399.41712   -33181.506    33184.992   -180.04989     36.78454 
 8836000    261.20057    477.98077    389.62029   -33191.554    33235.183    88.360478    36.768387 
 8840000    275.24356    458.15771    320.68617    -33213.89    33250.961    137.47155    36.770221 
 8844000    277.54915    259.40981    233.24194   -33229.992    33257.431    26.167862    36.780445 
 8848000    296.71583    440.62233    283.66653   -33252.113    33273.351    156.95581    36.779315 
 8852000    288.72032    393.62625    347.67328   -33261.712    33302.765    45.952962    36.793283 
 8856000     283.5593    195.26027    250.86491   -33275.903    33314.782   -55.604637    36.797125 
 8860000    287.36236    309.98335    276.85095   -33285.235    33323.497    33.132399    36.803801 
 8864000    268.10155    424.04189    309.12902   -33306.336    33351.708    114.91287    36.797907 
 8868000    306.45913    344.65299    358.13552     -33344.2     33357.55   -13.482532    36.791715 
 8872000    253.44953    254.51512     285.5711   -33350.685    33390.822    -31.05598    36.805715 
 8876000    266.41542    251.91192    344.50721    -33330.48    33370.126   -92.595295    36.814347 
 8880000    308.08356    443.54853    416.58041   -33378.375    33382.277    26.968111    36.839187 
 8884000    312.65398    517.80889    336.73651   -33427.464    33410.824    181.07237    36.858997 
 8888000    270.49099    389.42845    365.89659   -33432.014    33449.013    23.531861     36.84746 
 8892000    302.33437    357.04271    266.41721   -33434.176    33439.802    90.625498     36.83202 
 8896000    290.26252    249.14626    568.07464   -33431.535    33444.157   -318.92838    36.833948 
 8900000    271.51597    272.01009    360.13013   -33446.222    33472.436    -88.12004    36.836617 
 8904000    291.33616    339.36496    317.87438   -33478.888    33499.466    21.490588    36.826926 
 8908000    311.40532     428.6211     456.9602   -33489.245    33492.131   -28.339106    36.808882 
 8912000    324.60389    460.84912    294.84839   -33512.045    33496.148    166.00073    36.824832 
 8916000    278.62345     253.6808    443.78523   -33523.797    33543.347   -190.10443    36.834191 
 8920000    284.21109    263.67233    278.24719   -33551.939    33550.678   -14.574861     36.81427 
 8924000    283.73228    332.96895    439.96762   -33581.504    33594.192   -106.99867    36.807639 
 8928000     289.4385    342.20673    272.07574   -33610.833    33627.133    70.130995    36.799546 
 8932000    286.41499    246.43609    260.62103   -33632.375     33662.06   -14.184941    36.787381 
 8936000    284.92369    297.56572    409.64235   -33669.194    33673.816   -112.07663    36.785239 
 8940000    256.58079    220.48506    220.36678   -33678.872    33704.811   0.11827598    36.775172 
 8944000    297.39382    304.17327     327.2948   -33700.743    33718.312   -23.121526     36.77707 
 8948000    288.39849    307.18788    263.52576   -33722.872    33750.366     43.66212    36.792289 
 8952000      259.206     245.5882    251.19091   -33734.601     33753.54   -5.6027082     36.78407 
 8956000    293.47972     327.1882      301.748   -33750.109    33791.992    25.440204    36.803029 
 8960000    289.66015    322.99203    160.01417   -33774.085    33819.255    162.97786     36.80691 
 8964000    255.76839    387.99952    297.83316   -33780.647     33845.19    90.166363    36.788126 
 8968000    258.03197    285.18242    392.40003   -33801.701    33848.128   -107.21761    36.786047 
 8972000    274.40278    491.82076    344.22855   -33838.575    33844.404    147.59221    36.785424 
 8976000    255.09439    338.68554    322.15452   -33831.751    33871.243    16.531027    36.802973 
 8980000    263.32888    352.02631    363.56667   -33851.445    33894.531   -11.540362    36.802957 
 8984000    286.73797    407.35942    486.90602   -33853.119    33883.181   -79.546599    36.783049 
 8988000    272.34376    303.87833    284.73157   -33859.084     33888.25    19.146755    36.789996 
 8992000    262.39706    318.86028    269.22254   -33873.449    33909.865    49.637739    36.810532 
 8996000    279.64181    482.80723    245.42632   -33881.651    33917.305    237.38092    36.822821 
 9000000    292.99056    344.37283    318.05632   -33881.584    33894.917    26.316514    36.805835 
 9004000    266.46736    352.89745    410.01554   -33907.342     33954.11   -57.118087    36.812905 
 9008000    292.39248    292.94804    326.25633   -33946.283    33968.379    -33.30829    36.823885 
 9012000    290.40594     357.0095    256.48891   -33975.554    34003.545    100.52059    36.798357 
 9016000    279.03485    385.61891    331.22731   -34013.084    34021.162      54.3916     36.79198 
 9020000    287.62835    366.62656    276.70716   -34041.408    34068.705    89.919403    36.789896 
 9024000    274.03809    191.80239    355.94833   -34056.867    34079.397   -164.14594    36.781611 
 9028000     290.2891    301.73382    265.34516    -34063.46    34075.186    36.388658    36.801756 
 9032000    299.39858    425.43711    316.63611   -34069.442      34084.4      108.801    36.819152 
 9036000    264.52982    281.73586    330.96583   -34078.251    34113.289   -49.229973    36.820434 
 9040000    276.22226    439.83343    394.88445   -34113.046      34131.4    44.948988    36.806644 
 9044000     290.0396    287.57343    356.34984   -34126.899    34144.928   -68.776409    36.808662 
 9048000    278.97722    289.41903    486.13889   -34161.167    34192.235   -196.71987    36.806202 
 9052000    295.74253    328.86984     355.5832   -34173.386    34214.353   -26.713363    36.809229 
 9056000    304.74411    421.73349    254.05484   -34194.703    34212.527    167.67865    36.806597 
 9060000     299.0733     503.9172    396.07157   -34221.127    34221.067    107.84563    36.820243 
 9064000     281.0023    417.54567    288.59193   -34245.712    34256.961    128.95374    36.825032 
 9068000    285.18144     467.1976    248.39458   -34268.161    34297.889    218.80301    36.861848 
 9072000    263.25188    257.73026    283.13721   -34286.641     34322.16   -25.406957    36.854308 
 9076000    285.39343    427.02812    342.62159   -34333.847    34331.887    84.406531    36.851989 
 9080000    264.70411    337.92528    369.19132   -34307.864    34351.004   -31.266036    36.859715 
 9084000    306.98551    363.72653    287.62233   -34350.575    34358.617    76.104197    36.856461 
 9088000    309.14183    461.68931    204.53237   -34374.827    34370.355    257.15695    36.845589 
 9092000    292.40376    325.28541    287.27242   -34401.044     34415.17     38.01299     36.84186 
 9096000    286.71545    218.46593    412.02424   -34393.843    34424.724   -193.55831    36.834669 
 9100000    286.86347    273.76239    271.72722   -34412.979     34458.06    2.0351755    36.840217 
 9104000    290.23696    413.68801    318.91657   -34427.694    34446.828    94.771439    36.849886 
 9108000    277.00943    428.87928    260.61006   -34465.301     34480.41    168.26922    36.852779 
 9112000    299.12737    362.45316    466.94629   -34473.478    34486.855   -104.49312    36.858888 
 9116000    280.66378    458.60822    278.44674   -34488.551    34527.581    180.16148    36.864224 
 9120000    238.92016    391.59708    268.40074    -34523.28    34557.368    123.19634    36.878811 
 9124000     269.4885    545.76056    303.53172   -34525.441    34548.417    242.22884    36.902809 
 9128000    275.92007    294.05574    346.21654   -34535.122    34573.959   -52.160801    36.900097 
 9132000    274.62746    348.19598    308.44356   -34543.603    34574.891    39.752417    36.903502 
 9136000    307.61103    435.85926    320.00685   -34604.853    34604.014    115.85241    36.891765 
 9140000    283.30334    545.72712    246.31475   -34615.873    34645.628    299.41237    36.885251 
 9144000    291.55488    309.41633    331.51434   -34630.649      34639.6   -22.098013    36.889992 
 9148000    266.48996    478.25826    366.42779   -34664.201    34677.192    111.83047    36.917596 
 9152000    281.13813    473.49366    398.51189    -34704.66    34697.755    74.981769     36.90395 
 9156000    278.87722    256.02134    424.76912   -34710.071      34740.9   -168.74778    36.899555 
 9160000    274.07847    194.05505    214.01118   -34736.763    34769.722   -19.956128    36.909904 
 9164000    261.19726    506.79071     196.3914    -34762.55    34784.144     310.3993    36.927516 
 9168000    293.80414    399.53881     243.1265   -34796.518    34799.718    156.41231    36.949749 
 9172000    278.50684    278.13213    370.95884   -34808.264    34845.292   -92.826709    36.946798 
 9176000    315.34151    365.32391    350.41765   -34840.737     34839.07    14.906258    36.931057 
 9180000    282.40045    358.25449    261.60052   -34844.946    34871.812    96.653976     36.91724 
 9184000    298.02066    263.50226    185.59729   -34875.761    34888.203    77.904963    36.915253 
 9188000    283.98614    294.89635    356.20656   -34901.616    34919.877   -61.310204    36.892652 
 9192000    287.46432    558.00554    310.94209   -34932.126    34942.224    247.06345    36.911425 
 9196000    272.52008    230.43985    473.56847    -34942.12    34975.575   -243.12862     36.88647 
 9200000    250.99021    309.61418    342.56733   -34920.055    34979.334   -32.953151    36.875094 
 9204000    277.53542    339.34318    274.97717   -34950.891    34986.497    64.366014    36.877136 
 9208000    249.93904    356.47788    362.82921   -34968.954    35004.872   -6.3513298    36.868591 
 9212000    276.46939    336.93731    213.11748   -35008.036    35015.366    123.81984    36.881881 
 9216000    254.81481    323.43934    261.36816    -35003.29    35026.999    62.071179    36.879966 
 9220000    271.26147    323.21501    327.12628   -35025.069    35035.712   -3.9112713    36.881963 
 9224000     289.7798    350.34131    199.33176   -35048.225    35065.802    151.00955    36.891517 
 9228000    255.76226    385.27421    244.08985   -35027.006     35061.23    141.18436    36.903762 
 9232000    256.33832    361.16832     144.7983   -35025.683    35072.681    216.37002    36.915728 
 9236000    281.52873    294.13722    235.07818   -35072.006    35082.911    59.059041    36.898564 
 9240000      284.099     282.8017    423.65251   -35077.887    35098.915    -140.8508     36.90103 
 9244000    270.93519    443.08966    301.12685   -35079.995    35115.052    141.96281    36.893678 
 9248000    307.12355    245.56472      368.609   -35104.914    35102.858   -123.04428    36.892483 
 9252000    270.66154    330.34601    255.11953   -35111.793    35127.735    75.226478    36.890476 
 9256000     286.6374    341.49108    469.95246   -35128.019    35149.864   -128.46138    36.862509 
 9260000    291.49163    316.75518    623.46071    -35161.85    35181.234   -306.70553    36.850729 
 9264000    274.58258    378.80177    343.44372   -35172.914     35206.38    35.358048    36.853636 
 9268000    256.19696    275.80916    245.51997   -35203.438    35242.086    30.289187    36.855181 
 9272000    285.16828    388.37956    346.23883   -35254.523    35248.793    42.140727    36.815857 
 9276000    266.16481    219.19196    299.32685   -35236.837    35259.737   -80.134888    36.823903 
 9280000    284.52689    397.53882    493.46248   -35253.702    35283.451   -95.923656    36.827232 
 9284000    260.82471    362.11676     246.5425    -35266.31    35300.594    115.57426      36.8226 
 9288000    274.73462    359.91668    317.09949   -35306.739    35340.211    42.817192    36.823011 
 9292000    278.09261    430.44168    622.70835   -35340.779    35367.551   -192.26666    36.820397 
 9296000    307.12531    472.55865    183.00461   -35369.719    35386.467    289.55403    36.845739 
 9300000    273.31273    266.94289    200.16908    -35384.46    35412.989    66.773807    36.839628 
 9304000    263.86413    220.49666    318.41542    -35407.36    35436.955   -97.918764    36.856568 
 9308000     283.6973    264.07072    343.08031   -35418.978     35459.47   -79.009588    36.867497 
 9312000    319.62745    559.39785    470.18332   -35449.617    35451.211    89.214538     36.87332 
 9316000    280.94767    286.91649    316.01019   -35472.816    35492.175   -29.093702    36.878824 
 9320000    279.72583    227.45887    301.35446    -35521.77    35526.706    -73.89559    36.889175 
 9324000    310.88522    342.11948    373.59329   -35543.015    35552.309   -31.473809    36.918306 
 9328000    278.59444    323.51704    214.78189   -35556.562    35587.956    108.73515    36.921369 
 9332000    294.54849     360.3811    400.01336    -35549.47    35574.616    -39.63226    36.913016 
 9336000    279.06797    222.63454     322.6194    -35573.31    35597.343   -99.984864    36.909035 
 9340000    270.35459    252.95274     241.1643   -35583.154    35606.429    11.788436    36.906118 
 9344000    272.32811    272.21731    382.54688   -35590.129    35619.372   -110.32958    36.898644 
 9348000    269.29965    362.92879    363.78996   -35597.655    35640.947  -0.86116903    36.869156 
 9352000    287.81495    341.23521    195.28152   -35620.982    35653.224     145.9537    36.883562 
 9356000     267.0254    620.59486    302.31328    -35609.47    35665.533    318.28158    36.903022 
 9360000    264.15832    482.11106    311.27416   -35644.702    35671.177     170.8369    36.887697 
 9364000    301.78035    252.62769    276.35992   -35648.871    35679.741   -23.732236    36.888538 
 9368000    285.44948    186.39824    270.59056   -35675.602    35666.622   -84.192314    36.901109 
 9372000    297.34227     377.4643    454.47054   -35701.983    35698.972    -77.00624    36.911681 
 9376000    293.56703    377.19473    303.82649   -35704.522    35714.358    73.368234    36.906437 
 9380000    322.17031    374.29143    361.36788   -35763.424    35752.739    12.923549    36.894869 
 9384000    298.88806    246.91314    293.85498   -35789.374    35785.955   -46.941838    36.897033 
 9388000    299.71337    452.36437    393.05042   -35803.679    35808.642    59.313952    36.916065 
 9392000    290.54389    519.93442    325.17644    -35801.26     35812.75    194.75798    36.934048 
 9396000    285.44946    331.31033    377.45233   -35795.477    35831.479   -46.142006    36.921574 
 9400000    288.38711    551.51608    522.02773    -35827.06     35852.96    29.488354    36.923265 
 9404000    287.99704     312.0146    186.73837   -35823.862    35841.161    125.27623    36.928943 
 9408000     288.2011    297.04972    265.07151   -35882.959    35875.148     31.97821    36.915802 
 9412000     302.4761    488.49731    440.73058   -35877.586    35872.327    47.766734     36.91206 
 9416000    312.84961    410.91859    367.45823   -35911.584    35910.218    43.460351    36.906379 
 9420000    271.88222    436.35509     204.5624   -35900.867    35919.225    231.79269    36.901525 
 9424000    267.09141     350.0225    449.02283   -35916.393    35944.106   -99.000332    36.893935 
 9428000    292.21249    400.46121    291.74845   -35961.322    35967.385    108.71276    36.878083 
 9432000    280.92453    382.19664    150.41321   -35967.964    35987.753    231.78343    36.886861 
 9436000    276.35252    380.15475    339.89436   -35986.658    36014.476    40.260387    36.882605 
 9440000     295.2275     394.7214    559.72016   -36032.275    36043.205   -164.99876    36.876282 
 9444000    268.35436    282.39749    240.77024   -36042.527    36087.593    41.627248    36.886265 
 9448000    269.19484     374.5361    328.52638   -36062.586    36090.813    46.009724    36.884622 
 9452000     312.1583    487.48873    343.39879    -36094.35    36084.799    144.08993    36.888194 
 9456000    319.37445    746.43552    452.97322    -36093.56    36102.309    293.46231    36.899962 
 9460000    270.99844    333.30846    267.65519   -36089.895    36118.522    65.653274    36.900738 
 9464000    284.83863     687.0955    233.71357   -36125.481    36141.302    453.38193    36.882089 
 9468000    268.76199    230.95119    337.96804   -36119.201    36166.144   -107.01686    36.902039 
 9472000    291.83651    584.37303    438.42315   -36156.948    36163.036    145.94988     36.88701 
 9476000    314.56362    379.97293     402.0521    -36193.18    36176.797   -22.079165    36.896845 
 9480000    265.67048    387.08725    259.82139   -36230.567    36248.253    127.26586    36.885925 
 9484000    288.71529    327.36198    384.92078   -36232.428    36260.336   -57.558796    36.883231 
 9488000    295.62697    377.11152    212.58193   -36255.303    36273.577    164.52959    36.872241 
 9492000    291.09599    274.53215    311.81304   -36253.281     36260.12   -37.280886     36.87064 
 9496000    273.18865    167.71683    259.45441   -36282.009    36311.082   -91.737582    36.877766 
 9500000    315.37512    331.61423    344.26194   -36319.321    36317.112   -12.647706    36.882427 
 9504000    270.41708    224.18869     279.8052   -36328.249    36346.759   -55.616507    36.878405 
 9508000    305.36794    381.03868    302.48782   -36365.291    36367.361    78.550858    36.880192 
 9512000    280.71453    291.24045    485.00309   -36356.339    36381.578   -193.76264    36.867933 
 9516000    299.95507    599.31075    314.59974   -36388.779    36413.972    284.71101    36.868389 
 9520000    290.36925    347.26626    491.52079   -36427.033    36450.779   -144.25453    36.887833 
 9524000    299.75566    286.93621    544.78424   -36442.663    36477.494   -257.84803    36.894837 
 9528000    280.77667    570.10408    474.74136   -36487.597    36514.485    95.362726    36.884739 
 9532000    282.16106    359.32333    406.72138   -36506.483     36523.99   -47.398054    36.877817 
 9536000    305.37439    492.80332    219.95622   -36503.807     36525.63     272.8471    36.878215 
 9540000     324.0964    606.32282    434.10589    -36551.71    36535.504    172.21694    36.895454 
 9544000       329.28    333.64292    396.47589   -36562.042    36559.046    -62.83297    36.902759 
 9548000    278.44978     311.8837    185.32388   -36579.163    36582.465    126.55983    36.902263 
 9552000    288.17964    363.11784    216.62582   -36588.388    36593.646    146.49202     36.91437 
 9556000    260.84828    435.65435    185.48422   -36611.258    36651.171    250.17013    36.939472 
 9560000    289.21575    309.21181    313.11159     -36626.2     36656.34   -3.8997864    36.925566 
 9564000    283.70482    328.53586    258.86174   -36650.106    36682.572    69.674119     36.91606 
 9568000    284.00543    330.78522     396.9215   -36679.575    36704.885   -66.136272    36.907536 
 9572000    299.57411     440.4047    336.07524   -36736.941      36756.9    104.32946    36.898629 
 9576000    254.07118    283.96135    415.87007   -36758.382    36806.668   -131.90871    36.884194 
 9580000    266.65083    448.59576    270.21158   -36801.207    36818.739    178.38418    36.901038 
 9584000    297.21267    234.67561    311.81891   -36838.449    36846.244   -77.143304    36.908528 
 9588000    303.34567    379.91497    482.28418   -36850.116    36845.204   -102.36921    36.902815 
 9592000     288.4202     358.5129    240.69851   -36849.321    36872.729    117.81439    36.886708 
 9596000    313.87698    511.79806    473.84824   -36891.547    36895.588    37.949829    36.887323 
 9600000    293.78744     302.2284     281.3174   -36899.849     36919.54    20.911001    36.881518 
 9604000    265.55427    217.81937    283.38567   -36923.051    36950.225   -65.566307    36.885484 
 9608000    282.94071    344.16705    481.72663    -36929.18    36961.182   -137.55958    36.871621 
 9612000    228.52305    292.74288     290.6946   -36940.716     36986.62    2.0482794    36.869728 
 9616000    271.59589    241.36694    342.63406   -36975.561     37013.36   -101.26711    36.864091 
 9620000    281.95025    523.15705    310.43931   -37020.349     37047.14    212.71774    36.865375 
 9624000      275.892    272.33252    227.77607   -37041.468    37063.831    44.556444    36.856586 
 9628000     290.0492    330.70773    300.01137   -37054.372    37072.352    30.696364     36.87361 
 9632000    281.20519    264.08498     421.6308   -37076.326    37092.356   -157.54582    36.850371 
 9636000    294.25848    325.84899    241.23566   -37088.295     37103.77    84.613326    36.842629 
 9640000    302.56564    326.62359    465.37052   -37096.278    37101.322   -138.74693    36.843717 
 9644000    277.74572    444.36752    180.90794    -37099.88    37117.225    263.45957    36.854988 
 9648000    270.39534    175.81421    219.53054   -37104.546    37138.254   -43.716336    36.856935 
 9652000    277.46665    507.82017    498.70069    -37125.81    37160.171    9.1194812      36.8459 
 9656000    298.73018    560.30461    400.00488   -37147.044    37171.209    160.29973    36.836354 
 9660000    267.76578    319.08026     316.0461   -37173.413    37218.079    3.0341566    36.830368 
 9664000    268.79491    216.64695    341.68665   -37172.011    37213.109    -125.0397    36.827317 
 9668000      300.618    562.04642    249.58459   -37224.079    37213.762    312.46183    36.843633 
 9672000    285.82578    274.49805    256.43238   -37223.248    37241.129    18.065668    36.841963 
 9676000    288.24816    336.07105    358.41366   -37218.945    37253.297   -22.342613    36.843217 
 9680000    267.00686    363.19287    378.52138   -37234.334    37272.528   -15.328519    36.838349 
 9684000    273.78664    356.86706      239.651   -37243.859    37273.423    117.21605    36.836577 
 9688000    281.93636    496.74317    133.39353    -37287.82    37293.555    363.34964    36.833324 
 9692000    286.00567    325.59277    384.20444   -37307.631    37317.539   -58.611667    36.846704 
 9696000     286.9974    289.42137     341.4824   -37311.822    37339.904   -52.061029    36.849907 
 9700000    275.65928    266.67448    363.59943   -37313.279    37334.738   -96.924945    36.852411 
 9704000    245.06113    287.27799    171.31412   -37336.158    37368.097    115.96387    36.863754 
 9708000    321.17521    621.34739    198.76861   -37373.217    37384.062    422.57878    36.872488 
 9712000    288.16959    405.21704    318.33345   -37390.721     37410.48    86.883591    36.867282 
 9716000    260.87096    283.33233    296.33678   -37383.738    37420.249   -13.004453    36.870139 
 9720000    301.87252    522.14145    391.20024    -37409.74    37417.941    130.94121    36.864637 
 9724000    316.89416    364.30115    271.54472   -37420.651    37421.855    92.756429    36.868665 
 9728000    267.22902    296.14835    241.97624   -37413.403     37452.15    54.172109     36.87191 
 9732000    267.39626    214.35945    450.29895   -37429.196    37466.241    -235.9395    36.857484 
 9736000    273.97543    301.90476    263.81065   -37466.671     37500.32     38.09411    36.860417 
 9740000    312.33722    317.99378     310.0756   -37476.365    37494.464    7.9181786    36.879539 
 9744000    300.63994    479.30007    408.25225   -37502.678    37502.547    71.047817    36.860174 
 9748000    282.66616    485.61624    366.43273   -37466.245    37484.117    119.18351    36.852608 
 9752000    296.33395    419.56336    180.11291   -37499.258    37512.451    239.45045    36.864672 
 9756000    245.59119    228.72356    425.29229   -37495.141    37519.065   -196.56873    36.862451 
 9760000     267.1144    435.39403    216.75613    -37505.69    37544.457     218.6379    36.855916 
 9764000    306.05997    375.21888    200.71881   -37537.583    37552.105    174.50007    36.860473 
 9768000    270.05557    444.09121     422.5333   -37528.547    37556.754    21.557918    36.865345 
 9772000    277.19595    246.08161    258.04786    -37537.88    37568.443   -11.966248    36.858305 
 9776000     293.1323    250.62524    376.84269   -37557.904    37597.813   -126.21745    36.853671 
 9780000    285.72699    243.04727    375.63078    -37607.05    37600.091   -132.58351    36.850129 
 9784000     292.7611    277.26758    360.13042   -37595.159    37616.179   -82.862844     36.84689 
 9788000    267.91778    296.57221    298.61819   -37586.591    37618.099   -2.0459815    36.846028 
 9792000    242.90905    241.81365    377.42162   -37582.665    37641.003   -135.60796    36.838856 
 9796000    290.77866    532.58939    397.21479    -37630.02    37656.251     135.3746    36.834623 
 9800000    261.99523    349.65112    268.43864   -37640.856    37682.177    81.212478    36.836992 
 9804000    286.42254    386.26077    388.41676   -37670.697    37703.082   -2.1559882    36.841284 
 9808000    301.63525    163.48385    368.78742   -37691.773     37684.37   -205.30357    36.840936 
 9812000    277.35313    558.31601    378.06736   -37694.643     37718.02    180.24866    36.868745 
 9816000    303.54352    628.56813    325.22783   -37711.638    37722.739     303.3403    36.880576 
 9820000     275.8067    382.64256    351.09559    -37710.91    37749.925     31.54697        36.89 
 9824000    266.34442     349.9624    278.78803   -37739.726    37781.909    71.174373    36.886547 
 9828000    284.63208    597.97272    307.31077   -37778.636    37794.897    290.66195     36.89435 
 9832000    277.62226     355.0169    320.89027   -37811.698    37829.781    34.126631      36.8739 
 9836000    289.15785    483.54319    331.22318   -37839.135    37860.479    152.32001    36.877707 
 9840000    282.44779    353.13837    460.72475   -37853.417    37880.117   -107.58638    36.876015 
 9844000    305.96287    325.15222    186.28273   -37870.926    37896.874    138.86949    36.871786 
 9848000    282.21991    200.76371    336.93559   -37883.022    37906.164   -136.17187    36.877243 
 9852000    272.45726    352.11845    291.48662   -37876.645    37907.847    60.631836    36.891872 
 9856000    291.59929    524.70974    406.75275   -37895.361    37903.011    117.95699    36.867276 
 9860000    264.86845    620.40552    326.02564   -37913.223    37930.973    294.37987    36.859574 
 9864000    310.54034    406.21128    306.26624   -37913.608    37907.371    99.945037    36.864587 
 9868000    288.55511     413.9733    422.40116   -37926.506    37937.352   -8.4278598    36.875998 
 9872000    286.19201    384.52447    330.03703   -37956.854    37957.475    54.487441    36.868342 
 9876000    315.24471    408.16503    297.25587   -37967.427    37972.894    110.90916    36.881926 
 9880000    258.39738    350.45551    381.19519   -37976.143    38016.394   -30.739682    36.893127 
 9884000    271.01133    314.13242    470.96198   -38006.786    38039.159   -156.82956    36.893246 
 9888000    305.30306     344.2242      343.027   -38024.177    38025.127    1.1972008    36.898278 
 9892000    280.68352    302.93671    376.22253   -38054.256    38077.457   -73.285827    36.905673 
 9896000    270.41991    252.54176    263.02706   -38102.326    38136.148   -10.485294    36.903608 
 9900000    268.09687    318.23961    495.96239   -38134.089    38160.697   -177.72278    36.899128 
 9904000    250.83229    396.71881    338.00352   -38119.229    38184.043    58.715288    36.883562 
 9908000    298.22873    304.51737    382.41235   -38156.704    38177.922   -77.894978     36.90336 
 9912000    284.75375     318.9875    413.22649   -38187.542    38206.347    -94.23899    36.905244 
 9916000    290.19255    434.87898    207.41674    -38203.32    38234.023    227.46224    36.921427 
 9920000    271.08389    460.22933    351.09176   -38248.649     38273.43    109.13758    36.917783 
 9924000    302.56545    261.56026    280.99428    -38254.95    38282.583    -19.43402    36.900923 
 9928000    280.75111    397.79445    198.22738   -38273.495    38298.404    199.56707    36.897168 
 9932000    262.83122    371.86323    298.94304   -38285.715    38344.391    72.920184     36.89773 
 9936000    291.43599    535.89185    378.24902   -38329.913      38361.9    157.64283    36.904286 
 9940000    230.07784    276.40973    129.79946   -38320.774    38372.159    146.61027    36.893613 
 9944000    288.64383    363.39283    333.00954   -38360.806    38379.495    30.383284    36.911017 
 9948000    248.09967     195.1258    327.38915    -38362.89    38395.119   -132.26334    36.916689 
 9952000    291.57233    406.64962    253.71467   -38386.438    38406.539    152.93496    36.924386 
 9956000    322.81663    348.31023    403.47972   -38412.338    38421.962   -55.169488    36.926196 
 9960000    273.71189    246.93738    325.43537   -38434.519    38445.424   -78.497993    36.926486 
 9964000    274.65388    243.59974    426.41499   -38450.829     38488.99   -182.81525    36.937334 
 9968000    287.90033    442.13254    283.87927   -38482.468    38517.297    158.25326    36.936299 
 9972000      268.134    425.48936    378.90199    -38502.11     38530.52    46.587376    36.934009 
 9976000     263.9128    266.40683    235.96149   -38500.901    38550.531    30.445333    36.923563 
 9980000     258.4567    249.82081    431.26291   -38499.283    38544.857    -181.4421    36.931291 
 9984000    267.63919    570.38591     279.0819   -38504.737    38542.918    291.30402    36.942404 
 9988000     291.4921    481.42192    236.44386   -38547.874    38556.675    244.97806     36.92684 
 9992000    282.42121    372.05426    344.07089    -38554.05    38578.749    27.983367    36.929048 
 9996000    281.28551    315.68808    189.01154   -38572.956    38597.003    126.67654    36.943386 
10000000    288.83468    304.93382    296.13288   -38583.642    38586.032    8.8009429    36.946194 
10004000    306.71186    240.54827    455.15554   -38604.308    38590.381   -214.60727    36.958578 
10008000    267.38077    162.63659    323.84016   -38587.348    38618.656   -161.20357    36.945322 
10012000     274.6162    266.98922    180.48372    -38599.97      38620.2    86.505497    36.936536 
10016000    273.43065    318.89805    414.94833   -38583.513    38606.884    -96.05028    36.924483 
10020000    284.71783    361.90353    247.88246   -38617.863    38632.342    114.02107     36.93703 
10024000    268.48982    333.84664     395.6412   -38635.682    38672.546   -61.794558    36.932216 
10028000    298.02402    253.72711    204.41021   -38648.177    38663.213    49.316899    36.928092 
10032000     315.8337    197.40258     249.7374   -38661.475    38671.488   -52.334815    36.919211 
10036000    277.91363    213.82515     257.8447   -38667.294    38676.752   -44.019548    36.898226 
10040000    267.11689    334.83233     337.4263   -38665.065    38697.286   -2.5939629    36.903221 
10044000    282.04269    337.24314    289.49565   -38678.312    38705.988    47.747484     36.89042 
10048000     261.9653    284.02235    390.79017   -38670.472    38725.756   -106.76783    36.891001 
10052000    259.93192    391.19291    255.32076   -38699.417    38752.213    135.87216    36.905787 
10056000    272.76336    415.23372    319.15438   -38732.219    38771.359    96.079336    36.908921 
10060000    288.67015    566.40366    392.97674   -38772.895    38802.332    173.42692    36.897891 
10064000    287.30108    271.46507    261.66005    -38797.72    38808.989    9.8050166    36.883501 
10068000    290.40571    280.25831    272.39676   -38790.786    38802.321    7.8615525     36.90436 
10072000    262.72303    221.61482    243.40332   -38800.816    38844.691   -21.788492     36.90792 
10076000    288.82457    212.99972    284.35103    -38825.04    38828.552   -71.351307    36.872808 
10080000    245.27588    467.38684     287.9193    -38813.22    38855.527    179.46755    36.897287 
10084000    268.54059    420.79629    214.67406   -38851.323    38860.232    206.12223    36.901203 
10088000    290.08359    380.15177    377.54635    -38849.73    38886.368    2.6054179      36.9001 
10092000     290.6838    381.72966    321.17481   -38866.475    38895.882    60.554845    36.908053 
10096000    277.16916    375.51573    308.35329   -38895.166    38920.588    67.162439    36.923238 
10100000    307.88686    324.16303    310.91124   -38922.143    38935.607    13.251786    36.921689 
10104000    316.98788    188.61957    360.10059   -38928.989    38948.205   -171.48103    36.926493 
10108000     287.3275    256.86386    302.57166   -38969.364    38982.984   -45.707799    36.929583 
10112000     302.5825    301.21725    388.48807    -38992.91    39006.753   -87.270816    36.921177 
10116000    272.36385    239.88355    354.72835   -39020.435    39039.342    -114.8448    36.905491 
10120000    300.76673    527.54851    362.72778   -39057.197    39066.789    164.82073    36.917217 
10124000    267.27565    345.82413    259.46418   -39043.198    39074.502    86.359949    36.935988 
10128000    272.64467    263.36981    243.90558    -39050.83    39084.896    19.464236    36.942598 
10132000    295.38333    402.32763    341.08338   -39082.957    39093.501    61.244253    36.943838 
10136000    266.19051    487.40966    282.49072   -39089.441    39125.434    204.91894    36.930871 
10140000    272.37446    483.81417    304.43566   -39119.039    39130.521    179.37851     36.95301 
10144000     289.7649    438.91443    302.79017    -39154.15    39177.747    136.12426     36.94516 
10148000    280.88621    307.38358    433.82711   -39140.111    39169.313   -126.44353    36.944904 
10152000    272.56125    226.76902    305.18189   -39162.367    39187.336   -78.412877    36.949251 
10156000    301.68654    546.56042    276.25097   -39208.475    39218.907    270.30945    36.955184 
10160000    275.41957    472.13277    336.63499   -39204.556    39231.791    135.49777    36.937815 
10164000    290.99835    258.08768     425.9398   -39230.273    39253.244   -167.85212    36.942563 
10168000    267.48451    401.41521    186.93693   -39243.221    39263.136    214.47828    36.941579 
10172000    282.18513    315.94121    309.28107   -39256.588    39259.531    6.6601439    36.939102 
10176000    291.39176    272.76187     449.7149   -39258.056    39259.526   -176.95303    36.934296 
10180000    270.16437    302.81651    272.07553   -39250.933    39272.511    30.740978    36.925708 
10184000    292.43951     369.2934    222.81388   -39282.366    39304.791    146.47952    36.935788 
10188000    296.41386    381.55361    539.53183   -39309.978    39322.777   -157.97822    36.938396 
10192000    283.21466    345.58065    261.44207   -39328.138    39339.551    84.138587    36.953471 
10196000    290.39578    388.76131    475.83104   -39368.922    39372.743   -87.069729    36.951547 
10200000    293.17545    520.48835    177.74021   -39377.476    39404.859    342.74814    36.956104 
10204000    280.16908     422.9822    401.88059   -39393.144    39420.547    21.101607    36.957383 
10208000    281.20983    184.24701    293.25546   -39418.351    39435.638   -109.00845    36.961001 
10212000    295.12314    511.46745    340.29663    -39440.64    39433.267    171.17082    36.980293 
10216000    284.26954    339.94472    209.95145   -39442.415    39487.743    129.99328     36.96001 
10220000    324.41378    462.74312    331.81618   -39493.716     39499.67    130.92694    36.955365 
10224000    305.95592    474.09529    415.50014   -39545.265    39536.092    58.595154    36.951786 
10228000    274.52643    322.42165    326.27181   -39543.619    39567.778   -3.8501569    36.946512 
10232000    249.41616    297.44494    274.36906   -39552.949    39587.579    23.075878    36.956234 
10236000    261.79028    460.61365    409.19484   -39581.765     39613.38    51.418808     36.96284 
10240000    275.38915    319.30916    462.08718   -39605.175    39633.081   -142.77802    36.977543 
10244000    291.57698    464.59302    223.01506   -39645.731    39651.853    241.57796    36.996623 
10248000    302.04072    357.24026    340.22423   -39652.403    39666.891    17.016024    36.986348 
10252000    261.14921    310.47358    187.62361   -39672.126    39705.517    122.84997    36.986323 
10256000    271.92388    294.47287    419.49605    -39671.23    39705.584   -125.02319    36.976694 
10260000    260.75159    209.29766    215.50681    -39661.46    39700.542   -6.2091514    36.985356 
10264000    303.11753    362.30198    217.04758   -39699.688    39717.743     145.2544     36.98351 
10268000    305.17193    385.72448    505.77016   -39684.464    39699.898   -120.04569    36.982623 
10272000    274.95196    386.09909    194.25005   -39698.493    39717.698    191.84904    36.988107 
10276000    280.23766    379.89813    299.41402   -39718.258    39731.181    80.484112    36.999864 
10280000    295.82293    527.97002    363.80346   -39735.146    39762.753    164.16656     37.00602 
10284000    269.40038    267.08459    212.16559   -39727.945    39766.157    54.918996    37.008673 
10288000    288.42243    293.74454    322.34084   -39767.874     39780.78   -28.596297    37.023533 
10292000    270.03208    272.76508    310.42793   -39771.736    39791.637   -37.662851    37.017102 
10296000    321.13114    356.20932     449.0937   -39793.466    39804.118   -92.884381    37.021963 
10300000    238.61429    290.10524    288.61754   -39812.266    39858.686    1.4876956    37.025021 
10304000    285.22892    650.62759    354.54681   -39834.014    39865.795    296.08078    37.030757 
10308000    277.47861    276.00529    261.75665   -39855.087    39888.905    14.248635    37.016229 
10312000    280.94507    289.24216    271.15898   -39896.404    39926.289    18.083175    37.005987 
10316000    258.78226     364.4148    171.87699   -39908.212    39945.923    192.53781    37.015194 
10320000    257.78207    314.93607    225.94047   -39910.209    39959.599    88.995605    37.021277 
10324000    283.06734    347.89995    389.50739   -39930.368    39957.095   -41.607433    36.988454 
10328000    278.56219    298.61987    322.39799   -39951.215    39994.687   -23.778117    36.997897 
10332000    308.05145    530.63363    307.09277   -39997.198    40001.202    223.54086    37.012279 
10336000     276.0104    283.60792    401.58446   -39992.009    40021.418   -117.97653    37.010175 
10340000    282.23726    309.16147    360.41219   -40008.227     40014.18   -51.250724    37.007536 
10344000    261.93208    250.52237    376.54927   -39988.763     40030.73    -126.0269    37.001996 
10348000      290.342     600.4952    290.76073   -40015.486     40036.08    309.73448     37.00239 
10352000    282.15279    371.77614    277.58671   -40035.702    40062.794    94.189434    36.991705 
10356000    281.84341    402.89931    491.17813   -40052.195    40077.746   -88.278823    36.985409 
10360000    256.74415    434.21338    273.95836    -40078.29    40126.173    160.25503    36.998166 
10364000    273.54998    511.53711    283.36036   -40111.924    40143.392    228.17675    37.002001 
10368000     266.3642    248.12923    264.52257   -40104.016    40136.307   -16.393335    36.991585 
10372000    296.02597    269.12771    427.06254   -40153.924    40173.371   -157.93483    36.982447 
10376000     294.2835    417.92746    277.22832   -40183.547    40213.758    140.69915    36.979569 
10380000    332.21878    345.99386    578.03439   -40239.968    40223.491   -232.04053    36.970519 
10384000    320.22572    188.99893    286.50302   -40231.731    40239.532   -97.504082    36.960684 
10388000    293.98868    265.82272    249.84244   -40273.372    40284.141    15.980284    36.963536 
10392000    279.08414    446.82941    228.55888   -40287.143    40288.312    218.27053    36.954588 
10396000    314.86883    644.17508    484.85419    -40299.15    40313.593     159.3209    36.944259 
10400000    273.27192    618.42399    269.36042   -40331.546    40335.134    349.06357    36.942637 
10404000    282.36546    414.24339    291.86373   -40347.227    40367.967    122.37966    36.937453 
10408000    283.21683    402.95737    364.95772   -40364.184    40380.492    37.999651    36.929523 
10412000    264.49196    342.23887    167.58096   -40359.504     40413.15    174.65791    36.913585 
10416000    298.00181    325.14077    523.42522   -40423.347    40435.223   -198.28445    36.929008 
10420000    296.58085     395.2438    274.23449   -40454.223    40466.141    121.00931    36.928862 
10424000    268.76043    210.68836    471.16376   -40449.494     40459.61    -260.4754    36.931383 
10428000    309.73693    467.20599    427.55048   -40443.474    40450.577    39.655507    36.937364 
10432000    329.55427    360.22614    551.80715   -40461.917        40455   -191.58101    36.950417 
10436000    314.21536    312.29541    456.08192   -40466.602    40477.828   -143.78651    36.949649 
10440000    297.54441    384.09149    582.05889   -40449.267    40467.937   -197.96741    36.942854 
10444000    281.35821    317.25926    338.96135    -40460.75    40481.293   -21.702084    36.944102 
10448000    266.81341    206.00146    350.43804   -40458.762    40496.147   -144.43658    36.920391 
10452000    275.23499    546.62469    236.79914   -40476.589    40508.407    309.82555    36.923705 
10456000    273.14567    271.99062    243.47581   -40474.231    40511.959    28.514803    36.936826 
10460000    280.60202    378.22713    252.16263   -40511.398    40532.766     126.0645    36.941604 
10464000    255.43016    365.69228     290.9655   -40538.608     40569.23    74.726775     36.94698 
10468000    276.91249     362.4777    285.24355   -40551.259    40589.666     77.23415    36.957718 
10472000    265.91945    333.00196    195.12638   -40562.431    40611.996    137.87558    36.969854 
10476000    293.41177    428.55843      453.899   -40612.809    40624.628   -25.340578    36.958201 
10480000    259.94029    509.32126    255.07016    -40630.67    40668.653    254.25109    36.968961 
10484000    264.90965     350.3019    221.54059   -40643.242    40695.142    128.76131    36.986214 
10488000    285.09875    418.50304    330.36135   -40669.167     40708.43    88.141691    36.991238 
10492000    270.50492    267.53011    289.78975   -40673.244    40718.125   -22.259638    37.006733 
10496000    246.41961    363.78611     283.6982    -40671.87    40731.479    80.087912    37.005608 
10500000    297.11171    414.89797    351.58759   -40721.125    40741.685    63.310376    37.028368 
10504000    266.31769    206.16428    365.99909    -40737.15    40774.438   -159.83482    37.028893 
10508000    300.29761    353.52421    313.91127   -40778.055    40796.613    39.612938     37.03683 
10512000    269.93696    169.12086    441.90994   -40789.006    40823.302   -272.78908    37.040053 
10516000    283.95709    500.19613    329.70438   -40793.639    40829.295    170.49175    37.047333 
10520000    292.90556    401.41321    319.37788   -40838.411    40850.761     82.03533    37.060166 
10524000    269.77342    336.93291    299.51332   -40829.204    40872.016    37.419588     37.08492 
10528000    285.75547     441.5266    293.77978   -40874.959    40896.905    147.74682    37.076328 
10532000    285.35635    304.11325    587.18343   -40880.082     40904.68   -283.07018     37.07774 
10536000    300.59015    485.31319    350.15407   -40902.924    40925.013    135.15912    37.092559 
10540000     272.5474     433.2318    292.32825   -40919.056    40947.741    140.90355    37.079627 
10544000    298.20652    581.69033    272.02073   -40951.669    40993.811     309.6696    37.100353 
10548000    273.63639    326.97876    284.21738   -40974.573    41016.228    42.761376    37.103977 
10552000    285.52505    386.42262    189.22825   -41007.449    41030.724    197.19438    37.112926 
10556000    272.92206    354.76009    315.97575   -41020.958    41043.413    38.784346    37.122694 
10560000    293.45885    294.65733    207.80482   -41045.443     41071.29    86.852512    37.112553 
10564000    276.90707     393.4393     460.5889   -41048.301    41087.676   -67.149606     37.13617 
10568000    295.24945     432.2405    244.34357   -41086.661      41116.8    187.89693    37.124706 
10572000    271.17152    407.25682    260.98664   -41092.378     41117.89    146.27018    37.123611 
10576000    267.84155    474.07524    318.63379   -41106.298     41151.52    155.44145    37.137686 
10580000    271.13675    247.34423    312.52173   -41131.554    41165.606   -65.177498    37.136864 
10584000    298.27902    421.07512    309.21038   -41160.908    41186.518    111.86474    37.124744 
10588000    308.03615    526.15919    243.28278   -41198.676     41209.06    282.87641    37.120491 
10592000     288.2836    300.33672    272.93881   -41196.425    41217.377    27.397906    37.135305 
10596000    284.44489    483.91365    258.63848   -41235.403    41240.335    225.27518    37.140016 
10600000    293.75387    555.67935    331.44557   -41252.725    41256.891    224.23378    37.146857 
10604000    316.01131    415.34216    191.54425   -41280.315    41276.962    223.79791    37.155153 
10608000    262.11236    329.40444    264.72733   -41246.799    41284.438    64.677114    37.148832 
10612000    287.56372    452.65725    440.51708   -41280.694    41298.535    12.140166    37.129368 
10616000    298.47268    482.91843     377.4787   -41295.942    41317.604    105.43973    37.127833 
10620000    301.34267    440.26077    259.36273   -41311.544    41323.905    180.89804    37.125118 
10624000    286.51924    374.61827    560.35864   -41329.067    41355.338   -185.74037    37.114206 
10628000    292.40114    340.98365    396.77706   -41360.224    41372.692    -55.79341    37.113815 
10632000    276.01928    312.32402    200.77065   -41367.492    41396.183    111.55337     37.10747 
10636000    285.91725    278.65354    421.67253   -41391.003    41412.386   -143.01899    37.096696 
10640000     260.2032    277.44346    382.72396   -41396.977    41417.682   -105.28049    37.088081 
10644000    305.03252    672.17352     433.1278   -41434.473    41436.195    239.04572    37.082817 
10648000    299.91447    457.05311    355.16929   -41464.103     41468.87    101.88382    37.087107 
10652000    267.01506    361.02832    408.53603   -41476.618    41506.252   -47.507713    37.085792 
10656000    289.17609    356.59972    348.36438   -41494.119    41527.082    8.2353386    37.083853 
10660000    281.70728    526.12361    229.41313   -41507.166    41543.625    296.71048       37.095 
10664000    281.18598    261.29657    359.24295   -41522.012    41563.691   -97.946385    37.090062 
10668000    263.54812     299.8899    303.63459   -41547.717     41590.64   -3.7446898    37.100005 
10672000    303.16523      661.538    143.72608   -41599.264    41615.204    517.81191    37.109425 
10676000    309.24829    215.40389    249.52185   -41620.528    41610.215   -34.117956    37.120607 
10680000    313.55729    251.22481    359.82001   -41634.688    41638.298    -108.5952    37.122969 
10684000    275.63329    371.79279    263.63674   -41651.877    41681.411    108.15605    37.126248 
10688000    278.41734    386.12393    276.57762   -41690.708    41704.222    109.54631    37.118773 
10692000    275.45514    357.08813     304.5064   -41687.956    41726.526    52.581736    37.108407 
10696000    291.14686    422.34563    249.79017   -41716.051    41750.439    172.55546    37.116682 
10700000     277.0896    380.30742    237.67026     -41732.6    41753.356    142.63716    37.126601 
10704000     284.6683    239.15553    315.91773   -41739.059    41776.629   -76.762206    37.131709 
10708000    325.36515    329.85469    481.49435   -41793.772    41778.648   -151.63966    37.132273 
10712000    297.93096    385.42544    160.71908   -41843.234    41852.912    224.70636    37.125888 
10716000    294.85174    273.04289    388.16134   -41846.231    41866.237   -115.11845    37.135318 
10720000    301.99866    364.48409    501.70745   -41879.315    41885.251   -137.22336    37.148992 
10724000    283.16389    192.95461    317.37226   -41877.715    41894.197   -124.41765    37.141133 
10728000    288.06196    460.66227    331.91901   -41883.784    41913.475    128.74325    37.137515 
10732000     283.4488    327.66358    240.71452   -41902.593    41914.436    86.949062    37.133922 
10736000    294.78286    566.89734    277.36745   -41922.998    41934.331    289.52989    37.143316 
10740000    287.03819    328.74171    523.56654    -41921.31    41936.953   -194.82483    37.136936 
10744000    311.02777     359.6951     424.0129   -41967.031    41976.532   -64.317794    37.135793 
10748000    268.06335    332.90541    325.28929   -41977.555    42012.284    7.6161217    37.130185 
10752000     291.9288    284.43656    373.53489   -41966.005    42007.593   -89.098325    37.111299 
10756000    287.61403    140.59765    424.92444    -41998.21    42028.786   -284.32679     37.11798 
10760000    263.05437    235.37668    470.13687   -42035.543    42075.003   -234.76019     37.12435 
10764000    278.41343    336.79953    381.35583   -42058.465    42106.726   -44.556296    37.126235 
10768000    245.87935    354.86152     249.2763   -42096.837    42146.586    105.58522    37.129693 
10772000    264.71659    365.87447    293.69366   -42126.075    42161.717    72.180808     37.12684 
10776000    291.06192    420.99143    245.65527   -42155.196    42186.741    175.33616    37.137237 
10780000    276.19828    285.87038    416.28977   -42186.732    42203.909   -130.41939    37.123104 
10784000    261.20368    395.20769    315.45686   -42198.133    42229.927    79.750829    37.129595 
10788000    314.53322    436.62656    526.65878   -42225.223    42228.136    -90.03222    37.129269 
10792000    249.36769    315.20626    265.53962   -42234.975    42280.434    49.666632     37.13139 
10796000    289.96844    293.71546    316.34139   -42286.521    42299.927   -22.625932    37.114353 
10800000    287.34768    358.55179     374.1703   -42304.903    42330.825   -15.618507     37.12307 
10804000     279.6948    403.26111    280.64669   -42293.275    42339.348    122.61442    37.124667 
10808000    307.90541    432.44154    382.29238   -42329.387    42357.881    50.149159    37.113591 
10812000    304.15497    414.26265    313.74745   -42333.441    42348.993    100.51521    37.121041 
10816000    266.20667    374.62185    340.68854   -42346.534    42378.977    33.933316    37.131276 
10820000    249.43678    374.91806    260.00398   -42318.935     42378.82    114.91407    37.121819 
10824000    265.95082    444.37091    462.36927   -42361.205    42379.778   -17.998359    37.113431 
10828000    289.79575    377.18442    468.66979   -42391.349    42419.985   -91.485372    37.124135 
10832000    276.80017    376.60676     393.1416   -42385.551    42426.022   -16.534846    37.109187 
10836000    262.05521    247.45918     293.0744   -42388.919    42435.669   -45.615216    37.120637 
10840000    279.56287    416.50977    280.52053    -42415.56    42449.573    135.98924     37.11217 
10844000    286.28817    436.87934    354.47408   -42445.694    42477.442    82.405256     37.12434 
10848000    274.77924    493.75261    480.78074   -42479.918    42501.645    12.971874    37.111879 
10852000    260.30863    260.62469    204.80355    -42481.06    42517.244    55.821137    37.112453 
10856000    317.37159    403.25909    433.39569   -42524.125    42530.441   -30.136598    37.109703 
10860000     281.2376    405.03016     250.0345    -42518.08    42553.093    154.99566    37.095179 
10864000    261.51008    282.44265     283.5647   -42525.907    42561.061   -1.1220492    37.091341 
10868000    282.11013    404.29001    217.22222   -42559.507    42589.264    187.06779    37.087033 
10872000    295.95523    334.68938    247.70887   -42592.984    42598.045    86.980507    37.081955 
10876000    306.89982      251.225    445.37418   -42634.795    42648.048   -194.14918    37.088733 
10880000    323.99328    393.49335    366.01217   -42660.521    42665.084     27.48118    37.089338 
10884000    280.31336    356.69276    288.91573   -42687.506    42702.751    67.777032    37.088061 
10888000    288.02419    306.42061    166.72165   -42699.806    42707.441    139.69896    37.091864 
10892000    293.80258    266.75717    307.05861   -42718.249    42721.856   -40.301432    37.080742 
10896000    272.93019    491.57083    232.18278   -42705.102    42748.001    259.38805    37.085949 
10900000    285.89499    351.25445    226.47642   -42742.739     42772.97    124.77803    37.079584 
10904000     301.3088    310.88617    221.32436   -42767.881    42782.855    89.561815    37.076917 
10908000    288.50032    213.78119    342.12846   -42789.153    42808.018   -128.34727    37.066962 
10912000     266.5804    204.02754    301.03438   -42832.436    42844.554   -97.006832    37.062346 
10916000    277.27729    397.06207    366.15867   -42828.835    42874.378    30.903394    37.060001 
10920000    262.18027    352.69402    361.47582   -42847.409    42883.422   -8.7818031     37.06063 
10924000    261.72832    214.50371    348.64951   -42875.646    42900.766    -134.1458    37.066881 
10928000    266.11226    368.66474    194.33067   -42886.925    42938.192    174.33407    37.077489 
10932000    294.49717    342.40945    273.37207   -42952.824    42978.229    69.037374    37.080253 
10936000     282.6168    381.85656    410.75912    -42950.15    42968.067   -28.902567    37.076485 
10940000    285.52813    408.87652     258.9337   -42969.471    42998.776    149.94283    37.085755 
10944000      283.482     406.5655    473.41035   -43012.747    43038.228    -66.84485    37.078874 
10948000    306.29068    412.50506    401.22995   -43053.046     43076.29     11.27511    37.086686 
10952000     277.7846    525.20186    332.97066   -43055.475    43080.374     192.2312    37.096029 
10956000    262.78476    333.46528    493.59662   -43049.138    43080.979   -160.13134    37.106991 
10960000    287.14001    224.69687     390.6406    -43077.99    43105.788   -165.94373    37.097214 
10964000    262.99988    527.86938    238.58858   -43085.973    43145.165     289.2808    37.113607 
10968000    274.62606    467.02806    154.21392   -43104.735    43157.971    312.81414    37.109135 
10972000    271.45794    372.65213    294.67741   -43125.713    43165.788    77.974721    37.120192 
10976000       279.66    452.37606    210.33764   -43139.894    43176.596    242.03842    37.126303 
10980000    266.20324    291.77629    261.09467   -43182.107    43218.311    30.681623    37.109833 
10984000    248.96017    395.78474     290.5346   -43179.922    43255.185    105.25014    37.108023 
10988000    263.69744    367.38571     267.0796   -43216.039    43255.703     100.3061    37.115763 
10992000    291.15829    330.74447    360.91773   -43236.312    43267.861   -30.173257    37.114106 
10996000    279.28829    392.86615    363.60081   -43253.074    43280.515    29.265336    37.115112 
11000000    296.25776    231.80767     246.7699   -43242.287    43279.809   -14.962228    37.110183 
11004000    285.66361    358.17268    335.70708   -43263.026    43290.655    22.465603    37.109433 
11008000    271.94226    375.28671     155.7887   -43299.806    43343.367      219.498    37.110407 
11012000     324.0968    689.90045    337.39406   -43338.224    43348.816    352.50639    37.103251 
11016000    265.17708    298.40941    498.58711   -43318.848      43359.1    -200.1777    37.102735 
11020000    284.04582    371.62313    445.26922    -43354.75    43379.833    -73.64609    37.100264 
11024000     284.6635    304.86309    292.91745   -43369.126    43383.468    11.945646    37.099914 
11028000    272.04135    542.41895    369.96983   -43386.722    43427.219    172.44912    37.103294 
11032000    320.07444    532.64495    464.45707   -43429.108    43432.631    68.187885    37.093712 
11036000    319.87042    319.11998    311.17502   -43440.742    43445.702     7.944959    37.077571 
11040000    293.73534    379.04557    404.71761   -43463.803    43472.055   -25.672045     37.08187 
11044000     290.5006    502.10583     446.0478   -43470.235    43498.408     56.05803    37.079065 
11048000    281.42036    365.40055    302.37814    -43471.12     43502.19    63.022406    37.092263 
11052000    291.05703     269.2224    283.74392   -43504.232    43515.585   -14.521513    37.077675 
11056000    254.13075    227.94061    344.96132   -43523.546    43551.668   -117.02071    37.073731 
11060000    281.40327    280.64813     337.9746   -43567.214    43584.879   -57.326475    37.074178 
11064000    269.58442    342.83801    316.10479    -43586.15    43631.258    26.733223    37.078876 
11068000    293.94342     436.2469    340.43281   -43619.482    43657.394    95.814086    37.067698 
11072000    300.34409    239.59768    407.06853   -43656.854    43670.514   -167.47085    37.075916 
11076000    268.91976    253.59169    231.22932   -43675.795    43716.187    22.362371    37.073029 
11080000    276.91274    375.42573    305.76732   -43691.137    43714.392     69.65841    37.072524 
11084000    284.97608    460.49845    268.00661   -43702.875    43719.968    192.49184    37.076079 
11088000    279.62633    498.75506    336.91336   -43735.423    43752.236     161.8417    37.085522 
11092000    309.77533    411.25615    272.08449   -43767.374    43786.844    139.17166    37.088798 
11096000    302.16816    333.33305    412.04849   -43782.011    43805.342   -78.715446    37.080982 
11100000    283.38378    225.34578    145.57902   -43801.244    43835.152    79.766762    37.079737 
11104000    296.32772    318.05126    356.11652   -43822.688    43842.877   -38.065256     37.07612 
11108000    278.69982    364.04467    349.84064   -43848.156    43878.436    14.204028    37.081284 
11112000     280.3781    339.25787    295.42611   -43864.224    43906.603    43.831756     37.08609 
11116000     281.5884    628.10234    362.94061    -43891.84    43928.968    265.16174    37.088573 
11120000    271.54716    346.24688    275.75368   -43933.317     43966.27    70.493199    37.091176 
11124000    302.43382    398.28057    362.98151   -43969.802    44002.055    35.299052    37.070214 
11128000    263.73127    202.63476    421.72774   -43959.276    44011.572   -219.09297    37.054293 
11132000    297.89131    299.26823    367.25534   -43979.138    44003.399   -67.987116    37.051363 
11136000    258.63247    307.18057    93.543302   -43996.787    44033.861    213.63727    37.049289 
11140000     284.7613    444.64992    480.02573   -44002.463    44033.381   -35.375813    37.040994 
11144000    289.36446    339.04327    457.51573   -44016.132     44036.29   -118.47246    37.038314 
11148000    260.65372    318.57116    383.16105   -44011.516    44051.028   -64.589891    37.036503 
11152000    286.23337    526.56268    462.52364   -44034.332    44076.118    64.039039    37.061307 
11156000    291.25591    483.79967    316.47969   -44064.502    44102.597    167.31998    37.059167 
11160000     291.4679    385.28981     406.1502   -44079.986    44095.864   -20.860387    37.074165 
11164000    308.14087    479.19992    481.63144   -44096.802    44111.923    -2.431517    37.073501 
11168000     281.6901    295.66926    140.00101   -44128.602    44161.941    155.66825    37.078362 
11172000    263.08871    464.95907     295.5531   -44138.113    44163.912    169.40598    37.060803 
11176000    272.44193    456.52216    175.39836   -44183.013    44215.829     281.1238    37.065937 
11180000    277.63872    410.04138     294.1075   -44164.265    44186.663    115.93388    37.068693 
11184000    278.54565    344.65247    305.58615    -44199.88    44230.621    39.066315    37.070772 
11188000    252.66164    291.78507    231.79477    -44211.72    44255.572    59.990298    37.073764 
11192000    284.98645    428.10207    208.67026   -44236.961    44279.509     219.4318    37.084479 
11196000    283.77429    315.74926    422.63063   -44247.905    44286.578   -106.88137    37.086504 
11200000    270.00413    589.42698    513.34013   -44248.161    44288.251    76.086855    37.103132 
11204000     297.3184    400.77903    584.71302   -44276.115     44309.14   -183.93399    37.103879 
11208000    287.47181    243.00367    340.83015   -44295.056    44317.144   -97.826476    37.100287 
11212000    289.02588    234.64836     453.9287    -44316.63    44344.855   -219.28034    37.094385 
11216000    282.41547    389.26289    314.95145   -44325.703    44364.941     74.31144    37.109404 
11220000    250.21798    444.98506    256.15654   -44329.857    44390.682    188.82852    37.099494 
11224000    303.73202     321.8382    264.50555   -44358.292    44381.292    57.332656    37.092308 
11228000    258.33285    375.45308    304.46712   -44336.107     44375.42    70.985954    37.081198 
11232000    290.53643    514.79544    346.11174   -44352.051    44388.439     168.6837    37.078562 
11236000    277.83955    545.87745    340.41282   -44359.425    44389.387    205.46463    37.060731 
11240000    284.99818    439.68927    186.51772   -44414.552    44434.337    253.17155    37.057157 
11244000    304.06251    328.63522    299.17196   -44440.396    44464.438    29.463259    37.048977 
11248000    279.70984    315.34868    422.57267   -44456.914     44480.75   -107.22399    37.053509 
11252000    285.43106    499.08167     197.1838   -44460.046    44500.303    301.89786    37.044815 
11256000    289.05409     217.8236    361.79646   -44460.743    44504.434   -143.97285    37.058958 
11260000    311.59634    333.09855    271.42748   -44493.309    44513.819    61.671071    37.057851 
11264000    307.32305    471.09268    354.52162   -44515.806    44534.782    116.57106    37.053257 
11268000    275.98895     246.0758    243.79112   -44538.951    44569.738     2.284678    37.043465 
11272000    293.84362    441.25609    251.11147   -44534.213    44553.029    190.14462    37.054255 
11276000    293.53411    384.48091    333.13402   -44549.056    44564.665    51.346891    37.050236 
11280000    278.04214    361.19964     523.1995   -44536.237    44573.291   -161.99987    37.057911 
11284000    259.18418    273.88849    220.22281   -44546.874    44579.346    53.665674    37.069529 
11288000    289.16015    380.51418    380.19456   -44568.452    44599.876   0.31962527    37.076611 
11292000    270.73692    416.39631    249.40837   -44572.824    44613.753    166.98794    37.084845 
11296000    263.32505     180.6928    366.97864   -44568.393    44627.416   -186.28584    37.080735 
11300000    301.59688    463.27697    330.57066   -44614.231    44636.855    132.70631    37.081324 
11304000    297.64815     442.4129    341.08139   -44619.262    44643.813    101.33151    37.071619 
11308000    295.31161    381.25982    177.11717   -44646.537    44661.991    204.14266    37.074332 
11312000    271.93405    324.43562    349.72272   -44651.823    44692.681   -25.287103    37.065242 
11316000    296.21642    242.11467     319.6899    -44673.86    44691.065   -77.575226    37.069376 
11320000     277.2248    274.84319     317.7577   -44697.847    44732.685   -42.914513    37.077279 
11324000    307.76061    373.98643     307.2616       -44693    44703.408    66.724829    37.079961 
11328000    302.22801    511.21495    361.93578   -44689.125    44713.431    149.27918    37.070417 
11332000    289.29011    453.36333    195.19769   -44742.877     44754.25    258.16564    37.077957 
11336000    320.17475    442.29283    395.36062   -44786.723     44789.72    46.932208    37.080699 
11340000    279.02391    413.49987    461.37068   -44768.322    44806.783   -47.870807    37.094034 
11344000    283.02624    517.32762    373.08567   -44788.378    44830.225    144.24195    37.080833 
11348000    266.24486    230.99165    297.65296    -44813.11    44854.255     -66.6613    37.088792 
11352000    286.87141    426.60567    260.27278    -44850.96    44888.507    166.33289    37.107605 
11356000    292.24763    409.60124    468.51226    -44875.71    44908.677   -58.911024    37.106505 
11360000    286.86059    372.81784      504.019   -44881.726    44913.712   -131.20116    37.100323 
11364000    259.56313    325.94965    350.97123   -44892.535    44909.094   -25.021586    37.109108 
11368000    275.81142    336.14155    313.79024    -44890.78    44919.522    22.351309    37.103042 
11372000    293.05283    322.04908    314.80405    -44895.31    44935.789    7.2450329      37.0999 
11376000     259.1013    412.55255    301.61949   -44873.599    44953.042    110.93306    37.111727 
11380000    279.98983    425.25106    235.48828   -44929.166    44962.204    189.76278    37.112755 
11384000      284.127    447.57315     310.1275   -44954.171    44965.945    137.44565    37.120787 
11388000    280.79275    379.25014    156.70292   -44964.095    44998.263    222.54722    37.118546 
11392000    271.55348    363.14504     255.3376   -44975.561     45008.74    107.80744    37.132469 
11396000    275.84926    304.58024     274.9784   -45011.231    45036.613    29.601838    37.128293 
11400000     273.4918    359.71113    435.94223   -45027.093    45047.935   -76.231101    37.115052 
11404000    261.63601    403.16805    337.90112   -45023.231    45078.952    65.266931     37.10341 
11408000    287.77532    306.81635    365.09392   -45037.047    45086.431   -58.277561    37.087588 
11412000    285.34007    313.83379    247.85782   -45067.732    45110.849    65.975966    37.073625 
11416000    266.03544    327.56441    282.90817   -45086.023    45132.138    44.656231    37.069804 
11420000    284.90977    316.48161    490.71484   -45110.046    45149.184   -174.23323    37.064784 
11424000    294.27243    488.23062    228.90104    -45129.42    45178.154    259.32957    37.062815 
11428000     259.9927    314.27133      360.943   -45127.522    45175.556   -46.671668    37.066809 
11432000    263.91511    262.67002    246.49863   -45152.676    45194.102    16.171385    37.071962 
11436000    287.49237    286.73599    524.38868   -45175.261    45208.178   -237.65268    37.083494 
11440000    283.54825    410.42429    318.32618   -45186.611     45215.53    92.098115    37.079177 
11444000    292.59938    263.56318    377.14509   -45221.483    45256.349   -113.58191    37.078621 
11448000    275.73125    409.19837    448.26823   -45246.269    45282.664   -39.069862    37.069746 
11452000    287.60703    235.32335    201.01472   -45282.304    45300.468    34.308636    37.057879 
11456000    281.76452    421.61215    369.65073   -45282.762    45323.828    51.961419    37.061607 
11460000    261.61774    215.61493    396.38144    -45309.48    45345.905   -180.76651    37.065446 
11464000    299.33034    485.86191    576.02132   -45352.244    45366.113   -90.159412    37.060023 
11468000    283.22556    263.35611    439.94001   -45356.431    45389.132   -176.58391    37.069716 
11472000    299.89935    381.72486    290.38854   -45395.576    45422.316    91.336316    37.074351 
11476000    277.57512    363.09803    256.13673   -45406.425    45435.057     106.9613     37.09343 
11480000    275.15476    384.54074    334.00469   -45445.813    45467.303    50.536053    37.104723 
11484000    274.17309    418.78819     325.9997   -45486.651    45499.775    92.788493    37.117087 
11488000    285.08295    305.63045    232.42859    -45488.03    45507.217    73.201862    37.123659 
11492000    269.33387    418.65455    276.03956   -45497.789    45528.237    142.61499    37.130599 
11496000    281.73759    392.02325    409.63329   -45506.728     45532.87   -17.610042    37.132126 
11500000    264.71701    402.14669     204.4861   -45501.591    45548.726    197.66059    37.137758 
11504000    290.99669    621.44562    326.66176   -45508.606     45562.02    294.78386    37.127901 
11508000    284.60077    302.78724    461.54708   -45534.868    45565.827   -158.75984    37.122644 
11512000    270.75653    197.28937    314.97659   -45561.499    45602.974   -117.68722    37.129426 
11516000     280.9506    474.41631    286.98082   -45592.433    45631.687    187.43549    37.124341 
11520000    291.52849    315.19084    343.98043   -45624.809    45644.727   -28.789593    37.133922 
11524000     256.8481    484.71332    231.81871   -45615.925    45665.916    252.89461    37.131145 
11528000    255.19778    271.52751    285.72748   -45611.108    45676.402   -14.199968    37.125302 
11532000    262.51189     324.1114    374.01626   -45638.436    45679.361    -49.90486    37.131979 
11536000    296.62747    482.84882    280.97932   -45663.774    45681.341     201.8695    37.137628 
11540000    297.98701    362.71839     306.2953   -45678.103    45695.049    56.423098    37.138378 
11544000    269.34056    206.81825    322.17757    -45669.75    45707.822   -115.35932    37.139385 
11548000    303.60842    392.80469    406.63443   -45711.692    45721.233    -13.82974    37.152987 
11552000    261.57274     241.4353    473.48493   -45731.107    45773.779   -232.04963     37.15313 
11556000    269.69773     427.2813    365.92016   -45749.135    45793.784     61.36114    37.163171 
11560000    276.18738    360.82309    285.97465   -45762.253     45807.14    74.848442    37.160794 
11564000    268.66562    280.09283    326.89268   -45790.652    45847.792   -46.799854    37.142393 
11568000    274.49106    521.41985    426.74766   -45808.924    45836.497    94.672189    37.154502 
11572000    282.03182    476.82648    296.45319   -45836.252    45862.763    180.37329    37.161817 
11576000    293.69205    337.90947     377.1187   -45843.473    45863.852    -39.20923    37.165592 
11580000    288.29828    384.19299    329.99306    -45832.62     45866.63    54.199924     37.15941 
11584000    268.01979    424.65435     172.2715   -45849.807    45892.025    252.38286    37.158138 
11588000    257.31516    379.00005    352.75698   -45841.945    45903.839    26.243076     37.14213 
11592000    313.74018    401.90613    375.44175   -45894.134    45923.228    26.464388    37.146427 
11596000    277.23798    313.19986    419.10529   -45910.972    45929.764   -105.90543    37.144818 
11600000     292.7047    305.41074    333.43608   -45897.761    45922.599    -28.02534    37.136985 
11604000    267.02985    443.65582    314.20949   -45883.419    45935.314    129.44633    37.131205 
11608000     318.2592    591.79806    283.30064   -45913.101    45940.988    308.49742    37.120749 
11612000    289.26117    361.96939    293.60735   -45925.721    45957.889    68.362044    37.125327 
11616000     265.2153     365.9124    325.30703   -45925.794     45975.14    40.605375    37.139251 
11620000    276.59273    300.28513    331.20647    -45947.84    45991.468   -30.921341    37.144686 
11624000    283.46562    331.42812    483.99409   -45951.312    45998.909   -152.56597    37.146226 
11628000    282.45199    340.30014    274.19602   -45975.847    46009.578    66.104126     37.14787 
11632000    285.80036    234.35278    289.66394   -45970.328    45988.967   -55.311161     37.14917 
11636000     296.1587    336.92374    652.77619   -45983.963    46015.836   -315.85245    37.161922 
11640000    253.46164    373.20583    220.38566   -45999.429     46054.23    152.82017    37.170557 
11644000    253.63354    428.01212     284.0611   -46007.486    46068.596    143.95102    37.184697 
11648000    241.18801    327.94703    363.79531    -46018.73    46084.857    -35.84828    37.188484 
11652000    278.70339    383.16026    292.65508   -46067.198    46091.189    90.505175    37.194833 
11656000    246.95085     264.8368    190.07469    -46090.07    46137.924    74.762115    37.189923 
11660000    280.49617    308.03399    186.59883   -46101.486    46149.326    121.43516    37.197738 
11664000    298.58975    418.37648    495.25018    -46112.44    46128.864   -76.873704    37.191952 
11668000    263.63032    442.38709    444.06628   -46092.146    46138.561   -1.6791878    37.194865 
11672000     238.2722    256.03228    284.70871   -46079.317    46147.542    -28.67643    37.198853 
11676000    289.43558    241.98563    340.04699   -46141.638    46169.888   -98.061354    37.212248 
11680000    281.00277    357.90084    416.98629   -46151.488    46183.698   -59.085442    37.226556 
11684000    287.62899    343.89071    337.37611   -46160.913    46207.149    6.5145954    37.231686 
11688000    296.47494    426.24633    405.43081   -46187.224     46204.29    20.815525    37.225195 
11692000    309.27914    415.66824      428.344   -46220.312    46230.638   -12.675759    37.215728 
11696000     307.4764    202.54295    294.89669   -46245.291    46245.412    -92.35374    37.200424 
11700000    320.23546    265.73026    311.09925   -46283.391     46276.72   -45.368994    37.214902 
11704000      295.629     409.8758    240.50275   -46313.341    46304.202    169.37305    37.232569 
11708000    298.98072    236.92458    438.24253   -46331.516    46350.625   -201.31795     37.23255 
11712000    301.79711    393.46094    440.03249   -46364.629    46372.832   -46.571545    37.240717 
11716000    319.31247    227.68985    505.09134   -46388.363     46385.23    -277.4015    37.245999 
11720000    249.63897    216.73293     199.9968    -46385.21    46431.388    16.736138    37.248763 
11724000    274.80183     334.7679    390.28666   -46402.736    46436.793   -55.518768    37.243128 
11728000    306.01842    641.60838    344.27736   -46415.897    46433.928    297.33102    37.238369 
11732000    291.25511    416.41779    548.74723   -46460.427    46475.966   -132.32944    37.216822 
11736000    275.91162    261.24191    330.71446    -46443.53    46490.401   -69.472551    37.220644 
11740000    252.74395    237.81458    294.08724   -46433.089    46486.338   -56.272656    37.230293 
11744000    262.92483    537.98927    251.11483   -46458.988    46514.297    286.87444    37.231015 
11748000    270.95899    295.87518    256.40408   -46505.864    46558.641    39.471102    37.221794 
11752000    285.04501    445.59905    297.80012   -46540.312    46589.018    147.79892    37.225163 
11756000    283.10585    439.82983     250.0471   -46578.478    46634.017    189.78273    37.222663 
11760000    288.11881    311.14257    283.12929   -46620.072    46654.851    28.013281    37.221261 
11764000     272.0059    392.98147    218.84239   -46625.527    46668.901    174.13909    37.214635 
11768000    283.02326    285.54287     333.3708   -46633.473    46672.652   -47.827931     37.22447 
11772000    277.29221     386.9984     347.1118   -46657.007    46679.405    39.886606     37.22448 
11776000    274.32691    428.37165    223.43761   -46657.587    46708.627    204.93404    37.213836 
11780000     256.2001    167.35711    271.95902   -46678.853    46726.881   -104.60192    37.199291 
11784000    270.33008    232.40021    237.91502   -46699.903    46752.469   -5.5148128    37.201948 
11788000    293.59631    197.89723     334.9911   -46732.429    46758.548   -137.09388     37.20746 
11792000    276.43569    228.26367     378.0355   -46749.033    46769.834   -149.77182    37.192893 
11796000    297.58009    269.03342    339.34028   -46757.265    46770.369   -70.306857    37.205601 
11800000    288.01031    261.08245    207.31351   -46802.807    46817.597    53.768944    37.213008 
11804000    270.09129    387.58973    194.95249   -46813.016    46846.533    192.63724    37.220994 
11808000    280.84459      318.778    466.10998   -46813.798     46846.49   -147.33198     37.21474 
11812000     276.2642    408.79234    300.40716   -46838.365    46870.915    108.38517     37.22317 
11816000    255.97644     316.0223    320.06916   -46838.676    46878.089   -4.0468519    37.206935 
11820000    265.95189    407.05576    232.91047   -46845.417    46895.225    174.14529    37.201094 
11824000    326.98887    399.24603    251.45499   -46876.301    46875.645    147.79103    37.201685 
11828000    259.51364    315.75177    391.32854   -46855.975    46909.178   -75.576763    37.202289 
11832000    275.44578    249.35405    305.39145   -46910.143     46924.14     -56.0374    37.203742 
11836000    259.46793    306.96429    206.68865   -46902.668    46943.668    100.27565    37.202138 
11840000    251.33432    268.80467    254.08533   -46942.185     46973.48    14.719338    37.205461 
11844000    275.69829    172.04533    178.18763   -46925.374    46971.851   -6.1423026     37.19859 
11848000    290.17797    363.97353    450.33728   -46947.297     46969.95   -86.363747    37.182203 
11852000    299.59414    509.73868    474.35934   -46981.953    47004.704    35.379344    37.197042 
11856000    266.02612    380.92788    403.65795   -46997.395    47031.684   -22.730064    37.191373 
11860000    257.71653    394.08174    218.59972   -47008.484    47055.912    175.48202    37.196043 
11864000     263.5789     384.9393    294.31847   -47026.428    47065.402    90.620832    37.218007 
11868000    282.50312    218.80453    303.65596   -47028.875    47085.029   -84.851437     37.22499 
11872000    276.86366    352.10858    324.82166   -47064.593    47104.653    27.286924    37.221872 
11876000    314.12943    547.90034    173.09241   -47092.137    47100.379    374.80793    37.206101 
11880000    304.04925     280.3513    281.85379    -47104.48    47138.686   -1.5024874    37.204172 
11884000    288.72156    351.86371    343.46787    -47149.81    47168.667    8.3958384    37.200955 
11888000    286.66866    357.86276    324.33662   -47168.006    47204.112    33.526145    37.199136 
11892000    276.92035    290.63013    329.30698   -47192.627     47213.32   -38.676853    37.211111 
11896000    285.68642    368.87765    328.22034   -47216.502    47242.903    40.657312    37.212228 
11900000    296.38478    332.97242    417.01193   -47220.083     47248.66   -84.039511    37.210357 
11904000    299.33531    462.12951    260.99416    -47248.63    47277.176    201.13535    37.216996 
11908000    270.46289    258.29525    313.03242   -47245.614    47286.966   -54.737164    37.201841 
11912000    271.61742    366.55889    274.75581   -47261.236     47307.91    91.803081    37.194107 
11916000    259.78093    206.25613    285.07484   -47273.923    47337.921   -78.818709    37.191195 
11920000     286.0236    435.67544    326.80162   -47318.161     47356.42    108.87382    37.196067 
11924000    265.20216    347.47227    272.36921   -47350.825    47398.965    75.103063    37.208183 
11928000    263.66937    294.00129    328.08098   -47384.957    47409.497   -34.079691    37.198001 
11932000    324.80594    576.17415    456.22728   -47408.125    47423.494    119.94687    37.195038 
11936000      277.263    357.09335    195.47931   -47427.385    47448.608    161.61404    37.195496 
11940000    270.59751    455.11754    285.15701   -47448.519     47494.96    169.96053    37.201403 
11944000    308.86352    506.50428    324.83118   -47484.272    47499.056     181.6731    37.197479 
11948000    289.03458    341.11667    319.84551   -47510.961    47539.072    21.271158    37.205231 
11952000    262.06316    242.09407    323.76333   -47526.245    47587.403   -81.669263    37.207284 
11956000    293.74619    404.88484    210.60648   -47547.689    47585.096    194.27836    37.216224 
11960000    283.51185    259.10006    416.28871   -47575.725    47601.833   -157.18865    37.212698 
11964000    304.05122    688.57253    394.78407   -47623.721    47648.617    293.78846    37.205448 
11968000    285.75276    409.20153     223.1855   -47628.786    47665.105    186.01603    37.218507 
11972000    262.10558    219.26783    321.93673   -47618.944    47645.647    -102.6689     37.21569 
11976000    278.85046    269.02349    253.85965   -47649.095      47686.2    15.163841    37.219664 
11980000    308.38591    481.15097    456.23115   -47668.174      47677.7    24.919823    37.212871 
11984000    284.19201    363.39346    441.55469   -47655.196    47698.518   -78.161236    37.205675 
11988000    295.53304    433.64572    337.35365    -47694.28    47712.762    96.292066    37.206809 
11992000    252.56474    301.05577    167.37284   -47693.572    47748.138    133.68293    37.200121 
11996000    273.44573    547.65326    168.45251   -47695.472     47740.88    379.20075    37.205801 
12000000    246.08277    199.13246    288.06109   -47697.289    47749.634   -88.928624     37.19451 
12004000    284.49638    418.95179    394.72504   -47717.681    47755.355    24.226746     37.19231 
12008000    255.06496    258.91604    159.64686   -47712.561    47758.577    99.269173    37.196389 
12012000    302.73505    513.73571    320.41652   -47721.838    47758.257    193.31919    37.194661 
12016000    302.36134    352.57595    458.75974   -47740.666    47761.244   -106.18379    37.189487 
12020000    290.93594    287.32263    327.54555   -47745.412    47760.773    -40.22292    37.203891 
12024000    319.52359    549.69493    387.79407   -47745.136    47763.217    161.90086    37.204278 
12028000    268.36002    249.80112    393.60153   -47767.895    47789.413   -143.80041    37.192814 
12032000    289.95217    717.22762    416.25664   -47788.121    47816.391    300.97098    37.196951 
12036000    281.24711    414.00057    379.05809   -47824.101    47838.525    34.942481    37.206559 
12040000     302.1892    445.28781    331.77864   -47843.446     47859.41    113.50917    37.203481 
12044000     287.0536    289.39008     234.2324   -47826.987     47871.04    55.157686    37.212333 
12048000    286.81989    394.37848    172.32993   -47867.715    47902.665    222.04855     37.22826 
12052000    323.51346    380.68142    320.22951   -47891.809    47914.914    60.451912    37.216896 
12056000    263.66442    276.36099    437.83341   -47912.348    47959.717   -161.47242     37.21377 
12060000    245.52876    341.72642    318.36133    -47942.62     47998.66    23.365085    37.213622 
12064000    276.33419    354.81358    270.82849   -47946.404    48000.199    83.985097    37.210537 
12068000    265.61517    336.89601    354.94743   -47968.794    48026.399   -18.051429    37.194236 
12072000     285.2335    342.32443    368.94603   -47979.345    48019.942   -26.621603    37.208946 
12076000    255.46187    263.89682    198.37452   -47988.015    48052.037    65.522306    37.191493 
12080000    228.76184     249.1445     399.2594   -47985.764    48070.129    -150.1149    37.200848 
12084000    262.31697    262.03165    321.60506   -48015.472    48062.144   -59.573408    37.204302 
12088000    290.79037    250.43497    271.44359   -48025.675    48062.264   -21.008618    37.208968 
12092000    277.05082    476.30386    357.70964   -48055.486    48103.159    118.59423    37.208985 
12096000    292.71892    284.04397     213.8933   -48107.162    48123.056     70.15067    37.208547 
12100000    272.65387    388.14836    234.87705   -48122.859    48163.193    153.27132    37.189052 
12104000    302.60263     205.0014    186.80717   -48160.153    48192.929    18.194231    37.200877 
12108000    304.28394    250.49898    440.49954   -48179.923    48198.741   -190.00056    37.196066 
12112000    310.53001    357.16308    473.52451   -48197.646    48222.387   -116.36143    37.189438 
12116000    276.60747    310.56313    151.30887   -48206.884    48246.411    159.25426    37.202778 
12120000    317.34191    486.29224    379.97668   -48243.571    48270.549    106.31556     37.19981 
12124000    262.96706    258.20111    246.40803   -48261.046    48311.368     11.79308    37.203978 
12128000    299.68997    328.92125    233.89488   -48303.619    48310.301    95.026367    37.198857 
12132000    287.23769    636.27483    250.83014   -48312.224    48345.206    385.44469    37.209477 
12136000    278.77756    308.13807    176.99262   -48337.417    48373.672    131.14545    37.220926 
12140000     261.6581    289.55332    309.69369   -48338.166     48384.72   -20.140371    37.229621 
12144000    293.49053    301.20049    504.08936   -48368.081    48397.958   -202.88887    37.221762 
12148000    286.32138    351.87957    262.25963   -48393.432    48418.827    89.619938    37.221496 
12152000    251.00988    479.68945    238.23658   -48423.859    48469.724    241.45287    37.229782 
12156000    268.74096    568.72231    350.00078   -48412.888     48461.07    218.72153    37.228336 
12160000    310.73576    554.40919    295.17003   -48438.699    48456.164    259.23916    37.228034 
12164000    263.35665    383.29312    352.25587    -48446.34     48487.59    31.037246     37.22607 
12168000    307.34626    422.27883    206.06236   -48489.912    48492.894    216.21647    37.217089 
12172000    331.49943    404.87243    468.06732   -48507.825    48499.243   -63.194897    37.207196 
12176000    303.77907    408.11721    385.00396   -48499.796    48533.831     23.11325    37.205415 
12180000    293.28848    403.20707    330.44262   -48546.359    48568.347    72.764447    37.210857 
12184000    279.78005    317.08373    199.84959   -48567.129    48591.539    117.23414     37.21021 
12188000    279.75457    217.23637    350.73342   -48579.925    48622.985   -133.49706     37.22064 
12192000    276.99988    364.70964      484.501   -48576.222    48608.442   -119.79136    37.232005 
12196000     278.9463    347.45545      204.523    -48590.74    48622.195    142.93245    37.227139 
12200000    290.49615    278.67608    413.85645   -48609.284    48628.595   -135.18037    37.241225 
12204000    279.73491    295.38422    257.38517   -48614.505    48651.565    37.999051    37.241284 
12208000    281.54801    303.68576    359.78221   -48612.451     48654.76   -56.096444    37.242743 
12212000    260.39654    286.51857    284.41895   -48610.498    48670.613    2.0996162       37.242 
12216000    250.44901    364.31384    283.03867   -48625.674    48685.645    81.275174    37.252533 
12220000    265.44262    401.61918    195.43891   -48671.554    48712.437    206.18027    37.248475 
12224000    313.94302    441.94104    463.42702   -48688.312    48702.998   -21.485987    37.247645 
12228000    279.92324    239.77326    250.30913   -48703.445    48735.231   -10.535872    37.260503 
12232000    284.15414    341.89098    222.21244   -48714.911    48753.002    119.67853    37.266325 
12236000    285.31858    552.73652     392.3669   -48709.863    48745.005    160.36962    37.263275 
12240000     253.8085    142.29637    310.36218   -48717.629    48765.938   -168.06582    37.267454 
12244000    263.27125    203.11235    215.27522    -48751.79    48796.444   -12.162874    37.266437 
12248000    300.56214    289.88805     318.7481   -48769.184    48810.388   -28.860051    37.282445 
12252000    299.06962     306.7726    282.80185   -48799.434     48811.76    23.970747     37.29664 
12256000     304.5647    321.52687    365.11777   -48834.796    48863.229   -43.590893    37.306438 
12260000    258.11187    320.67922    160.83368   -48833.803    48886.327    159.84554    37.304012 
12264000    269.02334    250.75879     608.9752     -48844.9    48885.203   -358.21641    37.291729 
12268000    267.61345    277.92839    318.11362   -48889.072    48923.284   -40.185227    37.296741 
12272000    291.55742    190.39973    393.06605    -48913.34    48936.735   -202.66632    37.284061 
12276000    278.18944    238.34792    237.12396   -48948.743    48970.781    1.2239613     37.28028 
12280000    262.43556    369.73848    225.99076   -48962.522    48996.787    143.74772       37.288 
12284000    302.25438    569.74192    373.68415   -48983.794     48986.77    196.05777    37.289646 
12288000    292.08865    266.34328    293.45704   -49004.686    49006.373   -27.113765    37.300794 
12292000    293.48814    434.76127    319.48542    -49008.16    49026.019    115.27585    37.295268 
12296000    261.57835    294.83704    313.42278   -49014.368    49059.374   -18.585733    37.301126 
12300000    271.23272    266.49899    410.48037    -49041.41    49088.125   -143.98137    37.298183 
12304000     269.1858    391.41269    252.95023   -49060.413     49099.24    138.46247    37.302946 
12308000    294.32223    453.37022    244.86293   -49096.846     49118.78    208.50729    37.304594 
12312000    279.25626    150.53158    269.27062   -49113.197    49162.572   -118.73904    37.316123 
12316000     299.1888    258.51946    400.64799   -49148.935    49156.741   -142.12853    37.313315 
12320000    289.92193    289.25788    263.79802   -49149.019    49177.755    25.459858    37.317349 
12324000    294.31664    392.78614     298.5282   -49183.458    49205.163    94.257946    37.331531 
12328000    279.66362    361.70505    251.81831    -49208.14    49233.626    109.88674    37.336824 
12332000    300.88129    315.47984    350.88439   -49233.819    49251.988   -35.404547    37.333601 
12336000    274.78421     312.2967     149.4492   -49251.274    49299.037    162.84751    37.335824 
12340000    280.13084    283.99637    361.05536    -49301.14    49326.846   -77.058995    37.319071 
12344000    281.08395    419.22348    329.90008   -49327.189    49360.614      89.3234    37.322599 
12348000    272.69157    439.04643    355.67449   -49319.566    49355.417    83.371946     37.33578 
12352000    252.01646    335.86354      352.115   -49331.469     49397.49   -16.251458    37.336342 
12356000    261.13932    231.53524    269.31857   -49366.516    49407.476   -37.783331    37.337915 
12360000    281.55831    243.85942    219.37736   -49394.518    49437.413    24.482058     37.32931 
12364000    280.26925    237.28676    322.23582   -49446.196    49464.082   -84.949066    37.343283 
12368000    297.17195    470.86616    425.38031   -49481.024    49484.904    45.485851    37.347462 
12372000     277.5806    278.66099     214.1654   -49463.298    49496.326    64.495585    37.355945 
12376000    284.87926    269.51287    284.34245   -49489.797    49521.285   -14.829582    37.372117 
12380000    294.91178    431.09256    255.72141   -49495.761    49512.978    175.37116     37.38412 
12384000    278.71063    290.41822    372.38795    -49535.04    49557.708   -81.969724    37.370518 
12388000       293.41    422.00102    142.19322   -49545.557    49564.082     279.8078    37.362076 
12392000    262.38358    264.79959    423.02741   -49566.647    49601.671   -158.22781    37.374803 
12396000    287.40021    510.63404    394.71055   -49570.629    49611.505    115.92349    37.386077 
12400000    258.01376    383.62221    329.51963   -49588.315    49636.651     54.10258    37.381854 
12404000    278.53187    362.25535    348.13287   -49594.543    49618.661    14.122485    37.379033 
12408000    303.38127    399.18882    337.32252   -49585.121    49602.746    61.866295    37.376583 
12412000    285.22676    483.89961     308.0317   -49577.601     49620.79    175.86791    37.368786 
12416000    238.85742    268.42148    435.36248   -49558.884    49613.678     -166.941    37.374401 
12420000    282.86239    431.60205    293.45524   -49591.818    49627.901    138.14681    37.361163 
12424000    267.52248    314.19744    285.90247   -49604.247    49648.246     28.29497    37.365983 
12428000    285.67921    311.29206    308.34036    -49607.19    49646.967     2.951694     37.36035 
12432000    295.58002    456.28305    482.12326   -49628.396    49658.242   -25.840209    37.360523 
12436000    268.88383    192.67809    440.22275   -49627.194    49681.587   -247.54466    37.358915 
12440000    271.60508     323.6495    313.80654   -49632.485    49684.543    9.8429598    37.369554 
12444000    271.24207    513.50247    455.28315   -49649.906    49700.247    58.219321    37.377171 
12448000    315.13745    362.41225    505.61237    -49697.04    49695.291   -143.20012     37.38397 
12452000    294.14594    494.32121    393.94809   -49697.093    49720.435    100.37312    37.376818 
12456000    281.30929     413.0289    338.75828   -49714.585    49749.266    74.270617    37.383418 
12460000    310.34187    460.12052    485.79594   -49749.365    49746.591   -25.675416    37.379443 
12464000    301.49725    254.41682    297.65847   -49769.693    49785.639   -43.241652    37.369577 
12468000     302.0275    424.01817    330.96024   -49801.809    49819.393    93.057927    37.357207 
12472000    253.60687    276.66678    380.39283   -49795.529    49835.598   -103.72604    37.365871 
12476000     277.7626    273.86297    348.65244   -49761.745    49797.652   -74.789469    37.361474 
12480000    291.53867    397.34456    347.52477   -49796.888    49814.464    49.819792    37.349734 
12484000    266.38664     462.5154    259.83285   -49803.321    49834.614    202.68255    37.346409 
12488000    276.32611    253.81882    265.90658   -49794.414    49840.704   -12.087753    37.350874 
12492000    295.23827    300.24063    229.33378   -49820.951    49830.293    70.906851    37.361444 
12496000    295.45106    213.70205    386.27991   -49855.584    49872.852   -172.57786    37.364958 
12500000    274.78645    420.39169    320.83647   -49879.748    49917.302     99.55522    37.360607 
12504000    294.62042    329.90119    451.84627   -49901.552    49934.539   -121.94509    37.343123 
12508000    285.04393    222.23523    260.01409   -49914.962    49954.382   -37.778864    37.327818 
12512000    278.61667    181.40692    321.29527   -49945.547    49973.261   -139.88836    37.331081 
12516000    292.06372    439.96094    345.11412   -49973.149     49986.22    94.846817    37.334065 
12520000    283.50362    476.13958    282.11993   -49985.686    50014.044    194.01964    37.322446 
12524000    269.42677    345.92748    205.30096   -49998.148    50038.364    140.62652    37.321458 
12528000    279.10152    469.98286    364.72868   -50009.815    50059.753    105.25418    37.320999 
12532000    288.86622    318.44902    380.79525   -50017.483    50059.376   -62.346227    37.307459 
12536000    305.80886     544.1666    205.56847   -50053.991    50072.312    338.59812    37.313574 
12540000    312.88457     372.7472    289.57841   -50063.948    50066.066    83.168791    37.312911 
12544000     289.2339    343.19667    443.12019   -50073.892    50083.367   -99.923522    37.303694 
12548000    254.60572    305.18392    272.96162   -50087.426    50146.153    32.222301    37.294915 
12552000    262.62817    309.42646    219.31811   -50117.698    50156.285     90.10835    37.302059 
12556000    295.11773    676.39151     196.7142   -50129.956    50149.947    479.67731    37.309112 
12560000    272.66556    789.12015    244.72479   -50135.943    50181.717    544.39536    37.323734 
12564000     275.5302    514.91937     286.2385   -50163.234    50201.532    228.68087    37.327381 
12568000     288.2951    276.74491    250.41632    -50171.73    50193.782    26.328597    37.331483 
12572000    283.76439    278.90699    216.46196   -50177.114     50220.75    62.445028    37.330935 
12576000    314.18343    228.38992    261.16241    -50197.95     50213.47   -32.772496    37.331574 
12580000    264.62366    403.45656    385.20618   -50213.839    50258.753    18.250372    37.329994 
12584000     252.3204    481.65336    291.22302   -50221.616    50287.853    190.43034    37.333724 
12588000    280.58698    297.05384    203.35395   -50255.917    50287.589    93.699893    37.332249 
12592000    280.47146    405.86115    395.41587   -50257.745    50298.579     10.44528     37.31718 
12596000    259.62562     178.6285    247.19625   -50272.336    50321.082   -68.567747    37.305308 
12600000    281.01147    324.86926    331.48107   -50313.992    50345.606   -6.6118067    37.299627 
12604000    275.87885    297.21341    336.11224   -50338.454    50360.864   -38.898833    37.292352 
12608000    282.98108    248.20077    388.89388   -50342.948    50382.379   -140.69311    37.294562 
12612000      277.487    214.90986    389.15613   -50369.508    50415.164   -174.24627    37.306125 
12616000    265.99335    242.75467    316.69461   -50385.241    50433.114   -73.939936    37.310898 
12620000    274.21297    387.59855    241.53381    -50422.56    50465.021    146.06474    37.319069 
12624000    264.85403    264.31773    319.50487    -50447.03    50493.354   -55.187143    37.306601 
12628000    292.49794    354.13296    376.96864   -50460.363    50491.217    -22.83568    37.306909 
12632000    280.53264    275.39726    260.63789   -50503.944    50529.948    14.759365     37.31533 
12636000    287.96239    322.77446    371.39719   -50516.552    50541.742   -48.622734    37.320175 
12640000    288.66323    233.45363    308.79167   -50530.177    50561.216   -75.338038    37.320801 
12644000    281.38556    232.16318    275.74186   -50526.732     50548.98   -43.578675    37.327459 
12648000    289.84631    308.86031    357.87829   -50556.553    50582.195   -49.017981    37.333217 
12652000    318.27502    478.88248    302.24323   -50594.885    50607.157    176.63926    37.333758 
12656000    260.93822     132.0494     250.1443   -50578.206    50634.899    -118.0949    37.341543 
12660000    280.94061    324.96995    383.46338   -50632.697     50672.19   -58.493431    37.326208 
12664000    301.54094    320.72916    512.54621   -50653.898    50695.858   -191.81705    37.329365 
12668000    269.14246    435.76516    141.42613   -50680.539    50710.408    294.33903     37.33254 
12672000    246.16053    197.97759    198.41809   -50670.072    50733.974  -0.44050128     37.32937 
12676000    292.63921    431.10853    390.47501   -50699.779    50720.015    40.633517    37.321998 
12680000    298.38296    343.91924    224.64883   -50713.899    50735.094    119.27041    37.332808 
12684000     275.2423    210.77903    300.09142   -50722.573    50763.137   -89.312393    37.331587 
12688000    322.63712    447.49871    397.36956   -50763.925    50787.111    50.129149    37.342376 
12692000    274.71266    265.88849    432.22549   -50768.686     50797.32     -166.337    37.348722 
12696000    286.64971    205.19414    457.65241   -50788.051    50824.798   -252.45827    37.336313 
12700000    262.69863    271.57629    245.13462   -50781.655    50826.908    26.441673    37.347976 
12704000    275.72214    260.63173    402.02469   -50788.019    50829.881   -141.39295    37.348343 
12708000    291.20775    227.92592    436.57309   -50823.355    50857.267   -208.64717    37.348002 
12712000    290.47145    311.40469    249.30954   -50858.799    50898.817    62.095144    37.347551 
12716000    290.77023    521.67578    330.85852   -50892.352    50913.018    190.81726    37.359959 
12720000    283.59608    407.34838    347.29931   -50910.513    50952.865    60.049066     37.36032 
12724000    294.27221    423.70413    324.81557   -50944.594    50965.142    98.888561    37.355844 
12728000    316.50124    295.90507    367.47923   -50970.453    50974.782   -71.574159    37.357892 
12732000    314.18757     324.7522    309.59969    -50992.43    51003.911    15.152505    37.355426 
12736000    270.76254    285.72262    210.47465   -51008.182    51045.761    75.247979    37.352595 
12740000    274.48183    379.84346    410.49795   -51042.415    51083.991    -30.65449    37.366623 
12744000    298.26663     433.5117    302.02419    -51082.78    51095.916    131.48751    37.364897 
12748000    309.43441    335.35679    223.78136   -51083.861    51096.896    111.57543    37.367475 
12752000    273.32967    346.93532    263.98746   -51094.973    51120.977    82.947866    37.374184 
12756000    281.12658    416.47228    339.53175   -51110.716    51144.474     76.94053    37.371653 
12760000    265.26146    367.40506    373.72892   -51124.535    51169.588   -6.3238639    37.365778 
12764000     262.1269    275.59365    207.98538   -51157.391    51179.875    67.608268    37.380486 
12768000    268.51449    200.61849    245.52334   -51155.599    51199.445   -44.904846    37.377676 
12772000    321.59712    239.43836    632.66726   -51190.492    51187.656    -393.2289    37.380342 
12776000    278.00463    241.93638    173.94825   -51190.425    51204.528    67.988129    37.371539 
12780000    281.58684    445.33551    270.12527   -51211.288    51239.202    175.21024     37.36171 
12784000    295.29361    406.87363    272.24621   -51233.059    51274.661    134.62742     37.34952 
12788000    285.95699    297.42774    388.81924   -51250.924    51280.114   -91.391502    37.355873 
12792000     264.9715    488.09143    270.04099   -51253.311     51300.11    218.05044    37.351757 
12796000    289.43243    420.11175    255.22075   -51280.487    51324.367      164.891     37.36073 
12800000    277.05771    351.33635    318.95955   -51278.757    51342.667    32.376796    37.367833 
12804000     310.2408    549.90082    410.55282   -51329.854    51343.779      139.348    37.350766 
12808000    280.77146    165.81103     304.3378   -51333.062    51363.923   -138.52677    37.350261 
12812000    294.32045    490.66216    304.14378   -51342.088    51384.883    186.51839    37.366758 
12816000    282.21488     161.6788    390.51389   -51353.448    51395.385   -228.83509    37.368406 
12820000    281.38496    318.40504    371.29702   -51346.308    51395.773   -52.891986     37.37495 
12824000    294.98647    400.63789    319.73958   -51362.021     51379.22    80.898314     37.36035 
12828000    258.06374    395.12549    333.06011   -51365.656    51423.238    62.065375    37.369058 
12832000    300.23663    350.27006    379.21159   -51389.978      51429.1   -28.941529     37.39272 
12836000    294.83518     375.1108    269.38559   -51410.537    51435.024    105.72521    37.388362 
12840000     285.5108    250.11881    316.80963   -51406.816    51448.841   -66.690816    37.393162 
12844000    278.95571    253.30684    295.88194   -51451.046    51474.939     -42.5751    37.413408 
12848000     294.9711    247.62579    353.32181   -51480.458    51503.528   -105.69602    37.402981 
12852000    273.52469    318.21341    461.75322   -51504.707     51544.92   -143.53981    37.407844 
12856000    262.47683    344.53992     209.1261   -51504.771    51557.846    135.41383    37.405546 
12860000    270.66165     597.4247    268.43089   -51520.066     51563.85    328.99381     37.40111 
12864000    265.83715    490.37825    294.77503   -51554.285    51616.455    195.60322    37.393399 
12868000    294.91159    250.38013    399.29542   -51582.942    51625.149   -148.91529    37.396452 
12872000    256.52045    282.78898    268.28382   -51579.452    51636.794     14.50516    37.390542 
12876000    263.08518    381.95494    290.26682   -51582.857    51644.015    91.688123    37.380056 
12880000    300.44014    439.61803    418.70315   -51628.745     51671.04    20.914875    37.378563 
12884000    279.92155    503.88608    349.26596    -51645.57    51689.031    154.62012    37.366769 
12888000    279.33514    355.20893    225.57583   -51694.595    51719.873    129.63309    37.366038 
12892000    293.27289    419.71658    179.30573   -51727.582    51751.353    240.41085    37.373604 
12896000    290.78847    434.15146    316.41924   -51741.292    51760.291    117.73222    37.370328 
12900000      298.538    256.99079    406.10901    -51775.08    51790.672   -149.11823    37.364275 
12904000    272.81888    484.44328     398.9922   -51790.801    51809.678    85.451079    37.366087 
12908000    311.61795    382.01933    449.14328   -51816.422    51821.643    -67.12395    37.364252 
12912000    291.14388    218.88014    260.11975   -51815.409    51840.801   -41.239607     37.36402 
12916000    274.08815    332.35255    381.51358   -51821.831    51866.504   -49.161029    37.361371 
12920000    302.57486    468.63155    274.78777   -51846.724      51871.3    193.84378     37.36085 
12924000    257.49618    213.07531    295.21769   -51860.713    51917.196    -82.14238    37.357931 
12928000    284.10872    277.05708    279.99302   -51878.788    51915.412   -2.9359456    37.361794 
12932000    314.88349    645.32164    351.37975   -51886.334    51913.911    293.94189    37.376131 
12936000    303.00354    352.72093    374.57916    -51900.72    51913.699   -21.858235    37.378081 
12940000      318.615     525.7992    338.23292   -51916.626    51934.625    187.56628    37.392122 
12944000    298.33244     281.1955    404.70249   -51936.168    51965.188   -123.50698    37.378826 
12948000    238.06921    248.56797    190.39359   -51923.109    51987.613     58.17438    37.367899 
12952000    277.14126    362.45057    230.06061   -51968.072    51986.421    132.38996    37.361713 
12956000     289.5748     340.7911     364.6249   -52004.379    52031.088   -23.833803    37.363697 
12960000    307.70868    235.75097    305.00141   -51997.228    52022.576   -69.250447    37.365026 
12964000    271.58094    219.03206    189.86901   -51994.907    52035.503    29.163047     37.36442 
12968000    263.39657     269.8308    247.54492    -51989.14    52056.487    22.285879    37.369186 
12972000    323.42026    218.88444    291.79279   -52023.511    52041.484   -72.908353    37.384172 
12976000     256.1076    262.63657    252.79793   -52030.466    52072.036    9.8386404    37.391031 
12980000    273.62447    339.21953    316.68973    -52031.67    52086.292    22.529792    37.389089 
12984000    251.94762    189.20502    265.57054   -52051.947    52090.359    -76.36552    37.396639 
12988000    254.48202    413.93644    355.28436    -52063.84    52113.263    58.652085    37.398468 
12992000     258.6678    413.07586    331.05916   -52071.522    52118.094    82.016701    37.380388 
12996000    281.52507    514.56283    306.46789   -52088.927    52146.674    208.09494     37.38252 
13000000    319.06761    409.60717    275.07833    -52142.24    52163.255    134.52884    37.389671 
13004000    321.43503    461.63452    494.34786   -52173.993    52185.028   -32.713341    37.402229 
13008000    264.81771    397.99436    354.67231   -52196.439    52236.234     43.32205    37.394918 
13012000    277.05052    464.02881    417.93087   -52211.251    52229.246    46.097934    37.392226 
13016000    272.44369    337.59697    155.97569   -52206.609    52263.868    181.62128     37.39114 
13020000    292.17155    301.97828    287.19148   -52249.874     52281.59    14.786803    37.386746 
13024000    269.99502    335.22629    326.03941    -52288.15     52302.33    9.1868765    37.393121 
13028000    278.66977    340.21408     259.0162   -52296.825    52338.833    81.197885    37.401537 
13032000    271.76879    318.27365    405.19093   -52344.901    52366.792   -86.917284    37.405109 
13036000    283.98218    270.16951     256.9444   -52375.997     52406.22     13.22511    37.395009 
13040000    282.65953    322.38737    245.51055   -52389.285    52430.371    76.876826    37.392179 
13044000    275.66005    693.79883    276.90701   -52388.607    52438.337    416.89182    37.404396 
13048000    272.26395    347.44526    438.41809   -52404.603    52444.265   -90.972832    37.402809 
13052000    293.36774    527.00586    513.98197   -52434.689    52465.178    13.023893    37.405868 
13056000    283.20214     478.8156    448.53093   -52456.588    52495.135     30.28467    37.406848 
13060000     288.1202    295.23586    413.03896   -52495.929    52522.628    -117.8031    37.419034 
13064000     292.7173     444.0671    440.77294   -52496.243    52520.128    3.2941569    37.405366 
13068000    263.58324    433.61887    282.95688   -52492.448    52548.491    150.66199     37.40991 
13072000    275.92803    257.24329    632.76453   -52504.488    52533.783   -375.52124    37.416209 
13076000    322.76236    363.57354    302.51443   -52535.679    52541.783    61.059108    37.424689 
13080000    317.26662    564.76828    525.79032   -52559.374    52574.255    38.977967    37.421109 
13084000      293.218    321.52006    343.85399   -52607.142    52624.631   -22.333927    37.410197 
13088000    286.28672    373.29673    443.69763   -52607.124    52620.374   -70.400898    37.418822 
13092000    264.63353    485.74397    338.84477   -52603.247    52645.214    146.89919    37.423911 
13096000    265.21475    293.25545    356.19369   -52633.452    52680.123   -62.938242    37.425956 
13100000    320.97231    350.42114    296.74464   -52669.935    52682.136    53.676499    37.417183 
13104000     257.7728    421.69268    269.45208    -52657.14    52698.996    152.24059    37.420116 
13108000     289.1909    331.46011    267.97705     -52668.2    52686.642    63.483064     37.43106 
13112000    292.97133    419.06228    315.44336   -52702.585    52731.309    103.61892    37.423282 
13116000    303.01149    283.92548    394.41785   -52751.653    52766.784   -110.49237    37.418439 
13120000    296.13109    550.00498    392.97056   -52776.174    52787.545    157.03442    37.422495 
13124000    280.68147    378.53509    234.58518   -52760.426    52791.771     143.9499    37.433072 
13128000    268.73073    493.88736    203.07904   -52752.832    52802.747    290.80832    37.422733 
13132000    289.18373    297.47599    175.25284    -52771.18     52816.27    122.22315    37.415784 
13136000    261.76846    432.98186     126.6482   -52812.023    52852.314    306.33366    37.418329 
13140000    270.55185    444.60331    214.02467   -52831.801    52875.575    230.57864    37.428799 
13144000    268.13341    358.91134    316.28202   -52856.542    52882.529    42.629319    37.427191 
13148000    284.84862    443.28089    204.21815   -52876.854    52918.694    239.06274    37.424888 
13152000    299.31882    355.59827    294.46769    -52920.42    52952.355    61.130574    37.429389 
13156000    287.37042    312.74873     236.6013   -52918.163    52953.226    76.147436    37.418539 
13160000    284.68729    362.94755    418.00734   -52947.267    52992.086   -55.059791     37.42324 
13164000    258.66833    527.29847    349.49728   -52948.189    52991.133     177.8012    37.411803 
13168000    281.53768    552.76051    279.39489   -52963.852    53026.348    273.36562    37.413659 
13172000    275.95461    363.75169    393.33609    -52992.01    53025.273   -29.584399    37.422764 
13176000    302.73385    247.45909    473.76906   -53029.256    53043.073   -226.30997    37.418662 
13180000    280.16891    359.03045    264.10016   -53035.783    53085.392    94.930288    37.421207 
13184000    284.96581    414.83868    125.15088   -53058.492    53101.133     289.6878    37.413462 
13188000    262.12529     320.3367    168.68813   -53101.003    53140.176    151.64857    37.416472 
13192000    259.15149    300.76256    403.17155   -53110.421    53152.464   -102.40899    37.395645 
13196000    299.69673     443.3011    480.41418   -53092.858    53149.804   -37.113082    37.403335 
13200000    279.61248    325.79008    358.75097   -53106.897    53150.027   -32.960885    37.394043 
13204000    280.37422    308.33171    394.66661   -53109.066    53164.695   -86.334906    37.398875 
13208000     281.0406    218.67329    300.68377   -53136.245    53167.386   -82.010477    37.390718 
13212000    256.67957    303.92811    247.50834   -53139.955    53210.523    56.419769    37.390808 
13216000    236.28216    386.81068     189.0693   -53139.838    53221.158    197.74138    37.390776 
13220000    289.67768    314.80061    339.19147   -53157.124    53204.539   -24.390866    37.391273 
13224000    282.82154    120.93817    378.30159   -53194.578    53245.355   -257.36342    37.372066 
13228000    282.72315    415.58917    347.09816   -53204.606    53232.375    68.491011    37.379271 
13232000    279.51563    349.88798    238.52606   -53209.249    53251.557    111.36192    37.380359 
13236000    282.65714    494.14534    373.20172   -53224.358    53274.315    120.94363    37.383876 
13240000    272.55195    412.07737     255.4078   -53231.725    53288.621    156.66956    37.380703 
13244000    294.23139    256.19881    483.69072   -53281.773    53298.191   -227.49191    37.383258 
13248000    254.18684    363.37714    342.73423   -53284.497    53320.485    20.642908    37.402486 
13252000    283.83338    546.49703    385.20448   -53321.239    53346.806    161.29254    37.399739 
13256000    287.90781    382.34511    281.84757   -53326.842    53356.279    100.49754    37.391883 
13260000     308.4082    683.68116    438.05133    -53332.81    53341.677    245.62983      37.3923 
13264000    290.12795    482.82365    290.60678   -53318.608    53358.869    192.21687    37.393071 
13268000    298.36168     223.5026    463.12778   -53339.501    53362.167   -239.62519     37.38864 
13272000    297.13978    460.92411      259.052   -53354.418     53384.68     201.8721     37.39416 
13276000     267.0532    243.98826     368.3688   -53348.103    53379.764   -124.38054    37.390588 
13280000    296.18002    432.60332    252.93712   -53364.941     53394.53     179.6662    37.400419 
13284000      278.934    313.12374    176.16126   -53382.842    53405.093    136.96248    37.396443 
13288000    294.60072    474.87262    357.79722    -53398.92    53455.629    117.07539    37.393044 
13292000    284.64742    252.01219     191.4303   -53440.307    53451.925    60.581884    37.392777 
13296000    279.22535    367.37161     226.7347    -53471.19     53513.88    140.63691    37.402116 
13300000    302.29931    235.97514    304.10304   -53513.009    53539.026   -68.127903    37.405295 
13304000    272.47163    276.50679    398.86884   -53530.342    53562.827   -122.36205    37.395624 
13308000    268.30819    295.97794    369.19668   -53540.491    53565.364   -73.218739    37.404093 
13312000    304.13682    317.80112    275.90003   -53550.179    53573.702    41.901094    37.401324 
13316000    288.31688    425.90119      279.764   -53593.209     53605.31    146.13719    37.405227 
13320000    297.60759     401.2175    275.48678   -53594.402    53637.209    125.73072    37.413184 
13324000    283.10239    310.20452    241.91453   -53590.869    53650.425    68.289996    37.415886 
13328000    283.57749    365.11326    434.87025   -53634.263    53658.395   -69.756996    37.407524 
13332000    298.38922    395.43921    275.67458    -53685.89    53708.363    119.76463    37.424898 
13336000    298.55643    439.72116    489.61703   -53709.585    53734.459   -49.895875    37.419894 
13340000    275.08635    375.06139     274.4082   -53740.112    53783.791    100.65318    37.405209 
13344000    302.31312    255.65071    277.99278   -53743.741    53765.694   -22.342066    37.401286 
13348000    279.71097    450.80203    335.19219    -53773.91    53792.631    115.60984    37.405598 
13352000    265.75889    221.71969    192.31166   -53780.676    53810.159    29.408025    37.402027 
13356000    315.55368    558.07684    300.08595   -53791.618    53815.874    257.99088    37.397034 
13360000    284.49256    501.27253    268.63628   -53809.961    53840.009    232.63625    37.390407 
13364000    273.31248    331.29516    438.38935    -53822.86    53854.299   -107.09419    37.384136 
13368000    300.64516    510.04496    343.53636   -53842.259    53870.135     166.5086    37.378569 
13372000    272.48174    434.99692    185.65945   -53873.491    53913.954    249.33747    37.381828 
13376000    267.60523    436.87489    229.77739    -53889.51    53929.191     207.0975     37.37901 
13380000    282.34335    355.61302    393.43942    -53915.41    53934.191   -37.826405    37.384777 
13384000    276.28583    244.86907    397.63366   -53916.986    53952.426   -152.76459    37.379955 
13388000    278.34205     348.4223     256.6684   -53942.511    53974.016    91.753899    37.387009 
13392000    262.84176    433.26762    340.86245   -53950.496    54002.406    92.405173    37.387078 
13396000    274.79625    316.18366    440.72605   -53961.685    54017.876   -124.54238    37.384802 
13400000    303.75226     255.2802    356.58727   -54010.926    54027.443   -101.30706    37.380645 
13404000    264.14223    159.38536    310.58111   -54009.975    54042.268   -151.19576    37.372482 
13408000    308.68878    442.83358    223.47676   -54043.722    54084.058    219.35682    37.374984 
13412000    278.80355    245.36229    313.39306   -54047.381    54094.439   -68.030763    37.372874 
13416000    320.81204    394.99584    304.98921    -54103.78    54113.628    90.006639    37.372681 
13420000    273.16525    356.20501    464.79544   -54105.431     54155.62   -108.59043      37.3656 
13424000    296.01837    380.03651    367.16514    -54144.89    54167.086    12.871375    37.359867 
13428000     269.6151    360.17964    311.57646   -54172.889    54209.875     48.60318    37.357737 
13432000    275.68554    389.42344    284.30154   -54190.076    54217.877     105.1219    37.361154 
13436000    294.00154    369.66843    328.17658   -54211.211    54226.804    41.491847    37.363683 
13440000    288.65461    289.00327    193.22137   -54228.536    54254.623    95.781906    37.366087 
13444000    280.00449    180.82579    164.19987   -54248.177    54275.849    16.625922    37.372559 
13448000     284.5489    412.21648    207.38549   -54243.118    54288.491    204.83098    37.376252 
13452000    308.73383    231.37334    457.33162   -54281.148    54309.213   -225.95828     37.37996 
13456000    286.01014    440.76346     184.2738   -54303.898    54331.353    256.48966    37.383621 
13460000    308.87904     545.1412    239.33545    -54337.51    54359.148    305.80575    37.383955 
13464000    284.71307    376.55711    289.91424   -54363.292    54408.156    86.642864    37.389152 
13468000    277.89226    491.38921    385.15639    -54380.81    54411.385    106.23282    37.382881 
13472000    291.15864    568.66847    402.92735   -54421.078    54440.656    165.74112     37.39468 
13476000    283.09769     312.5038    410.98893   -54421.636    54463.725   -98.485133     37.41145 
13480000    302.81824    246.73369    187.54221   -54449.031    54481.463    59.191483    37.407436 
13484000    300.85502     385.7868    395.69481   -54442.746    54481.709   -9.9080097    37.417451 
13488000     282.3033    176.90306     256.5025   -54448.621    54473.018   -79.599443    37.412477 
13492000    292.39008    309.96491    582.12685   -54456.642    54482.404   -272.16194    37.406874 
13496000    278.16932    423.20654    506.84721   -54477.639    54525.534   -83.640674    37.408024 
13500000    259.13598    245.78774    288.40503   -54499.044    54544.337   -42.617297    37.414665 
13504000    272.42361    345.53449    226.76911   -54526.452    54560.126    118.76538    37.423829 
13508000    283.98012     258.3671    424.38821   -54531.807    54574.106   -166.02111    37.420155 
13512000    284.30658    274.82818    381.33845   -54547.199    54582.344   -106.51027    37.425635 
13516000     274.7918    242.43986    182.15271   -54586.145    54617.324    60.287144    37.411974 
13520000    264.33325    365.79284    246.34789   -54580.743    54623.486    119.44496     37.40759 
13524000    293.02745    323.26515    277.05416   -54616.846     54653.39    46.210995    37.412558 
13528000    279.09027    434.97107    373.61321   -54643.666    54678.144    61.357855    37.406175 
13532000     278.8108    276.62513    224.57855   -54655.262    54679.393    52.046579    37.398687 
13536000    284.93814    341.23475    304.40582   -54686.035    54712.403    36.828925     37.40905 
13540000    260.30576     316.9094    356.63311   -54680.955    54728.868   -39.723708    37.401263 
13544000    277.59375    413.71336     344.5916   -54723.634    54760.793     69.12176    37.378725 
13548000    292.45103    286.13106     256.4068   -54743.548    54774.199    29.724257    37.370873 
13552000    303.96267    484.12454    296.52769   -54765.652    54771.223    187.59685    37.375537 
13556000    273.80418    343.46155    189.25594   -54766.234    54819.696    154.20561    37.361455 
13560000    280.21645    479.27013    292.84776   -54804.196    54831.322    186.42238    37.365539 
13564000    305.54721    318.20175    388.56891    -54789.84    54823.877   -70.367164    37.366273 
13568000    287.62553    255.93888     411.1657   -54805.467    54844.778   -155.22682    37.364771 
13572000    284.53167    264.10696    282.80008   -54831.278    54856.679   -18.693118    37.373342 
13576000    271.65456    315.34463    230.67748   -54834.862    54886.602    84.667155    37.375586 
13580000    263.34498    325.43929    261.25727    -54850.98    54891.884    64.182025    37.375694 
13584000    309.90913    241.24769    477.09103   -54902.456    54898.346   -235.84334    37.375446 
13588000    284.63696    398.72082     458.1963   -54896.146    54927.574   -59.475481    37.371174 
13592000    278.10106     294.6381    356.25048   -54917.934     54980.17   -61.612382    37.364173 
13596000    287.07053    341.80513    272.85702   -54965.358    54992.872    68.948115    37.362357 
13600000      268.174    331.76985    427.66367   -55001.275    55042.206   -95.893824    37.353894 
13604000    263.54432    405.17322    310.04331   -55020.567    55065.846    95.129904    37.352948 
13608000    318.88536    593.73792    293.43998   -55050.159     55075.48    300.29794    37.368829 
13612000    281.77164    410.97306    248.58737   -55041.536    55094.112     162.3857    37.356119 
13616000    275.91481    275.97638    415.19743   -55053.532     55103.46   -139.22105    37.348627 
13620000    270.62877    347.74536    550.87839   -55065.092    55113.206   -203.13303    37.339454 
13624000    268.50279    351.90019    223.00202   -55080.292    55124.952    128.89817    37.330834 
13628000    272.79221    464.39512    225.86623   -55097.539    55150.954    238.52888    37.321984 
13632000    287.66378    343.11677    318.30988   -55121.192    55154.533    24.806896    37.334274 
13636000    268.35346    441.10249    321.71425   -55149.306    55179.511    119.38824    37.340397 
13640000     303.3197    311.80541    424.13923   -55147.467    55177.616   -112.33382    37.343029 
13644000    305.41546    349.24806    250.49252   -55167.436    55201.509    98.755547    37.353319 
13648000    279.20261    427.79612    262.69902   -55171.856      55202.2     165.0971    37.346043 
13652000    262.51382    308.97948     324.6994   -55179.158    55231.533   -15.719919    37.340092 
13656000    258.67958    377.50076    313.79948   -55211.073    55250.463     63.70128    37.346367 
13660000    330.95799    435.36084    378.52344   -55232.763    55251.167    56.837399    37.353037 
13664000    266.31666    259.24282    219.26371   -55223.414    55289.112    39.979103     37.35058 
13668000    300.64329    228.82136    298.52043   -55240.853    55267.999   -69.699073    37.343107 
13672000    286.38928    322.73358    300.34013   -55254.156     55298.21    22.393452    37.327857 
13676000    278.78439    443.34711    361.34103   -55272.596    55322.816    82.006078     37.31472 
13680000    295.80567    700.91685    284.49248   -55288.496    55300.451    416.42437    37.325631 
13684000    324.64488    481.56253    223.95944   -55311.796    55315.739    257.60309    37.321303 
13688000    269.58493    329.37193     192.2923   -55334.751    55375.248    137.07963     37.31536 
13692000    282.30117    230.26957    229.59709   -55343.252    55383.027   0.67248422    37.322862 
13696000    315.60127    382.52901    404.93861   -55383.819    55400.964   -22.409604    37.329858 
13700000    281.40842    346.10672    288.58555    -55383.99    55418.744    57.521172    37.330769 
13704000    312.16505    507.24284     434.2961   -55406.528     55424.02    72.946743    37.348415 
13708000     293.5173    270.37387    501.12058    -55430.54    55445.629   -230.74672    37.344796 
13712000    284.75047    426.60509    329.76602   -55444.728    55481.008    96.839067    37.360191 
13716000    258.75315    376.08301    204.81831   -55467.419    55496.225     171.2647    37.363958 
13720000    279.67589    329.94634    252.18643   -55483.776    55497.839     77.75991     37.36464 
13724000    300.31962     398.9064    379.06734   -55496.765    55521.139    19.839063    37.362618 
13728000    271.72186    471.78813    303.68748   -55474.726    55528.015    168.10065    37.362357 
13732000    266.27588    254.61189     336.0587   -55474.581    55509.752   -81.446808    37.358089 
13736000    263.17206    294.66289    278.45545   -55490.951    55546.897    16.207434    37.363109 
13740000    246.30388    353.71063    212.58967   -55524.301    55564.517    141.12096    37.362819 
13744000    260.81529    388.13358    342.50628    -55539.84    55590.677    45.627294    37.363291 
13748000    282.57535    252.79783    295.61983   -55565.324    55602.627      -42.822    37.369455 
13752000    276.63331    253.00231    221.13361   -55579.478    55613.879    31.868698    37.367083 
13756000    264.49112    355.20811    455.14918   -55624.596    55658.847    -99.94106    37.373476 
13760000    294.92639    376.26839    218.46724   -55647.382    55666.279    157.80115    37.376381 
13764000    298.36373    144.83113     505.1913   -55635.968    55668.888   -360.36017    37.365872 
13768000    290.78537    333.30077    349.96897   -55647.959    55683.242   -16.668194    37.359493 
13772000     272.0185    336.41871    360.17749   -55664.742    55709.637    -23.75878    37.353327 
13776000    240.57068    490.00056     169.3173   -55679.179    55749.215    320.68326    37.360812 
13780000    281.05082    231.98145    291.11942    -55682.29    55726.785   -59.137976    37.363454 
13784000    313.24633    449.85529    319.37264   -55696.902    55730.472    130.48265    37.360159 
13788000     305.2367    188.13499    411.59757   -55705.621    55726.221   -223.46258    37.360728 
13792000    271.75402    329.67724    226.29036   -55724.598    55758.566    103.38688    37.363774 
13796000    282.13868    334.01589    331.46796   -55745.961    55768.768    2.5479312    37.364036 
13800000    310.55993     258.0822    328.16782   -55779.793    55788.035   -70.085614    37.366517 
13804000    281.65655    331.74974    357.35559   -55805.617    55843.759   -25.605847    37.362629 
13808000    257.37692    421.77358     421.2346   -55808.304    55844.014   0.53897982    37.361781 
13812000    306.32215    330.53763    235.76707    -55810.38    55839.986    94.770557    37.355043 
13816000    277.43469    398.48235    310.76546   -55834.072    55862.048    87.716894    37.355875 
13820000    309.40524    258.79942     256.4097   -55872.163    55888.135    2.3897139    37.353507 
13824000    260.44373    278.21791    281.57358   -55871.101    55912.023   -3.3556709    37.355739 
13828000    296.19526    359.45826     351.5172   -55902.195    55926.118    7.9410636    37.359061 
13832000    268.85039    332.85968    319.42676    -55911.63    55943.449    13.432922    37.351223 
13836000    289.10913    316.60365    286.75034   -55953.971    55972.703    29.853309    37.350065 
13840000    276.03766    401.36925    388.24241   -55965.823    55995.703    13.126843     37.34475 
13844000    305.14432    408.36121    216.02644   -55980.645    56019.367    192.33478    37.335896 
13848000    291.34866    224.84375    245.80629   -55997.301    56030.506   -20.962539    37.320648 
13852000     280.4343    467.80441    315.22967   -56009.805    56058.706    152.57474    37.308938 
13856000    258.87316    244.22698    368.32017   -56043.408    56098.644   -124.09319    37.312124 
13860000    275.77801    514.22394    399.72413     -56063.9    56101.921    114.49981     37.30993 
13864000     274.6323    178.75242    267.19563   -56108.403    56153.351   -88.443212    37.316484 
13868000    268.63316     222.9909    313.03928   -56117.646    56169.269   -90.048387      37.3215 
13872000    316.50596    349.84177    305.48876   -56156.475    56162.147    44.353002    37.312396 
13876000    291.58752    575.16894    328.67217   -56156.864    56175.052    246.49677    37.318954 
13880000    266.72679    257.95163    376.97646   -56162.705    56200.143   -119.02484    37.329226 
13884000    298.79262    446.21136    378.02357   -56184.246    56233.308    68.187794    37.326104 
13888000    299.56377    379.26639    325.25064   -56213.663    56230.383    54.015751    37.333945 
13892000    276.14581    269.56822    329.65063   -56228.603     56258.12   -60.082403    37.335769 
13896000    293.46708    341.43695    364.06823   -56270.999     56278.14    -22.63128    37.335577 
13900000    234.27507    453.13138    213.10565   -56254.545    56304.142    240.02573    37.330975 
13904000     265.3567    229.79445    300.67534   -56265.514    56309.864   -70.880893    37.336881 
13908000    303.76632    354.90343    410.63432   -56288.878    56336.097   -55.730889    37.327435 
13912000    288.92605    193.29159    369.28573   -56327.969     56375.95   -175.99414    37.336797 
13916000    291.65273    281.68135    362.02176   -56339.828    56357.588   -80.340409    37.317995 
13920000    291.78197    460.92113    447.18079   -56354.478    56376.159    13.740345    37.310237 
13924000    300.59506    380.24641    342.17824   -56379.859    56420.771    38.068164    37.307562 
13928000    281.61847    257.20735    309.24519     -56418.6    56450.008   -52.037838    37.300097 
13932000    265.55564    269.92513    318.95668   -56420.924    56468.546   -49.031548    37.302735 
13936000     276.0135    371.86534    248.38214   -56427.753    56481.756    123.48321    37.304524 
13940000    253.64911    463.64801    312.19572   -56443.971    56514.733     151.4523    37.322495 
13944000    279.08148    277.87002    403.21129   -56485.255    56526.425   -125.34127     37.32286 
13948000    294.18006    463.29127    474.10649   -56511.785    56546.317   -10.815222    37.319812 
13952000     259.2271    375.69914    290.26761   -56501.083    56557.052    85.431528    37.320496 
13956000    286.46083    237.56766    317.23609   -56520.356    56550.725   -79.668423      37.3144 
13960000    291.73435    473.45835    339.39626    -56553.91    56587.597    134.06209    37.308176 
13964000    305.39739    429.06063    276.46719   -56586.385    56622.093    152.59344    37.311599 
13968000     272.7391     337.1284    308.87314    -56579.77    56632.662     28.25526    37.314821 
13972000    275.62704    307.71529    337.11441   -56611.188    56659.927    -29.39912    37.320598 
13976000    258.34366      327.356    335.49614   -56633.243    56690.779   -8.1401365    37.314517 
13980000     254.3783    236.09137    416.10408   -56665.458    56713.196   -180.01271    37.294806 
13984000    306.45831    468.83316    260.19127   -56684.387    56718.808    208.64189     37.30284 
13988000    299.63507    555.04696       360.95   -56708.787    56731.733    194.09697    37.294967 
13992000    270.32189    411.25146    280.92622   -56708.423    56755.294    130.32524    37.299213 
13996000    269.60025    417.99798    291.60374   -56716.264    56760.574    126.39424    37.299359 
14000000    260.21234    269.20757     178.7585   -56725.724    56776.494    90.449074    37.291905 
14004000    272.75142    221.12908    123.99276    -56767.15    56791.839    97.136313    37.283819 
14008000    285.69155    438.98698    315.70787   -56785.384    56823.139    123.27912     37.28537 
14012000    294.13391    278.70399    416.44938   -56785.871    56827.997    -137.7454    37.286848 
14016000    294.08971    293.57798    303.68085   -56808.464    56853.007   -10.102868      37.2911 
14020000    288.25772    325.91482    416.90925    -56824.72     56875.76   -90.994428    37.291071 
14024000    279.18594    315.13905    383.51682   -56843.326    56870.558   -68.377773    37.281482 
14028000    276.89368    307.96586     357.1834   -56861.772    56898.494   -49.217535    37.274934 
14032000    269.52133    281.01175     436.0042    -56848.05    56920.869   -154.99244    37.255748 
14036000    260.47112    326.81343    341.87649   -56894.171    56955.797   -15.063061    37.256845 
14040000    262.68565    339.33718    262.65068   -56914.661     56972.15    76.686496    37.250773 
14044000    268.70486        306.9    223.91223   -56917.976    56974.092    82.987766    37.247214 
14048000    293.13191    324.64056    313.31938   -56930.438    56967.204    11.321185    37.258831 
14052000    262.01934    523.23923    199.81529   -56954.337    57022.728    323.42393    37.270878 
14056000    274.00644    443.68364    226.84138   -56999.505    57046.381    216.84227    37.273833 
14060000    294.40884    354.18525    287.15979   -56987.666    57022.241    67.025451    37.265973 
14064000    273.59488    168.66639    242.97949   -56986.782    57016.785   -74.313101    37.268195 
14068000    297.44554    334.40277     512.8515    -57010.72    57032.565   -178.44873    37.261324 
14072000    289.87916    226.59695    417.92823    -57019.77    57048.163   -191.33129     37.25114 
14076000    276.24525    185.46066     400.3071   -57031.076    57085.162   -214.84644    37.246598 
14080000    262.07855    404.13171    420.50185   -57084.426    57116.772   -16.370144    37.259034 
14084000    281.70679    404.34168    333.80945   -57108.044    57148.302    70.532233    37.260146 
14088000    288.01415    318.42825    312.19785   -57102.153    57136.548    6.2304062     37.23595 
14092000    275.82143     281.0082    306.05054   -57117.775    57158.031   -25.042339    37.232776 
14096000    280.10038    725.74854    388.08889   -57155.915    57204.161    337.65966    37.224457 
14100000    271.11163    342.11021    443.60461   -57184.058     57226.65   -101.49441    37.227168 
14104000    270.54316    596.22817    310.13905   -57206.509    57262.878    286.08912    37.221371 
14108000    277.61157    328.38509    349.87977   -57199.366    57258.613   -21.494673    37.222023 
14112000    276.61179    263.48162    256.44126   -57203.911    57258.152    7.0403568    37.228648 
14116000    287.95555    280.65364    421.12017    -57246.21    57268.903   -140.46653    37.233615 
14120000    325.91881    496.01774    341.95607   -57254.983    57281.291    154.06167    37.236545 
14124000    319.25009    230.21867     503.6355   -57256.071    57277.678   -273.41683     37.23465 
14128000    292.09711    449.53575    460.84034   -57297.612    57317.489   -11.304593      37.2427 
14132000    291.58575     276.0216    343.44244   -57303.719    57338.864   -67.420839    37.248992 
14136000    274.82293    177.04162    380.53417   -57300.905    57336.646   -203.49255    37.244407 
14140000    273.26796    344.84927    316.79959   -57302.687    57359.723    28.049681    37.240221 
14144000     276.2543    279.20066    204.27441   -57306.752    57343.649    74.926249    37.247737 
14148000    266.34407    269.87709    304.54372   -57346.061    57376.593   -34.666627    37.252073 
14152000    275.11781    312.99093    265.09658    -57338.69     57392.24    47.894344    37.246217 
14156000    302.53944     411.7518    305.50033   -57371.456    57402.262    106.25147    37.247937 
14160000    291.70367    372.32149    563.15523   -57372.177    57399.875   -190.83374    37.248681 
14164000    286.73279    264.52086    220.10739   -57395.265    57425.805    44.413464    37.259498 
14168000    281.05158    302.54478     257.4074   -57402.203    57430.704    45.137381    37.259271 
14172000    281.50663    287.01325    274.19088   -57397.948    57447.667    12.822373    37.253138 
14176000    300.69158    393.42729    378.08322   -57426.433    57460.242    15.344069    37.244204 
14180000    304.80531     388.7848    218.84857   -57463.163    57482.211    169.93623     37.25402 
14184000    281.27699    451.33722     236.4895   -57464.353    57511.167    214.84772    37.244149 
14188000    280.24989    219.34202    648.77467   -57485.095    57541.366   -429.43265    37.251981 
14192000    255.76643    239.42647    249.93601   -57496.779      57563.3   -10.509541    37.262887 
14196000    265.72042    246.50095    337.26972    -57544.56    57583.289   -90.768768    37.266278 
14200000    280.66767    359.22603    361.54312   -57553.708    57603.367   -2.3170852     37.27091 
14204000    287.54624    309.42065    319.45976    -57577.31    57627.668   -10.039113    37.274515 
14208000    250.51794    262.18639    230.18965   -57602.096    57640.812    31.996741    37.278528 
14212000    264.81728    304.05461    173.52912   -57596.614    57660.556    130.52549    37.274453 
14216000    262.82312    387.35037     172.1318   -57621.323    57650.196    215.21857    37.282367 
14220000    277.66452       204.39    336.27736   -57638.905    57679.381   -131.88736    37.288943 
14224000    284.40656    422.20038    368.06953   -57648.897     57696.15    54.130843    37.283567 
14228000    310.22726    571.68968    394.85615   -57684.043    57715.834    176.83353    37.282412 
14232000    253.05817    280.48934     373.2373   -57671.769    57735.219   -92.747965    37.279322 
14236000    220.45054    351.49741    160.63329   -57691.943     57770.43    190.86411    37.277641 
14240000    285.04176     269.8174    295.61026    -57746.84    57774.231   -25.792866    37.278892 
14244000    274.21339    410.22543    360.74895   -57776.769    57822.204    49.476478    37.277253 
14248000    255.81214    452.59986    327.59077   -57775.548    57820.562    125.00909    37.264013 
14252000    307.90952    415.65314    238.10812   -57817.326    57841.028    177.54502    37.270657 
14256000    273.71159    321.12006    328.60437   -57822.508    57853.576    -7.484312    37.269477 
14260000    260.11675    320.53299    266.27902   -57829.009    57884.915    54.253971    37.268841 
14264000    251.11168    386.22291    322.24004   -57858.209    57916.507    63.982877    37.276136 
14268000    300.06302    385.94848    481.69261   -57894.959    57923.729   -95.744132    37.288192 
14272000    288.24808    368.81228    346.13663    -57922.63    57942.421    22.675644    37.285015 
14276000    314.53627    418.57715    404.06851   -57932.911    57932.751    14.508641    37.285658 
14280000    284.24962    470.18131    326.31312   -57938.235    57962.743    143.86818      37.2939 
14284000    310.50919    502.52774    489.98858   -57961.852    57987.727    12.539165    37.291655 
14288000    299.01556    450.20516    517.90703   -57982.192    58021.629   -67.701867    37.293152 
14292000    300.01254    353.33483    463.31163   -57991.197    58030.171    -109.9768    37.292378 
14296000    279.63505    488.92969    241.35226   -58022.821    58064.651    247.57744    37.286243 
14300000    261.36681    390.98728    189.70127   -58025.111    58080.596    201.28601     37.29026 
14304000    265.32277    356.01307    272.23923   -58052.086      58091.7    83.773832    37.298047 
14308000     280.2924      408.817    366.64458   -58066.132    58104.173    42.172421    37.286975 
14312000    277.24431    382.59109    292.58785   -58072.582    58099.783    90.003237    37.290672 
14316000    310.88102    480.33261    538.95453   -58103.041    58125.714   -58.621923    37.282764 
14320000    271.61547     377.6516    312.67825    -58111.52     58158.29    64.973346    37.288484 
14324000    267.69076    484.94363    295.62371   -58128.975    58195.868    189.31992    37.282048 
14328000    289.76527    559.51658     222.1903   -58165.037    58210.576    337.32628    37.286985 
14332000    294.14856    340.27691    544.95219   -58172.591    58214.678   -204.67527    37.270299 
14336000    278.59632     342.1003     158.3433   -58201.829    58245.688      183.757     37.27881 
14340000     295.9595    349.48391    451.22109   -58235.125    58266.911   -101.73719     37.28644 
14344000     271.9827     248.4085    275.49165   -58250.824    58295.589   -27.083148    37.279458 
14348000    289.08016    336.54762    328.24735   -58281.513    58329.574    8.3002726     37.27213 
14352000    281.71345    343.90174    405.63891   -58315.534    58362.315   -61.737167     37.28442 
14356000    306.59928     256.0777    305.95562   -58348.579    58363.612   -49.877922    37.277711 
14360000    269.83473    377.91742    206.05708   -58347.041    58390.266    171.86034    37.271585 
14364000    262.40115    377.17233    321.11041   -58358.939    58417.303    56.061919    37.265187 
14368000    281.50987    460.67654    475.82182    -58403.66    58459.666   -15.145284    37.263634 
14372000    283.00044      350.337    245.72526   -58455.771    58489.908    104.61174    37.264961 
14376000     248.0106    339.47363    478.44505   -58431.761    58507.854   -138.97142    37.254584 
14380000    275.44764    428.20189    275.61091   -58472.132    58532.852    152.59098    37.267306 
14384000     276.7515    516.28317    413.61885   -58502.498    58532.667    102.66431    37.276379 
14388000    326.28023     382.4317    425.35304   -58525.666    58527.011   -42.921336    37.294835 
14392000    286.84101    567.17257    300.90353   -58525.186    58549.326    266.26905    37.297877 
14396000    277.51453     680.8908    262.19566   -58548.086    58583.028    418.69514    37.287674 
14400000    304.01549    275.16958     372.5629   -58571.928    58600.683   -97.393317    37.291819 
14404000    305.83025    319.20971    357.85263   -58595.505    58616.034   -38.642927     37.28837 
14408000     292.6659     230.8276    273.26286   -58604.772    58638.377   -42.435265    37.281962 
14412000    282.16139    387.06306    276.79821   -58631.317    58669.186    110.26485     37.28317 
14416000     296.7908    343.71246    204.68228   -58653.714    58677.531    139.03019    37.276873 
14420000    281.15744    248.76131    125.23556    -58676.37    58713.584    123.52575      37.2741 
14424000    310.04117    381.73141     231.5371   -58704.313    58735.375    150.19431    37.278259 
14428000     292.8352    270.24771    326.22007   -58719.327    58766.198   -55.972357    37.280273 
14432000     291.6711    245.49931     502.9597   -58765.663    58777.095   -257.46038    37.276243 
14436000    315.10077    389.93871    547.17355   -58754.149    58769.757   -157.23484    37.281258 
14440000    291.81631    522.46333    252.40016   -58795.746    58825.745    270.06317    37.278705 
14444000    255.40421    145.76292    155.67557   -58791.967    58851.233   -9.9126581    37.279199 
14448000    263.42213    215.73059    241.43749   -58825.538     58868.61   -25.706898     37.28254 
14452000    295.36128     351.8041    454.08005   -58843.677    58883.431   -102.27595    37.286876 
14456000    268.42715    525.98026    222.40906   -58879.773     58908.46     303.5712    37.298911 
14460000    263.50389    316.26503    278.36464   -58876.785    58945.669    37.900394    37.299055 
14464000    274.07199    535.98679    359.95731   -58916.525    58967.676    176.02948    37.295064 
14468000    300.54039    496.79803    419.57613   -58928.205     58959.37    77.221899    37.299828 
14472000    279.56061    178.54752    425.59165   -58921.409     58967.16   -247.04413    37.287615 
14476000    336.40342     306.5892    366.93315   -58957.153    58970.694   -60.343946    37.276918 
14480000    284.52244     281.6892    319.70625   -58971.698    59018.472   -38.017053    37.263935 
14484000    290.61732    435.02475     308.7896   -58977.243     59013.98    126.23514    37.270319 
14488000    279.58745    469.67429    281.37169   -58991.816    59037.621     188.3026    37.271898 
14492000     306.7523    410.70542    457.73462   -59030.464    59053.327   -47.029194     37.26991 
14496000    271.65317     275.5532    313.65037   -59039.926    59081.073   -38.097173     37.27146 
14500000    309.85628    478.07182     492.7565   -59097.432    59112.641   -14.684675    37.272947 
14504000    268.21127    426.35485      177.167   -59110.584    59165.558    249.18785    37.275595 
14508000    281.32376    328.12072    400.61405   -59164.432    59205.358   -72.493329    37.280333 
14512000    298.23895    206.91551       262.49   -59194.225    59212.756   -55.574493    37.281854 
14516000    304.13415    406.34746    506.91419   -59198.837    59247.886   -100.56673    37.267327 
14520000    268.07162    404.87057      282.574   -59234.805    59283.008    122.29656    37.269431 
14524000    279.46379    233.54348    360.65611   -59260.623    59289.134   -127.11263    37.271338 
14528000    285.20132    483.30163    326.32868   -59291.289    59318.859    156.97295    37.272545 
14532000    304.37699    320.13902    411.07846   -59299.648    59324.791    -90.93944    37.268927 
14536000    277.31535    291.58171      172.962   -59307.998    59348.114    118.61972    37.272434 
14540000    278.21185    370.00053    243.80448   -59327.156    59375.698    126.19605     37.27247 
14544000    316.78749    284.64223    360.99497    -59368.98    59396.031   -76.352743    37.268855 
14548000    320.09102    561.75079    223.73394   -59400.819    59401.773    338.01685    37.263279 
14552000    283.60978     283.2951    274.83692   -59401.694    59442.935    8.4581768     37.26351 
14556000    272.42721    201.69309    166.04907   -59412.491    59467.643    35.644015    37.255928 
14560000    276.32051    382.34141     309.6014   -59415.626    59462.625    72.740014    37.259377 
14564000    294.77725     241.4151    416.94285   -59422.799    59444.032   -175.52775    37.259061 
14568000     299.7019    289.84168     376.2594   -59424.454    59453.139   -86.417713    37.260623 
14572000    263.75463    448.97504    416.16362   -59448.342    59498.294    32.811422    37.256631 
14576000     275.5617    327.53177    161.96713   -59500.582    59526.175    165.56464    37.263247 
14580000    303.36843    432.79434    325.18663   -59511.281    59554.177    107.60771    37.272632 
14584000    292.58443    439.00071    172.90612     -59521.7    59572.032    266.09459    37.272168 
14588000    279.77711    316.09103     466.0546   -59551.451    59595.563   -149.96358    37.274285 
14592000    272.69316    355.46185    340.66281   -59572.749    59611.904    14.799039    37.285947 
14596000    307.29228    485.02773    394.71452   -59584.638    59619.036    90.313219    37.274046 
14600000    271.14043    255.43085    336.47055    -59569.37    59628.441     -81.0397    37.279988 
14604000     279.8186    400.38245     366.5295     -59594.4    59639.025    33.852951     37.27424 
14608000    277.60996    418.58142    142.42378   -59623.826    59682.973    276.15763    37.271516 
14612000    300.10705    261.98125    140.65452   -59623.068    59651.696    121.32673     37.27466 
14616000     275.9268    225.50171    342.14517   -59633.597    59659.297   -116.64346    37.276122 
14620000    267.34851    303.19777    286.41238   -59622.115    59680.365    16.785396    37.285537 
14624000    281.62819    291.50159    427.38754   -59656.344    59699.991   -135.88594    37.285917 
14628000    323.17908    378.85223    474.83336   -59686.682    59702.899   -95.981122    37.295929 
14632000    291.79323    300.49222    297.38207   -59719.347    59748.978    3.1101551    37.312931 
14636000    298.43018     287.3023    146.60104    -59758.93    59788.981    140.70126    37.316389 
14640000    277.93944    316.14543    351.37034   -59782.725    59812.422   -35.224911    37.320402 
14644000     315.3972    342.41941    237.12839   -59795.553    59823.456    105.29102    37.306642 
14648000    273.84917     663.9501    242.51252   -59816.524    59844.803    421.43758    37.313978 
14652000    278.25546    276.75607    396.21647   -59799.653    59849.235    -119.4604    37.322506 
14656000    292.10476    468.20453    436.22165   -59834.876    59870.169    31.982878    37.322059 
14660000    282.68774    465.30067    429.28118   -59868.897    59908.632    36.019488    37.326056 
14664000    286.87144    369.27185    375.07405   -59870.738    59922.006   -5.8021968    37.319058 
14668000     291.5418    334.81529    250.88468   -59919.379    59962.473    83.930608    37.314425 
14672000    282.08223    424.06395    236.48663   -59929.225     59978.97    187.57733    37.299545 
14676000    267.59584    335.94468    321.55716   -59926.531    59989.807     14.38752    37.298576 
14680000    299.05059    284.62508    312.13379   -59973.108    60003.432   -27.508707     37.30484 
14684000    291.00301    612.83552    397.07898   -59992.547    60020.314    215.75654    37.297091 
14688000     282.5678    370.26962    346.56088   -60013.787    60057.843    23.708746    37.288256 
14692000    310.57854    532.80888    271.02502    -60040.87    60064.845    261.78386    37.292476 
14696000    298.38208    329.60517    383.27687   -60059.545    60114.489   -53.671702    37.287734 
14700000    275.33659    294.21789    237.22692   -60089.088    60136.669    56.990967    37.285032 
14704000    294.98703    217.20742    334.88823   -60094.234    60123.092   -117.68081    37.284722 
14708000    292.15504    254.09031    310.47678   -60099.917    60134.089   -56.386462    37.291031 
14712000    305.71004     321.1466    279.86834   -60130.185    60171.432    41.278254    37.293312 
14716000    260.55368    275.06761     442.8703   -60128.994    60195.305   -167.80268    37.289206 
14720000    281.34436    345.69618    277.94465    -60133.01     60172.14    67.751527    37.303102 
14724000    305.02581     511.3726    438.46487   -60143.686    60174.685    72.907722    37.302266 
14728000    293.53853    376.68217    201.95907   -60153.472    60189.729     174.7231     37.29445 
14732000    259.11817    192.71728     335.6557   -60147.225    60195.042   -142.93841    37.291031 
14736000    265.08129    369.72626    274.28145   -60164.383    60210.145    95.444811    37.282141 
14740000    274.03159    341.73375    265.54466    -60178.09    60234.765    76.189094    37.281319 
14744000     267.5715    296.22778    252.53106   -60205.861    60269.242    43.696714    37.269898 
14748000    318.82778    541.31216    367.23437   -60244.026    60271.812    174.07779    37.274467 
14752000    299.32368    255.20701    315.12326   -60236.336    60283.435    -59.91625    37.268615 
14756000    268.04922    279.61089    490.89664   -60231.285    60277.063   -211.28576    37.263615 
14760000    278.48165    334.79328    384.05268   -60260.005    60302.835   -49.259398    37.268475 
14764000    244.18754    168.69107    249.50444   -60263.818    60318.003   -80.813367     37.26324 
14768000    291.79445    310.70208     336.5917   -60263.903    60287.356   -25.889618    37.267026 
14772000    310.09518    244.80341    221.52222   -60281.295    60320.308    23.281193    37.265136 
14776000     307.6314    485.22246    281.58272   -60308.419    60327.897    203.63974    37.268941 
14780000    314.71315     408.7358     426.5188    -60311.03    60325.748   -17.783003    37.262701 
14784000    277.09673    342.03557    412.76116    -60340.37    60374.529   -70.725589    37.271835 
14788000    266.54756    525.63999     238.8645   -60374.357    60404.871    286.77549    37.266017 
14792000    292.17502    237.06735    207.86253   -60370.592    60402.211    29.204824    37.268549 
14796000    265.69802    364.10214    227.12191   -60383.501    60419.645    136.98022    37.266417 
14800000    285.66601    364.96875    359.87624   -60395.971    60441.178    5.0925145    37.276167 
14804000    280.53444    411.13407    290.00107   -60402.234    60455.973      121.133    37.275923 
14808000    261.59104    436.28489    354.69737   -60424.999    60472.987    81.587517    37.271254 
14812000    281.46565    308.24705    250.56346   -60430.152    60482.693    57.683584    37.262359 
14816000    276.27053    479.94791    234.59182   -60475.238    60529.335    245.35609      37.2467 
14820000    276.90481    281.42113    357.60116   -60497.688    60554.584   -76.180025    37.253153 
14824000     306.5701    483.31692    443.75592   -60518.725    60543.223    39.561008    37.255089 
14828000    330.21347    419.50175    419.26974   -60543.898    60546.974   0.23200805    37.245056 
14832000    272.38619    319.53364    310.27856   -60551.997    60599.813    9.2550821    37.245746 
14836000    261.37539    341.93116    399.62939   -60571.769    60625.431   -57.698232    37.250379 
14840000    297.95395    447.47966    402.77939   -60586.523      60621.3    44.700272     37.25813 
14844000    288.33101    611.14522    356.21739   -60612.872    60655.634    254.92783     37.26667 
14848000    288.18857    334.13188    361.65489   -60618.108    60646.033   -27.523009    37.262571 
14852000    287.79368    280.79072    336.74648   -60658.494    60692.131   -55.955763    37.250256 
14856000    318.99988    312.95131    339.73257   -60670.343    60702.013   -26.781263    37.264472 
14860000    274.06882     597.7069    306.15193    -60642.18    60709.856    291.55497    37.261079 
14864000    278.45134    358.86736    278.27318   -60663.252    60712.245    80.594177    37.261323 
14868000    267.86953    381.94685    180.81443   -60682.544    60739.808    201.13242    37.264109 
14872000    328.30307    548.05855      427.944   -60739.608    60751.459    120.11455    37.253598 
14876000    299.73396    492.12964    286.98762   -60729.004    60757.253    205.14201    37.249027 
14880000    276.94941    271.93341    323.10252   -60742.312    60780.801   -51.169109    37.241404 
14884000    301.31484    422.69475    531.52484    -60765.91    60790.579    -108.8301    37.248611 
14888000    277.42119    478.51416     270.9553   -60770.331    60789.146    207.55886    37.253216 
14892000     273.0746     498.4329    284.33144   -60781.643    60828.844    214.10146    37.258562 
14896000    266.32633    428.66386    420.69207   -60798.337     60863.67    7.9717921    37.261166 
14900000    302.21402    352.37347    289.31277   -60826.868    60894.201    63.060701    37.261183 
14904000    278.03216    219.47007     254.8707   -60883.428    60916.979   -35.400626    37.251002 
14908000    262.90404    264.30742    239.82195   -60900.416    60957.423    24.485473    37.235439 
14912000    297.34098    514.81568    197.50933   -60913.239    60965.548    317.30635    37.241383 
14916000    274.90295    287.87874    296.70989   -60946.229     60985.62   -8.8311438    37.238527 
14920000    302.31933    237.14597     391.9158   -60956.887    60995.211   -154.76983    37.231481 
14924000    292.39124    299.91648    269.54705   -60943.157    60976.755    30.369423     37.23121 
14928000    282.99532    168.55581    366.77784   -60958.799    61003.471   -198.22204    37.218577 
14932000      281.233    279.17914    221.06853   -60990.246    61041.647    58.110615    37.218123 
14936000    255.98379    317.16476    310.54783   -60996.455    61053.716     6.616933     37.21276 
14940000    278.04497    641.12139     263.0687   -61022.517    61067.273    378.05269    37.210851 
14944000    270.19994     311.2863    344.45945   -61006.425    61060.901   -33.173146    37.204502 
14948000    261.70068    182.18018    163.83128   -61039.969    61106.956    18.348894    37.193303 
14952000    251.87662    225.17327    188.27268   -61073.294    61147.222    36.900592    37.192971 
14956000    262.17503    416.62254    399.08464   -61105.868    61139.293    17.537896    37.193133 
14960000    283.08599    278.07651    359.89436   -61107.648    61154.483   -81.817855    37.188373 
14964000    262.68589    364.54221     375.5794   -61136.355    61189.006   -11.037183    37.193663 
14968000    286.11278    386.29692    369.90406   -61157.824    61194.865    16.392866    37.190102 
14972000     298.0442    497.29744    285.78892    -61186.15    61223.814    211.50853     37.18887 
14976000    262.48417     271.1594    237.11092    -61196.04    61263.418    34.048475    37.191405 
14980000    297.99115    488.04225    139.47109   -61227.262    61256.621    348.57117    37.190031 
14984000    260.56846    276.49303    244.21691   -61261.322    61298.078    32.276121    37.185556 
14988000    272.79011    320.19014    401.88119   -61296.577    61344.059   -81.691049    37.190064 
14992000    283.72006    470.07315    301.73246   -61315.744    61363.762    168.34069    37.179938 
14996000     278.2619     296.4747    531.03304   -61334.128     61380.29   -234.55834    37.178169 
15000000    281.58314    451.95397    367.38675   -61363.735    61396.591     84.56722    37.183514 
15004000    279.29373    267.32343    426.28266   -61359.635    61406.177   -158.95922    37.177161 
15008000    267.79531    275.57569    331.29876   -61361.994    61430.572   -55.723073    37.180731 
15012000    271.97358    449.59228    291.12278   -61379.888    61428.815     158.4695    37.178266 
15016000    300.98256    599.95393    350.39028   -61388.097    61432.743    249.56365    37.175278 
15020000    317.63001    305.54692    224.83953   -61400.647    61440.362    80.707386    37.181985 
15024000    265.16297    282.31575    292.83191   -61437.066    61481.483   -10.516161    37.195952 
15028000     264.4492    332.62971    307.83307   -61458.214    61500.237    24.796646    37.184865 
15032000    303.36515    542.57308    258.56824   -61483.693     61525.01    284.00484    37.188702 
15036000    276.69663    275.54469    350.38396   -61491.852    61550.065   -74.839276    37.186427 
15040000    309.88504    301.66555    286.58307   -61529.913    61565.854    15.082476    37.185712 
15044000    307.24128    262.00077    139.19916   -61565.783    61592.359    122.80161    37.198315 
15048000    273.95191     241.3105    178.22289   -61596.831    61621.062    63.087605    37.201322 
15052000    275.31796    384.88885    182.53677    -61613.77    61656.007    202.35208    37.198835 
15056000    313.75106    415.19865    227.58062   -61649.023    61655.726    187.61803    37.214139 
15060000    286.63366    266.29006    363.01328   -61653.649    61696.557   -96.723221      37.2078 
15064000    301.68647    447.57928    266.08894   -61664.282    61706.484    181.49034    37.201151 
15068000    286.06104    401.33888    333.94238   -61685.329    61721.242    67.396496    37.203635 
15072000      332.297    462.46601    526.23542   -61710.804     61713.72   -63.769409    37.209867 
15076000    259.04864    214.13321    370.64548   -61695.679     61753.04   -156.51227    37.201727 
15080000    284.34313    329.05188    464.40345   -61706.301    61738.375   -135.35157    37.201476 
15084000    278.72107    374.97381    262.70586   -61712.402    61765.542    112.26796    37.200094 
15088000    247.44701    222.81032    245.01072    -61714.77    61770.612     -22.2004    37.204629 
15092000     310.7568    183.38577    402.78905   -61751.626    61780.739   -219.40328    37.218475 
15096000    280.83686    341.36033    439.66743   -61752.835    61797.216     -98.3071    37.216389 
15100000    287.13397    358.62181      243.818   -61768.604    61793.892    114.80381    37.218992 
15104000     283.8503    295.83537    185.51177   -61780.458    61816.858     110.3236    37.227386 
15108000    318.62874    414.41823    412.06164   -61782.017    61788.693    2.3565897    37.239719 
15112000    284.09273    356.23973     219.6479   -61767.177    61805.333    136.59183    37.236053 
15116000    284.77127    471.03245    268.91086   -61802.877    61844.702    202.12159    37.233931 
15120000    303.89143    552.13266    538.90368   -61835.038    61856.579    13.228976    37.250524 
15124000    304.52363     462.4465    399.88739   -61840.003    61856.474    62.559105    37.248687 
15128000    261.49907    290.97629    347.25201   -61840.012    61897.144   -56.275719    37.241686 
15132000    318.29342    365.97324    418.93558   -61900.503    61907.001   -52.962335    37.246842 
15136000    303.78274    405.25864    370.88132   -61903.762    61923.185    34.377314    37.244474 
15140000    256.47099    325.64452    324.98682   -61917.893     61956.35    0.6576991    37.252563 
15144000    256.45016    283.94315    219.91334   -61923.329    61986.295    64.029808    37.255359 
15148000    259.58739    381.74365    251.30984   -61941.111    62008.586    130.43381    37.252006 
15152000    300.63208    354.76705    414.69186   -61978.634    62014.294   -59.924812    37.260109 
15156000    291.88845    594.76927    457.64802   -62008.984    62051.543    137.12125    37.250966 
15160000    265.52457    380.73524     323.8937   -62023.185    62080.229    56.841544     37.24557 
15164000      300.677    290.62991    220.93803   -62054.938    62089.786    69.691883    37.250808 
15168000    300.77279    253.74855    196.39139   -62089.916    62107.894    57.357157    37.256558 
15172000    286.64362    299.20282    206.36545   -62097.248    62134.249    92.837374    37.251254 
15176000     296.4426    406.94323    220.87595    -62122.66    62157.475    186.06728    37.249124 
15180000    308.10349    539.18279    248.87062    -62165.25    62171.521    290.31217    37.259149 
15184000    280.86656    233.69879    627.00762   -62151.216    62201.009   -393.30883    37.245882 
15188000    268.70915     370.2597    296.97681   -62176.112    62230.877    73.282893     37.24256 
15192000    275.86773    403.58556    358.80919   -62217.434    62267.396    44.776363    37.242525 
15196000    301.59684    316.33181    440.92343   -62243.235    62277.875   -124.59162    37.247288 
15200000    278.84787    248.78737    194.02295   -62245.107    62293.059    54.764421    37.242181 
15204000    295.73001    380.62989     247.7794   -62262.798    62298.262    132.85049    37.239833 
15208000    268.58472    352.03781    301.27154   -62272.675    62308.352     50.76627    37.249167 
15212000    299.57288    267.08469     348.7066   -62309.476    62322.819    -81.62191    37.246417 
15216000    279.83438     260.7029    163.68378   -62311.113    62335.401    97.019126    37.252202 
15220000    293.13429    371.45478     181.5816   -62314.796     62358.24    189.87318    37.257968 
15224000    278.54526     277.2162    263.03119   -62336.098    62365.117    14.185013    37.256176 
15228000    261.44386    382.48522    559.25878   -62345.354    62392.937   -176.77356    37.260342 
15232000    257.31129    420.51582    305.58011   -62384.398    62436.313    114.93571    37.266158 
15236000    291.85303    345.04171    255.99888   -62392.164    62443.237    89.042826    37.262639 
15240000     293.4689    450.18553    235.59216   -62432.189     62463.91    214.59337    37.261272 
15244000    307.58455    415.83817    348.54052   -62477.818    62479.448    67.297653    37.253767 
15248000    301.70022    383.14589    429.14875   -62470.401    62507.303   -46.002861    37.254354 
15252000    296.84186    490.93621    322.68796   -62494.709     62540.25    168.24825    37.249514 
15256000    296.98387    326.45946    459.90998   -62531.039    62568.598   -133.45053    37.241052 
15260000    258.45648    256.85825    191.34951   -62540.978    62601.656     65.50874    37.232679 
15264000     288.0852    257.00153    460.09807   -62569.834    62615.859   -203.09654    37.237444 
15268000    293.85487    299.42565    411.95122   -62592.962    62617.788   -112.52557    37.236748 
15272000    304.97479    191.83463    298.45693   -62609.132    62616.102    -106.6223    37.241603 
15276000    277.64619    426.56718    272.75566   -62633.516     62669.56    153.81152    37.239278 
15280000    284.17853    219.49196    183.18832   -62647.859    62711.446    36.303642    37.244078 
15284000    248.57098    245.04351    252.22764   -62709.641    62761.842   -7.1841302    37.255162 
15288000     283.4027    311.50853     271.3417   -62755.923    62806.342    40.166825    37.247571 
15292000    286.44132    357.10881    192.01026   -62798.476    62838.885    165.09855    37.247606 
15296000    313.92106    241.34687    284.77643   -62846.051    62851.684   -43.429558    37.243994 
15300000    284.87703    322.25204    456.39098   -62830.108    62884.239   -134.13894    37.250873 
15304000    274.84165    527.66041    150.76542   -62851.011     62903.99    376.89499    37.270415 
15308000    283.04976    510.17235    323.82065   -62864.058    62909.982    186.35169    37.265252 
15312000    292.29873    478.22712    352.51558   -62907.688    62923.812    125.71153     37.27219 
15316000    292.88899    213.32416    210.94434   -62916.433    62943.589    2.3798169    37.261232 
15320000     303.2325    468.42357    437.62457   -62944.524    62959.752    30.799001    37.263416 
15324000    264.32195     410.5865    237.76362   -62935.133    62994.249    172.82288    37.280854 
15328000    291.64533     464.2545    244.47176   -62965.326    63008.929    219.78273    37.285972 
15332000    268.80646    317.47378    206.90169   -62960.515    63012.278    110.57209    37.289503 
15336000    285.60766    206.52146    383.31967   -62971.705    63008.674   -176.79821     37.29203 
15340000    279.34582    373.47033    322.65735    -62990.91    63044.046    50.812986    37.297285 
15344000    275.78434    428.56306     453.8684   -63001.183    63067.934    -25.30534     37.29964 
15348000     265.7564    224.35888    335.39016   -63020.628    63076.451   -111.03128      37.2988 
15352000    257.62216    419.10185    250.22978   -63045.072    63105.027    168.87207    37.303819 
15356000    287.98053    286.33311     292.5901    -63043.05    63097.287   -6.2569922    37.306048 
15360000    302.13699    388.71887    348.26563   -63086.074     63115.86    40.453236     37.31417 
15364000    276.86774    399.65993    214.40306   -63126.836    63169.958    185.25687    37.316261 
15368000    274.72019    348.05883    311.98679   -63140.872     63198.48    36.072039    37.321157 
15372000    262.53384    345.22882    283.60034   -63171.477    63218.049    61.628479    37.323405 
15376000    275.10376    383.35322    450.97776    -63186.27    63212.346   -67.624533    37.308254 
15380000    314.84306    386.46856    271.66387   -63199.141    63228.456    114.80468    37.313575 
15384000    279.38424     339.0563    343.65522   -63213.519    63254.316   -4.5989211    37.308557 
15388000    295.17303     356.5771    350.70799   -63239.923    63263.011    5.8691078    37.314774 
15392000    285.51429    415.48097      229.633   -63244.976    63281.803    185.84797    37.315744 
15396000    293.08348     266.2342    326.96189   -63242.961    63294.872   -60.727694    37.317813 
15400000    254.83654    381.86581    280.41008   -63256.513    63330.411    101.45573    37.324755 
15404000    270.90233    251.66124    201.52514   -63270.252    63325.754    50.136104    37.338411 
15408000    302.98336    403.86954    351.11184   -63256.357    63313.606    52.757696    37.333066 
15412000     295.9006    347.37433    316.45217   -63262.201    63308.389    30.922159    37.329024 
15416000    266.69507    268.79606    263.87064   -63263.054    63331.597     4.925419    37.328622 
15420000    284.72722    324.24851    337.40388   -63265.506    63332.766   -13.155362    37.336706 
15424000    268.59981    257.21844    281.15648    -63297.07    63360.629   -23.938041    37.349231 
15428000    292.56301    255.09498    359.83441   -63313.911    63349.264   -104.73944    37.346436 
15432000    280.09691    259.70249    239.32128   -63313.422    63357.559    20.381206     37.34085 
15436000    264.50234    327.36875    373.82757   -63333.665    63407.392   -46.458821    37.340665 
15440000    261.58094    430.37743    268.95062   -63347.065    63399.089    161.42681    37.338565 
15444000    281.96392    236.04422    337.17007   -63383.884    63432.886   -101.12584    37.334223 
15448000    317.16924    289.48617    416.91466   -63398.565    63433.669   -127.42849    37.333344 
15452000    272.13659    274.76383    425.19987   -63436.505    63474.573   -150.43604    37.336007 
15456000    265.01854    368.20941    272.50874   -63439.319    63484.676    95.700664    37.339888 
15460000    287.22184    386.53372    274.09113   -63454.596    63490.978    112.44258    37.340774 
15464000    255.88119    467.55887    183.04344   -63433.006    63494.595    284.51543    37.351236 
15468000    274.10335    396.48368    263.12537   -63467.239    63528.452    133.35831    37.352449 
15472000    283.57343    432.04432     409.8354   -63505.106    63550.357    22.208926    37.347264 
15476000    273.14331    274.50628    250.24773   -63497.987    63541.309    24.258553    37.345811 
15480000    282.56085     328.7832    242.07015   -63517.737    63565.096    86.713046    37.349717 
15484000    284.98014    470.22128    361.10065   -63532.452    63582.262    109.12063    37.356616 
15488000    275.09359    365.11248    352.36431    -63519.49     63574.56    12.748179    37.357564 
15492000    267.95725    422.21636    291.33129   -63530.789    63580.508    130.88507     37.34843 
15496000    269.19048    459.36487     287.8715   -63564.996     63603.91    171.49337    37.343288 
15500000    265.68184    313.36857    316.01749   -63587.834    63626.209   -2.6489166    37.342476 
15504000    296.58566    629.87601    208.33455   -63618.125    63657.654    421.54146     37.33984 
15508000    261.14386    306.42113    282.96175    -63637.24    63691.185    23.459385    37.333258 
15512000    274.09383    488.38802    357.84817   -63651.672    63710.228    130.53984    37.323293 
15516000    298.77914    353.00612    369.56763   -63682.701    63702.502   -16.561516    37.315914 
15520000    271.74556    362.56324    349.80015   -63714.205    63761.775    12.763087    37.321081 
15524000    284.75765    604.11853     251.2046   -63742.649    63786.071    352.91393    37.315021 
15528000    287.16076    465.67996    303.66484   -63773.959    63810.558    162.01512    37.320219 
15532000    306.85394     553.1361    164.15046   -63797.051    63815.983    388.98564    37.309748 
15536000    293.35632    332.58915    381.53086   -63770.367    63807.153   -48.941708    37.305383 
15540000     284.7415    275.20622    526.71658   -63791.382    63829.821   -251.51035    37.295544 
15544000    300.06646    259.03514    230.02005   -63829.472    63858.717    29.015084    37.291872 
15548000    286.53483    346.17126    295.86072   -63831.172    63881.189    50.310545    37.292222 
15552000    295.75607    460.00425    272.13758   -63844.363    63885.345    187.86666    37.297288 
15556000    289.69687    313.32182    324.77917   -63878.651    63924.569   -11.457354    37.295521 
15560000    299.38214    242.90201    314.66491   -63894.356    63939.874   -71.762905    37.290727 
15564000     278.1052    580.14332    216.44892   -63919.789    63968.971     363.6944    37.294716 
15568000    303.11169    189.54623    232.81031   -63940.973    63972.638   -43.264081     37.29546 
15572000    287.90959    223.36014     255.8877   -63963.903     64003.35   -32.527552    37.297391 
15576000    254.61649    355.35227    180.57704   -63954.436    64020.232    174.77523    37.300082 
15580000    308.47429    500.32308    296.86324   -63988.863    64037.991    203.45984    37.302992 
15584000      313.386    412.87401    361.09797    -64022.45    64065.894    51.776043    37.304492 
15588000    311.77142    636.50309    285.21281   -64056.279    64075.488    351.29028    37.314802 
15592000    305.04128    246.81398    360.30622   -64045.059    64082.185   -113.49224    37.317076 
15596000    267.72469    380.69871    467.94981   -64027.922    64091.473   -87.251105    37.322989 
15600000    268.15409    427.28502    425.48284   -64044.448    64110.329     1.802183    37.321048 
15604000    260.19948    269.90108    168.27861   -64072.249     64116.39    101.62247    37.317357 
15608000    280.64088    492.65929    282.19529   -64080.681    64117.129      210.464    37.309951 
15612000    260.84443    262.98823    402.15074   -64066.219    64125.595   -139.16252    37.313743 
15616000    291.12682    370.58728    410.03324   -64096.855    64133.023   -39.445965    37.311475 
15620000    276.44518    269.27101    380.36172   -64113.607    64151.489   -111.09072    37.315815 
15624000    252.14433     284.0501    273.41417    -64124.43    64194.962    10.635925     37.32236 
15628000     272.5018    328.34686    418.70281   -64161.911     64218.34   -90.355952    37.316947 
15632000    259.70885    226.88388    262.72538   -64190.495    64251.217   -35.841502    37.311775 
15636000    277.69608     203.3011    490.68053   -64205.118    64251.407   -287.37943     37.30254 
15640000    279.42433    291.79521    520.44076   -64232.117     64282.24   -228.64555    37.296316 
15644000    296.47256    283.17325    491.79016   -64252.257    64298.376   -208.61691    37.297451 
15648000    267.67506     152.5726     351.6642   -64281.723    64326.917   -199.09161    37.281994 
15652000    264.92396    281.38915     190.6378   -64319.499    64363.626    90.751353    37.287046 
15656000    276.25252    294.92029    255.42536   -64353.942     64394.19    39.494933    37.279539 
15660000    279.78917    534.36542    203.46426   -64365.789    64419.846    330.90116    37.279412 
15664000    285.39837    351.01011    330.97794   -64394.472    64432.479    20.032178    37.279762 
15668000    335.49368    606.64306    299.17172     -64428.4    64454.513    307.47134     37.29221 
15672000    286.37963    378.17845    266.36945   -64435.381    64486.877    111.80901    37.294382 
15676000    287.17417    267.57275     353.9261   -64468.642    64507.198    -86.35335    37.297037 
15680000    257.24024    243.63484    274.21263   -64461.349    64516.609   -30.577787    37.288614 
15684000    247.12393    510.90925    155.99611   -64467.315    64551.095    354.91314    37.281559 
15688000    262.65327    654.97927    425.89969     -64510.1    64579.008    229.07957     37.28569 
15692000    293.81253    601.21735    315.04275   -64547.375    64593.237     286.1746    37.281542 
15696000    285.91906    472.20064    264.91207     -64513.7    64558.887    207.28857    37.288087 
15700000    277.22486    546.00585    301.33026   -64532.513    64568.058    244.67559    37.273744 
15704000    322.89313    402.39186    305.20753   -64565.393    64590.919    97.184332    37.271644 
15708000    277.39145    297.31145    332.44257   -64587.827    64640.495   -35.131122    37.266305 
15712000    294.03973    424.09469    338.40048   -64611.214    64647.635    85.694211    37.270966 
15716000    279.05855    397.84903    301.72013   -64621.548     64676.92    96.128901    37.274209 
15720000    297.26195    508.62055    309.28876   -64657.905     64689.36    199.33178    37.280427 
15724000    285.87903    300.09436     247.0541   -64680.596     64718.09    53.040261    37.280557 
15728000    305.89247    235.48001    512.62882   -64684.852    64707.716   -277.14881    37.274177 
15732000    303.02986    413.27762    274.92855   -64705.071    64744.309    138.34907    37.278254 
15736000    257.83466    262.59124    385.26935   -64718.956    64770.868   -122.67811    37.270854 
15740000    267.67093    360.44176    258.53624   -64725.953    64778.669    101.90553    37.265216 
15744000    263.36675    282.68016    449.41339   -64727.651    64784.255   -166.73323    37.256086 
15748000    281.87795    371.04491      408.976   -64752.741    64800.759   -37.931098    37.268469 
15752000    324.98149    461.76758    353.24677   -64792.726    64810.706    108.52081    37.281414 
15756000     301.1262    531.34813     278.4849   -64810.693    64849.995    252.86323    37.290013 
15760000    277.69144    159.73494    222.16544   -64827.012    64875.828   -62.430505    37.290974 
15764000    322.19466    412.23497    406.81383   -64862.931    64902.707    5.4211443    37.297519 
15768000    286.47345    229.45142    486.39928   -64896.569    64916.566   -256.94786    37.273071 
15772000    286.23394    437.54099    389.18605     -64893.2    64948.698    48.354935    37.266176 
15776000    293.27142    174.60937    276.12639   -64905.202    64952.581   -101.51702    37.265989 
15780000    279.15457    266.65454    537.32218   -64932.337    64980.797   -270.66763    37.264007 
15784000    285.19688    270.00379    327.45153    -64947.92    64999.548   -57.447739    37.263138 
15788000    290.02838    252.41287    177.96831   -64978.874    65011.579     74.44456    37.269061 
15792000    290.32266     507.4004    267.15202     -65002.4    65032.529    240.24838    37.273465 
15796000    284.48789     394.8697    370.40025   -64981.222    65042.808    24.469448    37.280657 
15800000    283.26718     226.6472    283.52893   -65019.325    65069.512   -56.881727    37.286213 
15804000    272.15767    370.56079    308.42725   -65033.936     65092.85     62.13354    37.277963 
15808000    259.65981    325.49975    270.19106   -65021.864    65104.829    55.308691    37.279177 
15812000    285.83365    303.31776    304.74084   -65056.785    65109.423   -1.4230826     37.28234 
15816000    319.86837    638.78185    333.91953   -65109.394    65131.384    304.86232     37.26958 
15820000    289.26603    366.51288    339.66699   -65096.347    65132.753    26.845884    37.272598 
15824000    257.49129    180.81795    254.67174   -65128.704    65189.234   -73.853789    37.276245 
15828000    279.59508    449.04962      270.333   -65173.982    65207.004    178.71661    37.277287 
15832000    299.77238    307.45229     282.5358   -65177.448    65208.134     24.91649     37.27181 
15836000    314.52879    307.48377    436.93425   -65213.772    65241.793   -129.45048    37.269269 
15840000    288.29254    516.21251    423.09254   -65239.856    65287.276    93.119974    37.258445 
15844000    303.90961    445.44046    336.36661   -65275.141    65317.626    109.07385    37.261302 
15848000    266.88161    218.51487    263.56586   -65266.529    65342.094    -45.05099     37.25048 
15852000    273.39382     532.8815    239.68625   -65285.599    65354.539    293.19525    37.261402 
15856000    281.58507     435.8944    345.10108   -65318.629    65358.655    90.793319    37.264997 
15860000    307.06348    392.56756    289.10115   -65333.716    65365.937    103.46641    37.273371 
15864000    249.90404    209.12793     261.2738   -65336.129     65375.95   -52.145867    37.280708 
15868000     276.5827     250.6595    292.54893   -65343.094    65385.987   -41.889432    37.281421 
15872000    303.86828    345.45062    435.50912   -65366.356    65385.309   -90.058507    37.280183 
15876000    293.32344    317.98458    233.18538   -65355.503    65405.917    84.799207    37.277435 
15880000    266.30967    250.19315    232.83734   -65366.882    65422.323    17.355813      37.2827 
15884000    281.16177    470.16983    295.43134   -65409.883    65457.622    174.73849    37.271759 
15888000    314.93013     279.2078    376.16741   -65413.259    65431.825   -96.959613    37.269174 
15892000    275.84029    364.52937    400.78637    -65398.33    65451.801   -36.257003     37.27385 
15896000    266.76811    556.62928    314.36674   -65427.239    65476.297    242.26254    37.277161 
15900000     273.3104    508.11594     262.7024   -65458.403    65504.407    245.41353    37.272835 
15904000    265.22953    442.90954    248.03748   -65457.451    65517.597    194.87206    37.274142 
15908000    262.43523    220.55968    312.71473   -65468.373    65520.816   -92.155053    37.276094 
15912000     254.7798    269.74943    352.76817   -65485.197    65543.179   -83.018741    37.278918 
15916000     288.9393    309.25378    372.43962   -65509.203    65557.008   -63.185836    37.269919 
15920000    280.46996    482.14877     238.3294   -65519.735    65573.098    243.81937     37.27607 
15924000    261.68357    318.83976    305.63776   -65519.815    65583.743    13.202001    37.289501 
15928000     332.5318    659.15031    309.64378    -65563.39    65593.162    349.50654    37.287763 
15932000    309.39188    265.81211    299.15824   -65576.387    65590.563   -33.346135    37.281669 
15936000    324.08011    231.80917    424.33987   -65591.534    65613.391   -192.53071    37.283699 
15940000    305.06398    535.97443    296.72374   -65615.524    65644.225    239.25069    37.281726 
15944000    310.19468    313.23866    282.73656   -65621.535    65658.002    30.502104    37.281326 
15948000    303.07536    414.80313    372.52497   -65645.669    65700.262    42.278152    37.272769 
15952000    296.72742    299.03092    528.13463   -65677.467    65719.877   -229.10371     37.28048 
15956000    293.30186    272.37416     388.2362   -65710.914    65755.004   -115.86204    37.272272 
15960000    285.76726    255.23127     265.1183   -65729.482    65777.585   -9.8870306    37.277289 
15964000    283.77378    361.48672     203.8985   -65763.234    65795.376    157.58822    37.278977 
15968000    293.21256    473.61247     358.0836    -65776.16     65802.14    115.52888    37.289246 
15972000    306.07789     338.3383     237.9789   -65783.279    65842.156     100.3594    37.290088 
15976000    276.24462    361.76269    298.34243   -65799.552    65860.844    63.420263    37.285917 
15980000    291.27747    270.70638    322.73762   -65830.104    65870.329   -52.031242    37.282843 
15984000    315.43012    296.49178    343.30038   -65876.445    65897.443   -46.808593    37.289054 
15988000    291.89389    451.51334    202.94118   -65889.939    65951.954    248.57217    37.299672 
15992000    273.22498    467.95742    294.68661   -65907.134    65976.799    173.27081     37.30664 
15996000    284.75297    360.77597    376.57494   -65912.391     65980.33   -15.798974     37.31487 
16000000    287.20843    441.37814    256.17101   -65927.436    65982.212    185.20713    37.308156 
16004000    278.81459    389.94488    270.58747   -65962.954    65998.442    119.35742    37.313221 
16008000    265.56314    460.04026    258.25547   -65951.643    66033.964    201.78479      37.3159 
16012000    259.18514    266.92429    289.53647   -66001.109    66056.337   -22.612177    37.310158 
16016000    282.82423    290.82804    459.05232   -66037.465    66084.179   -168.22428    37.307781 
16020000    254.21589    185.63378    166.79168   -66051.656    66108.696      18.8421    37.311265 
16024000    293.21244    514.75797    293.90569   -66058.439    66104.537    220.85228    37.314982 
16028000    283.75435    478.69407    236.57456   -66059.747    66110.129    242.11951    37.314711 
16032000    294.09448    308.12153    397.22574   -66110.148    66146.089   -89.104203    37.302598 
16036000    286.83623    742.15134    194.40923    -66125.25    66181.356    547.74211    37.308304 
16040000     278.0227    484.30069    269.91734   -66143.402    66214.545    214.38335    37.307954 
16044000    313.88639    318.32319    423.31751   -66176.983    66219.073   -104.99432    37.297608 
16048000    273.80667    466.16606    309.75786   -66224.771    66258.853    156.40819    37.299658 
16052000    294.39002    221.25013    194.47271   -66242.151    66280.585    26.777422    37.291515 
16056000    303.09622    499.22583    388.60822   -66283.791     66320.72    110.61761    37.303196 
16060000    268.89551    211.06292    408.71326   -66292.358    66339.937   -197.65034    37.299974 
16064000    275.20707    281.43612    249.02869   -66326.209    66377.652    32.407421    37.304927 
16068000    306.93277    520.63555    392.48267   -66373.584    66399.717    128.15289    37.301613 
16072000    299.88437    555.75953    284.82761    -66379.09    66403.308    270.93193    37.308405 
16076000    306.11155    506.44492    527.51463   -66406.928    66445.091   -21.069719    37.314804 
16080000    260.77321    206.91021    231.99846   -66417.452    66484.848   -25.088254    37.320624 
16084000    290.75424    347.34648    288.03121   -66473.939    66510.609    59.315277    37.327426 
16088000    285.41269    323.68548    264.21271   -66488.484    66538.772    59.472768    37.324978 
16092000    282.33381     393.4771    408.30325   -66494.975     66556.89   -14.826143    37.318017 
16096000    287.99108    349.83792    316.37891    -66539.17    66561.141    33.459006    37.322564 
16100000    273.70573    308.57204     283.2066    -66518.66    66566.883    25.365444    37.327852 
16104000    289.19275    529.46337    379.37895   -66528.802    66577.825    150.08441    37.322643 
16108000    302.94108    443.13121    719.21904   -66553.041    66596.158   -276.08783    37.325111 
16112000    277.80967    549.23507    427.61929   -66554.029    66598.658    121.61578    37.330685 
16116000    298.92267    258.44875    312.98099   -66564.629    66583.242    -54.53224    37.314828 
16120000    259.53494    382.08744    466.18682   -66541.058    66617.802   -84.099385    37.313709 
16124000    259.49954    280.44066    325.95687   -66573.413    66624.587   -45.516202    37.313216 
16128000    269.80082    306.46705    231.03842   -66593.168    66648.831     75.42863     37.31473 
16132000    273.68961    456.51849    294.31506   -66611.528     66650.21    162.20344    37.308076 
16136000    241.82682     340.0042    316.85862   -66605.325    66670.648    23.145576    37.313184 
16140000    273.17389    372.50508    208.34163   -66644.963    66682.338    164.16344    37.317436 
16144000    300.52658    679.90416    219.41828   -66661.457    66705.051    460.48589     37.32865 
16148000     282.4399    495.56519    253.05163   -66667.591    66726.207    242.51356    37.323004 
16152000    303.13539    393.10466     320.2291   -66690.265     66735.77    72.875559    37.317732 
16156000    293.88555    384.52806    496.68073   -66694.473     66761.48   -112.15266    37.304223 
16160000    267.17017    395.32138     334.2325    -66725.77     66788.16    61.088881    37.304722 
16164000    282.60196     386.7462    362.60447   -66749.745    66794.849    24.141732    37.308106 
16168000    294.28457     348.8665    491.32793   -66733.424    66790.674   -142.46143    37.303543 
16172000    316.20574    264.09555    315.28923   -66789.899    66816.696   -51.193681    37.313798 
16176000    294.70327    490.67257     505.3015   -66804.059    66850.828   -14.628921    37.307899 
16180000    279.78697    562.30727    292.18591   -66818.751    66857.325    270.12136    37.310301 
16184000    299.37982     399.2909    432.49927    -66836.27    66890.136   -33.208369    37.311386 
16188000    274.60736    447.53976    214.96536   -66845.727    66902.712     232.5744    37.301521 
16192000    260.89644     280.2066     244.3401   -66844.392    66911.269    35.866497    37.296142 
16196000    294.59561     317.2737    215.33733   -66859.371    66900.535    101.93637      37.3076 
16200000    277.61418    273.94726    252.15711    -66869.21    66914.838    21.790151    37.295822 
16204000    274.23313     487.3707    434.20858   -66891.686    66938.603    53.162125    37.294381 
16208000    301.66091    514.97828    408.85625   -66906.172    66946.996    106.12202    37.300665 
16212000    294.57653    381.50377    303.97647   -66946.472    66974.106    77.527292    37.298909 
16216000     296.3673    414.79826    247.27114   -66933.423    66976.209    167.52712    37.305436 
16220000    301.96402    307.89905    340.88169   -66924.417    66957.068   -32.982642    37.311945 
16224000    287.96719    511.86933     311.6426   -66945.332     66985.02    200.22674    37.311817 
16228000    258.72294    468.76762    330.98404   -66966.434    67019.275    137.78358     37.31655 
16232000    274.44968    377.32306    334.96075   -66993.099    67040.163    42.362307    37.315373 
16236000    288.52498    253.75457    431.52766   -66995.765     67043.57   -177.77309    37.303656 
16240000    283.53565     261.2147    252.77603   -67024.633    67062.952    8.4386665    37.315578 
16244000    277.25331    427.31202    199.56408   -67051.459    67104.085    227.74794    37.307743 
16248000    290.32825    425.56212    172.74759   -67052.294    67097.824    252.81453    37.312117 
16252000    274.92422     233.2717    461.13337   -67073.991    67119.018   -227.86167     37.30775 
16256000     284.6552    418.78352     447.4281   -67121.896    67157.786   -28.644579    37.313823 
16260000    258.70035    367.61242    279.81057    -67139.49    67183.825     87.80185    37.318831 
16264000    291.96044    332.26963     363.7913   -67156.302     67201.14   -31.521672    37.318488 
16268000    275.08236    396.16137    211.87097   -67152.157    67201.349     184.2904    37.317665 
16272000    274.53079     485.7788    253.51855   -67178.897    67228.979    232.26026    37.317977 
16276000    279.20644    397.25799    173.72351   -67165.199    67230.285    223.53448    37.315831 
16280000    276.07753    233.28002    298.65316   -67192.468    67251.314   -65.373143    37.307286 
16284000    273.13803    458.33844    211.84899   -67215.234    67282.248    246.48945    37.307606 
16288000    277.02959    370.79734    142.16706   -67270.874    67312.717    228.63028    37.309014 
16292000    286.69846    447.32204    509.01528   -67278.771    67318.602   -61.693243    37.302976 
16296000     284.6118    242.86096    313.34383   -67280.086    67327.848   -70.482867    37.312362 
16300000    252.28642    361.69955    314.20053   -67307.779    67365.957     47.49902    37.308901 
16304000    296.60722    233.12861    281.93391   -67330.939    67376.082   -48.805304    37.303198 
16308000    258.01398     460.8106    336.85553   -67349.629    67406.412    123.95507    37.298425 
16312000    279.93118    305.64471    372.60176   -67378.518    67426.636   -66.957056     37.29641 
16316000     303.4781    339.92428    402.70843   -67423.719     67454.43   -62.784155    37.297322 
16320000    289.99937    355.75671    475.45161   -67422.273    67465.706    -119.6949    37.289566 
16324000    300.97893     494.2004    322.62304   -67432.527    67465.152    171.57736    37.277843 
16328000    277.28436    295.11678    166.99158   -67436.853     67486.41     128.1252    37.285977 
16332000    300.62305    418.08546    312.20969   -67430.814    67483.495    105.87577    37.288545 
16336000    266.89485    209.22128    219.34314   -67441.312    67511.702   -10.121856    37.287878 
16340000     307.1833    437.64047    363.28306    -67458.32    67497.488    74.357413    37.293373 
16344000    249.00768    286.56898    376.43611   -67451.024    67531.122   -89.867131    37.296083 
16348000    263.17411    236.37695    431.10124   -67491.268    67555.387   -194.72428     37.28555 
16352000    273.30963    486.23988    503.37708   -67512.604    67551.401   -17.137202    37.291094 
16356000    270.96661    434.28784    330.41844    -67547.91    67591.613     103.8694    37.288014 
16360000    298.00111    285.39253     323.5905   -67570.729    67607.452   -38.197968    37.288967 
16364000    257.41937      276.388    339.88972    -67593.09    67626.682   -63.501723    37.273885 
16368000    257.07985    380.14447    250.52896   -67586.102    67650.889     129.6155    37.278011 
16372000     293.9497    407.16564    408.69961   -67633.332    67666.014   -1.5339676    37.277952 
16376000    263.78895    409.73658    233.89409   -67620.715    67683.465    175.84248    37.279115 
16380000    297.86972    523.69192    307.48767    -67624.54    67678.429    216.20425     37.28185 
16384000    258.79566     393.0681    191.05491   -67650.204    67709.578    202.01319    37.295352 
16388000    262.49062    281.09708    296.98581   -67670.023    67728.812   -15.888732    37.304836 
16392000    266.76378    372.58005    282.76007   -67686.263    67748.734    89.819979    37.305613 
16396000    300.80388    342.18145    436.50943   -67687.796    67736.262   -94.327987    37.299127 
16400000     289.8717    466.64862     301.1823   -67705.197    67741.219    165.46632    37.305184 
16404000    308.20696    358.41328    297.63546   -67775.746     67782.47    60.777826    37.311786 
16408000    288.90874    576.86981     351.7425   -67774.113     67819.26    225.12731     37.31131 
16412000    290.11175    584.54442    182.03386   -67772.672     67829.37    402.51057    37.319935 
16416000    262.53945    193.57054    240.66055   -67799.246    67869.448   -47.090005    37.322273 
16420000    278.57698    488.11904    330.79244    -67810.12    67879.741     157.3266    37.322293 
16424000    259.92181    263.64549    432.53212    -67827.56    67904.517   -168.88663    37.309745 
16428000    280.44111    492.33188    324.49257   -67854.778    67906.166    167.83931    37.300584 
16432000    251.42839    256.93475    448.61523   -67843.652    67928.731   -191.68048    37.304116 
16436000    322.03839    352.98862    285.67165    -67897.68     67925.55    67.316976    37.313791 
16440000    297.22348    204.84974    361.79182   -67911.387    67953.144   -156.94207    37.321464 
16444000    293.13135    422.26076    229.05078   -67938.023    67974.015    193.20998    37.312151 
16448000    287.36215    250.50102    345.17799   -67951.376    67988.117   -94.676968    37.318543 
16452000    310.51974    301.09931    275.17948   -67951.365    67984.832    25.919827     37.32078 
16456000    317.77037    449.73676    265.13515   -67984.353    68014.682    184.60161    37.326214 
16460000    313.48807    447.31792     231.6714   -68006.985    68021.717    215.64652     37.32375 
16464000     297.4509    208.47185    314.69729   -67993.641    68043.938   -106.22543    37.328499 
16468000    269.14734    439.74642    196.30356   -68017.523    68062.972    243.44285    37.334067 
16472000    294.57402    589.95619    322.59468   -68030.076    68053.107     267.3615    37.338584 
16476000    287.07277    414.84883    352.24455   -68052.139    68084.365    62.604287    37.344729 
16480000    304.59458    283.25559     383.8565   -68066.371    68102.309    -100.6009    37.348465 
16484000    243.25433    406.55399     213.3087   -68061.231    68134.128    193.24529    37.350708 
16488000    283.93178    365.52362    366.16368   -68097.947    68166.103  -0.64005284    37.339215 
16492000    267.29531    210.41855     302.0702   -68130.774    68196.558   -91.651654    37.339391 
16496000    283.26228    305.63198    241.32908   -68185.781    68238.717      64.3029    37.331906 
16500000    280.87521    240.71333    259.43127    -68220.42    68253.829   -18.717936    37.334739 
16504000    279.32637    411.97879    270.61834   -68215.132    68271.526    141.36045    37.343477 
16508000    284.56222    328.82866    264.60079   -68236.567    68300.078     64.22787    37.345009 
16512000    284.91886     282.2647    448.91498   -68247.017    68296.151   -166.65028    37.344963 
16516000    272.13421     301.7566    217.55108   -68223.582    68289.152    84.205519    37.341744 
16520000    318.20743    527.97554    491.09098   -68263.511    68287.772    36.884562    37.343532 
16524000    318.97656    432.58396    360.44847    -68307.95    68325.645    72.135494    37.338187 
16528000    304.56253    627.45301    430.45884   -68302.722    68336.685    196.99417    37.343022 
16532000    294.52622    482.78629    277.52026   -68325.455    68371.068    205.26603    37.339938 
16536000    324.86964    483.72203    182.28088   -68356.796    68359.788    301.44115    37.344696 
16540000    294.54078    465.51292    286.14472   -68347.506    68380.682    179.36819    37.344178 
16544000    297.33576    357.65133    416.07356   -68367.804    68402.106   -58.422222    37.353812 
16548000    273.18709    331.24159    328.01935   -68368.795    68434.514    3.2222398    37.344691 
16552000    288.43177    513.14948    329.35542   -68381.377    68416.729    183.79405     37.34335 
16556000    283.42833    337.62921     429.2244   -68382.076    68444.912   -91.595184    37.338826 
16560000    292.16575    303.75857    361.52848   -68398.798    68452.629   -57.769909    37.344413 
16564000    290.46764    323.31114    403.02271   -68428.088    68474.524   -79.711562    37.351914 
16568000    267.41716    290.08942     327.8505   -68435.455    68508.085   -37.761082     37.35579 
16572000    272.33174    370.85858    266.74294   -68472.623    68528.876    104.11564    37.370867 
16576000    295.53208     396.2338    288.98676   -68492.531    68539.387    107.24703    37.366495 
16580000    334.63285    403.49753    362.38804   -68525.606    68545.899     41.10949     37.36577 
16584000    276.07836     282.6976    283.29147   -68504.459    68553.565  -0.59386986    37.366213 
16588000    275.95265     412.0631    278.82983   -68512.152    68561.683    133.23327    37.357901 
16592000    314.50797    713.80403    187.88225   -68532.157    68585.366    525.92178    37.367724 
16596000    301.17929    233.30019    218.37607    -68562.44    68597.329    14.924126    37.367885 
16600000    268.30295    362.55972    324.36444    -68601.82    68638.252    38.195279     37.36472 
16604000    262.84433    470.11124    185.42841   -68584.353    68648.647    284.68284    37.364913 
16608000    292.53575    497.51889    303.72925   -68594.879     68646.46    193.78964    37.365589 
16612000    280.01784    304.98556    191.89034   -68603.964    68633.968    113.09521    37.361089 
16616000     258.8791    473.23495    366.53995   -68593.485     68655.41      106.695     37.36803 
16620000    254.03544    198.84928    309.10795   -68620.047    68680.161   -110.25867    37.365203 
16624000    280.31853    352.21583    331.65266   -68640.375    68684.207    20.563169     37.36457 
16628000    266.32954    428.88913     268.7047   -68679.521    68724.559    160.18443    37.354463 
16632000    274.07598    412.13504    276.60555   -68681.201    68732.249    135.52949    37.347698 
16636000    311.17522    410.59384    488.31009   -68704.017    68734.451   -77.716243    37.350201 
16640000    287.14032    283.41805     379.9475   -68698.934    68731.744   -96.529455    37.360695 
16644000    274.83924    244.15633    300.28227   -68707.234     68756.27    -56.12594    37.351442 
16648000    298.06652    309.66235    492.47938   -68721.862    68767.779   -182.81703      37.3398 
16652000    265.92428    301.61708    315.08993   -68742.697    68799.502   -13.472847    37.341417 
16656000    264.74841    345.05652    369.14204   -68780.916    68845.788   -24.085524     37.33851 
16660000    272.46039    316.61978    340.27079   -68793.405    68849.935   -23.651004    37.344973 
16664000    279.70777    384.78535    161.21428   -68803.772    68866.891    223.57107    37.356666 
16668000    287.57837    229.15794    208.81935   -68821.273     68863.45    20.338585    37.374968 
16672000     286.8152    505.01997    352.09417    -68826.24    68871.955     152.9258    37.371842 
16676000    288.06093    456.21072     227.3896   -68850.199    68874.597    228.82112    37.383379 
16680000    260.85336    663.51734    262.18206    -68850.07    68903.854    401.33528    37.396376 
16684000    256.69432     332.2739    359.64024   -68839.264     68924.42   -27.366336     37.40123 
16688000    255.23554    169.30701     290.9821   -68862.476    68934.094   -121.67509    37.394062 
16692000    291.50705    413.18433    413.66459   -68895.621    68938.087  -0.48026404    37.390079 
16696000    309.80681     366.3973    242.95257   -68905.823     68944.83    123.44473    37.397488 
16700000    261.83489    345.19234    290.65784   -68926.833    68968.074    54.534505    37.399095 
16704000    306.96613    414.61599    391.88505   -68963.317     69007.87    22.730943    37.398221 
16708000    292.92778    617.97617    169.40578   -68966.811    69019.397     448.5704    37.406823 
16712000    253.04288     293.2625    142.40692   -68974.659    69039.896    150.85557    37.406591 
16716000    258.24473    287.97291    301.38819   -68989.422    69060.683   -13.415272     37.41551 
16720000     244.4883    319.08062    319.58216   -69020.051    69079.667  -0.50153864    37.414769 
16724000    294.22287    344.25061    384.18834   -69040.154    69082.892   -39.937733    37.404901 
16728000    272.05132    298.81901      346.511    -69021.07    69061.439   -47.691988    37.407514 
16732000    295.18369    688.51998    274.72778   -69027.592    69071.923     413.7922    37.412324 
16736000    297.29616    339.62633    303.59305     -69059.6    69093.299    36.033281    37.418969 
16740000    303.50985    223.10959    414.68404   -69057.481    69101.252   -191.57446    37.418153 
16744000    323.57938    660.53678     290.2594   -69084.403    69117.128    370.27738    37.416774 
16748000    284.66202    212.14762    363.14375    -69081.17    69116.234   -150.99612    37.414354 
16752000    284.82807    399.21511    334.47471   -69098.659    69148.447    64.740409    37.417032 
16756000    274.28863    437.19937    318.97685   -69103.672    69153.501    118.22253    37.405256 
16760000     267.0376    289.01478    192.22557   -69128.342      69181.2    96.789209    37.404681 
16764000      321.098    416.01096    382.73983   -69151.505    69200.731    33.271128    37.406207 
16768000    299.48731    432.83133    511.55181   -69164.443    69211.983   -78.720483    37.400893 
16772000    294.47495    512.56827    402.40969   -69208.492    69261.852    110.15858    37.405739 
16776000     291.9745     330.4578    375.86918   -69230.986    69284.919   -45.411378    37.407669 
16780000     239.3326    320.82083    304.06983   -69220.019    69293.529    16.751001    37.404597 
16784000    266.57704    277.96211    359.02804   -69255.401    69309.665   -81.065926    37.402902 
16788000    241.60894    395.09991    190.56352    -69286.91    69371.377    204.53639    37.405001 
16792000    271.31132    464.54458    291.27931    -69313.43    69369.937    173.26527    37.406457 
16796000    289.16181    327.59409    331.79241   -69334.579    69377.867   -4.1983117     37.40836 
16800000    281.24906    435.00995    257.76298   -69329.441     69387.71    177.24697    37.405591 
16804000    291.58521    223.99763    291.32526   -69345.049    69393.348   -67.327625    37.413403 
16808000    269.05031    587.19762    250.28227   -69362.367    69412.801    336.91535    37.414074 
16812000    273.97663    384.25121     203.1096   -69376.422    69438.122    181.14161     37.41019 
16816000    294.95694    190.31101    392.18891   -69385.989    69434.067   -201.87789    37.411245 
16820000    293.68561    406.69581    347.28907   -69436.262    69476.804    59.406745    37.414402 
16824000    278.06676    305.17711    375.12948   -69462.524    69504.567   -69.952368    37.406536 
16828000    305.09787    307.65399    275.96199   -69487.421    69523.239    31.692002    37.412093 
16832000    265.44704    201.93234    230.51836   -69505.948    69571.086   -28.586016    37.410979 
16836000    253.29755    158.62549     220.6099   -69538.421    69589.955    -61.98441    37.413159 
16840000    295.12622    380.88331    300.42398   -69539.048    69596.525    80.459333    37.408586 
16844000    256.46869    347.01281    363.07837   -69564.268    69628.916   -16.065569    37.408455 
16848000    279.72279     688.0088    207.47197    -69587.94    69630.833    480.53682     37.42039 
16852000    266.58945    387.47101    292.01018    -69616.67    69664.642    95.460832    37.419083 
16856000    267.73499    335.23078    304.81762   -69628.646    69684.111     30.41317    37.420958 
16860000    287.95718    318.97797    255.89593   -69630.723    69667.745    63.082034    37.418114 
16864000      286.377    258.20587    301.80031    -69641.52     69682.24   -43.594436    37.411238 
16868000    285.44801    269.67413    276.80708   -69632.627    69688.659   -7.1329565    37.410938 
16872000    295.63845    459.29144    315.03045   -69641.032    69688.056      144.261    37.414362 
16876000    287.64385    623.33727    375.97376   -69686.345    69731.216    247.36352    37.413752 
16880000       292.21    322.34944    244.42922   -69719.667     69765.53    77.920222    37.421283 
16884000    247.20907    302.20839    298.83217   -69706.053    69786.277    3.3762246    37.414126 
16888000    299.78442    422.38519    329.14067   -69745.267    69800.679    93.244526    37.412274 
16892000    276.04426    402.71119    356.64993   -69782.084    69827.624    46.061259     37.41178 
16896000    312.10625    460.10142    301.63389   -69788.053    69818.962    158.46752    37.411541 
16900000    299.80266     402.3004    224.79081   -69826.118    69857.815    177.50959      37.4135 
16904000     268.4447     431.8105    180.53969   -69801.371    69852.182    251.27081     37.40681 
16908000    246.12812    181.04009    297.22057   -69792.249    69870.525   -116.18048    37.407508 
16912000    280.47544     419.8914    468.75642   -69836.935    69884.176   -48.865025    37.405065 
16916000    268.90687    197.43932    223.66274   -69857.206    69912.733    -26.22342    37.412008 
16920000     281.5845    263.45633    187.66105   -69878.642    69919.818    75.795283     37.41927 
16924000    257.43587    317.67238    248.24132   -69908.608     69970.11    69.431059    37.433857 
16928000    272.79206    336.95169    212.52777   -69931.272    69991.796    124.42391    37.425119 
16932000    278.84718    561.07231    262.95573   -69969.509    70005.119    298.11658      37.4286 
16936000    310.42971    383.82213    262.23914   -69984.385    70013.176      121.583    37.434192 
16940000     268.9263    339.51073    467.10757   -69975.914    70033.902   -127.59684    37.439524 
16944000    270.26888    332.97578     172.5329   -69980.943     70055.99    160.44288    37.443469 
16948000    282.10669    539.16709    249.93506   -70011.306    70069.873    289.23203    37.443635 
16952000    279.76063    196.02893    324.37071   -70039.885    70095.389   -128.34179    37.448404 
16956000    290.06669    357.62191    540.27865   -70063.409    70115.045   -182.65675    37.446641 
16960000    295.21217     277.2055    352.52541   -70071.326    70117.946   -75.319911    37.441994 
16964000    279.43973    333.78074    355.14097   -70097.515    70134.437   -21.360235    37.446476 
16968000    278.10567    469.76229    469.40957   -70118.489    70171.562   0.35272698    37.440752 
16972000    264.59317    379.39776    322.43875   -70155.172    70212.167    56.959003    37.437781 
16976000    260.71204    477.50118    293.54526   -70143.805    70189.775    183.95592    37.440575 
16980000    262.45913    239.23648    312.45117    -70121.56    70188.494   -73.214692    37.441672 
16984000    274.24947    298.76998    357.97672   -70166.935    70224.068   -59.206738    37.445569 
16988000    266.83618    298.48258    274.25088   -70201.761    70257.625    24.231698    37.444837 
16992000    276.29712    319.72599    238.96429   -70204.336    70258.904    80.761702    37.443303 
16996000     285.4684     470.5161       176.23   -70209.965    70277.149     294.2861    37.445566 
17000000    279.59227    438.46318    265.65297   -70247.158    70287.317    172.81021    37.440925 
17004000    281.56923    526.62452    283.32784   -70252.641    70312.969    243.29668    37.441322 
17008000    273.07374     241.6535    372.61469   -70246.886    70318.674   -130.96118    37.440441 
17012000    292.52446     350.3993    524.78231   -70293.359    70336.459   -174.38301    37.430379 
17016000    296.43714    411.45864    327.44299   -70333.872     70370.24    84.015654     37.42593 
17020000    278.90902    232.43976    338.51394   -70343.574    70413.384   -106.07418    37.426836 
17024000    286.44297    320.30224    372.26497   -70355.432    70405.379   -51.962727    37.422314 
17028000     264.9907    255.86538    459.00226   -70373.129    70443.365   -203.13688    37.422017 
17032000    292.04361    508.21606     201.1858    -70410.02    70455.306    307.03026    37.438384 
17036000    266.06155    369.26186    238.79005   -70419.756    70477.512    130.47181    37.433046 
17040000    287.21926    362.09308    404.16282    -70447.94    70496.045   -42.069743    37.429808 
17044000    274.66617    254.07202    274.76882   -70462.873    70523.536   -20.696791    37.438641 
17048000    290.03589     175.2381    408.13854   -70475.556    70526.079   -232.90044    37.444492 
17052000    292.92969    285.16367    396.49956   -70478.011    70533.871   -111.33589    37.445251 
17056000    270.53148    243.62404    328.70129   -70515.931    70568.875   -85.077255    37.447245 
17060000    305.50669    437.88507    406.75316   -70533.428    70573.454    31.131912    37.460875 
17064000     278.5552    379.35936    292.67275   -70539.676    70605.327    86.686614    37.462297 
17068000    296.37356    401.99618    343.10095   -70562.894    70619.862    58.895232    37.466729 
17072000     263.4828    329.95093    478.18391   -70554.002    70613.289   -148.23299    37.457192 
17076000    284.00485    538.03178    248.21794   -70558.116    70613.904    289.81384    37.457288 
17080000    270.60562    304.26822    171.39108   -70566.064    70622.006    132.87713    37.455503 
17084000    303.67961    469.67758     492.2243   -70614.183    70636.175   -22.546714    37.437704 
17088000    284.27363     196.4397    657.64838   -70604.643      70655.2   -461.20868    37.441381 
17092000    259.12834    323.77557    198.16708   -70604.814    70674.491    125.60849    37.448169 
17096000     281.6377    508.71575    303.38487    -70630.79    70686.723    205.33088    37.447444 
17100000    280.96595    212.68259     222.3219   -70631.458    70691.834   -9.6393118    37.456141 
17104000    286.84775    406.24152    420.24978   -70648.437    70695.447   -14.008251    37.458614 
17108000    310.22783    228.40502      327.525   -70653.581    70693.026   -99.119983    37.447263 
17112000    247.08461    260.16997    321.86653   -70648.719    70708.353   -61.696564    37.458908 
17116000    274.97109    368.61057    352.15885   -70662.382     70727.98    16.451724    37.459832 
17120000    271.76151    409.24139    380.54066    -70702.42      70741.2    28.700736    37.460249 
17124000    273.82141    428.20526      243.738   -70710.058    70766.743    184.46726    37.464017 
17128000    276.95145    313.15703    222.22343   -70694.915    70764.511    90.933594    37.469093 
17132000    265.31433    418.32601    396.47444   -70727.154    70789.328    21.851562    37.464146 
17136000    258.68977    359.35225    245.50583   -70736.718    70816.608    113.84642    37.463638 
17140000     291.8625     309.0924    294.12597   -70777.123    70823.075    14.966432    37.456412 
17144000    283.14977    447.55953      337.899   -70771.995    70807.153    109.66054    37.459321 
17148000    283.87657    462.58612    245.33437   -70767.942    70810.459    217.25176     37.45639 
17152000    277.33963    195.07738    286.22809    -70762.89    70812.309   -91.150711     37.46264 
17156000    259.28221    376.48254    142.52989    -70788.91    70863.368    233.95265    37.468099 
17160000     279.6853    360.02232    346.71201   -70816.103    70877.408    13.310311     37.45863 
17164000    271.67116    220.20406    398.03221   -70832.604    70906.247   -177.82815    37.457347 
17168000    297.39757     388.4168    255.61736   -70878.102     70917.86    132.79944    37.453285 
17172000    271.48903    358.37289     263.4001   -70890.221     70939.72    94.972788    37.454794 
17176000    277.98001    391.40207    478.58267    -70904.74    70957.168     -87.1806    37.462254 
17180000    310.44277    424.35556    253.88685   -70937.189    70973.427    170.46872    37.473928 
17184000    255.89523    177.08827    255.73728   -70951.045    71016.694   -78.649013    37.470022 
17188000    296.64515    361.88785    217.48447    -70965.21    71029.156    144.40338    37.470297 
17192000    290.76003     542.7237    352.36223   -70991.094    71022.212    190.36147    37.470491 
17196000    287.08606    480.81353    335.21966   -70991.085    71042.476    145.59388    37.461812 
17200000    284.21216    413.04894     348.9648   -70993.524    71032.965    64.084139    37.454541 
17204000    288.75733    374.25884    248.18428   -70995.027    71043.116    126.07456    37.451433 
17208000     280.7813    228.68662    366.73381   -71007.808    71061.064   -138.04719    37.455854 
17212000    275.31529    330.61918    257.64916   -71042.124    71083.978    72.970022    37.451526 
17216000    266.74977    453.40684    292.74395   -71028.954    71091.922    160.66289    37.453415 
17220000    286.22719    199.49953     274.6874   -71079.074    71131.178   -75.187864    37.453446 
17224000    291.63889    223.13291    392.26372   -71096.134    71153.616    -169.1308    37.457876 
17228000    276.94629    341.14004     287.5587   -71123.673    71182.439    53.581342    37.451638 
17232000    283.17485    258.77016    447.54826   -71138.425    71180.856    -188.7781    37.455501 
17236000    285.76002     542.6664    255.56539   -71171.296     71224.54    287.10101    37.439086 
17240000    286.97514     376.7083    304.48568   -71183.164    71233.482    72.222622    37.431578 
17244000    289.41598    394.84218    332.32885   -71186.728    71226.979    62.513326    37.432014 
17248000    303.27315    398.02994    395.87173   -71221.398    71238.942    2.1582083    37.430313 
17252000    309.21785     580.1141    217.23223   -71228.421    71250.554    362.88187    37.436848 
17256000    281.14989     277.1848    285.03737   -71235.084     71271.34   -7.8525722    37.442417 
17260000    295.57723    340.91754    229.48088   -71256.485    71304.621    111.43666      37.4539 
17264000    285.51446    218.43055     269.5888   -71269.288    71325.737   -51.158245    37.463999 
17268000    286.89392    474.53038    344.67183   -71278.929    71352.518    129.85855    37.465546 
17272000    316.78554    502.89193    332.38643   -71322.931    71359.992     170.5055     37.47226 
17276000    291.65172    277.32742    550.65049   -71340.335    71366.918   -273.32307    37.471558 
17280000    288.89004    575.56987    405.33699   -71372.238    71412.693    170.23289     37.47329 
17284000    287.22198    249.85886    289.25152    -71376.91    71430.525   -39.392658      37.4783 
17288000    259.66277    272.81758    213.51388   -71419.391     71480.89    59.303698    37.472729 
17292000    266.17852    287.37584    275.51806   -71408.789    71477.652    11.857785     37.47086 
17296000    274.10591    266.78553    382.54331   -71434.157    71487.419   -115.75779    37.476091 
17300000    292.42221    414.23686    482.44546   -71482.684    71516.129   -68.208594    37.484477 
17304000    297.76046    346.89151    430.44413    -71504.13    71551.126   -83.552622    37.481335 
17308000    286.70696    427.55964      343.364   -71524.535    71570.906    84.195643    37.474967 
17312000    292.51335    407.31825    346.82518   -71548.921    71596.179     60.49307    37.488162 
17316000    288.96887    362.71387     412.0736   -71534.667    71594.206   -49.359723    37.492484 
17320000    263.14822    382.71759    261.25695   -71543.142     71597.77    121.46065    37.493987 
17324000    288.70164    292.96422    315.07675   -71560.617    71602.335   -22.112533    37.499068 
17328000    282.48627    299.36364    290.31898   -71550.906    71606.437    9.0446586    37.505259 
17332000    295.86451    502.62679    139.41538   -71580.952     71604.25     363.2114    37.508253 
17336000    298.51449    527.81754    381.23383   -71590.372    71635.025    146.58371    37.507245 
17340000    277.89846    357.56801    346.15277    -71604.48    71660.957    11.415242    37.524027 
17344000    288.06304    361.99961    354.49175   -71622.233     71664.37    7.5078564    37.518865 
17348000    296.98361    439.20521    204.15676   -71654.501     71700.56    235.04844    37.515324 
17352000    295.01006    457.47382    470.40191   -71671.958    71708.413    -12.92809    37.513433 
17356000    262.89643    277.16291    316.41284   -71669.728    71749.277   -39.249926     37.51896 
17360000     308.6827     237.1654     287.8108   -71704.006    71736.249   -50.645405    37.522183 
17364000    299.25269    254.67773    188.50325   -71728.597    71761.716     66.17448    37.518649 
17368000    277.56876    238.03267    221.86768   -71747.953    71795.107    16.164987    37.515725 
17372000    273.33178    316.94956    410.55432   -71752.491    71798.214    -93.60476    37.517535 
17376000    291.61462    480.25578    287.65587    -71765.65    71812.583    192.59991    37.509798 
17380000    278.97129    374.19038    293.60352   -71767.808    71812.873    80.586863    37.507421 
17384000    265.34995    221.88116    337.36196   -71782.415    71837.497    -115.4808    37.510991 
17388000     292.2346    449.22905    266.88438   -71795.709    71842.176    182.34466    37.511974 
17392000    340.12721    616.17254    379.05213   -71807.171    71846.366    237.12041     37.50228 
17396000    303.27104     312.5009    223.57014   -71811.592    71846.718     88.93076    37.498578 
17400000    285.22012    438.46588    291.72467   -71831.552    71867.611    146.74121     37.49596 
17404000    307.50703    226.33758    395.44119   -71856.725     71892.04   -169.10361    37.501378 
17408000    264.45101    317.76857    343.26941   -71872.117    71925.266   -25.500839    37.499756 
17412000    271.72379    236.35578    417.93717   -71889.395    71938.028   -181.58139    37.502396 
17416000    236.00777    399.41882    310.80478   -71897.367    71969.836    88.614039    37.506772 
17420000    254.40019    336.77531    214.47155   -71910.197    71990.774    122.30377    37.502776 
17424000    254.46458    350.63545    226.28548    -71933.29    71996.728    124.34997    37.507717 
17428000    294.25568     559.5261    202.28491   -71963.365    72007.671    357.24119     37.50413 
17432000    297.11469     453.5177    241.62223   -71989.651    72030.533    211.89548    37.507965 
17436000    277.75747    433.73843    246.83053   -71999.314    72036.441     186.9079    37.504929 
17440000    295.81199    554.14199    206.44763   -72017.202    72064.636    347.69436    37.504175 
17444000    263.25294    361.04414    298.57302   -72029.325    72114.512     62.47112    37.508869 
17448000    252.29596    284.19419    313.19138   -72050.585    72138.688   -28.997195    37.501489 
17452000    304.08485    410.76719    456.62612    -72116.53    72169.019   -45.858931    37.502443 
17456000    278.50318    430.73891     281.5429   -72120.451    72176.343      149.196    37.502144 
17460000     280.4532    322.55201    306.03993   -72130.395    72169.252    16.512083     37.49682 
17464000    300.25329    206.17741    235.07214   -72157.548    72196.068   -28.894727    37.491864 
17468000    287.81673    273.93254    482.77855   -72218.115    72233.245   -208.84601    37.481256 
17472000    294.23302    479.40003    355.53322    -72207.31    72240.945    123.86681    37.478745 
17476000    278.33245    442.80676    300.08856   -72218.915    72296.309     142.7182    37.488081 
17480000    304.80623    309.19108    180.63519   -72255.171    72309.663    128.55589    37.490784 
17484000    312.21352    677.82618    245.09703   -72309.665    72335.565    432.72915    37.500551 
17488000    303.83708    273.59218     217.4655   -72332.828    72381.382    56.126676     37.49983 
17492000    305.31709    283.24763     587.3613   -72342.798    72378.971   -304.11368    37.500309 
17496000    285.89872    327.85524    284.70261   -72341.178    72381.168    43.152628    37.497159 
17500000    299.58047    681.98946    362.86691   -72373.069     72412.27    319.12254    37.498632 
17504000    269.08189     343.5542    309.42359   -72386.459    72444.714    34.130607    37.494031 
17508000    288.57152    422.16417    228.43322   -72408.654    72454.207    193.73095    37.500104 
17512000    285.83463    312.35547    228.54325   -72422.251    72462.517    83.812212      37.4996 
17516000    285.26386    448.13005    235.29425   -72426.219    72487.273     212.8358    37.505978 
17520000    277.39463    449.61356    188.23266   -72443.144    72512.424     261.3809     37.49996 
17524000    278.46906    269.59546    322.70449   -72462.575    72507.402   -53.109024    37.498101 
17528000    282.20926    535.68747    478.33538   -72474.253    72543.772    57.352092    37.498555 
17532000    307.11666    255.13081    553.32812   -72543.194    72569.036   -298.19731    37.497915 
17536000    277.93887    462.28139    248.12578    -72549.46    72612.178    214.15561    37.495745 
17540000    273.99378    481.13394     267.7651    -72579.34    72614.662    213.36884    37.497641 
17544000    272.33618    338.77351    483.07338   -72561.095    72627.731   -144.29986    37.495848 
17548000    309.01439    418.36311    190.66734    -72600.17    72635.981    227.69577    37.498401 
17552000    280.16576    404.03383    304.49989   -72615.682    72675.124    99.533937    37.490345 
17556000     301.0001    730.55099    162.51537   -72653.271    72689.178    568.03562    37.485847 
17560000    294.70932    376.07854    270.69038    -72692.37    72719.669    105.38817    37.481201 
17564000    268.49677    212.44762    532.04037   -72685.937    72747.399   -319.59276    37.490646 
17568000    301.53967    314.90244    485.18026   -72714.413    72775.506   -170.27782    37.486716 
17572000    292.73741    280.67002    414.87846    -72744.08    72792.209   -134.20844    37.487047 
17576000    260.74772    398.37968    249.79963   -72758.212    72827.475    148.58005    37.491337 
17580000    285.66142    452.35754    395.93276   -72797.667    72847.063    56.424782    37.491777 
17584000    277.01142    175.81572    498.89886   -72845.206    72893.572   -323.08314    37.491621 
17588000    315.37168    538.29791    188.98352    -72862.82    72911.429     349.3144    37.495628 
17592000    273.67689    324.79031    240.35782   -72872.617    72934.455    84.432487    37.492275 
17596000    282.51723    430.37949    338.38827   -72912.357    72962.998    91.991221    37.497993 
17600000    279.31276    320.30759    280.51244    -72939.64    72995.792    39.795154    37.510339 
17604000     270.8841     239.4354    291.26823   -72950.343    73014.416   -51.832835    37.507041 
17608000    275.11382    328.91547    288.17442   -73009.821    73051.221    40.741042    37.501307 
17612000    254.94953    389.53335     277.4627    -73018.54    73090.974    112.07065    37.504882 
17616000    280.74889    363.60978     184.7128   -73037.859    73106.308    178.89699    37.495593 
17620000     283.1354    401.77342    157.63099   -73080.437    73138.162    244.14243    37.497315 
17624000     296.1602    486.54032    280.67821   -73081.599    73126.113     205.8621    37.496832 
17628000    293.53398    379.17226     224.9875   -73106.093    73157.052    154.18476    37.499382 
17632000    276.39708     253.8176    260.57849   -73121.779    73166.845   -6.7608876    37.496468 
17636000    300.61936    395.93267    482.50672   -73151.739    73187.289   -86.574043    37.506654 
17640000    283.31052    464.84849    373.91569   -73154.298    73223.679    90.932796    37.503043 
17644000    265.17031    231.46677    271.48325    -73195.14    73243.947   -40.016478    37.494314 
17648000    280.70114    393.78521    242.03279   -73191.797    73259.309    151.75242    37.494437 
17652000     279.4833    579.28536    369.95445   -73229.766     73287.19    209.33091    37.487843 
17656000    254.57639    285.59199    461.97782   -73239.525    73309.515   -176.38583    37.488637 
17660000    281.24994    370.65977    326.97696   -73239.983    73302.539    43.682814    37.478338 
17664000    293.90457    292.56625    489.17247   -73243.047    73295.741   -196.60622     37.48831 
17668000    290.84555    203.36808    299.94728   -73274.741    73317.645   -96.579202    37.481035 
17672000    277.84366    313.14578    297.21953   -73304.935    73357.754    15.926252    37.475581 
17676000    268.01162    213.57718    339.66709   -73321.746    73371.392   -126.08991    37.466821 
17680000    286.15245    350.49303    406.04674   -73331.035    73400.148   -55.553711    37.459357 
17684000     279.0448    330.58607    430.45894   -73358.979    73404.641   -99.872875     37.46369 
17688000    278.61291    264.64358    168.30601   -73362.032    73415.748    96.337569    37.457517 
17692000    294.85292    331.46368    518.27142   -73379.656    73443.489   -186.80773    37.456683 
17696000    282.73241    269.31447    382.32473   -73400.526    73458.434   -113.01026    37.453561 
17700000    282.31327    202.08759    522.44234   -73415.679    73467.693   -320.35475    37.444491 
17704000    279.53773    323.44975    399.95324    -73430.43      73498.5   -76.503485    37.445182 
17708000    275.56818    445.37615    464.93778   -73445.944    73508.014   -19.561628    37.452228 
17712000    276.35372     333.0619    184.14848   -73476.022    73532.559    148.91342    37.443978 
17716000    273.58325    403.46235    345.86032   -73487.875    73549.339    57.602026    37.449879 
17720000    284.14649    390.03674    234.64355   -73492.873    73549.793    155.39319    37.451444 
17724000    291.67607    374.26891    338.76414   -73507.742    73560.381    35.504765    37.445993 
17728000    281.92668    296.69202    489.76537   -73556.338    73603.663   -193.07335    37.447225 
17732000    280.51434    370.89615    352.74736   -73604.052    73639.871    18.148791    37.441589 
17736000    250.00033    319.66665     443.5344   -73600.605    73675.166   -123.86776    37.434846 
17740000    277.08803    281.59432    440.18445   -73629.244    73687.451   -158.59013    37.437546 
17744000     269.5433    386.33631    404.60465   -73660.959    73707.125   -18.268343    37.439564 
17748000     291.3846     191.5523    233.41113   -73702.686      73759.3   -41.858837    37.432233 
17752000    276.41938    326.70089    261.72394   -73736.082    73789.824    64.976952    37.435848 
17756000    281.03257    409.73738    302.97915   -73736.636    73804.872    106.75824    37.425733 
17760000    290.82908    359.22319    270.69343   -73767.589    73816.599    88.529757    37.419065 
17764000     302.3434    309.95802    401.92977   -73802.057    73840.264    -91.97175    37.423683 
17768000    264.84177    256.74722    172.22278   -73820.941    73891.771    84.524445    37.418374 
17772000    278.78652    318.14176    218.03298   -73840.001     73898.98    100.10878    37.427047 
17776000    275.11786    378.02175    250.30807   -73875.121    73926.539    127.71369    37.436077 
17780000     299.2946    334.51871    407.94879   -73898.317    73940.249    -73.43008      37.4319 
17784000    266.15702    368.01451    283.00774    -73907.63     73982.89    85.006774    37.422215 
17788000    272.34613    373.63071    313.41693   -73946.853    74018.091    60.213782    37.421765 
17792000    259.96131    394.09979    374.74252   -73949.027    74029.898    19.357264     37.42555 
17796000    287.65549    329.00737    556.01404   -73972.193    74035.704   -227.00667    37.424278 
17800000     275.4199    248.53827    335.57251   -74002.812    74058.459   -87.034243    37.426279 
17804000    250.44174    265.20518    241.85101   -74010.923    74112.268     23.35417    37.419571 
17808000    288.22522    395.69221    369.76135   -74059.316    74120.446    25.930865    37.423009 
17812000    287.62805    450.64912    331.69652   -74084.151    74141.086    118.95261     37.42288 
17816000    285.01987     370.9663    251.53886   -74102.963     74142.96    119.42744    37.420764 
17820000    307.60986    357.79897    228.31786   -74085.243    74133.243    129.48111    37.414091 
17824000    296.69886    767.93428    352.57953   -74103.717    74129.359    415.35475     37.41481 
17828000    281.29493    529.15638    529.51839   -74115.079      74149.6  -0.36201264    37.411041 
17832000    257.10323    453.04571    193.39473   -74109.568    74206.346    259.65097    37.406815 
17836000     260.6285    419.83016     340.5878   -74127.553    74195.923    79.242367    37.401517 
17840000    273.83528    212.77853     267.8804   -74133.427     74207.26   -55.101871    37.389591 
17844000    274.90728    481.63376    441.95038   -74151.198    74226.572    39.683381    37.396118 
17848000    283.42839    127.69754    327.03082   -74190.989    74239.782   -199.33328    37.401198 
17852000    276.39739    338.62315    234.26847    -74199.83     74250.22    104.35468    37.408552 
17856000      259.767    330.96114    373.79383   -74197.898    74257.024   -42.832685    37.408304 
17860000    270.30408    232.30649     407.7691   -74222.992    74277.401    -175.4626    37.418833 
17864000    289.63632    271.80523    256.84136   -74245.979    74278.131    14.963872    37.423031 
17868000    254.09481    417.54759     245.5785   -74238.761    74301.934     171.9691    37.419741 
17872000    302.26051    346.27907    357.85961   -74274.807    74324.102   -11.580537    37.416009 
17876000     272.4175    398.17034    295.51724   -74308.641     74367.76     102.6531    37.419595 
17880000    272.37705    294.27268     308.3095   -74323.734    74381.034   -14.036825        37.41 
17884000    293.34162    402.13307    475.28128   -74349.799    74406.669    -73.14821    37.418439 
17888000    282.92375    368.53328    378.88557   -74361.478    74428.739   -10.352289    37.410368 
17892000    287.08461    537.81419    547.57842   -74384.241    74420.647   -9.7642289    37.411928 
17896000    288.97028    442.25947    362.13146    -74405.92    74447.234    80.128001    37.405344 
17900000    286.95374    239.66341    405.50875   -74417.538    74471.563   -165.84534     37.40193 
17904000    278.52867    187.37624    253.75867    -74430.36    74510.224   -66.382429    37.405957 
17908000    311.85434    182.03915    252.94217   -74488.509    74529.815   -70.903017    37.404841 
17912000    326.80524    212.27213    258.71741   -74503.601    74554.007   -46.445286    37.413217 
17916000    234.67854    388.30632    169.30602   -74521.038    74593.124    219.00031    37.413778 
17920000    269.66097    300.15499    334.72966   -74558.938    74625.513   -34.574669    37.414734 
17924000    308.22651     646.5437    363.26168   -74602.593    74654.318    283.28203     37.41731 
17928000    325.01553    460.12846    365.29402   -74641.553    74668.401    94.834435    37.412048 
17932000    282.61959      525.593    356.09706   -74652.155    74715.326    169.49594    37.414513 
17936000    279.70706    318.23963    352.01488   -74680.986    74719.308   -33.775248    37.421157 
17940000    297.98032    509.80998    281.38067    -74709.46    74739.881    228.42932    37.440123 
17944000     302.0286    279.94245    388.37736   -74711.206    74764.256   -108.43491    37.432031 
17948000    275.36339    193.12457    370.78416     -74732.8    74766.647   -177.65959    37.436194 
17952000    280.99363     262.0251     320.7126   -74734.858    74779.705   -58.687503     37.42381 
17956000    288.98094     301.0029    401.94314   -74748.596    74807.678   -100.94024    37.406387 
17960000    292.30065    346.39226    351.62152    -74771.36    74830.379   -5.2292558      37.4065 
17964000    293.18133    331.32444    222.29079   -74799.322    74841.205    109.03365     37.40468 
17968000    284.51021    327.13971    233.08225   -74806.299    74852.641    94.057468    37.409527 
17972000    277.42887     402.5371      242.879   -74827.767    74884.665     159.6581    37.401998 
17976000    284.83384    185.25121    333.45872   -74844.733    74882.631    -148.2075    37.397301 
17980000    255.54883    405.29764    285.93401   -74858.246    74925.333    119.36363    37.401778 
17984000    299.82242    317.16545    296.18546   -74898.469    74919.239    20.979994    37.405416 
17988000    279.23978    217.89479    339.52076    -74909.07    74974.041   -121.62598    37.408314 
17992000    276.67977     388.5448    320.85649   -74951.243    74990.924    67.688315    37.411203 
17996000    286.91102    285.43712    319.28607   -74972.009    75023.691    -33.84895    37.407707 
18000000    302.96379    314.51195    399.64351   -74952.762     75001.63   -85.131557     37.40881 
18004000    286.59812    244.01907     229.6627   -74981.156    75029.105    14.356372    37.412658 
18008000     302.3449    319.63727    371.44948   -75003.823    75033.586   -51.812208      37.4124 
18012000    292.05181    428.84782    201.84014   -75024.086    75053.851    227.00768    37.419159 
18016000    271.59802    329.04797    455.92615   -75027.005    75088.801   -126.87817    37.416491 
18020000    272.19489     313.1812    386.73608   -75068.422    75107.457   -73.554873    37.414195 
18024000    278.76106    323.29524    180.68134   -75087.222    75150.002     142.6139    37.418021 
18028000    288.30775    251.88158    165.96412   -75096.962    75141.982    85.917462    37.416498 
18032000    291.45175    515.33188    302.62584   -75113.461    75168.781    212.70604    37.422545 
18036000     274.5718    209.73589    333.23218   -75153.882     75219.18   -123.49629    37.432207 
18040000    264.15592    337.43497    134.84564    -75178.24    75223.092    202.58933    37.427837 
18044000    284.12193    367.60817    246.94994   -75209.218    75258.948    120.65823    37.421379 
18048000    265.98066    277.29984    250.99588   -75233.846    75277.688    26.303965    37.424921 
18052000    291.62419    407.07707    355.33754   -75236.469    75305.115    51.739531    37.422746 
18056000    265.50282    307.07749    426.42545   -75248.051    75313.614   -119.34797    37.418193 
18060000    294.38923    257.32319    362.88215   -75301.758    75344.767   -105.55896    37.411741 
18064000    291.04026    307.57395    260.22501   -75329.502    75376.241    47.348942    37.405406 
18068000    276.49397    398.74701    230.25511    -75347.39    75397.756     168.4919     37.41566 
18072000    268.78696    306.75432    313.35231   -75371.236     75430.02    -6.597988    37.419367 
18076000    297.54211    251.84258     435.8625   -75405.956    75442.355   -184.01992    37.423504 
18080000    282.35371    322.56044    326.77487   -75423.027    75469.273   -4.2144358    37.427499 
18084000    272.17669    462.86073    213.07115   -75426.676    75488.271    249.78957    37.435382 
18088000    281.38519    440.62175    248.05936   -75451.734    75531.614    192.56238     37.44031 
18092000    265.53298    281.14254    296.28433   -75454.751    75528.665   -15.141793     37.43531 
18096000    296.97095    276.07927    402.15731   -75474.404    75515.492   -126.07804    37.438085 
18100000    259.64344    317.44008    448.06716   -75473.846    75546.335   -130.62708    37.432938 
18104000    290.78538     296.5327    392.75023    -75484.75    75531.381   -96.217536    37.430409 
18108000    276.17636    371.19058    287.34176   -75471.743    75528.798    83.848823    37.428821 
18112000    272.70972    334.05259    465.33606   -75474.716    75547.162   -131.28347    37.420214 
18116000    281.49047    272.15771    447.60438   -75527.812    75573.481   -175.44667    37.417338 
18120000    289.31691    385.35826    467.31558   -75555.721    75606.932   -81.957325    37.414371 
18124000    301.80827    565.81214    459.48073   -75579.288    75620.647    106.33141    37.419261 
18128000    296.31677    241.50586    478.05122   -75583.916    75636.559   -236.54536    37.423922 
18132000    269.59613    607.19681    247.69186   -75611.151    75671.133    359.50495    37.431009 
18136000    275.41979    224.69862    416.20475   -75634.159    75680.127   -191.50612    37.425444 
18140000    343.36139    386.14936    778.17368   -75655.357    75676.811   -392.02432    37.417811 
18144000    265.73079    429.21622    203.62199    -75661.95    75727.513    225.59423     37.41933 
18148000    295.26665    333.23719    189.02973   -75690.035    75742.591    144.20746    37.417351 
18152000    307.33066    595.17603    397.80861   -75714.127    75760.016    197.36742    37.410528 
18156000    265.27306    369.84784    250.77096   -75733.985    75796.697    119.07688    37.410913 
18160000    276.28577    226.72796    212.53005   -75745.308    75807.426    14.197909    37.413597 
18164000    292.11052    417.90881     367.2299   -75769.595    75807.418    50.678912    37.405246 
18168000     315.5447    440.92465     393.4167   -75788.503    75823.613    47.507955    37.405794 
18172000    276.93962     253.6977    257.92168   -75800.885    75859.797    -4.223975    37.398151 
18176000    282.30682    509.20243    273.50017   -75829.117    75889.816    235.70225    37.398556 
18180000    280.65432    462.82598    259.27058   -75829.344    75897.333     203.5554    37.407952 
18184000    287.13521    335.78634    416.43595   -75845.429    75896.058   -80.649608    37.407526 
18188000    329.73258    425.73775    376.22853   -75874.473    75912.822    49.509222    37.409905 
18192000    272.81594    315.67226     266.6476   -75877.143    75938.746    49.024665    37.411021 
18196000    247.04407    287.44517    313.07325   -75895.354    75976.801   -25.628077    37.408761 
18200000    294.15025    207.26039    390.20622   -75938.242    75983.216   -182.94582    37.403655 
18204000    294.90038    426.69392    441.72109   -75957.985    76007.561   -15.027172    37.409419 
18208000    292.99025    288.23343    359.51056   -75987.809    76036.493   -71.277123    37.412817 
18212000    258.84064    340.22167    175.40602   -76000.004    76074.421    164.81565    37.411367 
18216000    255.17659    217.13903    193.16594   -76036.319    76096.966    23.973088    37.409619 
18220000    309.90333    310.86942    270.21125   -76069.071    76101.715    40.658171    37.409011 
18224000    259.57414     345.8673    212.44639   -76051.331    76113.076    133.42091    37.403724 
18228000    274.66874    226.47279     292.5557   -76082.162    76153.132   -66.082911    37.398638 
18232000    278.55485    521.70832    233.58511   -76110.885    76169.647    288.12321    37.395806 
18236000    303.29002    299.25506    510.64314   -76142.629    76199.593   -211.38807    37.390912 
18240000    271.04411    305.06455    275.51564   -76145.608    76201.657    29.548911    37.396973 
18244000    272.90477    249.28484    192.83051   -76170.266    76224.361    56.454329    37.387337 
18248000    288.20606    311.13587    336.09115   -76199.148    76256.959   -24.955274    37.380029 
18252000    275.65022    344.98492    487.64484   -76212.427    76278.083   -142.65992    37.378659 
18256000    272.92476    393.64604    340.06791   -76240.502    76301.045    53.578127    37.375855 
18260000    242.05666    198.28063    287.30207   -76237.947    76322.267   -89.021447    37.377276 
18264000    259.66084    321.25681    266.89016   -76264.683    76331.699    54.366658    37.375463 
18268000    297.31505     248.4775    179.23125   -76289.814    76332.537     69.24625    37.374234 
18272000     267.9287    418.64189     329.3145   -76289.472    76342.656    89.327388    37.377786 
18276000    268.03466    342.11677    318.82923   -76292.238    76343.866    23.287542     37.38154 
18280000    320.47986    466.89473    460.64498   -76336.139     76356.64    6.2497548    37.372343 
18284000    290.57132    329.94543     329.4888   -76345.182    76393.213    0.4566354    37.381539 
18288000    285.69931    453.79715    364.68038   -76370.186    76398.539     89.11677    37.385959 
18292000    266.96723    275.41698     558.4003   -76373.065    76445.772   -282.98332    37.383471 
18296000    284.28746    460.32198    315.61978   -76419.438    76476.085    144.70219    37.386981 
18300000    289.80216    320.14489    388.25102   -76441.905    76490.488   -68.106134    37.379252 
18304000    281.61352    400.56085    222.03425   -76468.062    76521.163     178.5266    37.375954 
18308000    272.92032    448.95376    408.99684   -76477.341    76529.172    39.956918     37.37864 
18312000    289.21586    309.69969    325.74781   -76493.371    76545.312   -16.048117    37.378437 
18316000    296.53068    319.26269    351.84489   -76493.981    76556.442   -32.582201    37.377024 
18320000    277.71055     309.1354    268.41121   -76529.965    76568.016    40.724184    37.375314 
18324000     272.6681    422.21006    441.21759   -76540.448     76607.06   -19.007525    37.373473 
18328000    321.54185    219.65906    235.31218   -76561.027    76609.746   -15.653119    37.380539 
18332000    254.42114     367.9346    235.94816   -76543.165    76623.563    131.98644    37.385768 
18336000     258.2373     357.9326    392.51316   -76568.377    76625.992   -34.580559    37.380202 
18340000    260.03746    413.93044    239.59982   -76582.468    76664.688    174.33061    37.380508 
18344000    277.90587    261.57509    291.68557   -76620.797    76680.304   -30.110485     37.37808 
18348000    295.81003    503.53515    322.52525   -76661.548      76711.4     181.0099    37.379338 
18352000    287.33437    404.62018    370.43167   -76686.734    76744.447    34.188508    37.387199 
18356000    275.67041     445.8995    273.04469   -76715.754    76761.776    172.85481    37.387342 
18360000    279.83721     386.0822    387.65987   -76746.455    76804.558   -1.5776746    37.385324 
18364000    279.18382    576.52129    347.86209   -76762.078     76815.86     228.6592    37.381734 
18368000     292.6306    467.43302    218.17093   -76750.893    76800.524     249.2621    37.389704 
18372000    272.88343    346.09617    327.36484   -76758.729    76826.443    18.731326    37.386109 
18376000    265.78974    415.87271    337.65951   -76803.125    76852.284    78.213193    37.378102 
18380000    272.73356    306.43729    262.61812   -76810.049    76862.541    43.819173    37.379285 
18384000    271.77565    245.93035    337.92106    -76812.35    76870.042   -91.990707    37.382804 
18388000    300.84921    245.33404    283.62315    -76838.94     76905.75   -38.289106    37.390248 
18392000      273.964    445.62521    278.96217    -76856.76    76903.718    166.66305    37.380679 
18396000    257.64784    459.14933    335.63792   -76862.707     76927.41    123.51141    37.376213 
18400000    312.33012    351.85579    446.72975   -76907.483     76924.81   -94.873963    37.382052 
18404000    273.55273    370.59439     314.5737   -76904.867    76970.681    56.020683    37.381354 
18408000    293.12867     492.5891    412.53258   -76933.305    76996.392    80.056527     37.37912 
18412000    249.81461    336.99856    470.77809   -76943.918    77019.222   -133.77952     37.38002 
18416000     266.9295     269.1732     181.9063   -76991.836    77055.785    87.266898     37.38392 
18420000    280.00024    294.23962    253.03087   -77058.888    77105.552     41.20875    37.385509 
18424000    277.40911    518.36178    282.07522   -77047.047    77122.923    236.28656    37.395703 
18428000    285.51937    293.20694    434.97162   -77093.043    77156.647   -141.76469    37.400847 
18432000    279.17267    243.47044    321.02827   -77099.124    77156.156   -77.557831    37.403085 
18436000    281.27144    437.54782    230.51885   -77119.067     77189.44    207.02897    37.401017 
18440000    263.58336    236.19595    379.64862   -77148.257     77207.93   -143.45268    37.391581 
18444000    297.64276    345.26593    320.14363   -77168.079    77231.462    25.122302    37.394728 
18448000    264.58152    325.64172    303.28936   -77192.613    77266.006    22.352358    37.397245 
18452000     254.5508    269.09588    348.67316   -77206.088    77271.524   -79.577288    37.396177 
18456000    288.47231    313.98133    495.04668   -77227.074    77276.606   -181.06536    37.401587 
18460000    302.93554    465.16029    481.93426   -77266.928    77317.095   -16.773968    37.397112 
18464000    318.99034    425.89701    354.84678   -77287.608    77335.434    71.050229    37.399488 
18468000    285.51851    353.41257    249.08007   -77285.553    77332.576     104.3325    37.404841 
18472000    275.92402    262.82694    231.75835    -77305.46    77385.781    31.068595     37.40626 
18476000    285.20418    500.29223    334.53182   -77332.013    77383.754    165.76042    37.400243 
18480000    275.91891    373.51839    161.61314   -77342.579    77393.498    211.90525    37.397536 
18484000    277.47485    444.43934     507.9388   -77368.945    77423.626   -63.499455    37.390518 
18488000    297.35681    361.53805    324.89785   -77398.782    77453.201    36.640197    37.390232 
18492000    268.62858    325.04371    400.30915   -77423.927    77496.593   -75.265445    37.398828 
18496000    264.11541    295.23491    158.18152   -77432.114    77500.292    137.05339    37.398702 
18500000    285.17679    456.32233    370.91611   -77465.704    77507.884    85.406219    37.400321 
18504000    299.91589    467.72277    477.66411   -77493.071    77538.939   -9.9413395    37.393072 
18508000    283.88897    229.63372    310.77091    -77526.41    77567.169   -81.137186    37.386968 
18512000    256.68157    283.80278    181.47233   -77522.376    77582.353    102.33046     37.38887 
18516000    307.17854    281.97831      359.304   -77561.523    77600.905   -77.325692    37.398788 
18520000     287.9808    362.90697    410.11084   -77556.696    77614.217   -47.203871    37.400527 
18524000    285.77789    427.85476    253.61737   -77550.922    77613.902    174.23739    37.402239 
18528000    275.30653    222.63329     153.7447   -77594.022    77655.626    68.888585    37.401118 
18532000    298.36991    271.49262    430.52207   -77627.148    77689.466   -159.02944    37.392412 
18536000    324.53799    492.82153    338.62853   -77651.482    77685.615    154.19301    37.391809 
18540000    288.58867    327.63868    288.86773   -77646.412    77682.653    38.770949    37.398188 
18544000    289.86563     332.9584    309.99629   -77649.292     77692.28    22.962102    37.390632 
18548000    286.93966    269.69486    364.89343   -77657.318    77708.654   -95.198575    37.386475 
18552000    268.19746    488.68656    367.20965   -77655.688    77713.077    121.47691     37.39088 
18556000    290.83874    357.70099    227.31037   -77653.598    77681.974    130.39062    37.396594 
18560000    282.16075    296.80938    309.31041    -77653.78    77689.971   -12.501027    37.394822 
18564000     325.1948    523.64431    452.72895   -77699.313    77717.095    70.915366    37.405222 
18568000    306.30684    460.84421    435.58438   -77718.066    77762.907    25.259829    37.407929 
18572000    243.87048    341.70918    316.56641   -77731.343     77807.11    25.142769    37.403775 
18576000    281.64126    338.86476     177.4585   -77750.643    77819.378    161.40626    37.414332 
18580000    295.30907    240.09986    373.85811   -77772.286    77822.652   -133.75825    37.420401 
18584000    281.42217    231.06001    442.05478   -77735.109    77814.884   -210.99476    37.411221 
18588000    273.30587     417.0393    203.06893   -77738.867    77820.463    213.97037    37.409317 
18592000    280.70037    435.47278    389.45672   -77749.429     77814.78     46.01606    37.405476 
18596000    274.52066    336.14809    237.63492   -77760.953    77805.368     98.51317    37.406391 
18600000    311.48243    316.39142    403.01702    -77775.29    77818.231   -86.625595    37.407283 
18604000    280.77127    290.08719    281.78429   -77771.417    77829.294    8.3029046    37.416337 
18608000    282.14193    322.24843    313.88722   -77780.021    77850.498    8.3612114    37.414363 
18612000    269.25531    320.81716    223.64585   -77795.181    77860.895    97.171302    37.423088 
18616000    278.15832    428.36244    341.73303   -77793.396    77855.401    86.629408    37.418045 
18620000    291.11888    412.89701    299.05304   -77809.457    77882.552    113.84396     37.41604 
18624000    300.25956    500.66793    215.43497    -77852.19    77896.012    285.23296    37.420692 
18628000    260.77697    416.73898    332.30514   -77860.034     77916.83    84.433839    37.416745 
18632000    310.41329    521.14957    237.20076   -77899.663    77921.982    283.94881    37.425916 
18636000    274.19343    377.33263    286.54753   -77892.404    77945.849    90.785104    37.429774 
18640000    309.20872    408.49918    364.83294    -77934.69    77979.001    43.666247    37.426652 
18644000    291.55161     233.7623    353.90362   -77939.701      77968.7   -120.14132    37.428541 
18648000    304.90324    469.96636    290.84459   -77945.264    77979.597    179.12178     37.42248 
18652000    293.02175     431.9708    366.76126   -77946.185     78000.29     65.20954    37.426905 
18656000    291.95051    154.84689     288.7778   -77969.276    78019.554    -133.9309    37.432938 
18660000    277.50241    491.77129    258.37663   -77972.752    78041.694    233.39466    37.430921 
18664000    283.47896    212.39056    435.21044   -77994.501    78050.672   -222.81988    37.422202 
18668000    291.26099    413.35979    263.27964   -78034.604    78079.391    150.08015    37.424514 
18672000    261.32558    231.99444    345.60846   -78040.693    78093.798   -113.61402    37.410853 
18676000    310.95211    401.10085    543.43447   -78069.187    78117.554   -142.33362    37.406225 
18680000    295.73589    518.98831     319.4929   -78088.046    78136.365    199.49541    37.408885 
18684000    286.02756     404.5328    166.16735   -78093.333    78154.148    238.36545    37.408124 
18688000    294.07956    371.48793    274.75821   -78127.526    78176.987     96.72972    37.401911 
18692000    254.34982    358.90952    126.11306   -78137.517    78190.644    232.79646    37.400555 
18696000    286.76851    290.68273    344.97124    -78172.04    78204.658   -54.288501    37.406031 
18700000    283.83932    280.80974    340.38254   -78191.657    78241.469   -59.572804    37.392419 
18704000    300.13509    324.63319    433.50662   -78220.711    78261.117   -108.87343    37.389327 
18708000    326.14564    215.51195    385.96028   -78265.141    78299.636   -170.44833    37.394078 
18712000    268.03234    346.92147    225.44693    -78263.32    78331.317    121.47454    37.393932 
18716000    240.26828    258.67688    411.70095   -78250.176    78333.292   -153.02407    37.394234 
18720000    308.63302    326.27333    319.17599   -78294.209     78339.84    7.0973385    37.401889 
18724000    314.62191    402.48347    238.91328   -78313.569    78348.775    163.57018    37.399997 
18728000     263.9142    405.25878    333.37822   -78309.549    78381.614    71.880564    37.405983 
18732000    272.10243    254.44948    236.53925   -78329.028    78404.056    17.910227    37.399106 
18736000    322.57625    274.03397    685.38971   -78377.893     78403.72   -411.35573    37.401941 
18740000    315.98775    483.53866    401.51699   -78389.866     78440.58    82.021667    37.395546 
18744000    302.51841    361.71105    374.44677   -78407.391    78453.832   -12.735719    37.398788 
18748000    267.95818    380.44099    335.07914   -78417.185    78487.954    45.361848    37.397983 
18752000    256.78361    337.18419    236.37802   -78418.297    78477.594    100.80617    37.400498 
18756000    297.27127    198.99549    333.09189   -78438.407    78490.424   -134.09639    37.402345 
18760000    255.96878    452.91985    323.73136    -78463.05    78536.573    129.18849    37.399165 
18764000    280.87007    268.50318    472.63822   -78475.274    78529.491   -204.13504    37.391952 
18768000    254.70085    271.11439    140.10899   -78493.035    78559.503     131.0054    37.383842 
18772000    288.67749    434.49347    453.59611   -78505.631    78558.604   -19.102636    37.387742 
18776000    247.31824    286.84749    382.12016   -78499.682    78590.447   -95.272674    37.377096 
18780000    291.95749    395.60639    297.26475   -78546.768    78590.423    98.341642    37.366174 
18784000    274.88599    335.64012     382.3895   -78560.077    78607.972    -46.74938    37.360319 
18788000    269.51677    297.47281     298.6865   -78552.604    78623.768   -1.2136876    37.359724 
18792000    267.62208    395.38214    298.91364   -78557.049    78634.807    96.468503    37.352686 
18796000    289.86543    432.27965    268.37011   -78594.751    78641.681    163.90954    37.358938 
18800000    253.32109    496.11625    201.21252   -78604.495    78687.125    294.90374    37.352405 
18804000    272.80686    361.99436    317.87804   -78632.278    78706.942    44.116326    37.348747 
18808000    317.45127    519.24367    447.66805   -78667.405    78726.294    71.575628    37.346608 
18812000     247.3082    389.98842    291.09406   -78670.614    78751.146    98.894355    37.346657 
18816000    289.93938    193.29255    199.41376   -78690.501    78733.824   -6.1212107    37.344825 
18820000    275.48921    332.76109    265.32245   -78698.006    78774.429    67.438645    37.335676 
18824000    274.27461     345.9407     242.1292    -78717.72    78787.052     103.8115    37.342418 
18828000     293.8755    557.65916     494.2275   -78746.645    78814.288    63.431664    37.346534 
18832000    277.86083    224.68961    351.23187   -78752.668    78827.504   -126.54227    37.343749 
18836000    280.96775     513.1888    170.42423   -78775.504    78821.347    342.76458    37.343837 
18840000    303.95807    316.81236    249.32059   -78796.719    78847.972    67.491764    37.343342 
18844000    268.18471    234.06616    324.23655   -78823.253    78871.926    -90.17039    37.342924 
18848000    274.82221    305.75153     308.0764   -78824.316    78859.319   -2.3248739      37.3415 
18852000    300.19911    255.70381    392.45157    -78829.49    78886.353   -136.74777    37.337549 
18856000    292.49906    399.39998    226.35818   -78831.792    78878.009     173.0418    37.338013 
18860000    284.18782    427.27956    352.60636   -78844.847    78911.836    74.673201    37.334962 
18864000    256.97443    257.29519    245.73732   -78859.106     78932.82    11.557869    37.337819 
18868000    280.44611    185.18649    193.56819   -78885.873    78954.734   -8.3817034    37.332778 
18872000      305.431    432.18724    471.42693   -78941.765    78972.453   -39.239693    37.333195 
18876000    270.72811    320.85915    250.20366   -78946.717    79009.885    70.655492    37.336091 
18880000    285.41766    235.78343    317.00453   -78973.783    79045.708   -81.221098    37.340735 
18884000    267.88676    267.87296    220.19134   -78988.359    79073.702    47.681625    37.335923 
18888000    289.66501    211.44763    421.96496   -79029.428    79060.406   -210.51733    37.334059 
18892000     277.8623    262.94391    298.36689   -79047.729    79098.028    -35.42298    37.329837 
18896000    265.84647    374.27949    310.48725   -79074.567    79144.121     63.79224    37.317705 
18900000    285.22906    372.04022    423.09929   -79123.029    79167.448   -51.059072    37.316491 
18904000    293.71483    362.88412    352.09821   -79143.083    79192.321    10.785914    37.313353 
18908000    262.78862    323.87381    340.25185   -79164.997    79238.115    -16.37804    37.309657 
18912000    298.06903    396.74997    291.32642   -79201.242     79259.75    105.42355    37.303769 
18916000    283.19431    325.31899    318.40964   -79222.162    79280.559     6.909348    37.308699 
18920000    307.60806    808.88777    510.35632   -79226.231    79270.273    298.53145    37.306425 
18924000    298.21043    368.18733    467.34453   -79223.857    79279.214   -99.157194    37.300923 
18928000    255.79918    248.97799    177.34721   -79211.222    79296.098    71.630773    37.307432 
18932000    272.16194    307.77402    175.14247   -79248.148    79326.697    132.63155    37.309666 
18936000    273.78881    391.24027    153.91996   -79259.435    79330.825    237.32031     37.31236 
18940000    271.64417    372.78448    196.66456   -79270.707    79345.829    176.11992    37.307205 
18944000     279.3047    200.19008    432.21013   -79288.835    79353.173   -232.02004    37.304715 
18948000    276.20828    304.65759    421.75875   -79299.598    79368.946   -117.10116     37.30899 
18952000    280.24219    305.00377    151.80285   -79321.975    79381.087    153.20092    37.313063 
18956000    279.85469    394.55326    205.47907   -79309.582    79366.654    189.07419    37.308333 
18960000    300.25696     313.5009    311.80281   -79321.025    79369.788    1.6980906    37.298464 
18964000    251.16806    234.11404    263.39223   -79331.569     79414.09   -29.278196     37.29762 
18968000    293.02656    301.92406    239.71836   -79377.621    79412.999    62.205703    37.293877 
18972000    292.32159    349.20406    387.54047   -79394.558    79456.401   -38.336406      37.2963 
18976000     279.2361    436.23192    324.51011       -79420    79487.216    111.72181    37.295815 
18980000    253.68108    282.04616    238.21066   -79445.994    79523.996    43.835502    37.291762 
18984000    292.65856    348.66333    373.76649   -79475.495    79530.873   -25.103165    37.289236 
18988000    288.17785    456.55599    348.31973   -79466.024    79536.837    108.23626    37.289829 
18992000    280.32022    356.37065    269.70552   -79475.421     79549.86    86.665125    37.289131 
18996000    286.10445    502.53441    440.69323   -79513.152    79573.769    61.841188    37.284531 
19000000    293.59107     427.0395    364.04958   -79535.804    79605.041    62.989918    37.283482 
19004000    277.05616    299.22594    352.76508   -79560.504    79623.049   -53.539143    37.279297 
19008000    272.45533    493.23252    317.91918   -79589.435    79654.284    175.31335    37.277076 
19012000    327.06128    413.62367    432.42773   -79629.288    79660.087   -18.804061    37.278279 
19016000    313.66778    294.91699    399.54187   -79632.228    79659.768   -104.62488    37.283879 
19020000    274.07585    272.45077    286.84961   -79642.533    79694.244   -14.398844     37.28887 
19024000    278.93154    501.15375    269.85301   -79664.885     79747.35    231.30074    37.292846 
19028000    290.37031    330.56723    275.75119   -79698.904    79760.483    54.816036    37.296596 
19032000    258.57892    475.88599    305.55716   -79722.792    79791.824    170.32883    37.292909 
19036000    248.38267     319.2665    475.28001   -79740.201    79823.049   -156.01351    37.296797 
19040000    290.27092    435.03507    263.11576   -79774.176    79832.323    171.91931    37.292563 
19044000    309.42872    536.49926    285.29098   -79802.884     79843.83    251.20828    37.294862 
19048000    283.34979    364.96114    180.37245   -79821.541    79869.441    184.58869    37.294222 
19052000    262.12422    235.79576    210.18703   -79853.135     79906.76    25.608726    37.293878 
19056000    284.60206    467.57364    313.34921   -79879.795    79922.502    154.22444    37.291151 
19060000    275.12501      324.711    242.86696   -79872.409    79940.149    81.844048    37.302941 
19064000     294.4348    411.24862    330.54563   -79901.017    79945.766    80.702987    37.307223 
19068000    256.81569    270.06884    259.37031   -79927.684    79983.705    10.698531    37.307921 
19072000    282.89591    585.92242    307.02614   -79964.713    80009.943    278.89628    37.311866 
19076000    273.46798    500.02555    249.56728   -80012.376    80056.258    250.45827    37.315037 
19080000    301.11472    333.66894    352.32634   -80017.771    80073.171   -18.657392    37.319617 
19084000    257.49684    443.48376    222.63076   -80035.679    80107.898    220.85299    37.319943 
19088000    276.91589    366.07016    396.94068    -80055.67     80110.08   -30.870517    37.323135 
19092000    252.28051    302.63087    286.81138   -80088.275    80151.325     15.81949    37.322429 
19096000    279.43451    360.90471    449.34327   -80116.133    80164.679   -88.438565    37.329109 
19100000    293.59409    299.27798    234.55336   -80136.856    80183.328    64.724622    37.324691 
19104000     281.0015    271.65131    312.35343   -80154.207    80195.057   -40.702126    37.322109 
19108000    289.82533    200.66469    285.73863   -80177.988    80208.144   -85.073946    37.323803 
19112000    313.36544    489.85119    257.52271   -80190.871    80215.463    232.32848    37.320132 
19116000    266.08007    273.18458    216.68692   -80189.894    80251.181     56.49766    37.324858 
19120000      283.992     340.1818    412.18507   -80223.849    80258.175   -72.003267    37.326387 
19124000    276.14892    445.21838     268.5165   -80247.174    80288.585    176.70188    37.323335 
19128000    302.59775    431.65537    205.20662   -80233.208    80292.323    226.44875    37.317918 
19132000    303.86708    347.77736    383.77342   -80264.523    80317.113   -35.996062    37.320295 
19136000    279.70493    291.29153    261.39212   -80295.333    80343.574    29.899409    37.316774 
19140000    308.98526    521.69718    292.11479   -80319.661    80354.006    229.58239     37.31824 
19144000    304.39705    394.74489    367.80573   -80348.487    80399.334    26.939167    37.319986 
19148000    309.06303    401.29896    413.60664   -80405.288    80434.811    -12.30768    37.320143 
19152000    274.54664    405.92186    328.83615   -80385.737    80459.114    77.085705    37.326894 
19156000    287.85563     172.0799    305.90285   -80420.594    80453.661   -133.82295    37.320085 
19160000    275.59627    374.42174    282.63251   -80442.792    80498.168    91.789229    37.311895 
19164000    298.76994     297.7789    203.86244    -80471.35    80513.491    93.916456    37.313325 
19168000    287.76974    224.65753    470.18215   -80491.432    80538.871   -245.52462    37.313476 
19172000    277.35484    161.07499    334.58274   -80506.283    80574.771   -173.50775    37.305083 
19176000    299.43094    546.13807    370.66989   -80557.218    80587.879    175.46818    37.305669 
19180000    294.97333    295.13536    421.24894   -80569.835     80598.12   -126.11358    37.310119 
19184000    276.72318    334.73163    249.03771   -80564.259    80623.666     85.69392    37.304785 
19188000     277.8786    335.45998    217.87846   -80571.146    80631.703    117.58152     37.30402 
19192000    280.29995    420.09397     307.0989   -80581.441    80628.898    112.99507    37.301932 
19196000    263.76531    370.84144    373.06379   -80610.517    80664.422    -2.222344    37.306305 
19200000    296.61154    459.43132    556.35504    -80643.62    80699.593   -96.923718    37.302855 
19204000    280.21995    322.94448    271.80109   -80642.399    80691.358    51.143391    37.296776 
19208000    306.03531    372.87585     270.4821   -80667.944    80699.059    102.39375     37.30676 
19212000    299.48264    468.86964    265.75328   -80670.518    80725.781    203.11636    37.301305 
19216000     305.2817    477.75652    482.04749   -80711.062    80745.233   -4.2909681    37.298594 
19220000    284.62206    347.71663    275.35527   -80718.532    80766.249    72.361354     37.31004 
19224000    295.44329    291.88925    255.10882   -80747.874    80799.188    36.780427    37.306257 
19228000    262.65303    265.53871    311.02795     -80764.4    80816.864   -45.489241    37.301025 
19232000    270.46508      230.645    421.65399   -80776.564    80835.714   -191.00898    37.301363 
19236000    271.69098    246.86831    235.89625   -80810.749    80876.825    10.972061    37.303403 
19240000    275.58574    357.73472     361.6294   -80848.247     80904.55   -3.8946791      37.3027 
19244000    274.28384     218.1475    224.39816   -80862.909    80934.919   -6.2506596     37.30301 
19248000    264.07586    432.40705    274.92944   -80877.543    80923.258    157.47761    37.317366 
19252000    283.87129    353.75926    355.62338   -80884.155    80939.051   -1.8641221    37.316227 
19256000    280.04859    305.18248    374.28669   -80882.422    80923.185   -69.104209    37.318436 
19260000    306.06505    461.81765    454.96902   -80900.819     80934.34    6.8486362    37.314363 
19264000    290.25475    229.18394    363.67603   -80892.292    80927.215   -134.49209    37.319747 
19268000    304.81679      481.708     372.7026   -80923.133    80961.197     109.0054     37.31684 
19272000    290.25566    648.08934    253.06967   -80935.427     80987.97    395.01967    37.326289 
19276000    246.57765    400.13587    361.80204   -80944.115     81019.61    38.333825     37.33298 
19280000    282.63563    240.31482    311.20191   -80969.866    81031.922   -70.887086    37.332123 
19284000    290.92548    259.64288    223.06297   -80974.375    81030.749    36.579914    37.333311 
19288000    302.27776    561.42255    493.01099   -81009.063    81039.622    68.411559    37.336595 
19292000    314.30008    301.84353    529.27704     -81013.7    81050.348   -227.43351    37.329484 
19296000    297.21249    450.22114     356.6407   -81022.573     81073.77    93.580444    37.322175 
19300000    279.02119     194.1475    273.24411   -81035.172    81103.419   -79.096609    37.325583 
19304000    247.11187    327.43353    277.10031   -81058.095    81152.591    50.333224    37.326201 
19308000    271.37848    466.38972    453.00263   -81112.535    81168.467    13.387092    37.339531 
19312000    260.20398    323.54522    269.25865   -81130.517    81199.461     54.28657    37.342161 
19316000    259.23914    341.65701    306.57443   -81143.168    81217.372     35.08258    37.344277 
19320000    283.80833    333.20958      441.396   -81142.624    81217.212   -108.18642    37.334711 
19324000    292.77215    296.58519    252.67351   -81148.757    81199.833    43.911676    37.329578 
19328000    329.62519    382.95546     216.5316   -81157.422    81201.773    166.42387    37.327147 
19332000     301.4581    262.61759    326.36327   -81190.933    81223.886   -63.745681    37.323575 
19336000    272.01618    334.50864    289.30716   -81172.814    81247.349    45.201476     37.32822 
19340000    248.08719    317.23403    259.88867   -81197.804     81256.94    57.345361    37.330425 
19344000    243.89523    370.02615    396.04614   -81201.985    81285.705   -26.019986    37.339805 
19348000      274.506    312.05781    339.22864    -81220.81    81275.082   -27.170829    37.335376 
19352000      276.302    313.33643    365.50368    -81228.85    81301.745   -52.167246    37.330321 
19356000    275.68025    462.84974    267.37052   -81219.918    81280.758    195.47922    37.329062 
19360000    312.07412    527.77641    225.02813   -81264.007    81306.557    302.74828    37.332068 
19364000    285.99167    638.18815    366.08788   -81258.501    81322.209    272.10027    37.340756 
19368000    288.41164    286.80401    347.53429   -81287.473    81353.824   -60.730277    37.325941 
19372000    279.72314    484.75505     350.9493   -81308.334    81360.833    133.80575    37.325746 
19376000    261.84615    278.79657    302.08656    -81310.83    81376.949   -23.289993    37.326552 
19380000    272.24642    375.41427    449.02305   -81316.815     81371.34   -73.608784    37.325168 
19384000    250.01681    309.31681    234.25876   -81336.059    81412.382    75.058046    37.317782 
19388000    273.42137    339.12991     313.0471   -81356.814    81419.397    26.082804    37.318234 
19392000    284.20785    302.34585    265.38157   -81377.673    81431.262    36.964271    37.313394 
19396000     271.8543    343.60393    436.37281    -81376.99    81453.096   -92.768878     37.31363 
19400000    269.68613    399.30575    307.05536   -81393.489     81444.59    92.250397     37.31677 
19404000    290.57199    451.90773    201.19981   -81431.043     81474.53    250.70793    37.316986 
19408000    272.15449    305.14061    280.49331   -81456.786    81513.121    24.647298    37.319946 
19412000    285.06554    377.64745    484.78192   -81478.427    81533.462   -107.13447    37.317261 
19416000    281.51411    299.05802    318.54163   -81492.601    81549.032   -19.483609    37.317156 
19420000    317.00978    441.76189    195.29277   -81526.562    81578.147    246.46913    37.324431 
19424000    272.61473    289.60244    281.61106   -81536.517    81583.682    7.9913763    37.328414 
19428000    314.91041    356.97114    545.17423   -81532.975     81585.42   -188.20309    37.332081 
19432000    295.24089    333.38057    183.90526   -81564.314     81609.88    149.47531     37.34215 
19436000    293.02057    421.06818    323.44883   -81598.616    81636.637    97.619355      37.3449 
19440000    294.97693    193.08036    293.05637   -81603.345    81661.219   -99.976013    37.342524 
19444000    280.42072    455.55736    226.59683   -81608.397     81678.87    228.96052    37.342804 
19448000    277.68258      493.898    554.00453   -81626.138    81690.153    -60.10653     37.33643 
19452000    286.27428    421.90315    394.33235    -81643.17    81701.372    27.570799    37.339676 
19456000     293.2694    290.51775    382.11105   -81652.134    81701.408   -91.593304    37.336179 
19460000     311.8877    276.13283    255.15484   -81688.333    81716.416     20.97799    37.346401 
19464000    310.45903     290.1835    573.97463   -81674.609    81713.987   -283.79113    37.345829 
19468000    269.37487    352.18706    248.00183   -81682.453    81749.157    104.18523    37.337756 
19472000    262.50427    290.76575    272.85124   -81679.076    81743.727     17.91451    37.342225 
19476000    274.97551    262.17695    351.22261   -81674.278    81744.576   -89.045658    37.342617 
19480000    298.11908    502.32581    291.34357   -81713.787    81753.791    210.98225    37.340845 
19484000    317.93811    527.60706    407.71927   -81732.943     81766.69    119.88779    37.340365 
19488000    275.33737    312.25577    255.75401   -81763.589    81814.824    56.501753    37.344776 
19492000    254.31181    253.46567    411.20118   -81775.505    81855.865   -157.73552    37.340861 
19496000    283.23972    326.83093     300.0201   -81776.893    81843.332    26.810831      37.3378 
19500000    272.50665    340.68614    402.79626    -81795.31    81857.313   -62.110121    37.330632 
19504000    288.83416    247.74677    418.06669   -81831.221    81892.404   -170.31992    37.330658 
19508000    244.54707    209.16081    228.07093   -81846.117    81921.811   -18.910115    37.331696 
19512000    286.67495    491.60914    369.04715    -81860.08    81916.258    122.56199    37.335295 
19516000    311.35239    381.31208    429.70958   -81899.286    81928.063   -48.397502    37.325077 
19520000    312.36814    517.36916    424.36986   -81925.944    81966.691    92.999301    37.332506 
19524000    287.60726    386.62485    438.11828   -81941.674    81990.745    -51.49343    37.332343 
19528000    298.72008    285.19412    475.52489   -81938.209    81989.795   -190.33077     37.33221 
19532000    299.89857    527.66027    420.22511   -81955.294    81991.724    107.43516    37.341368 
19536000    309.08264    317.28698    356.76863    -81965.88    82019.392   -39.481644    37.343086 
19540000    281.97981    244.90158    424.71888   -81989.166    82022.466    -179.8173    37.338559 
19544000    294.41319    418.95464    255.25707   -81983.084    82027.518    163.69757    37.342402 
19548000    291.03209    397.65308    333.79372   -81976.592     82044.77    63.859361    37.346897 
19552000     267.4769    275.73457    185.15936   -81987.043    82067.684    90.575208    37.353303 
19556000    263.20207     368.3903    260.26406   -81985.325    82071.832    108.12623    37.359125 
19560000    277.53146    352.29754     193.7274   -82018.714    82090.547    158.57015    37.352931 
19564000    280.66128    237.37631    349.82836   -82048.851    82096.434   -112.45205    37.350174 
19568000    291.80585    283.89064    252.03337   -82058.135    82124.339    31.857271    37.348634 
19572000    259.52195    425.19352    166.13242   -82038.329    82109.559    259.06111    37.351754 
19576000    296.75922    348.90717    249.30149   -82062.021    82109.158    99.605684    37.345259 
19580000    292.18379    399.73649    209.96921   -82075.925    82114.534    189.76728    37.351299 
19584000    301.91078    483.17347    182.34727   -82091.779     82137.55     300.8262    37.360473 
19588000    307.04178    434.47101    290.19139   -82101.595    82149.104    144.27962    37.358801 
19592000     292.0838    368.67731    425.24847   -82114.626    82164.141   -56.571155    37.353114 
19596000    280.38043    291.66475    245.45118   -82161.145    82211.829    46.213563    37.355646 
19600000    268.44172    592.75092    350.21649   -82167.484    82232.804    242.53443    37.360304 
19604000    289.81652    342.72449    266.81187   -82185.129    82261.462    75.912617    37.365667 
19608000    297.87353    182.50227    254.72063   -82217.576    82275.567   -72.218353    37.363309 
19612000    273.46619    337.32664    381.89331   -82266.807    82329.191   -44.566662    37.362854 
19616000    261.01496    270.54577    263.59562    -82275.95    82354.634    6.9501521    37.356524 
19620000    243.58006    232.16544    236.79664   -82262.514    82370.799   -4.6311984    37.363777 
19624000     271.6855    354.32627    382.13437    -82303.29    82366.256   -27.808097    37.367015 
19628000    297.74641    346.77173    250.41506   -82321.224    82379.804    96.356665    37.360623 
19632000    283.09452    293.15504    382.78953   -82307.824    82373.931   -89.634492    37.353039 
19636000    279.68653    492.00059    312.13267   -82336.143    82395.593    179.86792    37.354392 
19640000    265.84551    275.47289    206.61193   -82356.173    82425.901    68.860968    37.351399 
19644000    301.13554    560.74188    375.12008   -82380.545    82440.213     185.6218    37.354284 
19648000    293.71217     353.9482    418.54181    -82388.63    82442.358   -64.593611    37.348954 
19652000    291.92188    355.52682    357.45885   -82392.655    82452.773   -1.9320328     37.34854 
19656000    253.65257    332.11606    265.86803    -82386.82    82471.827    66.248032    37.350265 
19660000    291.08518    385.17657    415.93669   -82421.235    82484.942   -30.760123     37.35105 
19664000    307.82394    556.56003    399.87205   -82474.508    82521.257    156.68798    37.360798 
19668000    294.39967    277.01408    199.68744   -82477.677    82537.853    77.326644    37.354694 
19672000    277.53388    174.56711    235.56873   -82484.087    82554.143   -61.001624    37.353547 
19676000    297.55653     271.5818     228.8655   -82491.256    82549.393    42.716303    37.359674 
19680000     286.3563    283.33059    196.34497   -82497.913    82558.269     86.98562    37.348822 
19684000    279.46884    484.36957    293.52208   -82511.868    82566.058    190.84749    37.359766 
19688000    259.18529    297.12617    202.91287   -82532.135    82618.317    94.213298    37.357312 
19692000    289.76078    636.44153    287.74181   -82570.069    82623.709    348.69972    37.361498 
19696000    294.73105    584.32692    348.98135   -82581.295     82644.29    235.34557     37.36295 
19700000    255.85459    244.45317    244.93594   -82564.953    82649.763  -0.48276969    37.361308 
19704000    279.99955    533.27894     300.4707   -82578.518    82643.545    232.80824    37.362564 
19708000    276.03611    348.60842    318.78039   -82589.363    82642.319    29.828033    37.371727 
19712000    308.50939    451.57335    540.56287     -82620.7     82665.47   -88.989521    37.382265 
19716000     270.4937    323.61824    273.44222   -82660.927    82713.653    50.176022    37.379756 
19720000    282.91658    418.68645    316.39489   -82693.898    82748.466    102.29156    37.387319 
19724000    294.59837    361.76346     374.4192   -82695.226    82752.807    -12.65574    37.385568 
19728000    303.07821    443.52815    188.06543   -82708.041    82763.111    255.46272    37.386053 
19732000     297.0476    321.63697    463.85457   -82704.412    82733.372    -142.2176    37.381808 
19736000    283.30605    441.64842     433.5402   -82729.082    82794.877    8.1082255    37.370889 
19740000    286.02629    426.78982    360.73592   -82758.183    82827.512    66.053902      37.3664 
19744000    299.76438    486.75261    263.08166   -82810.837    82856.032    223.67095    37.365336 
19748000    299.71722    455.23287    530.33346   -82829.651    82884.596   -75.100585    37.360457 
19752000    319.03717    482.82087    298.24213   -82862.654    82911.769    184.57874    37.359505 
19756000    316.59588    323.10914    298.15788   -82878.969    82927.094    24.951259    37.357107 
19760000    274.86513    249.77181    270.92103   -82897.577    82955.101   -21.149221    37.365797 
19764000    272.48736    329.26511    266.26661   -82892.478    82985.427      62.9985    37.365267 
19768000    287.30399    566.09063    167.18921   -82925.795    83003.091    398.90142    37.370249 
19772000    273.86898    366.79796     285.0347   -82954.303    83023.413    81.763254     37.37424 
19776000    310.76623       201.45    207.60761   -82966.981    83020.811   -6.1576062    37.376211 
19780000    279.75239    360.53877    318.82499   -82991.246     83055.16    41.713775    37.376201 
19784000    283.61139    299.78118    377.10324   -82976.499    83070.007   -77.322057    37.372842 
19788000    258.95151    310.20591    437.14559    -82999.23    83084.816   -126.93968    37.369175 
19792000    292.04693    261.65474    229.67552   -83067.216     83101.18    31.979221    37.364728 
19796000    263.47432    585.61339    332.29559   -83063.093    83117.384    253.31781    37.368034 
19800000    283.89676    230.55744    321.37085   -83064.733     83127.67   -90.813407    37.371732 
19804000    277.40223    336.51452    424.63449   -83114.557    83194.003   -88.119969     37.36539 
19808000    280.19753    269.56822    324.68485   -83149.088     83205.32   -55.116632     37.36598 
19812000    288.57582    337.98514    400.12912   -83159.386    83221.597   -62.143976    37.364858 
19816000    280.64916    391.74771    301.20778   -83162.169    83216.134    90.539932    37.363665 
19820000    285.41328    312.80948    323.15549   -83184.974     83234.95   -10.346011    37.359049 
19824000    247.69642    195.52466    281.83195   -83204.801    83277.173   -86.307295    37.357882 
19828000     278.3825    381.70719    288.10355   -83220.061    83297.441    93.603644    37.355934 
19832000    318.61623    404.35216    338.05914   -83240.664    83302.103    66.293027    37.363179 
19836000    291.25467    296.76231    208.89595   -83258.987    83313.385     87.86636     37.36502 
19840000    301.28072    357.89023     231.5395   -83280.638     83328.24    126.35073    37.366121 
19844000    309.65532    278.06218    449.10193    -83287.43    83354.009   -171.03975    37.360341 
19848000     298.1872    393.40656    584.85568   -83324.573    83371.321   -191.44912    37.366644 
19852000    258.06724    482.91012    294.25278   -83342.868    83401.624    188.65734    37.363816 
19856000    271.17224    394.02763    563.59787   -83346.329     83424.99   -169.57024     37.36286 
19860000    283.06896     230.9469    350.71012   -83371.252    83434.939   -119.76323    37.359079 
19864000    307.64185    413.34558    323.84004   -83407.338    83453.511    89.505542    37.359318 
19868000    261.27925    296.46204    302.54699   -83409.805    83491.172   -6.0849443    37.353247 
19872000    275.69151    358.07622    333.95233    -83429.07    83485.914     24.12389    37.351743 
19876000    289.63901    217.23217    249.24087   -83451.522    83497.387   -32.008696    37.353877 
19880000     295.9273    369.52244    390.18392   -83471.099    83515.079   -20.661481    37.352225 
19884000    292.98769    349.91609    439.53525   -83484.529    83535.608   -89.619164    37.348846 
19888000    307.92314    420.83382    416.07054   -83521.879    83561.306    4.7632883    37.346733 
19892000    264.89963    402.63295    334.19585   -83526.393    83588.756    68.437092     37.34428 
19896000    295.35522    292.49879    309.02841   -83511.441    83571.362   -16.529614     37.34876 
19900000    282.50203    656.43851    348.13482   -83524.871    83586.375     308.3037    37.362753 
19904000    316.11717     426.0679    406.52045   -83555.621    83601.401    19.547454    37.364101 
19908000    284.39818    537.69873     336.2879   -83550.352    83614.157    201.41083     37.36482 
19912000    253.49105    363.78096     238.9668   -83549.429     83637.54    124.81416    37.361647 
19916000    295.24206     465.7784    355.43507   -83601.051     83646.76    110.34333    37.361267 
19920000    292.57169    346.33603    297.26697   -83622.485    83676.167    49.069065    37.366279 
19924000    269.41705    414.33908    218.13942   -83610.217    83683.159    196.19966    37.368776 
19928000    284.61414    428.45091    307.94687   -83628.711    83687.642    120.50404    37.374467 
19932000     265.6123    325.86828    354.51003    -83646.86     83707.69   -28.641758    37.373625 
19936000    286.37662    330.08261    195.87196   -83662.359    83719.307    134.21066    37.377762 
19940000     281.6196    260.78298    354.90277   -83672.211     83753.69   -94.119798    37.376783 
19944000    304.46049     551.0508    467.99151    -83690.75    83758.743    83.059292    37.371332 
19948000    257.47895    133.80523    314.90064   -83693.608    83769.055    -181.0954    37.364713 
19952000    286.27789     347.6624    341.77639   -83721.938    83779.049    5.8860062     37.36523 
19956000    297.08811    359.45433    322.12701   -83744.289    83772.572    37.327318    37.366001 
19960000     269.6119    247.38643    374.47238    -83760.12    83828.487   -127.08596    37.362645 
19964000    288.61545    389.36699     412.2564   -83777.805    83847.261   -22.889411    37.356311 
19968000    279.12647    338.41726    635.67071   -83791.739    83868.075   -297.25344    37.355397 
19972000    266.69509    262.96755    458.74204   -83807.261    83883.811   -195.77449    37.348662 
19976000    278.08213    523.30167    348.69498   -83820.049    83887.799    174.60669    37.344923 
19980000    311.53907    704.29235      379.559   -83854.123    83897.399    324.73335    37.349945 
19984000    302.76893    385.81204    338.96227    -83864.57    83900.581    46.849769    37.350639 
19988000    312.35495    517.48204    217.39678   -83889.966    83945.688    300.08526    37.353757 
19992000    298.09051     452.3692    249.91463   -83922.912    83956.105    202.45457    37.359397 
19996000    287.25695    291.24423    479.43985   -83912.412    83973.501   -188.19561    37.358988 
20000000    291.96045     349.4368    202.52641   -83940.468    83995.641    146.91039       37.362 
20004000    307.46593    393.00727    305.91447   -83982.306    84007.715    87.092803    37.358145 
20008000    282.86782    388.16035    353.16207   -83975.265    84032.078    34.998286    37.357847 
20012000     279.7188    298.37245    310.22913   -83996.894    84058.046   -11.856685    37.346927 
20016000    282.73934    291.90319    252.37958    -84013.25    84065.896    39.523605    37.337261 
20020000    268.97965    276.81171    331.03519   -84037.885    84115.771   -54.223479    37.337481 
20024000    311.88882    397.24478    391.51003   -84066.241    84127.403    5.7347578    37.346869 
20028000    300.11226    417.95864     529.1219   -84095.013    84126.087   -111.16327    37.351546 
20032000    288.07402    320.79313    309.94431   -84121.355    84151.778    10.848817    37.353321 
20036000     281.4403    317.52074    409.81298   -84134.981    84177.289   -92.292234    37.355996 
20040000     327.8645    672.80356    233.08147   -84150.918    84193.249    439.72209    37.362829 
20044000    289.15404    468.64727    387.97982    -84154.49    84223.129    80.667445    37.355934 
20048000    288.22734    630.45148    398.48621   -84171.734    84239.658    231.96528    37.352965 
20052000     272.9993    465.91955    528.48682   -84192.468    84251.004   -62.567267    37.355892 
20056000    294.43166    326.14749    282.48688   -84214.231    84271.823    43.660608    37.354208 
20060000    287.98997    269.62385    519.94203   -84237.188    84283.581   -250.31817    37.348429 
20064000    276.22177    308.46979      294.281   -84253.085    84323.604     14.18879    37.343195 
20068000    280.68537    290.89881    335.01176   -84285.864    84355.705   -44.112949    37.346397 
20072000    285.95703    321.02206    217.24917   -84281.904    84341.709    103.77289    37.344245 
20076000    239.60133    513.81426    338.86685   -84273.131    84361.358    174.94741    37.343342 
20080000    286.34956    349.31339    200.15748   -84344.576    84402.517    149.15591    37.341108 
20084000    320.32399    383.15963    234.40977   -84389.422    84437.528    148.74986    37.340171 
20088000    257.62739    342.29841    150.33408   -84398.161    84465.874    191.96433    37.342836 
20092000    305.77827    472.37447    222.04919   -84422.781    84467.524    250.32528    37.348011 
20096000    257.84075    320.60801    235.19944   -84400.475    84483.873    85.408569    37.347818 
20100000    264.99466    199.43568    258.17495   -84432.946    84514.384   -58.739272    37.355663 
20104000    262.01652     318.9524    372.00672    -84450.45    84552.088   -53.054321    37.355097 
20108000    285.26565    506.23964     187.9078   -84496.633    84559.352    318.33184     37.35658 
20112000    272.12373    327.73513    216.56427   -84520.088    84584.548    111.17086    37.359439 
20116000    321.88146    452.85407    460.31846   -84564.778     84604.98   -7.4643885    37.363156 
20120000    287.02392     272.1835    337.47101   -84562.069    84635.668    -65.28751    37.362206 
20124000    263.41236    272.03891    316.28572   -84580.404    84654.384   -44.246811     37.35593 
20128000    266.60951    315.52186    185.88092   -84616.814    84673.454    129.64094    37.358471 
20132000    311.03431    587.38483    345.33137   -84631.795    84678.049    242.05346    37.363622 
20136000    322.74643    470.32278    571.58927   -84656.613    84696.777   -101.26649    37.367518 
20140000    313.54962    298.66031    195.14156   -84645.886    84684.967    103.51874    37.371429 
20144000    269.89439    335.74866    384.37395   -84679.372    84747.395   -48.625292    37.367645 
20148000    281.04869    370.42977    318.59279   -84693.263    84756.825    51.836977    37.360405 
20152000    290.62896    434.68545    298.48583   -84723.849    84763.737    136.19962    37.359416 
20156000    290.52918    283.40602    333.11558   -84717.613    84778.795   -49.709559    37.360846 
20160000    263.01917    231.11821     219.4978   -84736.622    84820.597    11.620415    37.363928 
20164000    267.60851    339.41262    349.33113   -84757.352    84831.144   -9.9185079     37.35475 
20168000    268.11049    340.98888    250.95237    -84753.54    84833.275    90.036505    37.358454 
20172000    300.76123    586.29739    467.81769   -84802.172    84876.049     118.4797    37.355195 
20176000    266.87047    315.32097    269.68809   -84820.734    84898.747    45.632886     37.34662 
20180000    293.42597     421.1012      221.344   -84849.132    84908.471     199.7572    37.347492 
20184000    292.95844    535.80979    492.73135   -84890.515    84936.509    43.078442    37.352767 
20188000    278.18832     308.3569    322.45138    -84899.33    84958.808   -14.094481    37.344649 
20192000    288.92663    176.39573    395.70072   -84916.134    84966.028   -219.30499    37.341351 
20196000    285.31109    271.59691    455.09657     -84916.5    84985.346   -183.49967    37.340869 
20200000    258.04494    263.40117    326.26536   -84918.522    85000.309   -62.864189     37.33907 
20204000    278.80993    319.91758    247.48808   -84948.702    85008.937      72.4295    37.343006 
20208000    265.17001      338.815    340.31304   -84940.426    85019.965   -1.4980344      37.3376 
20212000    278.35236    410.90077    164.94203   -84935.555    85015.158    245.95874    37.336726 
20216000    292.00085    373.12067    324.30058   -84955.855    85012.481    48.820095    37.336635 
20220000     285.0147    509.76558    309.02073    -84981.07    85026.848    200.74485    37.343379 
20224000    299.75603    429.91232    365.20462   -84996.967    85045.264    64.707703    37.344736 
20228000    281.02803    390.43113    284.37955   -85020.476    85087.185    106.05158    37.351801 
20232000    307.40838    198.72679    354.05131   -85067.496    85104.858   -155.32452    37.346212 
20236000    282.37082    595.23306    226.90151    -85087.49    85142.165    368.33155    37.343066 
20240000    300.69449    505.87666    281.20864   -85110.307    85157.301    224.66802    37.346078 
20244000    286.55719    692.74391    531.79028   -85114.609    85153.188    160.95363    37.350814 
20248000    309.98765    371.51113    346.91985   -85142.665    85179.824    24.591285    37.347222 
20252000    283.79737     401.3462    622.16035   -85155.107    85215.144   -220.81416    37.344586 
20256000    294.59872     316.7288    413.77012   -85168.106    85220.665   -97.041313    37.351905 
20260000    257.63296    383.06874    192.36325   -85154.356    85231.855    190.70549    37.350268 
20264000    281.87693     249.0757    362.91106   -85190.987    85265.923   -113.83537    37.352818 
20268000    270.77549    292.69789    420.72467   -85232.814    85296.623   -128.02677    37.349278 
20272000    286.87071    448.86773    323.10241   -85247.795     85304.08    125.76532    37.359558 
20276000     277.0585    308.02722    596.74091   -85284.353    85335.487   -288.71369    37.347209 
20280000    250.51744    372.31259    319.84518   -85307.173    85392.187    52.467409    37.350542 
20284000    284.76135    381.48182    275.33533     -85337.3    85407.254    106.14649    37.352555 
20288000    281.51088    479.68076    267.41815   -85369.454    85427.363     212.2626    37.350254 
20292000    304.04593    531.35591    330.27979   -85372.155    85435.328    201.07612    37.357118 
20296000    278.86764    265.19391    364.74884   -85399.827    85469.478   -99.554928    37.354277 
20300000    297.90325    171.72811    466.99695   -85455.058    85506.021   -295.26883    37.350475 
20304000     280.6717    395.31254    254.38346   -85464.219    85524.435    140.92907    37.342061 
20308000    261.02251    192.25047    277.68663   -85487.362    85564.392   -85.436169    37.349445 
20312000    300.50716    417.80955    528.10012   -85503.597    85564.993   -110.29057    37.352358 
20316000    309.55409    393.49246    311.02079   -85558.933     85596.69    82.471674    37.359483 
20320000    281.86074    458.60589    425.17837   -85572.647     85627.98    33.427516    37.361839 
20324000    270.67352    387.47316    302.81372   -85558.416    85637.103    84.659443    37.363837 
20328000    259.63116    363.40033    187.20845   -85551.657    85629.743    176.19188    37.362442 
20332000    266.21407    310.63635     505.5121     -85566.6    85646.096   -194.87576    37.363326 
20336000    272.85937    493.25932    326.54512   -85589.383    85677.389     166.7142    37.360792 
20340000    273.45671    247.84847    303.58556   -85602.395    85657.248   -55.737088    37.354524 
20344000    253.02255    500.39303    302.47174   -85606.291    85677.225    197.92129    37.357099 
20348000     254.3527    431.62302    495.16094   -85652.363    85717.626   -63.537911    37.361739 
20352000    268.50366    360.29823    362.43905    -85659.98    85714.608   -2.1408212    37.359255 
20356000    272.55371    292.14812    267.28235   -85676.969    85744.481    24.865769     37.36267 
20360000    247.72683     372.5051    278.77945   -85698.098    85765.842    93.725648     37.36252 
20364000    276.82489    456.50276    304.02409   -85712.516    85787.669    152.47867    37.374512 
20368000    259.83083    339.94505     264.5366   -85719.494    85810.964    75.408459    37.376086 
20372000    306.50939    278.29345    307.47216   -85740.472    85787.273   -29.178708    37.381401 
20376000    289.31197    444.71623    288.18189   -85779.638     85832.15    156.53434     37.38657 
20380000    272.95606    502.28706    209.63481   -85774.281    85834.712    292.65225    37.383814 
20384000    277.01575     277.4003     324.7985   -85789.139    85855.192   -47.398192    37.383298 
20388000    312.80829    306.08096    467.56159   -85817.295    85863.528   -161.48063    37.381425 
20392000    244.83875    362.27027    214.87869   -85789.123    85895.584    147.39158    37.382503 
20396000    269.64947    360.42469    170.13094   -85811.642    85896.854    190.29374    37.382022 
20400000    251.84676     410.5283    289.98429   -85822.117    85903.079    120.54401    37.378425 
20404000    285.12442    315.91305    398.74088   -85858.684    85921.858    -82.82783    37.378117 
20408000    275.94114    262.73166    537.04573   -85893.761    85975.784   -274.31408    37.380326 
20412000    268.04258    378.52143    441.23267   -85919.939    85989.851   -62.711237    37.377644 
20416000    286.12327    305.92399    203.90786   -85963.453    86023.914    102.01613    37.371616 
20420000    297.69093    448.34707    314.26233   -85981.691    86047.621    134.08475    37.366753 
20424000    248.46506    270.09597    193.12599    -86005.91    86086.525    76.969981    37.361065 
20428000    312.83475    632.88348    468.34079   -86025.834    86077.723    164.54269    37.364096 
20432000    284.42224    417.46821    254.33111   -86039.019    86093.997    163.13709    37.363264 
20436000    282.30663     357.4743    251.15817   -86043.675    86098.718    106.31613    37.367013 
20440000    307.83626    341.60009    336.17915   -86053.999    86110.605    5.4209367     37.36962 
20444000    303.98562    317.47626    410.66004   -86098.928    86137.627   -93.183777    37.370597 
20448000    297.63809    542.04638    390.44243   -86121.057    86164.049    151.60395    37.371948 
20452000    299.51587    412.62461     307.7272   -86122.766    86192.842    104.89742    37.360523 
20456000    271.76376     390.5506    228.77023    -86156.84    86220.456    161.78037    37.366694 
20460000    284.50841    219.13092    528.24876   -86168.507    86245.474   -309.11785    37.368683 
20464000    275.14985    298.59256    430.54424   -86177.011    86246.445   -131.95168    37.369329 
20468000     266.6802    356.87781    279.50448   -86195.116    86278.241    77.373328    37.372712 
20472000    272.97678    237.37401    189.03757   -86231.779    86302.763    48.336441    37.370908 
20476000    267.68524    285.86951    196.03266    -86247.37    86338.601    89.836849    37.368609 
20480000    296.26484    395.16908    367.28301   -86271.516    86342.286    27.886076    37.366344 
20484000    308.42195    394.32284    302.30135   -86265.616    86320.929    92.021499    37.372027 
20488000    258.25671    492.44143    324.92982   -86272.342    86325.216    167.51161    37.367928 
20492000    273.07504    283.43789     332.5942   -86316.761    86369.163   -49.156308    37.371346 
20496000    261.90985    265.98321    442.13871   -86319.925    86383.466    -176.1555    37.359623 
20500000    260.59289    406.58508    209.49557   -86343.927    86419.529     197.0895    37.352936 
20504000      277.293    342.54499    279.88467   -86402.426    86452.772    62.660318    37.344542 
20508000    294.50245     270.7111    281.93323   -86397.686    86442.985   -11.222135    37.345549 
20512000    302.63208    242.44827    402.81065   -86425.957    86446.028   -160.36238    37.349286 
20516000    322.86682    302.49953    187.65185   -86455.462     86481.59    114.84769    37.341802 
20520000    260.44849    326.09586    342.72898   -86449.339     86499.99   -16.633122    37.331067 
20524000    278.90899    196.30405     292.7439   -86466.112     86529.75   -96.439852    37.325557 
20528000    245.10571    273.37365     258.4353   -86476.376    86552.626    14.938354    37.327506 
20532000    258.61966    286.40807    294.22134   -86493.211    86567.272   -7.8132744    37.326927 
20536000    284.22014    473.09984    266.16966   -86523.739     86579.34    206.93018    37.327389 
20540000    269.18946    288.27647    272.94959   -86523.776    86571.174    15.326882    37.331239 
20544000    287.48334     332.2889    263.03103   -86533.749    86582.438    69.257866    37.336031 
20548000    295.15167    238.35319     242.7717   -86555.706    86593.735    -4.418504    37.339128 
20552000    319.40542    413.86751     460.1466    -86574.39    86610.302   -46.279083    37.337446 
20556000    302.04851    679.26556    409.99191   -86577.061    86625.777    269.27365    37.343043 
20560000     271.4075    423.94749    308.54268   -86567.836    86639.519    115.40481    37.345614 
20564000    289.34148    565.35021    303.70405   -86592.965    86654.016    261.64616    37.346005 
20568000    276.64735    259.20329    385.39142   -86595.288    86686.937   -126.18814    37.344599 
20572000    286.56989    383.32758    184.64401   -86620.941    86678.065    198.68357    37.342031 
20576000    319.07302     293.5994    302.20298   -86669.327    86721.624   -8.6035748    37.340194 
20580000    288.00128    433.72314    236.46658   -86702.533    86761.055    197.25656    37.345589 
20584000     266.9036    221.38603    300.73989   -86722.938     86801.28   -79.353859    37.341492 
20588000    275.90333     398.8255    226.58295   -86761.178    86824.831    172.24255    37.339298 
20592000    295.89573    409.64989    291.47304   -86779.612    86838.709    118.17685    37.338884 
20596000    271.56824     356.1523    469.09918   -86793.141    86866.715   -112.94688    37.342172 
20600000    278.18415    255.72674     364.3765   -86797.625    86863.117   -108.64976    37.341456 
20604000    256.74492    393.47124     286.4894   -86794.006    86897.111    106.98183    37.342734 
20608000    290.98832    454.92997    309.29716   -86821.611    86890.261    145.63281     37.34675 
20612000    289.12823    242.96476    245.49857    -86850.75    86921.728   -2.5338104    37.341292 
20616000    296.20617    137.49293    452.01231   -86866.869    86928.066   -314.51938    37.340828 
20620000    277.63003    446.24614    340.09721   -86882.785    86946.383    106.14893     37.33745 
20624000    245.10903    328.02476    313.16987   -86862.458    86975.607    14.854886    37.337955 
20628000    258.86543     355.5977    397.60451   -86879.212    86968.615   -42.006807    37.340478 
20632000    294.90681    256.57119    171.71131   -86913.758    86981.625    84.859884      37.3419 
20636000    272.94414    241.09739    284.85528   -86940.375    87013.746   -43.757888    37.342186 
20640000     310.1403     286.4928    315.76725   -86985.845    87027.313    -29.27444    37.345792 
20644000    248.29983    338.00216    249.14056   -86972.527     87067.11    88.861603    37.340003 
20648000    255.58801    236.95858    330.52257   -86983.157    87062.728   -93.563996    37.336452 
20652000    304.22675    547.28106    405.42617    -87025.78    87074.768    141.85489    37.329349 
20656000    266.08504    279.29762    149.18482   -87021.049     87098.53     130.1128    37.328305 
20660000    300.27213    591.32395    305.47379    -87045.72    87100.543    285.85016    37.331796 
20664000    270.18377    324.35947     302.6295   -87056.076    87134.721    21.729969    37.326251 
20668000    273.74203    241.47718    362.14602   -87046.899    87131.645   -120.66883    37.325771 
20672000    291.55929    387.75625    138.85639    -87073.57    87138.824    248.89986    37.326324 
20676000    292.04953    508.34312    262.74074   -87109.246    87169.155    245.60238    37.319825 
20680000    272.65296    290.88959    353.73577   -87101.725    87166.094   -62.846186    37.316519 
20684000    303.84948    548.58709    284.98138   -87125.281    87188.825    263.60571    37.322872 
20688000    310.79006    186.90408    339.82037   -87142.588    87189.887   -152.91628    37.320726 
20692000    279.63756    332.46513    242.86667   -87129.032    87201.974    89.598457    37.325042 
20696000    288.87153    437.02428    330.66263   -87159.176    87217.714    106.36165    37.329391 
20700000    319.18816    355.39291    360.82633   -87201.025    87241.586   -5.4334186    37.329096 
20704000    283.89683    458.22633    284.84018    -87214.58      87246.3    173.38615    37.336625 
20708000    280.73815     407.9259    161.53797   -87214.623    87266.502    246.38794    37.335378 
20712000    249.91389    205.04433     214.6707   -87209.986    87282.779   -9.6263731    37.330775 
20716000    287.63113    359.23719    378.77592   -87229.016    87288.144   -19.538732    37.338003 
20720000    257.31223     296.1566    241.06958   -87243.333    87314.383    55.087014    37.343068 
20724000    287.10264    317.96786    415.80661   -87274.204    87329.904   -97.838756    37.339695 
20728000    256.92777    364.44245    232.63988   -87273.159    87346.719    131.80257    37.331334 
20732000     284.1874    306.60567    291.55617    -87269.87    87342.577    15.049499    37.328027 
20736000    260.85592     358.2919     282.7154   -87277.087    87360.273    75.576504    37.324539 
20740000     268.2403    426.76604    246.65241   -87317.284    87379.593    180.11363    37.321897 
20744000    302.14959      419.843     321.3171   -87354.872    87414.961    98.525909    37.326849 
20748000    269.20211    268.17088    363.08701   -87360.548    87426.789   -94.916129    37.327771 
20752000    251.67538    359.30457    381.68516   -87391.044     87471.46   -22.380591    37.327439 
20756000    258.88204    347.91385    511.37737    -87411.15    87477.999   -163.46352    37.319359 
20760000    268.77867    269.94555    340.07703   -87417.778    87507.627   -70.131481    37.323329 
20764000    278.38201    395.72222    288.10358   -87438.666    87501.703    107.61864    37.326388 
20768000    296.56045    351.92921    225.09976   -87451.001    87507.516    126.82944    37.326809 
20772000    274.61397    383.54366    268.97823   -87448.923    87517.377    114.56542    37.317938 
20776000    280.08356    329.20841    253.54942   -87462.105    87525.769    75.658983    37.313101 
20780000    300.60775    356.42616    247.55933   -87475.136    87518.159    108.86682    37.304287 
20784000    293.11844     342.7575    333.57935   -87481.943    87530.779    9.1781463    37.302221 
20788000    299.04194    351.99616    394.26161   -87495.231    87563.722    -42.26545    37.300283 
20792000    268.75615    385.96478    348.16525   -87519.132    87578.278    37.799535    37.301498 
20796000     322.2091    586.70452     337.7695    -87550.69     87603.19    248.93502    37.303695 
20800000     273.2004    261.74555    328.30677   -87553.462    87635.168   -66.561224    37.301157 
20804000     264.4181    242.37326    187.29298   -87599.453    87659.629    55.080277    37.304588 
20808000    298.28465    424.44321    417.25413   -87642.957    87688.365    7.1890758    37.297567 
20812000    288.10585    342.52379    246.64113   -87662.304    87715.781    95.882661     37.29087 
20816000    281.16105    320.00493    369.84481   -87666.428    87734.135   -49.839878    37.297854 
20820000    265.88728    284.20883    261.36778   -87666.173    87743.406    22.841055     37.29308 
20824000    281.27872    442.13608    298.31668   -87702.133    87766.431     143.8194    37.302871 
20828000    265.97106    304.48562    190.46386   -87699.893    87776.472    114.02176    37.308557 
20832000    254.82936    286.11186     492.3068   -87713.461    87795.489   -206.19495    37.308923 
20836000    286.57183    353.66107    242.77597   -87755.483    87813.221    110.88511    37.301531 
20840000    279.21741    354.19838    200.85719   -87791.764    87850.407    153.34119    37.310788 
20844000    305.82985    284.87098    235.88416   -87813.592    87862.806    48.986815    37.307081 
20848000    283.54519    220.59511    411.01975   -87836.172     87898.53   -190.42464    37.308581 
20852000    281.97825    358.92369    389.03973   -87830.899     87908.03   -30.116035    37.310883 
20856000    280.70117    349.11873    363.23707   -87853.394    87921.647   -14.118337    37.299094 
20860000    309.23641    285.75142      338.274   -87882.171    87925.647   -52.522587    37.305238 
20864000    302.00452    172.94009    315.34051   -87910.551    87960.891   -142.40042    37.306649 
20868000    254.76758     306.1743      350.942   -87919.295    88008.466   -44.767704    37.309749 
20872000    264.60962    353.69845    250.72017   -87940.408    88027.334    102.97828    37.312757 
20876000    282.30761    440.89227    213.75531   -87972.761    88055.735    227.13696     37.31612 
20880000    293.42766    292.95757    639.58887   -87984.555    88048.474    -346.6313    37.306379 
20884000    293.56029    513.60451    511.34138   -88015.334     88078.73    2.2631305    37.311434 
20888000    299.49642    355.12198    635.05434   -88036.169    88085.678   -279.93237    37.316423 
20892000    267.98206     242.1959    362.27974   -88042.915    88103.142   -120.08384    37.315359 
20896000    248.29163    289.79805    232.06785   -88025.915    88088.172      57.7302     37.31347 
20900000    298.21709    501.35697     185.2024   -88078.544    88126.479    316.15457    37.308858 
20904000    281.15864     307.6948    247.82964    -88073.84    88130.819     59.86516    37.307283 
20908000    300.63849    481.16883    187.27865    -88090.37    88141.143    293.89018    37.318223 
20912000    312.89386    386.07952    215.80902   -88119.961     88159.95     170.2705    37.330438 
20916000    283.06976     380.7937    308.85537   -88119.816    88192.593    71.938332    37.328553 
20920000    259.81983    288.94173    377.55265   -88135.011    88211.714   -88.610927    37.324867 
20924000    274.69952    301.31433    296.71027   -88176.478    88235.108    4.6040653    37.326894 
20928000    299.10005    621.62069    306.97367    -88203.16     88264.58    314.64702     37.32871 
20932000    265.79318    353.73372    183.78525   -88224.098    88277.653    169.94847    37.324495 
20936000    301.85823    330.90688    424.68561   -88213.936    88281.182   -93.778735    37.328104 
20940000    274.09901    192.20828    262.92464   -88233.024    88298.348   -70.716356    37.326709 
20944000    279.11322    652.62658    184.50377   -88253.428    88323.026    468.12281    37.327043 
20948000    280.99431    384.99534    443.49069   -88277.387    88331.287   -58.495346    37.330933 
20952000    297.53532    558.48542    289.22654   -88312.198    88366.463    269.25888    37.341374 
20956000    297.22894    274.82533    240.20934    -88343.52    88401.681     34.61599    37.342854 
20960000    279.88261    332.78774    381.97324   -88366.863    88409.151     -49.1855    37.335338 
20964000    285.07172    444.14508    171.77541   -88376.901    88429.782    272.36968    37.345433 
20968000    281.08639    357.95664    321.24001   -88417.526    88481.066    36.716625    37.342633 
20972000    272.84857    304.90644    380.72059   -88398.389    88475.603   -75.814146    37.346227 
20976000    276.52085    441.10533    467.02084   -88433.837    88476.122   -25.915512    37.336007 
20980000    301.91339    493.93196    318.36768   -88467.686    88509.373    175.56428    37.333575 
20984000    302.77366    524.37837    230.35072    -88465.76    88522.734    294.02765    37.332732 
20988000    290.28596    355.11208    360.67941   -88480.065     88547.07   -5.5673241    37.333334 
20992000    278.42959    277.70995    266.91766   -88493.419    88566.336     10.79229    37.329506 
20996000    293.98012    347.15436    275.02266   -88521.157    88578.609    72.131704    37.328717 
21000000    262.99099    364.29805    249.18582   -88542.141     88617.71    115.11224    37.323878 
21004000    269.40548    401.18755      341.898   -88553.382     88630.21    59.289549    37.319285 
21008000    264.26453    231.50932    229.70605   -88603.902    88671.385    1.8032624    37.317647 
21012000    299.31979    393.27989    385.53914    -88625.33    88685.351    7.7407561     37.31358 
21016000    298.38694    296.38116    341.04515   -88631.362    88703.768   -44.663987    37.315562 
21020000    266.23459     459.5332    329.76912   -88633.409    88715.751    129.76408    37.315691 
21024000    284.78305    561.61583    254.15372   -88669.347    88725.354    307.46211    37.317309 
21028000     287.5056    509.46863    280.27676   -88678.256    88757.433    229.19187    37.327391 
21032000    308.65496    356.49327    282.74945   -88719.612    88784.468     73.74382    37.324675 
21036000    288.98559    315.90714    454.97564   -88749.478     88810.87   -139.06851    37.324951 
21040000    295.26531    338.96558    283.66034   -88761.209    88813.561    55.305242    37.324501 
21044000    300.14455    356.02124    455.91263   -88779.356    88811.111   -99.891389    37.327191 
21048000    281.66666    588.33746    321.48665   -88790.095    88857.808    266.85081    37.332862 
21052000    308.15074    461.28548     451.3416   -88816.277     88895.12    9.9438783    37.329713 
21056000    292.44943    264.83981    456.46088   -88829.863    88883.188   -191.62108    37.323813 
21060000    289.81495     238.9821    283.16303   -88859.486     88922.78    -44.18093    37.320053 
21064000    301.99548    394.99769    479.26205   -88900.168    88951.382   -84.264359    37.319574 
21068000    266.36984    250.31553    190.11613   -88925.629    88986.298    60.199397    37.316943 
21072000    269.07304    506.86776    242.01844   -88936.473    89008.024    264.84931    37.316006 
21076000    286.92928     243.6146    302.06336   -88935.527    89027.024   -58.448767    37.319859 
21080000    298.42461    422.55532    143.47689   -88996.614    89050.189    279.07843     37.32716 
21084000     278.3431    444.06626    403.40409   -88991.353    89060.412    40.662166    37.331932 
21088000    310.43751    428.42043    311.70507   -89025.999    89079.964    116.71536    37.329283 
21092000    257.77842    365.46661    359.10355   -89041.459    89125.157    6.3630615    37.329786 
21096000     268.0156    355.62281    486.46415   -89024.228    89094.923   -130.84134    37.335544 
21100000    269.94385    260.91064     297.0752   -89029.018    89109.706   -36.164559    37.331133 
21104000    281.52378      280.249    310.49036    -89058.49    89132.869   -30.241357    37.323212 
21108000     277.0264     312.7331    336.54232   -89071.712    89140.532    -23.80923     37.31213 
21112000    294.31025     500.6431    207.48075   -89099.414    89159.631    293.16235    37.311823 
21116000    291.74161     296.4903    340.86369   -89126.197    89189.099   -44.373384    37.313304 
21120000    285.67062    437.74826    239.84821    -89130.87    89193.621    197.90005      37.3108 
21124000    281.74289     425.5391     214.3281   -89164.938    89219.723      211.211      37.3092 
21128000    270.03698    273.88952     289.2121   -89156.915    89222.702   -15.322581    37.307415 
21132000    271.29457      321.434    255.40696   -89160.052     89238.26    66.027032     37.30605 
21136000    298.36227    547.00603    405.49164   -89202.049    89256.731    141.51439      37.3059 
21140000    276.80316    325.84716     466.6089   -89200.447    89276.019   -140.76173    37.303663 
21144000    300.30343     399.2333    200.76085   -89222.915    89277.887    198.47245    37.305906 
21148000    283.35685    182.51144    274.27738     -89224.9    89300.594   -91.765945    37.307194 
21152000     261.3116    400.28576    343.21974   -89246.651    89335.988    57.066021    37.298812 
21156000    284.91714    291.47922    303.99652   -89314.609    89368.615   -12.517304    37.308726 
21160000    278.70614    387.32962    304.93897   -89318.669    89381.544    82.390644    37.310407 
21164000     295.1158    458.58314    368.45749   -89353.029    89401.898    90.125651    37.310381 
21168000    293.95413    362.50191    285.09257   -89372.715    89422.494    77.409346    37.309328 
21172000    287.20867    221.13413    269.44988   -89401.379      89443.2   -48.315751    37.305704 
21176000    279.51805    173.60275    248.18872    -89390.57    89465.041    -74.58597    37.303917 
21180000     286.4309    320.38876    368.34216   -89398.493    89469.611   -47.953402    37.308442 
21184000    273.62345    296.63762    474.55278   -89403.239    89472.605   -177.91516    37.320548 
21188000    282.89905    355.12636    208.09629   -89444.491     89527.32    147.03006    37.310691 
21192000    276.01237    377.43294    295.84059   -89470.222    89544.439    81.592352    37.314635 
21196000    279.37745    218.27668    295.09712   -89472.149    89546.818   -76.820442    37.309785 
21200000    271.06068    463.83644    354.86628   -89479.117    89538.032    108.97017    37.318116 
21204000    255.76917    383.47443    224.99953   -89485.552    89561.871     158.4749     37.32231 
21208000    275.66006    447.83306    232.72169   -89505.684    89579.562    215.11137    37.323923 
21212000    301.83616     266.6769    311.93642   -89556.045    89606.465   -45.259517    37.321842 
21216000    257.42712    353.52671    205.12252   -89560.449    89639.936    148.40419    37.319881 
21220000    308.05677    561.58703    183.16396   -89566.578    89642.962    378.42307    37.322629 
21224000    267.81446    247.08928    257.68871   -89589.028    89661.668   -10.599428    37.324948 
21228000    298.71693    293.32771    276.08467   -89627.367    89676.349    17.243044    37.328688 
21232000    319.73071    612.05708    242.16224   -89644.664    89685.977    369.89484    37.332047 
21236000    277.37326    365.86052    205.30087   -89630.464    89686.154    160.55965    37.330243 
21240000    267.94188    384.83169     339.8851   -89664.301    89718.642     44.94659    37.323195 
21244000    277.79281    422.48202    275.26292   -89704.564    89763.035     147.2191    37.324854 
21248000    268.89377    309.45977    216.15869   -89742.804    89821.205    93.301084    37.325884 
21252000    283.99222    506.08836    243.11566   -89755.078    89828.565     262.9727    37.327797 
21256000    267.89908    347.58007    248.80527   -89762.262    89825.992    98.774798    37.331978 
21260000    288.90491    255.64631    282.08597   -89790.878    89844.469   -26.439659    37.324896 
21264000    277.91403    400.36087    337.99664   -89815.541    89884.762    62.364229    37.334179 
21268000    289.43913    325.81403    264.22307   -89840.402    89894.951    61.590961    37.335116 
21272000    301.88159    361.32804    351.82504   -89848.305    89898.368    9.5030026    37.338637 
21276000    307.42022    417.66082    356.95153   -89880.909    89931.359    60.709287    37.334557 
21280000    300.80198    362.63257    332.98247   -89903.815    89958.064    29.650098    37.345992 
21284000    256.07751    387.69983    184.38169   -89893.088    89970.364    203.31814    37.354119 
21288000    284.97746    305.34587    222.44902   -89938.613    89978.622    82.896856    37.346618 
21292000    272.92135    555.95126    262.77992   -89950.277    90005.679    293.17134    37.345683 
21296000    285.84109     424.2725    236.76719   -89960.733    90019.579    187.50531    37.350304 
21300000    290.04527    434.65744    388.54697   -89985.209    90031.842    46.110471    37.345249 
21304000    271.50683    421.63288    240.76982    -89996.53    90066.772    180.86306    37.343553 
21308000    277.83785    436.90859     406.3193   -90020.646    90085.221    30.589291    37.336996 
21312000    294.43906    226.15645    430.09846   -90056.503    90103.753   -203.94202    37.339596 
21316000    276.46535    448.31733    224.19965   -90043.702    90116.067    224.11767    37.337221 
21320000    274.92887    272.47333    320.41716    -90064.14    90139.182   -47.943833    37.333438 
21324000    268.46825    311.15243    125.44155   -90102.769    90155.934    185.71089    37.332289 
21328000    288.36098    383.52282    229.50387   -90123.687    90171.747    154.01896     37.33782 
21332000    288.75404    354.22787    342.29638   -90131.433    90188.632    11.931488    37.339883 
21336000    266.75873    385.03627    239.96135   -90142.742    90207.817    145.07491    37.337135 
21340000    281.32218      248.903      294.846   -90164.706    90236.535      -45.943    37.331069 
21344000     262.0726    372.57997    249.35077   -90184.745     90266.08    123.22919     37.33265 
21348000    305.52001    340.00951    425.91108   -90219.539    90263.269    -85.90157    37.331154 
21352000     257.1016    326.32646    231.23125   -90192.896    90277.866     95.09521    37.330226 
21356000    278.33613    335.05299    329.71696   -90229.546    90292.126    5.3360319    37.332434 
21360000    300.98063    480.04485    277.58059   -90254.213    90312.437    202.46427    37.334179 
21364000    283.33633     446.2007    179.52252   -90250.597    90312.461    266.67818    37.340391 
21368000    298.29229    555.43799    210.65071   -90265.116    90326.801    344.78728    37.338098 
21372000    254.44395    257.39973    406.80314   -90278.911    90377.606    -149.4034     37.33796 
21376000    275.89919    399.19493    224.20973   -90339.901    90425.749     174.9852    37.337315 
21380000    275.65209    504.63836    254.19772   -90370.165    90431.943    250.44064    37.334283 
21384000    244.44595    388.04899     396.0663   -90373.934    90458.388   -8.0173114    37.337806 
21388000    280.26902    453.13765    273.18847   -90389.288    90462.085    179.94918    37.339205 
21392000    283.16052    286.56269    271.68925    -90423.37    90489.086    14.873447    37.337791 
21396000    288.16453    316.55452    414.98125   -90429.848    90500.037    -98.42673    37.346894 
21400000    249.34895    290.60937    333.89456    -90448.26    90511.904   -43.285187    37.348396 
21404000    282.56622    222.05033    190.12559    -90494.83     90562.43    31.924738    37.342219 
21408000    289.12206    449.65925    123.98382   -90514.761    90581.388    325.67544     37.34235 
21412000    266.18999    351.49546    132.93924   -90524.167    90596.813    218.55623    37.339052 
21416000    262.04614      191.257    233.46473   -90518.742    90622.485   -42.207721    37.339542 
21420000    262.76618    181.36433    203.46013   -90556.978     90631.69   -22.095796    37.336593 
21424000    285.81085    320.94368    288.20541   -90593.429     90671.36    32.738267    37.340437 
21428000     288.5801    280.68659    334.59999   -90605.932    90670.121   -53.913392    37.337074 
21432000    281.52719    297.43533    291.36503   -90630.806     90685.24    6.0702981    37.335019 
21436000    241.26742    239.61076    412.95178    -90637.73    90735.347   -173.34103    37.336653 
21440000    285.26704    269.01405    239.19856   -90664.604    90735.505    29.815493    37.331938 
21444000    282.21507    229.48091    230.01065    -90701.18    90760.166  -0.52973713    37.335048 
21448000     282.7381    384.42949    252.00869    -90705.03    90777.676     132.4208    37.334903 
21452000    285.90712    222.30124    282.46981   -90690.467    90763.704   -60.168572    37.338481 
21456000    301.98122    499.76122    383.86861   -90701.517     90767.89    115.89261    37.342025 
21460000    289.19831    401.66525    411.80364   -90697.962      90770.9   -10.138389    37.342748 
21464000    249.60152    288.76911     235.9319   -90692.047    90770.592    52.837218    37.345497 
21468000    282.90606    477.69344    336.43653   -90750.844     90815.92    141.25691    37.336993 
21472000    286.49188    612.31146    401.95982   -90774.812    90829.917    210.35164    37.339674 
21476000    296.81848    410.58556    274.91039   -90787.705    90854.701    135.67518    37.341289 
21480000    281.41354     445.8794    373.43688   -90786.282     90874.91    72.442521    37.339697 
21484000    289.10887    477.74904    340.82558   -90825.401    90875.195    136.92345    37.348296 
21488000    290.00563    497.60838    446.67363   -90829.185    90899.448    50.934757    37.346644 
21492000    256.02337     128.7349    339.50097   -90841.515    90905.097   -210.76607    37.344869 
21496000    313.75774    419.42662    213.06379   -90890.609    90916.971    206.36283    37.343361 
21500000    285.74635    456.50583    249.51323   -90884.719    90953.921    206.99261    37.343476 
21504000    285.58926    476.81348    139.68076   -90914.586    91003.611    337.13271    37.350857 
21508000    294.57341    472.56257    334.14638   -90943.954    91000.878    138.41619    37.358468 
21512000    282.80387    262.13227    248.15367   -90942.681    91007.643    13.978604    37.357052 
21516000    268.20719    428.72514    166.62686   -90955.655    91027.343    262.09829    37.354745 
21520000    286.92293    604.20838    439.22216   -90986.146    91056.847    164.98622    37.349852 
21524000    286.23317    381.56526    381.83024   -91017.358    91080.897   -0.2649793    37.345711 
21528000    266.00044    359.40148    346.59441   -91026.822    91101.564    12.807071    37.338728 
21532000    291.55682    320.37267    280.21034    -91053.99     91114.84     40.16233    37.336238 
21536000    291.16947     654.2824    372.14314   -91070.632    91136.102    282.13926    37.340931 
21540000    285.26223    334.27276    240.99438   -91099.004    91163.562    93.278386    37.331156 
21544000    271.36477    302.60246    273.46483   -91129.616    91211.049    29.137636    37.335974 
21548000    284.35078    342.39301    462.65583   -91137.921    91221.077   -120.26282    37.342933 
21552000    300.03417    463.63024    243.73445   -91168.257    91212.953    219.89579    37.342231 
21556000    287.87174    405.39938    483.31221   -91174.027    91237.628    -77.91283    37.339256 
21560000    252.25043    306.89991    448.56779   -91161.688    91252.986   -141.66788    37.331364 
21564000    296.88363    302.36303    405.76998   -91193.832    91245.628   -103.40694    37.325796 
21568000    279.56806    178.50828    471.54151   -91203.895    91275.311   -293.03323    37.318084 
21572000    281.56775    385.16043    269.46356   -91209.234      91280.9    115.69687    37.316547 
21576000     303.0204    448.83071    266.77673   -91219.631    91274.047    182.05398    37.318806 
21580000     283.2342    460.44111    263.93758   -91234.546    91299.109    196.50353    37.316958 
21584000     278.0507    295.51393    276.01594   -91238.227    91316.907     19.49799    37.311936 
21588000    288.94462    457.48829    383.14338   -91259.161    91317.229    74.344909    37.314147 
21592000    284.48291    475.30968    256.08899   -91291.276    91357.829    219.22069     37.31507 
21596000    309.03945    289.19989    329.48072   -91321.617    91373.646   -40.280835    37.315188 
21600000    280.30741    390.29151    184.61722    -91354.14    91404.384    205.67429    37.317684 
21604000    309.55793    237.05028    331.16659   -91403.471    91425.223   -94.116309    37.326359 
21608000    255.67247      214.917    259.54505   -91352.607    91454.775    -44.62805    37.321292 
21612000    304.84727    332.93749    335.43912   -91407.041    91468.658   -2.5016356    37.320167 
21616000     288.8261    346.36105    273.60264   -91406.929    91476.835    72.758413    37.321757 
21620000    272.44669     231.0594    335.98077   -91430.635    91503.871   -104.92138    37.325273 
21624000    270.73755    485.23148    358.14969   -91455.219    91522.053    127.08179    37.324213 
21628000    273.79195    529.91896    169.54683   -91478.972     91544.72    360.37212    37.317923 
21632000    291.58861    505.48333    375.67495   -91485.636    91565.511    129.80838    37.324948 
21636000    259.74451    446.62074    282.13523    -91512.13    91595.429    164.48552    37.330999 
21640000    271.93649    503.26686    333.64716   -91524.498    91591.098     169.6197    37.337311 
21644000     293.4503    327.77588    295.81587   -91556.355    91610.129    31.960014    37.335327 
21648000    278.09954    311.18687    228.88407   -91570.063    91646.157    82.302796    37.340899 
21652000    309.92154    274.66507    257.49626   -91622.213    91682.384    17.168814    37.338174 
21656000     283.2743    330.58416    347.21463   -91636.577    91702.698   -16.630467    37.336072 
21660000    262.35567    316.15881    258.05328   -91653.297    91732.814    58.105524    37.332179 
21664000    328.09142    440.16598    546.28372   -91683.913    91728.313   -106.11774    37.327205 
21668000    283.42548    502.67381    339.16419   -91685.788    91753.096    163.50962    37.328657 
21672000    311.41468    368.71185    451.19782   -91692.624    91752.699   -82.485969    37.329401 
21676000    292.09727    366.03537     356.8461   -91709.977    91775.467    9.1892658    37.331002 
21680000    297.50803    427.05508    398.98152   -91715.411    91761.824    28.073555    37.330333 
21684000    294.63639    591.18795    230.10022   -91721.515    91779.776    361.08773    37.332263 
21688000    269.43019    315.72776    258.82432    -91729.87    91798.476    56.903441    37.338533 
21692000    284.35487    247.78622    288.19103   -91746.105    91807.049   -40.404816    37.336591 
21696000    265.94082    355.43961    347.32918   -91756.827    91844.173    8.1104351    37.342779 
21700000    259.37756     409.9238    327.52825   -91766.199    91856.597    82.395548    37.347405 
21704000    263.36052    356.30504    246.91393   -91816.886    91892.042    109.39112    37.349036 
21708000    302.20578    381.67475    276.45752   -91839.932    91908.097    105.21723    37.342949 
21712000    285.38785    451.53848    457.91947   -91863.949    91929.649   -6.3809885    37.344411 
21716000    268.21202    165.41509    303.95167   -91862.698    91946.807   -138.53658    37.349139 
21720000    241.65156    341.05353    398.79386   -91878.954    91964.746    -57.74033     37.35087 
21724000    296.72772    379.76854    362.70498    -91913.79     91980.34    17.063561    37.344641 
21728000     271.2938    302.21659    320.79292   -91935.123    92017.143   -18.576322    37.344184 
21732000    290.90989    348.02527    195.93462   -91945.939    92028.939    152.09065    37.345174 
21736000    278.08244    427.59486    260.77352   -91975.158    92042.267    166.82134    37.341955 
21740000    257.41978    277.83064    306.33192   -91973.169    92045.442   -28.501285    37.343157 
21744000    292.65781    359.92654    185.67097   -91978.903     92061.58    174.25557    37.340298 
21748000    310.35957    316.45433    547.55957   -92022.446     92057.69   -231.10525    37.343389 
21752000    281.28808    287.58056    348.89054   -92021.302    92110.125    -61.30998    37.339903 
21756000    291.50433    328.25492    51.999801   -92063.676    92137.788    276.25512    37.341688 
21760000    241.49508    290.07681    291.86618   -92088.745     92180.85   -1.7893754     37.33475 
21764000    315.72532    307.02703     465.7633   -92122.518    92171.529   -158.73627    37.326361 
21768000    281.97981    305.00837     212.8303   -92130.142    92211.226    92.178077    37.329103 
21772000    292.28107    275.87659    289.59984   -92148.291    92202.268   -13.723255    37.332942 
21776000    275.49391    259.57706    379.11012   -92137.738    92207.191   -119.53306    37.336757 
21780000    286.45427    345.85436    412.40603   -92165.942    92239.146   -66.551677    37.341481 
21784000    280.40156    337.43546    343.47741   -92198.525    92272.224   -6.0419538     37.33711 
21788000    290.35234    282.39737    284.51239   -92214.473    92293.047   -2.1150241    37.333321 
21792000    300.83609    373.43734    519.36732   -92227.286    92301.624   -145.92999    37.331629 
21796000    261.84577    292.62539    332.23965   -92222.779    92320.235   -39.614254    37.322453 
21800000    287.46648    681.14034    339.46464   -92272.848    92340.388     341.6757    37.327887 
21804000    277.75089    251.76766    376.40042   -92277.343    92357.335   -124.63276    37.327706 
21808000    287.62121    404.93349    386.58993   -92281.089    92365.791     18.34356    37.325064 
21812000    307.30712    330.49059    318.17908   -92306.971    92360.369    12.311505     37.32682 
21816000     282.6578    487.09088    567.43814   -92332.355    92420.553   -80.347263    37.328394 
21820000    291.35977     402.2935    453.61539   -92369.357    92439.611   -51.321881    37.328657 
21824000    294.24562    284.67876     453.4908   -92395.506    92453.774   -168.81204    37.325478 
21828000    279.84693    297.55825    439.85828   -92397.723    92462.459   -142.30003    37.335796 
21832000    275.31225     307.1097    348.04871   -92423.523    92488.712   -40.939008    37.338582 
21836000    267.36648    314.25286    327.26107   -92454.639    92510.574   -13.008204    37.332212 
21840000    312.49835    349.85735     202.1153   -92479.508    92517.917    147.74205    37.334318 
21844000    283.75881    277.43441     306.4745   -92489.217    92559.185   -29.040096    37.338504 
21848000    289.05671    258.26466    280.91565   -92490.247    92553.745   -22.650989    37.333208 
21852000    276.96023    294.12843    348.62867   -92519.713    92581.013    -54.50024    37.329166 
21856000     288.6563    297.62814    321.70784   -92549.863    92639.378   -24.079697     37.33082 
21860000    296.07375    384.25656    242.27721   -92571.501     92637.01    141.97935    37.332564 
21864000    300.49848    485.45508      280.833   -92578.538    92650.894    204.62208    37.330442 
21868000    287.90999    377.61959    242.38345    -92606.74    92669.482    135.23614    37.327174 
21872000    272.09036    243.84202    255.46953   -92602.178    92690.621   -11.627509    37.327259 
21876000    281.69983    556.16616    359.01207   -92628.578    92707.633    197.15409    37.332723 
21880000    277.63125     559.3153    429.72652   -92653.865    92737.096    129.58879    37.333998 
21884000    298.04673    411.00471    194.48861   -92668.026    92750.966     216.5161      37.3361 
21888000    311.11657    359.39007    428.31908   -92688.472    92743.944   -68.929014     37.33371 
21892000    302.00972     269.4897    370.04134   -92716.022    92774.612   -100.55164    37.330526 
21896000    287.15558    287.74901    423.92942   -92724.972    92788.227    -136.1804    37.329274 
21900000    265.28634    280.29004    360.30783   -92723.255     92800.51   -80.017792    37.332817 
21904000    310.83062     419.6875    286.28415   -92745.751    92804.793    133.40335    37.335654 
21908000     278.9649    322.76673    339.50399    -92753.07    92796.276   -16.737253    37.334003 
21912000    300.64187    276.30743     273.7459   -92761.332    92829.467      2.56153    37.336741 
21916000    282.62672    308.92013    284.79903   -92760.579    92839.985    24.121098     37.34176 
21920000    279.94229    368.63693    376.40784   -92767.353    92844.688   -7.7709138    37.344055 
21924000    263.94512    569.03313    196.39619   -92782.799    92870.957    372.63693    37.350327 
21928000    290.92515    347.09496    224.44586   -92817.343    92879.448     122.6491    37.351625 
21932000    269.16996    290.88662    191.92601   -92823.083    92885.175     98.96061    37.351584 
21936000    290.59584    505.32481    465.20334   -92825.196    92889.415    40.121469    37.353881 
21940000    286.25691    437.37086    315.26961   -92832.798    92915.908    122.10125    37.354233 
21944000    302.81296    354.39286    351.36089    -92871.31    92924.198    3.0319695    37.359332 
21948000    314.99955    474.16153    271.60767   -92908.414    92944.715    202.55386    37.354709 
21952000    262.90003    365.23819    307.20463   -92890.195    92966.547     58.03356    37.352033 
21956000     299.3298    580.54549    223.33954   -92907.345    92976.965    357.20594    37.358029 
21960000    274.80908    354.27518    296.80599   -92934.734     93004.64    57.469194    37.364488 
21964000    268.32966    190.96832    234.99892   -92958.492    93026.728   -44.030606    37.361931 
21968000    279.60509    421.81006    298.44476   -92979.759    93076.388     123.3653    37.371737 
21972000    298.98167    153.80181    363.44271   -93022.609    93076.031    -209.6409     37.37629 
21976000    287.91273    166.77262    438.80308   -93037.867    93089.062   -272.03046    37.371451 
21980000    279.62169    331.55111    330.63148   -93044.781    93103.114   0.91962521    37.374097 
21984000    291.64945    365.31961    269.93022   -93035.734    93113.997     95.38939     37.37626 
21988000    282.60712    508.34096    242.32341   -93065.512    93132.549    266.01754    37.378059 
21992000    301.44601    378.76225    341.22263   -93085.268     93149.83    37.539624    37.389293 
21996000    270.12668    482.96086    221.33613   -93100.905    93193.328    261.62473    37.389053 
22000000    284.17853    392.74861    407.35483   -93100.063    93182.605   -14.606219    37.385389 
22004000    260.55821    369.86776    307.20424   -93110.586     93189.68    62.663518    37.380069 
22008000     274.1177    474.06065    343.11739   -93115.549    93191.918    130.94326    37.384942 
22012000    281.02308    170.49107    289.62396   -93145.071    93211.423   -119.13289    37.380829 
22016000    269.64036     404.6551    420.33913   -93136.333    93223.616   -15.684031    37.380102 
22020000    272.16189    192.49936    290.36741   -93158.024    93247.152   -97.868051    37.376785 
22024000    269.43612    368.42942    250.97331   -93188.925    93274.798    117.45611    37.374829 
22028000    295.88212    371.22105    421.23327   -93202.904    93269.345   -50.012219    37.369478 
22032000    302.14104     348.2144    297.76336   -93217.268    93288.072    50.451041    37.363722 
22036000    289.98432    552.80241    204.07407   -93227.136    93312.174    348.72835    37.361009 
22040000    302.52834     375.6197    380.50161     -93255.7    93328.572   -4.8819113     37.36083 
22044000    290.99147    480.68021     217.8889   -93288.672    93357.443    262.79132    37.363705 
22048000    277.12872    376.68416    289.21841   -93319.363    93392.378    87.465754    37.367636 
22052000    276.35099    255.63528    363.31492   -93339.608     93408.63   -107.67964    37.364439 
22056000     255.0382     565.0404    345.51506   -93329.195    93422.109    219.52533    37.362713 
22060000    246.89453    252.92667    322.77779   -93336.302     93436.51    -69.85112    37.359869 
22064000     269.2217    391.91326    475.90737   -93370.776    93467.287   -83.994115    37.349136 
22068000    272.31547    350.81839    229.92099   -93376.246    93464.088     120.8974    37.352784 
22072000    281.50638    199.96629    418.31083   -93402.389    93486.609   -218.34454    37.357869 
22076000    277.07551    348.11551    396.95279   -93425.866    93507.902   -48.837276    37.353935 
22080000    313.61656    307.02481    393.81923   -93445.518    93494.442   -86.794416    37.347333 
22084000    302.34779    415.57304    174.19692   -93443.166    93493.818    241.37611    37.350319 
22088000    285.04911    316.38315    480.92522   -93436.504    93507.365   -164.54207      37.3515 
22092000    303.50941    459.31541    221.90229   -93465.035    93539.338    237.41312    37.361701 
22096000    274.08624    243.48946    328.47348   -93478.157    93550.736   -84.984021    37.359037 
22100000    306.10378    254.56575    445.84751   -93472.612    93549.705   -191.28176    37.354163 
22104000    297.81514    365.65349    485.57311   -93527.272    93595.046   -119.91962    37.356366 
22108000    300.65502    356.55865    462.25806   -93557.577    93605.479   -105.69941    37.356299 
22112000    300.24421    330.24194    413.12288   -93567.524    93635.435   -82.880938    37.353863 
22116000    290.38171    374.77612    392.51421    -93609.49     93662.68   -17.738092    37.349949 
22120000    283.85181    408.86399    229.97823   -93637.026     93679.19    178.88576    37.351454 
22124000    297.04486    265.07492    230.18251    -93652.52    93703.522    34.892403    37.351533 
22128000    277.01643    274.83428    248.23011   -93635.305    93717.027    26.604168    37.351795 
22132000    301.32044    194.98328    280.01823   -93666.017    93716.215   -85.034944    37.349996 
22136000    269.09076    252.98638    202.55841   -93682.418    93746.402    50.427967    37.349552 
22140000    284.99543     181.8255    500.36323   -93688.947    93773.525   -318.53773    37.349002 
22144000    253.93436    382.40163    227.28383   -93704.888    93808.129     155.1178    37.350003 
22148000    293.95272    329.54383    409.07633   -93747.084    93821.374   -79.532498    37.349118 
22152000    284.83251    349.67771      425.617   -93762.366    93844.506   -75.939296    37.344092 
22156000    275.01327    372.51927    303.44173   -93784.205    93876.176     69.07754    37.342763 
22160000    277.67275    332.74973    281.97452   -93803.293    93889.568    50.775209    37.338091 
22164000    272.06939    575.59385    274.41988   -93837.293     93902.55    301.17396    37.339166 
22168000     272.3259     391.4452    435.68056   -93857.906    93928.426   -44.235352    37.340969 
22172000    275.39647    188.32697    268.13172   -93873.017    93947.616   -79.804745    37.338237 
22176000    270.08063    175.67933    219.33874    -93868.18     93945.24   -43.659416    37.333682 
22180000    282.79757    269.93403    348.69966   -93882.558    93961.935   -78.765621    37.337418 
22184000     267.4894    485.40219    298.04195   -93885.864    93966.364    187.36024    37.339448 
22188000    283.87298    431.69969    372.62631    -93902.87    93962.904    59.073375    37.342231 
22192000    252.36473    177.96231    332.92856   -93935.225    94029.842   -154.96625    37.338919 
22196000    298.40761    280.80792     316.6801   -93980.047    94046.635   -35.872178    37.338048 
22200000    277.67948    212.77389    221.98404   -93974.684    94053.812   -9.2101499    37.340465 
22204000    303.63215    361.17674    341.67186   -93984.315    94039.626    19.504877    37.330112 
22208000    266.34332    240.88527    302.22639   -93978.624    94072.182   -61.341122    37.325591 
22212000    269.55599    524.75172    145.32375   -94016.243    94099.459    379.42796    37.329863 
22216000    269.69005    600.56138    423.22076   -94022.888    94111.012    177.34062    37.338147 
22220000    252.63387    341.69217    542.41095   -94033.343    94133.219   -200.71878    37.336215 
22224000     271.2942    375.68419    399.20562   -94062.146    94161.589   -23.521434    37.339703 
22228000    257.49563    218.92789    282.17787   -94084.874    94174.457   -63.249987    37.340924 
22232000     270.1226    284.92106    233.45007   -94118.267    94197.856    51.470986    37.346715 
22236000    258.95869    330.05712    270.20891   -94126.177    94208.134    59.848212    37.339761 
22240000    273.53617    263.53203    297.41283   -94166.515    94234.814   -33.880799    37.341386 
22244000    296.75722    469.50598    306.96699   -94209.441    94266.726    162.53899    37.345197 
22248000    246.37095    461.59464    323.11478   -94205.635    94294.502    138.47986    37.346394 
22252000    289.41246    371.53415    215.93141   -94226.312    94294.688    155.60274    37.348374 
22256000    296.64093     394.6833    320.39342   -94237.298    94291.331     74.28988     37.34189 
22260000    291.15879    518.56848    198.94803   -94256.209    94315.004    319.62045    37.346948 
22264000    269.24085    373.12248    257.12381   -94256.774    94346.949    115.99867    37.347248 
22268000    304.65333    363.81595    367.16349   -94295.284    94349.916   -3.3475364    37.343635 
22272000    311.65555    491.03623    357.90791   -94311.114    94341.336    133.12832    37.340508 
22276000      251.937    261.33781    423.81599   -94316.594    94394.097   -162.47818    37.332149 
22280000    308.26874     170.0009    351.66647   -94330.609    94395.405   -181.66557    37.334621 
22284000    275.02757    325.85869    330.28224   -94352.042    94433.941   -4.4235418    37.331476 
22288000    275.86292    231.61845    247.65233   -94371.816    94458.657   -16.033872    37.333556 
22292000     251.2261    403.17704    162.77481    -94369.38    94470.519    240.40223    37.330791 
22296000    282.64576    375.16143    344.46696   -94397.645    94471.028    30.694474    37.331239 
22300000    279.65698    200.30086    347.50322   -94424.723    94492.921   -147.20236    37.328838 
22304000    252.85548    338.36643    371.18289   -94439.596    94519.939   -32.816463     37.33222 
22308000    276.18115    178.15624    319.55363   -94430.828    94525.827   -141.39739     37.33278 
22312000    306.65574    263.88168    288.92395   -94469.083    94529.117   -25.042276    37.332279 
22316000     287.1922    360.25299    265.62667   -94478.537    94550.488    94.626319    37.340889 
22320000    285.99248     293.9939    406.31243   -94489.526    94556.537   -112.31853    37.341448 
22324000    291.55447     493.9015    285.66019    -94512.55    94577.481    208.24131    37.344968 
22328000    314.99537    376.62943    622.59386   -94562.592    94631.639   -245.96443    37.345116 
22332000    267.90227    542.10462    293.06583    -94575.43    94659.027    249.03879    37.338674 
22336000    261.70869    322.64277     221.9734   -94630.652    94715.864    100.66937    37.337251 
22340000     275.4525    402.07535    264.11606   -94666.285    94743.895    137.95929    37.331908 
22344000    285.17927    221.63852    387.20822   -94688.106    94768.132    -165.5697    37.328298 
22348000    298.13974     484.9398    269.34716   -94696.551    94760.256    215.59264    37.335605 
22352000    296.62418    597.22906    328.89328    -94695.09    94743.423    268.33578    37.330262 
22356000     292.2207    348.64528     179.4687   -94699.127    94757.255    169.17658    37.325705 
22360000    285.68937    398.11239    216.37939   -94706.544    94770.849      181.733    37.325091 
22364000    267.72741     341.6774    287.83988   -94703.647    94785.366    53.837524    37.331726 
22368000    261.85132    260.07118    234.79954    -94721.98    94803.847    25.271644    37.329578 
22372000    260.31737    206.70096    191.78981   -94740.675    94846.023    14.911146    37.328053 
22376000    285.80263    304.60575    238.77081   -94795.364    94859.981    65.834941    37.327641 
22380000    296.30263    331.16479    493.07414   -94807.979    94870.752   -161.90935    37.334981 
22384000    297.10013    298.48159    446.61735   -94853.902    94898.529   -148.13576    37.335133 
22388000    261.03854    299.52728    387.33252   -94851.147    94948.774   -87.805239    37.332264 
22392000     268.1772    318.45883    243.66589    -94883.13    94950.959    74.792943    37.326956 
22396000    296.93381    426.80636    368.13057   -94898.568    94970.642    58.675794    37.327332 
22400000    288.16308    440.28657    363.65394   -94929.066    95001.889     76.63263    37.324654 
22404000    302.59678    510.11424    255.92103   -94940.966    95004.929    254.19321    37.321577 
22408000    269.42483    158.21467    290.21094   -94936.669     95020.53   -131.99627    37.319622 
22412000    269.27705    337.65592    224.07881   -94963.353    95043.561    113.57711    37.320503 
22416000    270.57809    330.69458    226.88845   -94988.295      95064.9    103.80613     37.32671 
22420000    289.40228    454.90048    379.32147   -95013.283    95078.363     75.57901    37.327763 
22424000    292.94816    311.95316     386.9825   -95034.334    95094.669   -75.029341    37.322871 
22428000    280.64313    307.00479    333.58125   -95040.375    95096.051   -26.576465    37.313157 
22432000    285.19787    232.81255    374.39787   -95033.575    95105.874   -141.58532    37.313531 
22436000    292.72966    444.70015    260.08731   -95055.878    95138.714    184.61283    37.312072 
22440000    287.90118    341.43289    243.08234   -95070.635    95141.627     98.35055    37.315102 
22444000     267.7594    414.47573    223.30711   -95069.726    95154.393    191.16861    37.322213 
22448000    263.59344       373.03    410.04609   -95064.247    95142.976   -37.016092    37.313898 
22452000      293.818    260.28912    379.11913   -95078.522    95143.859   -118.83001    37.315567 
22456000    282.82053     335.5778    348.22017   -95083.124    95144.874   -12.642375    37.322004 
22460000    284.69795    333.60403    225.59514   -95091.426    95160.451    108.00889    37.326789 
22464000    280.01056    283.55467    293.61486   -95086.035    95157.175   -10.060191    37.325871 
22468000    302.93497    359.21164    517.44963   -95099.134    95175.415   -158.23799    37.327867 
22472000    316.56277    408.91501    258.93628   -95142.396    95204.151    149.97872    37.331077 
22476000    326.49727    472.45267     351.3521   -95159.054    95210.873    121.10057    37.332006 
22480000    293.52682    381.58399    384.17225   -95175.665    95258.655   -2.5882646    37.326126 
22484000     285.4656    586.49579    409.10212   -95223.052    95310.333    177.39367    37.324075 
22488000     284.5581    361.13606    327.67164   -95250.233    95336.386     33.46442    37.326766 
22492000    258.70369    213.82304    351.05441   -95262.173    95344.876   -137.23137    37.322906 
22496000    301.46547    475.05352    230.12474   -95304.788    95389.526    244.92878    37.330946 
22500000    282.94568    350.89363     204.3678   -95325.431    95420.982    146.52582    37.332744 
22504000    256.05963    403.76308    299.41993   -95335.476    95442.346    104.34315    37.332454 
22508000    299.18615    516.68977    246.90437    -95366.34    95427.683    269.78541    37.337662 
22512000    275.48499    430.45291    306.49137   -95369.953    95446.664    123.96154     37.34054 
22516000    272.01154    347.22266    318.41952   -95399.762    95462.881    28.803142    37.340266 
22520000    293.17276    281.43611    284.30341   -95410.797    95478.093   -2.8673077    37.344791 
22524000    303.52741    284.71331    255.25681   -95459.293    95526.299    29.456505    37.354153 
22528000        276.8    388.71711    296.15154   -95474.076     95553.01    92.565573     37.36561 
22532000    289.22096    330.50387    275.44697   -95494.541    95562.772    55.056905    37.368155 
22536000    280.04745    302.66279    248.60561   -95523.755    95591.723    54.057179    37.368117 
22540000    260.44237    253.99671    156.58242   -95538.785    95636.872    97.414286    37.368286 
22544000    309.49809    414.88287    319.67207   -95597.862    95654.436    95.210795    37.368288 
22548000    290.36808    388.74989    447.23191    -95597.33    95659.907   -58.482024    37.373309 
22552000    287.00083    292.59404    193.69478   -95574.029    95663.033    98.899266    37.368658 
22556000    275.73466    456.53472    186.02172   -95579.677    95655.875    270.51301    37.377332 
22560000    258.16345    315.00059    538.06365   -95594.437    95683.464   -223.06305    37.372175 
22564000    282.34797    321.46923    233.70089   -95616.951    95673.455    87.768333    37.370741 
22568000    257.79197    316.53339    201.07841    -95611.83    95695.337    115.45498    37.367457 
22572000    266.17747    245.17219    301.64471   -95618.473    95696.954    -56.47252    37.365519 
22576000    291.65112    377.78765    386.61402   -95626.119    95707.057   -8.8263655    37.367148 
22580000    277.97509    198.57524    475.96307   -95624.077    95721.074   -277.38784    37.363431 
22584000    275.48164    320.06931    340.85956    -95677.41    95740.803   -20.790258    37.366716 
22588000    292.70125    476.63343    445.17742   -95686.231    95762.241    31.456014    37.373804 
22592000     263.2511    230.56233    208.30594   -95698.011    95793.587    22.256392    37.375975 
22596000    265.80877    498.62183    186.34576   -95726.994    95827.245    312.27607    37.379447 
22600000    263.82039    405.29056    383.66023     -95737.7    95825.905    21.630334    37.386772 
22604000    278.64829    381.70588    543.83727   -95753.283    95852.175   -162.13139     37.38831 
22608000    290.26026    431.81401    273.40752    -95803.78    95863.571    158.40649     37.38616 
22612000    284.57823    276.06936    449.79324    -95808.11    95877.448   -173.72387    37.382718 
22616000    318.74631    310.14995     465.4961   -95841.734    95883.048   -155.34615    37.382512 
22620000    247.81321    114.97074    406.34676   -95821.333    95910.247   -291.37602    37.379686 
22624000    281.40083    409.42624    308.94733   -95848.911    95944.659    100.47891    37.378377 
22628000    289.38193    418.96365    348.66947   -95872.313    95957.183    70.294183    37.377838 
22632000    267.83481    148.39537    320.94197   -95889.341    95985.513    -172.5466    37.381482 
22636000     285.2122    530.37365      293.223   -95933.614    96006.311    237.15065    37.383672 
22640000    300.49725     515.1998    370.16755   -95978.061    96035.022    145.03225    37.388532 
22644000    299.77747    358.63114    259.08383   -96001.774    96065.996    99.547303    37.386351 
22648000     260.1808    425.09805    299.29458   -96005.792    96097.311    125.80347    37.389093 
22652000    297.46001    407.17582    295.95455    -96041.14    96128.319    111.22127    37.386016 
22656000     300.4344    349.71028    449.93977   -96105.386    96155.368   -100.22948    37.379935 
22660000    286.37411       479.87    436.76528   -96099.444    96165.061    43.104726    37.379116 
22664000    290.10096    387.91156    455.99902   -96137.989    96223.768   -68.087461     37.37629 
22668000    304.71198    279.26778    279.30705   -96167.707     96239.88 -0.039265704    37.380177 
22672000    301.69072    377.03655    213.00273   -96187.841    96249.808    164.03382    37.381629 
22676000    275.64057    363.80128    312.39075   -96196.502    96283.244    51.410534    37.385421 
22680000     301.9737    317.91714     403.9615   -96242.195    96294.527   -86.044364    37.385098 
22684000    292.79866    506.65182    532.62872   -96253.526    96318.386   -25.976899    37.381823 
22688000    284.14595    390.54837    441.65313   -96284.789    96353.422   -51.104759    37.388047 
22692000    266.86963    464.56983    398.41421     -96296.3    96370.001    66.155625      37.3898 
22696000     271.2514     319.9632    261.78997   -96318.919    96395.014    58.173227    37.388469 
22700000    275.80399    316.57944    247.17168    -96344.12     96408.65    69.407762    37.394519 
22704000    300.78852    416.37303    359.78367   -96343.105      96389.4    56.589361    37.398566 
22708000    257.00672    320.64387    335.49239    -96330.36    96427.736   -14.848528    37.393457 
22712000    289.09407    253.54633    373.32633   -96365.653    96438.402      -119.78     37.39179 
22716000    280.84257    160.42158    219.89483   -96379.371    96450.046   -59.473256    37.385557 
22720000    264.92389    302.94315     216.9434   -96383.506    96467.825    85.999742    37.386082 
22724000    316.45031    365.13582    339.08726   -96408.261    96468.253    26.048558    37.384347 
22728000    303.40116    391.16163    279.31138   -96429.966    96498.674    111.85025    37.394362 
22732000    286.71645    394.78259    247.71626   -96426.256    96512.097    147.06633    37.386738 
22736000    262.15199    208.52403    145.91509    -96451.78    96535.613     62.60894    37.389112 
22740000    294.79045     241.9722    395.69193   -96482.195    96564.865   -153.71973    37.387925 
22744000    275.16128    319.76305    464.81323   -96490.995    96583.208   -145.05019    37.387061 
22748000    274.87076    308.44909    354.68494   -96525.395    96598.675   -46.235853    37.380616 
22752000    267.94965    289.68817    170.64756   -96544.125    96625.045    119.04061    37.382465 
22756000    272.47876    249.22429    273.73554   -96559.615    96632.787   -24.511246    37.377975 
22760000    302.02413    438.68985     376.8904   -96579.406    96651.168    61.799444    37.370651 
22764000    308.85558    296.26646    228.29188    -96589.63    96663.324     67.97458    37.375182 
22768000    283.22837    552.29725     330.4181   -96599.935    96688.375    221.87915    37.380732 
22772000    287.46549    390.96033    264.86156   -96663.864    96726.224    126.09877    37.373538 
22776000    292.78838     411.9802    285.22941   -96718.764    96778.822    126.75079    37.372903 
22780000    276.96318    202.47614    575.27665   -96722.159    96805.011   -372.80051    37.368145 
22784000    292.89387    493.06492    331.80956     -96753.5    96823.991    161.25536    37.369436 
22788000    274.65647    371.52185     430.4051    -96768.37    96854.311   -58.883248     37.37041 
22792000    258.19425    344.47169    231.59466   -96782.598    96881.585    112.87703    37.377728 
22796000    283.03527    248.36817    318.58951   -96803.654     96891.15   -70.221341    37.373995 
22800000     246.4926    350.13287    260.06193   -96811.153    96906.125    90.070942    37.373248 
22804000    295.18615    541.69897    191.38869   -96843.477    96939.156    350.31028     37.37585 
22808000    289.71806    269.89301    701.84415   -96894.266    96951.579   -431.95114     37.37574 
22812000    276.04763    230.83987    434.26756   -96916.097    96999.388   -203.42769    37.372264 
22816000    285.82959    257.32583     397.1102   -96941.469    97001.815   -139.78436    37.374033 
22820000    261.12744    320.82018    265.72994   -96965.955     97037.54    55.090242    37.373561 
22824000    282.81588    238.98036     253.5847   -96978.388    97052.701   -14.604345    37.367343 
22828000    255.20203    353.20263    235.13442   -96990.493    97085.716    118.06821    37.367236 
22832000    287.68945    438.86788    403.02975   -96984.705    97059.482    35.838127     37.36831 
22836000    299.75451    407.14006    629.04456   -96981.045    97060.668    -221.9045    37.361435 
22840000    280.19971    446.87575    191.30202   -96999.939    97076.372    255.57373    37.360788 
22844000    290.46787    283.56902    531.80007   -97021.699    97083.851   -248.23105    37.359517 
22848000    265.37772    292.93178    386.32601   -97009.009    97095.998   -93.394224    37.356795 
22852000    305.23419    409.35073    454.08392   -97038.016    97118.487   -44.733195    37.359052 
22856000    324.99584    609.92984    361.93193   -97094.255    97147.241    247.99792    37.364525 
22860000    313.24329    353.12729    241.07529   -97130.711    97180.157    112.05201    37.359848 
22864000    273.88236    301.30699    406.22466   -97140.994    97216.746   -104.91768    37.358436 
22868000    272.09651    487.51051    355.46891   -97164.557     97252.65     132.0416    37.353863 
22872000    283.24481    236.75974    299.71921   -97174.945    97255.507   -62.959477    37.359999 
22876000    282.01037    663.38393    281.75116   -97188.413    97276.385    381.63276    37.364203 
22880000     293.3346    474.28447    385.51334   -97224.588     97288.41    88.771133    37.367133 
22884000    295.43076    272.87638    383.86108   -97255.175    97310.355    -110.9847    37.369062 
22888000    281.27899    362.38214     343.1923   -97280.926    97365.503    19.189842    37.367148 
22892000    304.55515    306.86037    431.98649   -97309.489    97367.003   -125.12612    37.362687 
22896000    262.24601    301.16379    212.16873   -97309.644    97398.279    88.995064    37.358003 
22900000    268.11475    235.17326    162.44954   -97301.778    97385.342    72.723712      37.3583 
22904000    276.55225    252.73312    395.14076   -97316.639    97395.466   -142.40764    37.353233 
22908000     293.5213    426.40744    322.30325   -97322.872     97404.53    104.10419    37.355422 
22912000    296.21523    297.11266    241.78908   -97343.656     97408.03    55.323576    37.354028 
22916000    270.01601    405.62689    263.81038   -97365.352    97433.291    141.81651    37.360556 
22920000    301.37016    328.91362    552.31888   -97399.573    97459.471   -223.40526     37.35811 
22924000    289.97184    294.36372    270.35821    -97406.59    97492.534    24.005507    37.361859 
22928000     306.9038    336.85812    311.34643   -97434.028    97498.867    25.511684    37.364937 
22932000    292.28904    528.99111    218.76135    -97462.07    97510.193    310.22976    37.361539 
22936000    299.38659    327.58234    346.39161   -97470.931    97525.916   -18.809277    37.360129 
22940000    331.40978    421.06588    169.64479   -97495.783    97552.228    251.42109    37.360389 
22944000    279.75251    348.97676    300.78189   -97523.537    97599.048    48.194869    37.354302 
22948000    275.87599    400.55432    168.69005   -97538.086    97613.978    231.86426    37.349533 
22952000    267.59019    352.16224    332.53981   -97531.134    97608.752     19.62243    37.349704 
22956000    286.25639    408.46171    460.85312   -97545.449    97621.778   -52.391411    37.347814 
22960000    264.41115    401.57027    365.87115   -97542.769    97637.738     35.69912    37.353701 
22964000    287.62467    415.79965    391.99944   -97546.939    97624.707    23.800203    37.352082 
22968000    311.36099    291.27219    406.79572   -97584.587    97627.787   -115.52353    37.348082 
22972000    273.93398    380.31183    218.78851   -97599.257     97694.29    161.52332    37.343252 
22976000     269.0526    218.65313    411.08681   -97636.526    97722.907   -192.43368    37.344355 
22980000    268.26076    342.35069    284.05088   -97657.412    97762.108    58.299816    37.340564 
22984000    259.55775    249.42218    317.37627   -97695.941    97775.086   -67.954088    37.336776 
22988000    289.73364    297.72268     401.4715   -97711.054    97790.208   -103.74882    37.339973 
22992000    267.05376    361.49722    424.48857   -97712.013    97803.344   -62.991354    37.338937 
22996000    285.23557    329.62469    273.03445   -97721.144    97800.821    56.590236    37.337426 
23000000     282.8568    470.02522    264.33068    -97732.23    97809.352    205.69454    37.339234 
23004000     281.1272    194.22922    419.19815   -97761.193    97835.166   -224.96894    37.337099 
23008000    284.09367    246.74086    206.79117    -97783.71    97861.408    39.949698    37.336763 
23012000    283.90767    329.11233    186.86244   -97802.573    97871.887    142.24989    37.336992 
23016000     288.0488    438.08134    217.75281   -97816.997    97888.553    220.32853    37.338202 
23020000     290.6117    263.53175    229.89317   -97856.416    97914.149    33.638587    37.346671 
23024000    281.82788    300.41708    469.64721   -97873.485    97946.596   -169.23013    37.345291 
23028000    282.05235    358.27147    326.22655   -97894.865    97962.766    32.044921    37.343385 
23032000    298.42563    630.58997    305.46875   -97927.059    97975.281    325.12121    37.348384 
23036000    290.33554     499.2063    335.84274   -97937.026    98001.228    163.36356    37.349206 
23040000    266.43609    345.16549    260.87273   -97953.835    98041.174    84.292757     37.34598 
23044000    287.79746    417.55102    270.60935   -97982.864    98049.529    146.94167    37.348184 
23048000    285.39482    184.94114    640.35636   -98012.292    98076.182   -455.41522     37.34732 
23052000    274.10064    448.32553    259.52364   -98023.136    98109.011    188.80189    37.347786 
23056000     308.1581    354.49049    128.27507     -98037.8    98108.922    226.21542    37.351949 
23060000     271.2441    309.80042    207.62866   -98053.039    98129.417    102.17176    37.355366 
23064000    271.14019     352.6708     225.2075    -98058.13    98139.524     127.4633    37.363058 
23068000    296.79629    257.45774    175.35491   -98102.147    98155.087    82.102822    37.365772 
23072000    293.13009    709.99092    374.85555   -98129.933    98182.789    335.13537    37.365855 
23076000    283.56868    267.02547    219.55175   -98145.191     98225.89    47.473719    37.367938 
23080000    314.44326    294.13727    490.67237    -98168.74    98225.507   -196.53511    37.364096 
23084000    294.97915    344.47064    367.88489   -98168.342    98236.137   -23.414254    37.363195 
23088000    297.38557    451.58427    370.15658   -98172.246    98253.342    81.427694    37.355796 
23092000    295.55209    573.72676    352.64244   -98176.868    98257.997    221.08432    37.351817 
23096000    313.98146    334.69755    244.97681   -98203.926    98262.509     89.72074    37.363066 
23100000    302.04648      461.136    312.29002   -98240.412    98316.031    148.84598    37.359794 
23104000    291.18399    210.83177    389.38777   -98260.527    98332.356   -178.55601    37.355474 
23108000    262.08253    233.92662    337.61284   -98253.979    98353.075   -103.68621    37.353483 
23112000    269.36054    484.99652    296.37101    -98290.56    98379.371    188.62551    37.355552 
23116000    276.49158     313.1326    304.91565   -98307.765    98390.917    8.2169479    37.357113 
23120000    282.85161    254.13623    130.09119   -98322.716     98411.84    124.04505    37.355999 
23124000    266.28816    411.51743    237.50019   -98333.314    98412.333    174.01724    37.361558 
23128000    273.71739    452.84973    297.13711   -98336.947    98430.589    155.71262    37.353559 
23132000    274.23439     399.0658    222.69296   -98383.359    98445.629    176.37284    37.351853 
23136000    288.65205    354.72906    439.78274   -98401.612    98475.461   -85.053681    37.353348 
23140000    325.24823     334.3399    264.55672   -98438.865    98503.091    69.783177    37.354999 
23144000    277.71341    222.53951    200.76645   -98447.739    98534.403    21.773068    37.353466 
23148000    278.86938    164.52783    372.08028   -98464.943    98534.925   -207.55245    37.349953 
23152000    292.94351    459.25116    227.97123   -98464.213    98545.056    231.27993     37.34597 
23156000    313.37974    292.60066    280.25363   -98491.834    98554.415    12.347025    37.344515 
23160000    259.39263    497.29776    248.13907   -98522.993     98620.72    249.15869    37.347735 
23164000    264.05381    289.85837    419.51526   -98543.249    98632.128   -129.65689    37.351788 
23168000    311.91292    472.58255    283.91188   -98576.993     98637.48    188.67067     37.34928 
23172000    272.61304     427.3079     490.5851   -98589.775    98668.726   -63.277199     37.35133 
23176000    306.88714    126.80874    395.64002   -98614.333    98662.966   -268.83128    37.353351 
23180000    271.50013    338.31876    212.46347   -98615.337    98709.201    125.85528    37.346429 
23184000    257.63593    304.92362    451.74258   -98639.965    98720.977   -146.81896    37.348474 
23188000    270.40259    399.41227    213.94972   -98652.955    98736.394    185.46255     37.35519 
23192000    278.77223    332.55284    537.40073   -98653.946    98744.617   -204.84789    37.355421 
23196000     258.8299    230.88137    269.34485    -98678.25    98764.989   -38.463484    37.357048 
23200000    284.47566    460.03779    368.55419   -98704.909    98782.674      91.4836    37.358084 
23204000    288.08528    477.50155    329.02826   -98758.189    98825.441    148.47329    37.359634 
23208000    294.39736    455.43647     248.6298   -98779.307    98859.235    206.80667     37.36364 
23212000     305.5231    291.53374      447.599   -98802.928    98880.476   -156.06526    37.361399 
23216000    287.08916    413.36497    339.73523   -98816.456    98896.587    73.629741    37.361544 
23220000    301.42811    255.21725    183.18984    -98823.55    98908.262    72.027411     37.36714 
23224000    294.88843    417.82876    397.81642   -98860.267    98921.675    20.012342    37.365479 
23228000    286.33635    387.91725    191.89338   -98867.093    98946.186    196.02387    37.361448 
23232000    309.18537    471.35657    407.03222   -98922.275    98984.126    64.324349    37.356911 
23236000    292.64214    309.42593    351.78042    -98976.45    99031.121   -42.354483    37.361729 
23240000    270.39065    241.24487    347.52648   -98958.079    99047.938   -106.28161    37.360946 
23244000    286.85599    321.67648    316.80892   -98997.725     99076.14    4.8675629    37.367577 
23248000    274.93266     470.6155     253.6237   -99017.744    99095.661     216.9918    37.368457 
23252000    270.96324    420.30379    288.68372   -99018.272    99125.416    131.62007    37.362231 
23256000    269.79588    401.55392    423.42802   -99072.343    99164.109     -21.8741     37.36306 
23260000    262.89592    260.53116    409.49631   -99073.413    99186.414   -148.96516    37.360367 
23264000    285.81493    367.20928    415.90416   -99111.315    99194.951   -48.694877    37.364766 
23268000    277.73821    273.75152    372.31205   -99141.049    99211.255    -98.56053    37.365423 
23272000    280.32057    427.51396    402.97957   -99162.381    99264.065    24.534394    37.370639 
23276000    267.20884    325.56237    282.52639   -99170.593    99259.832    43.035975    37.372955 
23280000    277.03036    638.15285    264.44463   -99196.536    99270.517    373.70821    37.375861 
23284000    320.27542    272.88354    274.42465    -99203.23    99253.055   -1.5411074    37.376233 
23288000    239.55005    346.61689    254.56866   -99199.678    99309.685     92.04823    37.376238 
23292000    297.77916    300.72637    563.15965   -99222.918    99304.784   -262.43329    37.368947 
23296000     303.1606    364.05974    401.35468    -99249.85    99308.352   -37.294944    37.363939 
23300000    281.33071    260.30096    334.53212   -99274.949    99351.809   -74.231159     37.36207 
23304000    318.01994    336.12729    172.21337   -99285.446     99342.27    163.91392    37.358636 
23308000    279.11171    349.61888    374.54382   -99294.547    99375.339   -24.924938    37.353297 
23312000    282.57392     300.2272    166.99932   -99314.816    99384.509    133.22788    37.361852 
23316000     296.3861    432.58094    291.40723   -99333.593    99403.446    141.17371    37.355411 
23320000    290.01241    397.59248    276.61653   -99342.381     99416.05    120.97595    37.350534 
23324000    295.83106    380.04019    326.27844   -99372.126     99440.99    53.761747    37.352299 
23328000    284.30006    349.20023    166.94503   -99374.499    99457.704     182.2552    37.349232 
23332000    269.48662    428.95862     131.5241   -99404.824    99493.908    297.43453    37.349281 
23336000    281.37157    419.58781    354.91256   -99417.758    99507.668    64.675245    37.356715 
23340000    305.13984    387.18682    205.49288   -99465.287     99527.52    181.69395    37.359211 
23344000    289.04674    422.47247      292.948   -99515.793    99586.188    129.52448    37.361444 
23348000    264.48049    200.61157    329.01449   -99513.826     99609.32   -128.40292    37.355519 
23352000    278.62545    315.77492     313.5633   -99553.195     99631.43    2.2116168    37.357514 
23356000    276.58631    264.24437    199.22788    -99564.56    99631.846    65.016485    37.357696 
23360000    262.71944    352.23082    265.33659    -99555.82      99640.4    86.894234    37.362609 
23364000     292.5352    504.96944    425.01791   -99590.147    99679.194    79.951532    37.355664 
23368000    267.06332    391.15076    321.07166   -99590.466    99686.136    70.079097    37.359985 
23372000    267.26345    290.19038    297.00196    -99621.88    99701.361   -6.8115879    37.364317 
23376000      270.979    519.40682    314.82558    -99646.48    99726.929    204.58123     37.36546 
23380000    265.10451     243.5633    575.38479   -99630.633    99720.772    -331.8215    37.363689 
23384000    281.68662    424.88457    310.67614   -99646.268    99723.763    114.20843    37.369399 
23388000    275.89184    464.29654    163.24796   -99671.199    99733.993    301.04858     37.36608 
23392000    295.66697    457.56751    368.18001   -99660.473    99749.554      89.3875    37.366133 
23396000    318.41314    351.91477    491.85396   -99671.722    99733.287   -139.93919    37.364095 
23400000    290.33594    287.18589    362.01392   -99696.124    99761.011   -74.828031    37.366248 
23404000    292.92667    357.88231    445.71145   -99707.071    99778.324   -87.829133    37.369141 
23408000    277.73094    315.78667    414.79579   -99714.138     99798.59    -99.00912     37.37086 
23412000    288.74622    283.04063    260.26434   -99718.555    99812.608    22.776281    37.372031 
23416000    282.96588    345.78621    375.13341   -99751.179    99820.459   -29.347205    37.372779 
23420000    270.64145     459.0168     261.3848   -99775.825    99858.434      197.632    37.374046 
23424000    288.25412    454.14048    299.00953   -99802.052    99876.142    155.13095    37.372651 
23428000    251.71136    259.01721     288.8617   -99810.635     99905.35   -29.844488    37.371539 
23432000    253.16908    417.88326    280.21112   -99830.415    99935.185    137.67214    37.370658 
23436000    291.61512    574.18214    288.73862   -99876.191     99949.67    285.44352    37.365469 
23440000     272.2221    340.62405    267.51337   -99903.043    99984.196    73.110673    37.363399 
23444000    265.81465    372.96656    363.45074   -99889.937    99980.245    9.5158273    37.361805 
23448000      272.909    301.69509    303.20133   -99927.271    100007.01   -1.5062385    37.367092 
23452000    282.13165    195.52325    294.13587   -99953.794    100027.26   -98.612613    37.362341 
23456000    281.37751    242.13714     341.5142   -99977.405    100048.58   -99.377061    37.361248 
23460000    286.60394    390.19003     409.2493    -99981.84    100048.39   -19.059268    37.360157 
23464000    286.53271     203.8677    307.43405   -100007.78    100063.68   -103.56634    37.361257 
23468000    272.35701    286.46613    282.35173   -100012.34    100107.37    4.1144007    37.358217 
23472000    292.91321    318.26507    367.11781   -100039.79    100095.79   -48.852733    37.354577 
23476000    284.42433    264.04495    342.26897   -100045.11    100109.15   -78.224024    37.357684 
23480000    274.73963    256.43754     366.6383   -100048.21    100130.58   -110.20076    37.352384 
23484000    270.56143    361.48027    265.37117      -100081    100171.63    96.109103    37.357867 
23488000    283.41919     458.3175    308.11188   -100105.63    100174.14    150.20562     37.35548 
23492000    305.39547    289.38309    322.79222   -100141.14    100201.22   -33.409123    37.358209 
23496000    288.22483     443.8009    324.59959   -100132.81    100212.88     119.2013    37.346851 
23500000    291.40504     418.4724    285.66081   -100142.37    100229.71    132.81159    37.347094 
23504000    287.40265    295.82141    340.05356   -100186.89    100265.87   -44.232155    37.348828 
23508000    267.78193    165.74029    252.82206   -100205.15    100295.64   -87.081775    37.351484 
23512000    286.04635    280.10411    164.96712   -100230.52    100311.33    115.13699    37.351173 
23516000    254.05104    278.84651     200.8386   -100229.11    100338.82    78.007908    37.350947 
23520000    299.29031    560.85248    249.56229   -100266.59    100336.27    311.29019     37.35524 
23524000      291.186    492.29191    357.52261   -100278.41    100368.22     134.7693    37.354776 
23528000    252.37605    352.04909    154.81667   -100292.09    100382.14    197.23242    37.354689 
23532000    275.53455    284.78588    370.74304   -100327.59    100399.34   -85.957156    37.353126 
23536000    284.02193    224.35093    533.57128   -100340.98    100435.61   -309.22035    37.345789 
23540000    253.79063    365.50365     248.1018   -100331.92    100430.98    117.40185    37.345593 
23544000    270.67603    379.11705    224.12862   -100368.03    100456.61    154.98843    37.347764 
23548000     259.9348    374.15013    297.04367   -100383.65    100464.59    77.106465    37.345817 
23552000     276.9587    402.10494    289.17356   -100424.21    100494.09    112.93138    37.343556 
23556000     267.2879    326.95751    317.92653   -100428.52    100498.74    9.0309769    37.346191 
23560000    289.12592    494.93001    387.98222   -100435.55    100522.42    106.94779     37.35267 
23564000    315.02232    252.47077     351.7397   -100434.33     100502.4   -99.268928    37.346274 
23568000    286.51597    451.32283    281.54565   -100442.01     100513.3    169.77717     37.35328 
23572000    275.07752    225.14095    357.53558   -100451.27    100555.91   -132.39463    37.355371 
23576000     275.4347     295.7637    325.80753   -100487.75    100562.52   -30.043839    37.357785 
23580000    298.09947    459.78586    417.50775   -100485.41    100553.93    42.278114    37.360085 
23584000    279.89072    520.18385    165.12771   -100515.68    100589.59    355.05614     37.36042 
23588000    268.72328     472.4934    245.92122   -100509.02    100605.88    226.57217    37.361381 
23592000    282.81132    278.17437    220.30676   -100550.47     100625.5    57.867609    37.363973 
23596000    280.87872    277.51694    289.28984   -100559.39    100651.44   -11.772901    37.368629 
23600000    276.83932     295.5273    362.21759   -100592.34    100677.59   -66.690298    37.365412 
23604000    295.72705    619.65844    389.24174    -100630.2     100704.9     230.4167    37.375082 
23608000    290.92242    288.81921     277.2437   -100663.94    100726.42    11.575515    37.373666 
23612000    270.65864    339.12515    204.53047    -100669.9    100760.45    134.59468    37.374727 
23616000    284.54342    407.08821    191.51342    -100674.2    100766.82    215.57479    37.376745 
23620000    291.31301    409.15832    281.44693   -100681.63    100749.58    127.71139    37.382179 
23624000    293.95867    538.06814    267.49262   -100705.24    100769.41    270.57552    37.384984 
23628000    289.30398    229.36073     403.5581   -100720.19    100802.36   -174.19737    37.380469 
23632000    284.63457    248.77668    363.07367   -100725.94    100808.28   -114.29699    37.382655 
23636000    280.61903    278.88485    289.84922    -100745.6    100833.01   -10.964374    37.384982 
23640000    265.52341    400.62227    422.05081   -100757.98    100826.09   -21.428533    37.389383 
23644000     305.7284    531.15441    374.63067   -100762.65    100825.84    156.52373     37.38212 
23648000    298.93151    374.61146    451.88509   -100780.09    100837.01   -77.273634    37.385436 
23652000    291.00325    443.70257    168.87706   -100804.02    100860.08    274.82552    37.392445 
23656000    263.55445    269.21364     251.9917    -100805.7    100885.06    17.221939    37.402134 
23660000    278.49043    512.85189    486.82077   -100835.36    100911.62    26.031115     37.39919 
23664000    286.21636    422.69951    349.79067   -100847.41    100936.56    72.908843    37.400176 
23668000    295.13833    548.20319    370.02405   -100882.76    100958.89    178.17914    37.396867 
23672000    282.92873    170.87161    208.12899   -100907.88    100982.66   -37.257382    37.393487 
23676000    275.02316    318.59743    322.64865   -100929.69     101024.4   -4.0512114    37.394367 
23680000     275.0872    450.93867    280.00408   -100951.53    101048.96    170.93459    37.388579 
23684000    249.21984    246.40725    388.44565   -100940.57    101034.73    -142.0384    37.388421 
23688000    282.14276    317.97612    244.89775   -100971.55    101041.29    73.078372    37.396008 
23692000    255.74876    337.90654    179.41063    -100971.2    101038.49    158.49591    37.398065 
23696000    298.91175    239.97045     398.3615   -100993.15    101060.13   -158.39104    37.402793 
23700000    269.11632    471.49645      328.463   -101002.12    101092.52    143.03346    37.396933 
23704000     265.9615    332.47156    474.36581   -100989.36    101065.13   -141.89424    37.394865 
23708000    276.59816    388.93927    382.73913   -101010.74     101108.7    6.2001475    37.395643 
23712000    267.12307    556.30017    367.14076   -101027.47    101121.24    189.15941    37.391037 
23716000    275.19178    453.38904    322.91611   -101053.62    101142.51    130.47292    37.393179 
23720000    277.45091    291.11589     366.5831   -101076.59    101161.62   -75.467219    37.383362 
23724000    299.39099    386.57283    404.18255   -101097.13    101172.02   -17.609718    37.387559 
23728000    292.66061    353.71353     324.5896   -101128.55    101203.81    29.123925    37.389414 
23732000    268.91457    321.30355    235.97543   -101174.96    101252.54    85.328121    37.392928 
23736000    277.93819      246.849     386.2277   -101196.87     101273.4    -139.3787    37.383923 
23740000    266.36981    329.97288    371.41883   -101202.44    101292.01   -41.445953    37.386429 
23744000    277.99692    405.88151    350.15444   -101232.14    101296.58    55.727072    37.387812 
23748000    330.17192    523.52627    466.06348   -101263.18    101303.56    57.462789    37.381911 
23752000    279.86193    293.89638    224.67497   -101254.21    101343.21    69.221401     37.37912 
23756000     307.1566    298.67778    204.84318   -101302.23    101372.53    93.834599    37.373589 
23760000    262.16645    184.34727    386.40974   -101313.39    101389.02   -202.06246    37.372784 
23764000    286.32497    338.58941    418.80679   -101346.98    101408.56   -80.217375    37.375905 
23768000    300.18551    597.27815    312.55357   -101373.37    101435.03    284.72459    37.376334 
23772000    302.91058    125.31581    344.13856   -101389.81    101442.95   -218.82274    37.371795 
23776000    280.94447    220.83524    271.42526   -101413.89    101484.51   -50.590021    37.368309 
23780000    272.99433    316.90015    224.27605   -101429.11    101498.58    92.624093    37.370085 
23784000    267.02859    251.30021    377.18352   -101440.37     101529.7   -125.88331    37.367611 
23788000    258.50059    260.05998    395.73672   -101455.37    101550.17   -135.67674    37.369644 
23792000    296.28482     186.4494     391.8369   -101504.56    101576.13   -205.38751    37.372649 
23796000    300.23514    480.44771    461.42171   -101519.14     101577.1       19.026    37.377778 
23800000    309.48948    389.00263    338.48708   -101542.03    101611.44    50.515556    37.381884 
23804000    299.59037    313.04055    259.51215   -101569.44     101639.8    53.528401    37.380345 
23808000     278.6757    256.38988    301.60446   -101556.14    101646.53   -45.214581    37.378275 
23812000    270.35502    352.52313    283.69178   -101570.65    101656.74     68.83135    37.379135 
23816000    271.39438     352.9556    340.93778    -101580.1    101672.58    12.017823    37.375938 
23820000    262.17497    423.14613    199.09062   -101592.77       101666    224.05552    37.379055 
23824000    256.00108    298.23676    272.61209   -101594.16    101698.62     25.62467     37.37905 
23828000     291.5332    252.78445    349.31458   -101635.32    101713.93   -96.530131    37.376754 
23832000    275.34331    218.74743    364.33921      -101662    101731.94   -145.59178    37.380077 
23836000    258.26904    271.29906    236.53745   -101669.83    101763.68    34.761615    37.380538 
23840000    260.06501    281.43973    307.07065   -101695.18     101785.1   -25.630925    37.376428 
23844000    296.97208    311.48211    253.85318   -101745.39     101800.6    57.628933    37.376979 
23848000    264.73423    380.85391    351.94013   -101731.95    101837.08     28.91378    37.381454 
23852000    292.32512    352.33363    438.80322   -101773.22    101842.67   -86.469585    37.385086 
23856000    276.37269    183.22374     225.3991   -101789.49    101868.59   -42.175365    37.393224 
23860000    278.65561    247.21351    374.14551    -101815.2    101890.14     -126.932    37.389873 
23864000    279.43266    398.67409    195.72223   -101806.76    101906.11    202.95187    37.387307 
23868000    304.82688    416.96871    164.08535   -101851.34     101916.4    252.88336    37.387432 
23872000    295.66104    397.44502      473.857    -101860.2    101934.68   -76.411981    37.383101 
23876000    281.30981    408.22735    397.73118   -101863.71    101956.89    10.496173    37.386111 
23880000     257.9154    405.01328    313.18291   -101885.86     101994.6    91.830377    37.384843 
23884000     280.5841    355.24289    348.50231   -101925.04    102014.19    6.7405848     37.37834 
23888000    270.26697    452.89056     182.3272   -101946.92    102015.28    270.56336    37.381655 
23892000    286.97279    359.48482    279.57447   -101963.61    102050.75    79.910357    37.382448 
23896000    258.14894     315.3251    340.08213   -102003.42    102079.07   -24.757028    37.382104 
23900000    262.29265    323.77536    388.29851    -101991.3    102096.96   -64.523152    37.392245 
23904000    269.01911    299.78122     352.5003    -102048.7    102155.24    -52.71908    37.386684 
23908000    279.30342    503.98729    205.31208   -102077.91    102151.26    298.67521    37.391013 
23912000     306.7583    216.14616    400.80599   -102080.17    102154.72   -184.65983     37.39331 
23916000    297.81421    303.76987    229.53125   -102093.61     102172.4    74.238626    37.390998 
23920000     257.4865    245.99298    262.07133    -102092.7     102197.2   -16.078352    37.392502 
23924000    263.83599    291.80894     408.2959   -102133.06    102240.12   -116.48696    37.393932 
23928000    270.08145    326.11147    330.23491    -102132.8    102240.73    -4.123446    37.397701 
23932000    290.43151    357.54282     416.4203   -102161.44    102257.09   -58.877472    37.402493 
23936000     277.8853    413.85682    175.91275   -102176.88    102265.74    237.94407    37.400249 
23940000    253.62893    347.05886    307.19497   -102199.57    102296.87     39.86389    37.398199 
23944000    277.49893    190.32027    310.79813   -102215.23    102315.89   -120.47786    37.390251 
23948000    313.81077    369.18858    304.62281   -102240.33    102309.05    64.565777    37.382651 
23952000    283.84106    376.32999     304.3173   -102247.64    102335.64    72.012698    37.380957 
23956000    287.95204    431.68911    211.86852   -102274.78     102343.8    219.82059    37.380458 
23960000    292.63805    220.80176    310.21576   -102275.37    102353.73   -89.413993    37.380604 
23964000    283.56191    325.33117    466.50926   -102270.97    102360.36   -141.17809    37.376749 
23968000    278.20264    282.13329    333.50465   -102306.85    102378.55   -51.371363     37.37324 
23972000    275.24267    400.29605    283.11608   -102329.18    102399.62    117.17997    37.379414 
23976000    281.15257    197.23073    269.37615   -102326.52    102409.57   -72.145418    37.377104 
23980000    293.60348     246.7008     316.3273   -102335.25    102427.54   -69.626506    37.370966 
23984000     312.8932    353.61962    240.05125   -102402.02    102449.54    113.56837    37.373796 
23988000     307.2775    371.38762    404.37236   -102394.34    102462.45   -32.984746    37.369902 
23992000    266.29463    318.74368    407.90189    -102380.1    102461.02   -89.158211    37.369226 
23996000    261.96433    450.66031    371.29759   -102405.05    102492.33    79.362718     37.37432 
24000000    286.93282    243.11087    211.10577    -102440.2    102516.34    32.005093    37.375782 
24004000    288.67683    279.90072    296.65009   -102456.29    102532.53   -16.749378    37.375775 
24008000    288.74789    425.59296    399.93266   -102510.43    102570.26    25.660296    37.380105 
24012000    270.90336    310.33292    195.93606    -102513.1     102619.3    114.39685    37.381875 
24016000    264.66943    219.83093    204.26001   -102552.38    102640.68    15.570924    37.379392 
24020000    276.00501      412.838    331.52957   -102584.66    102674.32    81.308432    37.376158 
24024000    299.79307    187.08233    390.29354   -102618.87     102676.3    -203.2112    37.380348 
24028000    286.82582    312.22372    187.63355   -102620.91    102687.87    124.59017    37.383179 
24032000    277.96041    392.42527    318.60719   -102648.99     102716.4    73.818081    37.378977 
24036000    273.80576    207.80787    441.45257   -102641.41    102748.09   -233.64471    37.380147 
24040000     284.2401    257.28648    306.38109   -102667.51    102746.59   -49.094603    37.384993 
24044000    246.33358    255.76943    150.13384   -102694.59    102782.53    105.63559    37.384308 
24048000    267.76205    134.01036    354.38139   -102702.45    102801.38   -220.37103    37.394894 
24052000     255.2932    239.28513     162.5513   -102730.79    102826.91    76.733825    37.399172 
24056000    271.88972    360.76111    350.12615   -102767.01    102826.25    10.634962    37.395595 
24060000    271.79652    370.66454    407.61076   -102770.54    102860.19   -36.946223    37.396815 
24064000    283.99355    346.33708    265.67013   -102788.92    102881.82    80.666947    37.399453 
24068000    277.57432    370.75973    292.22091   -102792.02    102874.86    78.538817    37.401188 
24072000    277.30703    318.65822    266.26327   -102792.79    102888.14    52.394946    37.401489 
24076000    251.45262     251.8599    232.97006   -102778.84    102890.77    18.889835    37.403943 
24080000    268.26106    358.60824    351.13393   -102795.71    102892.39    7.4743145    37.397741 
24084000    292.05693    214.63197    408.63601   -102813.86    102888.83   -194.00404    37.395098 
24088000    279.53046    236.58766    290.18191   -102839.51    102919.71   -53.594252    37.392031 
24092000    271.75309     244.9436    418.79043   -102858.23    102954.07   -173.84683    37.386958 
24096000    290.44962     462.7446    237.78417   -102893.57    102970.95    224.96042    37.391629 
24100000    318.24771     625.4559    292.05171   -102914.93    102978.79    333.40418    37.404288 
24104000    257.60021    441.26301    244.30531   -102875.59    102980.09     196.9577    37.398111 
24108000    263.14337     143.6356    312.35881   -102898.77    102989.27   -168.72321    37.396876 
24112000     275.8391    301.57587     241.6902   -102934.66    103021.31    59.885666     37.39431 
24116000    270.81622    492.58818    304.52554    -102958.7    103049.58    188.06264     37.39977 
24120000    287.37334    111.81933    439.33612    -102962.2    103040.09   -327.51679    37.403074 
24124000    269.07755    345.00014    200.10203   -102994.69    103076.08    144.89811    37.416699 
24128000    304.68932    314.79015    328.48469   -102999.43    103060.77   -13.694538    37.414893 
24132000    276.74502    381.33027    360.57135   -102998.88    103084.46    20.758913    37.415634 
24136000    280.11883     393.6771     346.2752   -103041.04    103122.04    47.401899    37.418328 
24140000    291.92934    248.23048    407.29247   -103051.17    103139.83   -159.06199     37.41808 
24144000    256.85134    319.95393    358.54879   -103056.03    103155.24   -38.594857    37.415205 
24148000    266.26649    198.71896    358.00907   -103084.09    103185.36   -159.29011    37.406875 
24152000    287.14577    400.45343    455.79824    -103129.3    103201.41   -55.344814    37.404395 
24156000    276.36681    240.38719    174.38482   -103135.38    103231.78    66.002371    37.403723 
24160000    303.28856     433.0892    361.25946   -103180.61    103256.01    71.829739    37.405237 
24164000    299.77646     351.7829    370.90898   -103180.43    103268.44   -19.126077     37.40526 
24168000    260.53331       370.69     340.9108   -103179.02    103284.86    29.779195    37.399652 
24172000    281.96183    292.66584    345.71749   -103193.42    103290.98   -53.051659    37.399341 
24176000    285.03427     412.9282    357.95899   -103226.96    103330.09    54.969214     37.40123 
24180000    277.14949    432.51046    245.92145   -103267.41     103365.7    186.58901      37.4019 
24184000    270.59894    271.35756    273.59169   -103278.76    103382.02    -2.234125    37.396988 
24188000    259.72872    433.39105     343.6312   -103295.94    103400.63    89.759844    37.389917 
24192000     288.3578    356.12762    499.72542   -103323.82    103394.69    -143.5978    37.390226 
24196000    296.49939    258.04532    488.06083   -103348.84    103432.03   -230.01551    37.387628 
24200000    306.65608    471.68555    287.91492    -103371.1    103447.92    183.77063    37.386262 
24204000    260.37515    364.84064    320.69095   -103404.72    103511.82    44.149695    37.387882 
24208000    272.40167    285.82711    263.61629   -103416.43    103499.06    22.210812    37.386383 
24212000    282.37928    325.02703    371.94669   -103446.07    103532.97   -46.919659    37.389344 
24216000    300.95919    403.45876     336.6282   -103473.13    103547.86    66.830553     37.38918 
24220000    318.80209     470.3691    508.56914   -103508.33    103576.56   -38.200037    37.394421 
24224000    305.92831    339.77647    312.77043   -103515.11    103602.77    27.006037     37.39494 
24228000    252.76712    388.21489    279.22345   -103529.59    103622.93    108.99144    37.396972 
24232000    258.44311    275.74546    482.72475   -103542.95    103625.58   -206.97929      37.3956 
24236000     269.6516    354.29729    317.53922   -103550.31    103645.58    36.758068    37.398137 
24240000    260.75468    558.17028    219.99735    -103570.7    103675.58    338.17293    37.398614 
24244000    256.73783    463.55729     154.7081   -103586.68     103687.3    308.84919    37.396237 
24248000    253.02115    256.86728    377.28901   -103584.59    103682.82   -120.42173    37.389964 
24252000    276.13069    357.71515    363.46204   -103610.48    103701.86   -5.7468929    37.387244 
24256000    283.85937     497.7393      443.852   -103642.33    103700.48    53.887304    37.385664 
24260000    284.06098    369.62119    400.97481   -103650.28    103742.77   -31.353627    37.383946 
24264000    271.88513    483.35154    400.95949   -103680.61     103787.5    82.392054    37.388523 
24268000    279.15768    312.97278    374.66878   -103698.87    103794.02   -61.695995    37.383884 
24272000    303.31539    268.11888    240.49992   -103743.18    103824.84    27.618957    37.384227 
24276000    283.94623    392.60231    240.31478   -103748.86    103846.95    152.28753    37.385207 
24280000    290.37131    213.38818    365.53178   -103773.85       103857    -152.1436    37.387311 
24284000    299.48102    318.60217    179.57045   -103794.83    103864.03    139.03173    37.386225 
24288000    275.57997    208.32097    371.38123   -103772.43     103867.4   -163.06026    37.379605 
24292000    260.79593    309.72852    278.19819   -103797.59    103888.66    31.530325     37.37756 
24296000    290.97228    245.71626     394.4879   -103824.44    103899.99   -148.77164    37.376862 
24300000    294.65626    427.40368    263.90957   -103860.09    103947.44    163.49411    37.370939 
24304000    269.03608    559.30629    244.70545   -103863.56    103962.37    314.60084    37.366929 
24308000    245.36005    330.21089    224.46343   -103877.27    103981.09    105.74746    37.369569 
24312000    260.36094    246.54634    158.03367      -103895    103996.45    88.512671    37.367706 
24316000    261.33664    173.89696    365.67524   -103907.28    104007.82   -191.77829    37.364172 
24320000    283.83428    219.03444    318.68521   -103928.96    104031.74   -99.650774     37.36667 
24324000    264.37679    359.88703    292.86554   -103943.17    104049.65    67.021492    37.363572 
24328000    290.30477    328.01394    221.84497   -103978.57    104058.63    106.16897    37.364976 
24332000    311.30035    380.27648    566.79576   -104003.82    104073.95   -186.51928    37.362557 
24336000    313.31125    427.01847    278.02132   -104045.64    104101.91    148.99714    37.362747 
24340000    287.11562    431.34289    266.29484   -104036.07    104121.21    165.04805    37.362706 
24344000    244.59853    249.92765     276.7967   -104040.51    104159.19    -26.86905     37.35743 
24348000    315.55469     549.2096    438.84822   -104081.55    104138.79    110.36138     37.35234 
24352000    282.74951    459.19094    338.14939   -104098.93    104188.57    121.04155    37.352083 
24356000    257.62108    338.03096    296.90778   -104084.88    104202.49     41.12318    37.353152 
24360000    312.90243     308.9409    229.61826   -104143.29    104216.31    79.322644    37.356098 
24364000    288.52338    258.84994    456.56062   -104202.11    104277.46   -197.71068    37.352321 
24368000     294.7698    542.56145    381.32164      -104224    104299.06    161.23981    37.352139 
24372000    296.56926    201.45387    414.00932   -104232.24    104324.64   -212.55545    37.354956 
24376000    297.79322    540.63519    605.75743   -104289.39    104365.02   -65.122232     37.35656 
24380000    280.20926    310.56349    385.18817   -104315.14    104400.51    -74.62468    37.359292 
24384000    288.15638    487.02701    334.00907   -104335.82    104431.65    153.01794    37.355396 
24388000    276.90468    215.59343    174.00523   -104358.28    104465.82    41.588193    37.350866 
24392000    284.54186    299.12209    508.74933   -104430.57    104513.04   -209.62725    37.350314 
24396000    263.87356    138.20889    446.40709   -104434.99    104505.91    -308.1982    37.357432 
24400000    288.28384    394.36246    241.01469   -104455.83    104532.45    153.34777    37.359072 
24404000    283.66989    319.75727    255.39912   -104466.72    104550.51    64.358145    37.352849 
24408000    332.22188    435.29396    278.07682   -104469.19    104524.09    157.21713    37.350104 
24412000    280.67721    268.69701      487.935   -104471.97    104565.21   -219.23799    37.346399 
24416000     281.5652     459.3629    200.79625   -104492.83    104597.41    258.56664    37.343745 
24420000    284.39817    361.07323    547.73297   -104509.16    104585.55   -186.65974    37.344036 
24424000    284.65482    306.89566    298.66447   -104493.02    104587.64    8.2311839    37.350314 
24428000    285.83089    286.61888     400.5185   -104522.49    104616.01   -113.89963     37.34457 
24432000    298.56743    393.09858    310.04814   -104561.02    104643.57    83.050436     37.34585 
24436000    297.88709    243.11352    277.30141   -104563.92    104631.82   -34.187891    37.338886 
24440000    293.34104    240.91028    397.26885      -104580    104652.72   -156.35857    37.335146 
24444000    275.97086    670.86444    203.15252   -104611.96    104693.13    467.71192    37.342917 
24448000    284.39006    261.66443    505.67956   -104629.05    104693.44   -244.01513    37.337602 
24452000    299.82677    456.81392    272.56136   -104644.36    104732.31    184.25256      37.3393 
24456000    274.93848     231.0806    278.74787   -104640.38    104714.33   -47.667275    37.335335 
24460000     276.8523    480.10974    358.52434   -104664.45    104749.67     121.5854    37.336266 
24464000    323.97189    428.01335    635.68278   -104702.99    104778.94   -207.66944    37.326952 
24468000    285.85006    508.26579    384.23834   -104714.92    104793.56    124.02746    37.324321 
24472000    280.48025    262.30982    327.78746   -104711.64    104800.37   -65.477643    37.321952 
24476000     261.8173    322.14021    335.81726   -104749.81    104849.69   -13.677055    37.321088 
24480000    304.78686     221.3615     464.5446    -104784.1    104872.49    -243.1831    37.321373 
24484000    286.23423    400.54538    179.99557   -104817.13    104903.73    220.54982    37.324952 
24488000    321.53942    576.62785    357.58642   -104844.46    104906.77    219.04143    37.324288 
24492000     292.6238    348.44632    249.08093   -104852.69    104908.74    99.365386    37.322676 
24496000    288.85068    487.39048    447.89524   -104862.19    104934.16    39.495236    37.320915 
24500000    294.23501    454.37432    257.70196   -104874.86    104957.52    196.67236    37.321389 
24504000    266.72171    262.35927    423.41251   -104850.04    104949.25   -161.05324    37.320461 
24508000    293.02561    364.83927    259.52594   -104867.09    104943.69    105.31332    37.320624 
24512000    296.96777    354.14541    254.85228   -104865.59    104946.77    99.293127    37.320267 
24516000    288.05698    316.99946    181.63633   -104886.28    104974.26    135.36313    37.312541 
24520000    295.62556    496.30995    392.88702   -104899.99    104981.67    103.42292    37.311669 
24524000    298.74089    341.28317    333.43504   -104896.88    104987.76    7.8481226    37.310878 
24528000    296.75133    566.54619    216.33564   -104917.58    105002.15    350.21055    37.312202 
24532000    288.81487    318.72374    385.22899   -104957.37    105024.66   -66.505244    37.308854 
24536000    280.98284    338.58008    330.72971   -104957.88    105053.47    7.8503677    37.308724 
24540000    256.98865    273.56156    262.86061   -104956.43    105067.31    10.700951    37.309878 
24544000    269.69024    400.17836    302.66764   -104971.29    105057.95    97.510716     37.29883 
24548000    267.44455    432.43809    189.23285   -105011.28    105096.05    243.20524    37.296814 
24552000    283.52542    280.30947    352.49292   -105022.49    105098.45   -72.183456    37.288234 
24556000    254.17494    357.75636    306.35382   -105038.37    105150.29    51.402541    37.287517 
24560000    290.49844    665.28011    499.88331   -105062.92     105162.5     165.3968    37.285341 
24564000    239.15858    213.19552    258.38321   -105071.26    105182.19   -45.187693    37.287394 
24568000    287.35057    484.87052    252.43124   -105092.99    105185.12    232.43928    37.293277 
24572000    286.24689     246.6323    274.97606   -105121.88    105213.51   -28.343752    37.297696 
24576000    306.11387    327.29826    402.21806   -105160.74    105239.39   -74.919797    37.299196 
24580000    302.87026     385.2314    386.13302   -105187.75    105246.05  -0.90161127    37.300187 
24584000    336.98497    593.30646    281.82033   -105230.02    105273.78    311.48612    37.298081 
24588000    291.51017    328.54076    287.42382   -105239.27    105330.28    41.116943    37.301248 
24592000    268.12158    360.71708    421.08619   -105265.73    105380.59   -60.369111    37.305528 
24596000    306.81593    395.48852    360.28267   -105288.95    105379.83    35.205848    37.304932 
24600000    255.53435    379.91472    186.23095   -105293.04    105404.41    193.68377    37.306463 
24604000    250.95211     313.8084    332.38349   -105308.55    105410.36   -18.575093    37.310004 
24608000    317.18601    257.45206    384.04447   -105340.38    105410.25   -126.59241    37.312449 
24612000    277.05967    389.68163    251.32688   -105378.65    105482.62    138.35475    37.316167 
24616000     281.6881    241.82224    396.42295   -105422.21    105513.47   -154.60071    37.308806 
24620000    297.71691    435.39742    408.00658   -105443.81    105534.22    27.390842     37.30945 
24624000    299.20482    481.83164    381.88115   -105502.32    105572.36    99.950487    37.308537 
24628000    295.88858    322.77306    302.74409   -105530.43    105602.88    20.028967    37.311334 
24632000    251.56916    296.93688    269.15369   -105526.52    105639.43     27.78319    37.319542 
24636000     270.6084    673.17765    355.89125   -105549.53    105627.67     317.2864    37.320973 
24640000    258.52264    386.70916    275.89728   -105538.21    105648.86    110.81188     37.32262 
24644000    259.37971    442.34343     321.7536   -105546.46    105661.38    120.58983    37.327385 
24648000    274.44884    435.58206    389.03181    -105557.6    105648.49    46.550256    37.320792 
24652000    253.78934    212.53286    283.89936   -105563.23    105680.18   -71.366503    37.317356 
24656000    276.28989    347.21412    428.34397   -105591.78     105681.9   -81.129847    37.312458 
24660000    268.43162    319.92613    210.05467   -105609.05     105711.7    109.87147    37.312439 
24664000    260.05237    241.20836    241.59365   -105624.03    105729.21  -0.38528389    37.318063 
24668000    282.32562    356.84911    224.95441   -105648.78    105753.55     131.8947    37.316673 
24672000    247.27013    232.91415    270.43828   -105650.21    105766.82   -37.524136    37.319599 
24676000    267.07163    307.59806     402.1461   -105673.15    105768.02   -94.548038     37.31933 
24680000    265.27689    329.00248    273.91209   -105685.83    105775.36    55.090389    37.321122 
24684000     290.9673    196.67198    378.43082   -105718.75    105785.38   -181.75885    37.320066 
24688000    270.71381    355.67317    370.12969   -105758.32    105831.25   -14.456516    37.319821 
24692000    266.66352    447.81547    409.30412   -105766.94    105859.27    38.511349    37.318464 
24696000    278.31357    232.49299    269.29572   -105784.55    105866.51   -36.802724    37.320725 
24700000    287.07954     366.2959    306.84366   -105826.34    105914.68     59.45224    37.322516 
24704000    278.76114    351.92658    264.53603   -105849.26    105941.09     87.39055    37.334495 
24708000    279.41364    532.97149    336.17067   -105898.59    105973.57    196.80082    37.332024 
24712000    289.59628    431.69286    405.59256   -105908.13     105996.5    26.100305    37.330023 
24716000     269.7195    303.23711    180.22599   -105933.49    106019.78    123.01112    37.328248 
24720000    292.33558    319.37179    288.47233    -105929.8    106025.62    30.899462    37.329569 
24724000    288.31978    179.06214    360.34923    -105970.1    106079.43   -181.28709    37.325991 
24728000    263.16704    238.61958    331.98944   -105951.71    106061.73   -93.369864    37.331092 
24732000    272.79384    300.85766    243.30467   -105995.29       106090    57.552991    37.327653 
24736000    272.12657    768.72206    195.84592   -106045.63    106115.69    572.87613    37.325352 
24740000    288.26073    302.45454    383.10092   -106081.26    106158.73   -80.646377    37.325213 
24744000    272.97444    280.61602    402.42542   -106091.31    106188.67   -121.80941    37.330185 
24748000    278.81276    281.82177     281.3504   -106113.84    106197.11    0.4713723    37.324461 
24752000    274.84315    269.88644    732.30861   -106136.99    106220.29   -462.42216    37.329748 
24756000    305.04411    357.00306    450.23183   -106165.31    106237.24   -93.228771    37.327496 
24760000     267.2772    285.84838    429.97513   -106163.91    106251.35   -144.12676    37.326919 
24764000    270.29509    225.81634    220.53101   -106177.98    106291.68    5.2853309    37.328861 
24768000    310.12432    252.61063     361.3868    -106219.3    106302.95   -108.77617    37.328109 
24772000    262.10792    394.07762    243.28175   -106237.99    106340.85    150.79587    37.324918 
24776000     298.7579    755.72764    520.89509   -106270.29    106343.47    234.83254    37.322042 
24780000    294.57667    462.24723    304.23565   -106288.66    106379.03    158.01159    37.321662 
24784000    298.59382    494.72408    328.03479   -106307.99    106400.67    166.68928    37.320996 
24788000    294.36457    619.25835    296.73506    -106324.3    106427.13    322.52329    37.322933 
24792000    291.56692    276.99426    293.44991   -106365.47    106435.47   -16.455643    37.325173 
24796000    293.76729    581.87618    366.70498   -106358.93    106452.19     215.1712    37.326359 
24800000    278.71213    220.36589    253.76091   -106363.46    106454.32   -33.395013    37.329508 
24804000    278.79481    234.95898    305.08202   -106364.05    106460.89   -70.123037    37.327288 
24808000    305.55064    415.63675     199.0042   -106408.89    106489.91    216.63254    37.327402 
24812000    279.03216    315.36205    380.53499    -106423.3    106517.92   -65.172945    37.327709 
24816000      286.118    420.25429    411.11919   -106435.98    106520.69    9.1351048    37.335358 
24820000     302.6126    267.72816    398.75583   -106444.85    106527.54   -131.02767     37.32778 
24824000    267.45491    253.29858    441.52043   -106453.86    106575.61   -188.22185    37.330584 
24828000    276.06385    276.68008    364.61267   -106512.71    106589.44   -87.932586    37.333026 
24832000    274.47388     330.5096    289.42855   -106533.48    106606.77    41.081055    37.334513 
24836000    281.47266    267.89198    580.97757   -106543.28    106629.18   -313.08559    37.336438 
24840000    270.40183    240.56957    562.73675   -106557.85    106659.02   -322.16718    37.332284 
24844000    290.72333    253.58943    412.34258   -106585.26    106673.11   -158.75315    37.326167 
24848000    315.20385    280.03414    437.28112   -106616.37    106672.64   -157.24698    37.324629 
24852000    259.85173    535.36688    369.43955   -106601.12    106704.16    165.92733    37.333242 
24856000    291.37656    398.24406    340.29578   -106651.96    106737.39    57.948275    37.338724 
24860000    292.85999    396.25077    245.76756   -106683.67    106758.12    150.48321    37.335304 
24864000    313.94913    532.46162    419.04465   -106716.13    106782.09    113.41697    37.336859 
24868000    288.89109    226.35159    441.66755   -106714.58    106803.42   -215.31597    37.334745 
24872000    278.67108    545.28295     399.0224   -106765.75    106824.54    146.26056    37.340004 
24876000    274.57953    235.84526    319.33557   -106794.49       106861   -83.490307    37.338846 
24880000    274.45908    268.98217    277.51215   -106770.77     106855.9   -8.5299744     37.34272 
24884000    275.49047     262.0194    270.42628   -106773.76    106872.24   -8.4068815    37.339024 
24888000    275.31926    443.03268    269.20632   -106794.56    106885.14    173.82635    37.342665 
24892000    276.98875    288.82594    381.13524   -106816.41    106908.24   -92.309302    37.337711 
24896000    263.49881    232.63572    186.73973   -106833.03    106945.32    45.895988    37.342162 
24900000    296.09791    257.45257    435.04248    -106841.2    106928.81   -177.58991    37.337789 
24904000    279.15347    230.26968    207.12074   -106844.58    106934.23    23.148944    37.338003 
24908000    254.33459    326.68961    204.21408   -106850.41    106940.89    122.47553    37.338182 
24912000    312.29774    333.64759    396.17563   -106887.74    106962.64   -62.528036    37.332097 
24916000    308.11171    352.77464    213.93121   -106921.88     106988.3    138.84342    37.334142 
24920000    260.05393    351.14478    382.07717   -106926.26     107023.2   -30.932391    37.334688 
24924000    297.11498    388.77616     275.5096   -106938.02    107026.78    113.26656    37.337758 
24928000    291.46826    480.01721    430.97881   -106924.29    107016.51    49.038396    37.344655 
24932000    263.52912    311.35154    276.02609   -106947.99    107035.51     35.32545    37.341565 
24936000    271.74411     322.9697    314.75965   -106975.57    107074.08    8.2100532    37.341022 
24940000    279.04397    267.35795    225.63931   -106990.01    107085.89     41.71864    37.341325 
24944000    271.29502    171.53297    314.31512   -107036.82    107121.01   -142.78215    37.338631 
24948000    275.15211    253.63448    335.32001   -107075.87    107154.27   -81.685529    37.334191 
24952000    261.10755    226.76487     254.9407   -107072.78    107158.17    -28.17583    37.339597 
24956000    282.91708    517.90529    363.04145   -107103.03    107176.38    154.86384    37.339442 
24960000      308.362    393.11649    272.71266   -107123.67    107199.24    120.40383    37.348354 
24964000    293.42794    382.07947    395.54503   -107122.72    107215.37   -13.465569    37.344665 
24968000    284.73106    342.93874    441.97729   -107132.07    107227.32    -99.03855    37.342042 
24972000    296.31909    325.12062    285.94062   -107153.84    107230.14    39.180004    37.347051 
24976000     333.6697    490.37209    424.75381   -107168.41    107251.83    65.618279    37.348291 
24980000    301.15004    372.62246    327.85405   -107199.33    107272.57    44.768413    37.343406 
24984000    296.43644    287.51069    444.39403   -107221.65    107303.83   -156.88334    37.338673 
24988000    310.01839    361.81092    317.97319   -107261.53     107321.1    43.837733    37.335342 
24992000     335.4942    536.66674    410.46036   -107265.08    107310.37    126.20638    37.337513 
24996000    276.22304    352.70383    397.92134   -107256.45     107351.6   -45.217518    37.336135 
25000000    303.47271    258.04053    328.04246   -107302.54    107382.06   -70.001934    37.334164 
25004000    290.67717    404.61902    314.65687   -107320.28    107405.27    89.962152    37.335765 
25008000    260.67969    558.64214     347.4682    -107308.1    107418.75    211.17394    37.337846 
25012000    259.69807    356.66162    348.66231   -107330.54    107438.95    7.9993048    37.332842 
25016000    314.44916    279.82322    415.66151   -107351.28    107429.97   -135.83828    37.329773 
25020000    278.57056    656.11839    326.90441   -107372.33    107471.48    329.21397    37.335936 
25024000     255.2495    361.00637    278.94855   -107382.49    107497.54    82.057816    37.336602 
25028000    267.27435    432.19617    225.78622   -107422.96    107517.37    206.40995    37.333821 
25032000    273.75388    331.48375    457.73449   -107410.29    107507.63   -126.25074    37.329098 
25036000    278.32597     420.9615    167.98931   -107404.37    107490.22     252.9722    37.329053 
25040000    279.25607    243.56357    381.65133   -107417.57     107519.4   -138.08776    37.330464 
25044000    277.93688    291.61214    163.85662   -107442.66    107531.39    127.75552    37.328272 
25048000    284.49527    677.79205    238.70855   -107454.49    107539.53     439.0835    37.325574 
25052000     263.6546    326.54276    305.58849   -107454.12    107551.66    20.954274    37.324188 
25056000    289.91725    352.43915    368.40744   -107476.06    107574.81   -15.968291    37.321276 
25060000    277.51581    243.98586    499.64729   -107496.22    107579.05   -255.66143    37.323848 
25064000    236.65134    394.97812    385.18168   -107483.82    107607.39    9.7964415    37.321483 
25068000    306.65424    388.38393    653.51879   -107554.87    107630.64   -265.13486    37.322471 
25072000    255.34446    247.19396    376.31354   -107569.61    107668.06   -129.11958    37.315942 
25076000    293.99378    426.24766    399.99993   -107602.71    107699.73    26.247729    37.316926 
25080000    264.88477    294.12477    360.33309   -107606.02    107705.18   -66.208315    37.318938 
25084000    285.82549    329.88983    299.60513   -107615.86    107700.35    30.284696     37.31971 
25088000    284.25098    271.53081    246.50388   -107628.74    107719.47    25.026925     37.32168 
25092000    291.83322    288.99785    206.63201   -107637.61    107730.31    82.365843    37.322864 
25096000    301.10728    332.32169     223.8589   -107657.79    107741.71    108.46279    37.320303 
25100000    269.50882    271.77609    327.25534   -107641.02    107748.03    -55.47925    37.322993 
25104000    269.90551    379.85384    227.58437   -107644.92    107731.11    152.26947    37.321953 
25108000    303.45559     252.5722    206.86098   -107663.77    107744.25    45.711214    37.318991 
25112000    274.45912    197.28389    227.92902   -107666.86    107742.83   -30.645129    37.320604 
25116000    270.18157    373.58992    320.40534   -107687.68    107776.13     53.18458    37.313678 
25120000    289.98329    518.62211    268.06706   -107689.29    107785.71    250.55505    37.313381 
25124000    290.21568    379.37485    438.38533   -107700.53    107790.24   -59.010479    37.309403 
25128000    294.22804    368.86583    441.83131   -107745.91    107834.32   -72.965476    37.313783 
25132000    299.26989    437.02752    427.12994   -107756.35    107832.83    9.8975826    37.314454 
25136000    305.13571    413.25913    427.21284   -107759.04    107843.08   -13.953715    37.314977 
25140000    286.69683    204.06922    390.58538   -107765.02    107856.04   -186.51616    37.315974 
25144000    286.28768    563.65552     413.6481   -107792.98    107885.33    150.00741    37.312395 
25148000    272.40809    421.70717    378.25297   -107819.59    107910.67    43.454199    37.313532 
25152000    303.70945    350.20396    506.16947   -107844.75    107916.61   -155.96551    37.312129 
25156000    286.19543    338.70446    494.03842   -107848.35    107931.96   -155.33396    37.306963 
25160000     288.7682    495.98469     206.8332   -107878.62    107946.61    289.15148    37.309711 
25164000    295.98146    382.79275    401.65377   -107898.57    107977.64   -18.861025     37.30894 
25168000    252.80537    372.51086    320.55345   -107905.63     108017.3    51.957413    37.312087 
25172000    288.70068      401.314    229.71993   -107951.13    108026.06    171.59407    37.316003 
25176000    301.43732    235.48225    170.66147   -107977.75    108034.23     64.82078    37.319524 
25180000    285.92565    508.58135    309.98009   -107979.33    108049.68    198.60126    37.321765 
25184000    291.92591    177.73516    350.58778   -107983.89    108075.21   -172.85262    37.323877 
25188000    267.45857    340.26111    331.19231   -107973.39    108059.05    9.0687982    37.328089 
25192000    304.44038      322.879    357.69443   -107980.04    108055.24    -34.81543    37.326402 
25196000    272.43793    232.48183    216.32518   -108009.18    108102.46    16.156653    37.315322 
25200000    263.24355    236.58179    334.84199   -108018.38    108123.38   -98.260198    37.310167 
25204000    277.64709    447.27525    378.20309   -108041.05     108124.1    69.072155    37.308013 
25208000    258.07762    287.60694    257.52446   -108060.82    108153.68    30.082476    37.312749 
25212000    279.87082    427.50757    202.06644   -108070.07    108153.53    225.44113    37.312851 
25216000    272.37655    269.10216    285.05819   -108062.18    108153.26   -15.956027    37.316605 
25220000    274.49293    419.62112    337.73535   -108103.68    108184.42    81.885773    37.317907 
25224000    297.40667    298.98819    364.55321   -108131.17    108198.53   -65.565023    37.324948 
25228000    280.07121    356.23226    467.36264   -108145.61    108234.07   -111.13038    37.322296 
25232000    286.88243    220.49248    320.99648   -108185.26    108238.03     -100.504    37.318438 
25236000    294.32145      377.735    407.06604   -108198.94    108280.63   -29.331043    37.321213 
25240000     292.1359    404.96276    295.30799   -108209.76    108281.36    109.65477    37.316597 
25244000    284.65393    359.36532    308.11407   -108222.95    108307.91    51.251249    37.320602 
25248000    274.71148    373.20938    254.95514   -108243.51    108332.01    118.25424    37.324167 
25252000    280.13973    359.53818    261.89868   -108236.43    108347.58    97.639496    37.322955 
25256000    276.86071    303.37734    309.91068   -108251.51    108355.99   -6.5333374    37.324461 
25260000    255.17795    226.77025    574.20175    -108266.3    108380.07    -347.4315    37.329714 
25264000    262.27906    566.71946    232.70084   -108288.88    108387.51    334.01862    37.327176 
25268000    245.64528    308.03558    220.34262   -108298.02    108411.59    87.692962    37.322561 
25272000    256.57282    152.65211    339.17193   -108281.77    108397.84   -186.51982      37.3263 
25276000    273.60868    297.19237    295.20829   -108311.99    108414.45    1.9840784     37.32884 
25280000    261.74758    439.11918    338.01722   -108329.61    108441.13    101.10196     37.32817 
25284000    287.50753    393.90369    335.45542   -108361.52    108447.18    58.448274    37.319918 
25288000    292.44565    187.27094    206.35572   -108399.05    108500.12   -19.084779    37.319459 
25292000    325.56003    527.12744    526.30121    -108452.8    108494.62   0.82623031    37.325961 
25296000    288.14937    500.54396    395.69459   -108455.51    108540.95    104.84936    37.328747 
25300000    304.50072    509.59608    355.10547   -108498.55    108573.46     154.4906    37.328099 
25304000    293.19737     516.5897    544.72401   -108496.87    108584.18   -28.134317    37.328682 
25308000    268.19831    465.40317    364.47041   -108523.77    108606.81    100.93276    37.324715 
25312000    298.74634    295.93895    393.43335   -108556.63    108624.29   -97.494406    37.323998 
25316000     280.7748    274.26643    270.16385   -108560.22    108661.51    4.1025774    37.329699 
25320000    278.65014    358.15274    282.08114   -108584.08    108669.22      76.0716    37.336502 
25324000     286.0045    468.39175    428.62436   -108599.62    108686.32    39.767387    37.328615 
25328000    301.37054    462.45406    477.89011   -108595.69    108682.58   -15.436042    37.326904 
25332000    259.36706    288.94888    302.28219    -108586.5    108687.25   -13.333311    37.321357 
25336000    269.07124    198.65046    305.93451   -108613.36    108705.66   -107.28405    37.319309 
25340000    304.44352    454.77381    437.02505   -108644.32    108715.64     17.74876    37.318424 
25344000    317.05559    319.86356    459.80384   -108678.69    108735.77   -139.94028      37.3144 
25348000      287.602    477.27897    254.48054   -108692.28    108781.84    222.79843    37.317892 
25352000    273.21157    373.53903    294.93424   -108707.79    108788.91    78.604786    37.308293 
25356000     259.3063    504.56319    393.27719   -108718.55    108809.93      111.286    37.315576 
25360000    280.77953    200.39428    286.90066   -108750.48    108836.04   -86.506379    37.314619 
25364000    256.56584    353.87006    255.69095   -108762.67    108866.01    98.179103    37.314617 
25368000     277.5729    366.07663    281.39893   -108783.08    108881.39      84.6777    37.308545 
25372000    277.54309    334.74519    358.57489   -108800.84     108911.7   -23.829701    37.305678 
25376000    268.54772    500.13156    307.49184   -108830.31     108905.5    192.63972    37.306378 
25380000    274.63184    429.92126    246.84392   -108847.22    108930.14    183.07735    37.298971 
25384000    307.52491    326.68321    428.42706   -108857.49    108944.57   -101.74385    37.295459 
25388000    329.80875    302.59327    335.56388   -108885.94       108947   -32.970604    37.295296 
25392000    282.92666    469.19342    332.52634   -108899.73    108981.45    136.66708    37.301119 
25396000     255.5887    310.48348    288.85477    -108912.1    109024.21    21.628704    37.299712 
25400000    268.08507    425.65405    90.301885   -108937.08    109039.58    335.35216    37.306967 
25404000    294.71249    425.50474     246.9502   -108947.65    109034.08    178.55454    37.297437 
25408000    290.09556    346.02697    325.40314   -108974.43     109059.2    20.623832    37.302357 
25412000    281.88661    357.71663    288.96665   -109015.42    109106.54    68.749978    37.306858 
25416000    272.57111    288.21731    318.20323   -109022.67       109107   -29.985922    37.305201 
25420000     299.0271    724.62628    287.85177   -109047.68    109118.49    436.77451    37.308839 
25424000    298.64063    270.27306    303.31184   -109063.48    109125.89   -33.038772    37.311872 
25428000      274.956    234.04963    228.19889   -109043.12    109158.63    5.8507399    37.315583 
25432000     294.3239    461.84201    335.65439    -109102.7    109185.79    126.18761    37.322324 
25436000     259.2407    219.03186    223.60605   -109114.84    109216.13   -4.5741901    37.322163 
25440000    300.78359     464.0063     411.7866   -109177.48    109237.68    52.219698    37.316871 
25444000     278.6251    325.18973      369.132   -109185.39    109284.91   -43.942271    37.319505 
25448000    295.68627    330.24194    402.65304   -109225.05    109288.34   -72.411107    37.318328 
25452000    322.84366    632.87002    483.52445   -109234.27    109315.01    149.34557    37.313726 
25456000    301.02784    436.33644    273.57463   -109261.46    109347.35    162.76181    37.316338 
25460000    294.33696    339.18539    464.51365   -109268.13    109354.85   -125.32826     37.31307 
25464000    291.03327    358.66798    277.16215   -109299.11    109384.48    81.505826     37.31267 
25468000    275.43872    361.39091    231.87557   -109295.35    109398.26    129.51533    37.313841 
25472000     272.1719    488.19565     300.6068   -109332.04    109432.84    187.58886    37.304995 
25476000    303.75113    393.02934    417.51987   -109348.93    109432.55   -24.490525    37.308856 
25480000    272.03994    317.57598     254.5122   -109376.44       109459    63.063776    37.304184 
25484000    317.17196    505.08115    227.08855   -109400.35    109470.67     277.9926    37.301829 
25488000     274.6213    341.42474    394.01072   -109416.96    109517.93   -52.585981    37.299377 
25492000     283.4729    670.01902    288.53663   -109457.29    109534.12    381.48238    37.308373 
25496000    269.06032    228.37353    362.17629   -109463.32    109552.73   -133.80276    37.304031 
25500000     272.1511    327.98961    584.67924   -109484.22    109566.24   -256.68963    37.299393 
25504000    267.11996    335.73407     307.5769   -109488.37    109596.41    28.157166    37.299224 
25508000    317.20247    520.75684    504.51264   -109512.17    109591.36    16.244198    37.306322 
25512000    313.59016    245.26029    456.36125    -109536.9    109600.22   -211.10097    37.308605 
25516000    300.18404    394.91812    342.02302   -109585.42    109648.46    52.895096    37.303746 
25520000    282.22901    217.33778    424.77603   -109578.95    109674.38   -207.43825    37.305869 
25524000    291.11364    313.40381    280.00559   -109590.08    109681.76    33.398229    37.309436 
25528000    300.35032    434.41574    376.04911   -109609.86     109685.5    58.366634    37.312566 
25532000    258.48474    247.77363    337.76236   -109626.75    109717.26   -89.988737    37.314106 
25536000    302.87634    552.87609    407.25204    -109645.4    109722.23    145.62406     37.31766 
25540000    280.18067    319.41793    334.54453   -109641.84    109741.58   -15.126602    37.318393 
25544000    285.13982    294.72011    299.71343   -109677.78    109761.08   -4.9933191    37.312588 
25548000    303.61415    413.11721    540.52529   -109701.64    109783.33   -127.40807    37.310615 
25552000    313.97891    755.00072    206.77086   -109726.86    109786.88    548.22986     37.31141 
25556000    287.49928    462.27966    265.71236   -109727.09    109796.86     196.5673    37.309695 
25560000    263.86183    354.10095     240.5156   -109726.26    109823.37    113.58535    37.307118 
25564000    292.92058    321.95389    406.37027   -109755.47    109836.01   -84.416375    37.302799 
25568000    293.99691    369.39099    288.36098   -109761.38    109849.55    81.030009    37.305778 
25572000    296.91172    264.38675    202.67683   -109768.74    109860.91    61.709919    37.306272 
25576000    283.99078    214.70434    320.83417   -109797.36    109892.59   -106.12983    37.304653 
25580000    269.31215    480.70984    396.26681   -109820.64    109909.47    84.443027    37.304785 
25584000    286.07229    275.91066    251.24846   -109829.76    109913.93    24.662197    37.303551 
25588000    289.83682    272.51458    380.87854   -109846.02    109928.26   -108.36395    37.303913 
25592000    269.57958    287.73314    409.92387   -109881.54    109969.18   -122.19073    37.307402 
25596000     302.5972    162.10129     345.5912   -109899.02    109973.15   -183.48991    37.306277 
25600000    304.93885    336.62655    194.34248   -109917.61    109985.24    142.28407    37.312253 
25604000    283.02407    204.21484    207.50205   -109946.17    110029.34   -3.2872025     37.30821 
25608000    294.18513    435.04096    156.93337   -109953.38    110040.96    278.10759    37.302982 
25612000    323.63753    401.28273    412.24668   -109962.67    110045.04   -10.963952    37.306912 
25616000    289.98632    205.37398    361.61144   -109980.06    110080.51   -156.23746    37.298188 
25620000    279.90401    436.35196    400.97244   -110024.98    110105.89    35.379521    37.296876 
25624000    280.22009    362.20764    404.29954   -110015.11    110103.89   -42.091892    37.297995 
25628000    302.25594    362.95849    221.53506   -110014.95    110094.43    141.42343     37.29114 
25632000    288.54876    283.94699    317.41138   -110040.31    110116.97   -33.464385    37.294993 
25636000    287.60126    331.25217    326.23678   -110068.02     110152.4    5.0153944    37.297006 
25640000    282.35341    513.60304    256.11673   -110079.49    110163.01    257.48631    37.294978 
25644000    290.13028    317.15333    343.97209   -110055.68    110160.31   -26.818758    37.295677 
25648000    286.38478    706.10844    412.17937    -110056.2    110165.09    293.92907    37.298781 
25652000    275.94088    270.67159    329.26831    -110082.2    110171.98   -58.596728    37.298051 
25656000    286.74041    305.38074    315.43738   -110117.62    110203.45   -10.056637    37.295601 
25660000    285.52224    316.74077    204.72827   -110127.71    110213.58    112.01249    37.303218 
25664000    275.34202    448.17325    422.94723   -110131.88    110224.29    25.226023    37.301948 
25668000    262.84155    172.12735    381.02413    -110154.2    110250.91   -208.89678     37.29857 
25672000    285.11103    354.80206    337.78455   -110220.36    110296.99    17.017511    37.297294 
25676000    295.20489     428.4095     259.9002   -110215.62    110298.14     168.5093    37.300207 
25680000    261.67417    472.08723    506.69815   -110235.51    110345.12   -34.610922     37.30379 
25684000    291.87525    391.01313    438.51618   -110265.71    110360.81   -47.503051    37.306044 
25688000     289.4418    328.11594     295.1834   -110312.78    110391.68    32.932544    37.297692 
25692000    272.55775    292.24846     338.7103   -110308.96    110391.48   -46.461839    37.296376 
25696000      276.635    447.05915    426.16541   -110317.53    110410.69    20.893738    37.292743 
25700000    273.00158    229.61196    347.81703   -110341.23    110427.57   -118.20508    37.286937 
25704000    268.99574    294.05089    328.71599   -110369.74    110468.81   -34.665097    37.287587 
25708000    288.55864    426.38418    327.52692   -110400.42    110485.75    98.857257    37.285931 
25712000    278.36956    394.66931    316.56652   -110407.66    110501.38    78.102787    37.292044 
25716000    249.65545    278.78463     350.5359   -110423.05    110543.61    -71.75127    37.291481 
25720000    278.79278    282.27106    282.96468   -110442.13    110533.07  -0.69361651    37.298321 
25724000    303.49133    465.90503    307.77549   -110475.67     110533.4    158.12954    37.295705 
25728000    307.58805    415.44318    327.52091   -110474.87    110557.08    87.922267    37.291562 
25732000    303.10717     391.0364    349.08253   -110502.48     110596.5    41.953865    37.293918 
25736000    265.14701    324.66201    386.04483   -110504.59    110608.49   -61.382821    37.293685 
25740000    288.21957    406.90086      487.444   -110520.89    110610.97   -80.543144    37.290096 
25744000    290.68938    136.30409    190.07063   -110530.69    110621.11   -53.766536    37.286836 
25748000    258.24581     529.7435    245.02604   -110563.76    110655.67    284.71746    37.289181 
25752000    287.16678    246.34626     463.8426   -110579.15    110664.37   -217.49634     37.29314 
25756000    297.48716    214.84066     437.8087   -110617.05    110702.26   -222.96804    37.283889 
25760000    283.04482    154.86773     525.9775   -110627.49    110702.06   -371.10977    37.281563 
25764000    284.87607    339.34523    307.13683   -110630.06    110728.23    32.208403    37.275664 
25768000    282.09398    353.56489     376.3276   -110637.48    110733.68   -22.762705    37.272829 
25772000    285.46205    415.24081    247.29361      -110659    110749.03     167.9472    37.277868 
25776000    287.12509     473.1799    581.13049    -110665.7    110759.53   -107.95059     37.27292 
25780000    277.41662    261.52088    279.69968   -110700.88    110792.69   -18.178796    37.276054 
25784000    285.06355    202.61548    403.15326   -110722.41    110822.23   -200.53778    37.281379 
25788000    320.61377    602.33397    381.28496   -110737.21    110802.48    221.04901     37.27845 
25792000    303.71651      449.491     292.7104   -110754.37    110822.96    156.78061    37.283197 
25796000    287.42807    373.46984    400.07403   -110774.49    110868.22   -26.604199    37.284355 
25800000    268.22539    547.40889    396.24368   -110803.86    110906.01    151.16521    37.287724 
25804000    283.75896    249.85464    423.73313   -110847.21    110936.02   -173.87849    37.288865 
25808000    311.08248    535.41064    239.39902   -110857.75    110948.09    296.01162    37.293755 
25812000    282.76103    570.59366    397.98357   -110856.47    110959.03    172.61009    37.291102 
25816000    262.45737    347.48542    388.47755   -110867.18     110961.3   -40.992126    37.290393 
25820000    288.39211    460.22105    296.93811    -110899.1    110974.04    163.28294    37.291656 
25824000    293.17541    209.73604    284.74203   -110925.89    111011.77   -75.005983    37.291314 
25828000     281.4016    293.95287    420.90433   -110942.44     111024.2   -126.95146    37.294903 
25832000    296.29078    352.01006    464.83196    -110948.4    111052.11   -112.82189    37.298589 
25836000    249.56529    500.10013     268.1456   -110976.19    111094.69    231.95453    37.302585 
25840000     282.6411    407.16286    152.90623   -110998.07    111090.13    254.25663    37.302352 
25844000    283.01476    452.59491    443.24596   -111010.15    111120.85    9.3489483    37.301415 
25848000    246.53474    360.81148     199.3758   -111048.11    111139.28    161.43568    37.295287 
25852000    274.31551    314.16954    339.52236   -111070.56    111154.32   -25.352816    37.291775 
25856000    258.42496     433.1591    370.24489   -111077.19    111180.95    62.914209    37.296149 
25860000    220.44906    267.82965    240.53891   -111091.13    111211.95    27.290745    37.299697 
25864000    279.12888    274.88952    429.04936   -111135.33    111235.04   -154.15984    37.298445 
25868000    277.93956    437.81247    392.20132   -111165.85    111232.86    45.611148    37.299844 
25872000    269.43627    350.98633    277.07357   -111152.32    111265.66     73.91276    37.300583 
25876000    277.11755    422.13579    260.97496   -111189.54    111270.71    161.16083    37.297087 
25880000    312.70309    535.90859    261.72383    -111212.1     111300.8    274.18476    37.299187 
25884000    277.98546    276.93864    249.28993   -111222.58    111321.86    27.648713    37.301111 
25888000    279.61306    445.51236    311.44503   -111233.07    111336.81    134.06733    37.299864 
25892000     309.3466    317.69957    434.57906   -111273.55    111329.59   -116.87949    37.303702 
25896000    278.92969    363.79935    337.65318   -111260.93    111353.84    26.146168    37.304364 
25900000    278.75046    448.06113    420.37657   -111265.79    111373.88    27.684558    37.297446 
25904000     310.0103    427.22622    160.77307   -111328.49    111391.27    266.45315    37.299308 
25908000    274.90584    416.07464     306.6518   -111331.94    111411.53    109.42284    37.303457 
25912000    292.13495    356.01686    555.34039   -111345.24    111429.22   -199.32353    37.304047 
25916000     330.2911    392.84725    265.33362   -111361.03    111416.38    127.51362    37.304028 
25920000     305.2306    381.71355    382.66118   -111370.09     111456.3   -0.9476371    37.303274 
25924000    261.88072     335.6629    171.52245   -111388.34    111495.25    164.14045    37.302692 
25928000    324.23894    597.36152     332.7947   -111414.29    111497.46    264.56682    37.303176 
25932000    309.70964    568.36429     266.8624   -111431.41    111514.26    301.50188    37.307252 
25936000    298.19227    433.42047    320.17055   -111448.37    111537.98    113.24992    37.305398 
25940000    299.72179    271.92624    475.72397   -111482.89    111569.97   -203.79773     37.30137 
25944000    275.45713    158.76261    341.96566   -111520.03       111612   -183.20305    37.302922 
25948000    300.45975    299.88463    459.26573   -111529.65    111618.48   -159.38111    37.302678 
25952000    284.87722    355.57073    270.39689   -111546.65    111649.39    85.173835    37.300746 
25956000    269.45169    392.77866    390.99415   -111586.68    111680.57    1.7845073    37.300105 
25960000    278.52661    430.47117    468.78088   -111599.98    111703.82   -38.309716    37.295928 
25964000    259.26933    205.51272    304.07935   -111620.26    111723.99   -98.566638    37.290811 
25968000    290.00018    259.04749    487.95405   -111639.85    111735.67   -228.90655    37.288283 
25972000    298.42314    424.53021    389.68903   -111664.52    111762.46    34.841182    37.293921 
25976000    249.55934    343.96818    234.70855   -111684.75    111797.56    109.25963    37.291162 
25980000    275.18803    546.53527    339.16371    -111715.1    111811.14    207.37156    37.291766 
25984000    289.83901    340.25463    437.57683   -111744.28    111846.18   -97.322204    37.287623 
25988000    301.79236    458.08631    373.63579    -111775.8    111839.41    84.450514    37.285972 
25992000    310.88333    420.75346    453.38488   -111790.17    111863.81   -32.631419    37.281192 
25996000    293.56617    317.48281    326.54684   -111795.02    111890.07   -9.0640251    37.282503 
26000000     280.7113    303.38974    287.05972   -111808.19    111921.81    16.330013    37.287503 
26004000    257.19203    417.13765     188.3638   -111831.46    111934.75    228.77385    37.287979 
26008000     266.1863    223.51892    299.98191      -111855    111967.06   -76.462985    37.284705 
26012000    308.53483    380.30267    421.89593   -111907.12    111967.32   -41.593264    37.282986 
26016000    256.27285    333.20407    289.11255   -111915.11    112017.17    44.091523    37.279523 
26020000    333.40289      476.551    472.64194   -111935.71    111994.99    3.9090616    37.278248 
26024000    301.22005    383.86625    431.92092   -111943.89    112041.34   -48.054667    37.277079 
26028000    291.40317    251.08946    193.80252   -111971.39    112067.08    57.286949    37.281011 
26032000    265.41062    385.89827    183.26732   -111987.56    112101.76    202.63094    37.286181 
26036000    274.06432    440.83888    379.71274   -112019.66    112118.72    61.126144    37.285907 
26040000    291.41643    450.01001    394.99745   -112051.11       112137    55.012562    37.287704 
26044000    290.97813    533.84292    330.14704   -112068.95    112148.46    203.69588    37.291764 
26048000    255.44811    413.98041    438.84147   -112074.78     112182.5   -24.861058    37.283948 
26052000    268.63182    491.65137    413.73272      -112118    112203.76    77.918656    37.280333 
26056000    275.99936    447.90358    240.73833   -112117.76       112219    207.16525    37.283362 
26060000    291.84607    587.97224    321.12816   -112149.78    112236.13    266.84408     37.27601 
26064000     272.2014    209.00783    537.03364   -112160.19    112229.58   -328.02581    37.278141 
26068000    294.86292    321.98657    373.35356   -112161.55    112256.14   -51.366995    37.278465 
26072000    295.19541    279.95709    459.84133   -112176.16    112252.09   -179.88424    37.276273 
26076000    277.82712    415.09611    226.09444   -112217.45    112302.08    189.00167    37.277695 
26080000    290.85542    256.40125    550.20179   -112239.58    112317.28   -293.80054    37.270771 
26084000    291.65796    368.39135     323.2797   -112252.03    112317.31    45.111653    37.272471 
26088000    257.79015    285.83302    417.23669   -112259.46    112364.54   -131.40367    37.267934 
26092000    288.17345    541.46328    256.96955   -112293.96    112371.64    284.49373    37.271128 
26096000    271.27895    241.83922    287.23365   -112293.44    112394.99   -45.394429    37.275769 
26100000    305.15928    440.59248    299.86407   -112340.22    112402.08    140.72842     37.27619 
26104000    274.64622    279.06807    240.33933   -112349.16    112454.92    38.728744    37.273351 
26108000    279.42862    450.93819    364.45475   -112359.42     112464.8    86.483441    37.270676 
26112000    281.64943    236.31995    278.84719   -112396.33    112495.39   -42.527242    37.270898 
26116000    292.39777     461.4685    251.91346   -112437.16    112499.97    209.55505    37.266642 
26120000    294.78827    428.40885     315.8191   -112436.68    112525.58    112.58975    37.260916 
26124000    256.88369    397.94265    273.71421    -112430.7    112550.14    124.22844    37.260213 
26128000    302.05463    367.98186     370.9358   -112424.28    112523.14   -2.9539349    37.253649 
26132000    268.43978      241.233    493.52573   -112457.42    112564.28   -252.29273    37.247457 
26136000    282.68223    317.29675    469.94419   -112480.99     112591.1   -152.64744    37.252732 
26140000    317.24306    388.87385    391.60353   -112493.01    112581.19   -2.7296782    37.250574 
26144000    289.88707    358.26763    279.06787   -112490.81    112584.29    79.199764    37.246953 
26148000    328.27585    458.73832    317.89389   -112543.87    112577.46    140.84443    37.249051 
26152000    282.57108    559.33098    574.11046   -112521.11    112617.95   -14.779478    37.251858 
26156000    269.75168    218.34529    397.56888   -112557.17    112669.34   -179.22359     37.25346 
26160000    260.05513    251.89375    291.52536   -112575.08    112682.74   -39.631603    37.254871 
26164000     255.2407    263.44421    356.68878   -112587.43    112704.97   -93.244576    37.254403 
26168000    285.69807    667.06189    339.29944   -112622.59    112718.06    327.76245    37.249195 
26172000    282.28153     264.9242    424.79014   -112612.96    112723.49   -159.86594    37.246365 
26176000    300.32077    354.03594    124.66939   -112641.42    112731.19    229.36655    37.245322 
26180000    305.15268    403.00095    327.71059   -112675.19     112751.1    75.290357    37.244435 
26184000    300.55802    479.43337    528.21345   -112684.54       112769   -48.780089       37.247 
26188000    287.49419    279.16751    300.78307   -112677.95    112766.01   -21.615562    37.244958 
26192000    299.49742    600.64786    280.62302   -112689.35    112775.01    320.02484    37.244195 
26196000    308.83519     274.4579    259.61653   -112696.24    112768.92    14.841377    37.238379 
26200000    283.57033    491.94465     150.9853   -112754.18    112820.18    340.95935    37.238321 
26204000    279.35949    257.76629    236.29711   -112776.31    112845.56    21.469174    37.238513 
26208000    324.77946    129.46836     247.0825   -112791.66    112867.98   -117.61415    37.242513 
26212000     299.7417    526.52031    215.07031   -112828.87    112879.98       311.45    37.243354 
26216000    281.52951    391.93465    336.39519      -112828    112900.78    55.539459    37.247013 
26220000    282.38045    262.01933    186.38577   -112841.09    112923.97    75.633566    37.249363 
26224000    261.63603    301.95063    288.46833   -112860.55     112972.6    13.482299    37.252664 
26228000    263.06982    282.88426    277.91416   -112892.06    112994.34    4.9701006    37.255347 
26232000    268.55215    180.89346    496.42653   -112879.75    112974.88   -315.53307    37.254295 
26236000    271.65454    312.46072    157.41601   -112899.29    112988.47    155.04471    37.251052 
26240000    292.72696    525.90253    286.64702   -112935.51    113015.23    239.25551    37.254203 
26244000    296.61155    178.31131    416.87734   -112931.02    113017.75   -238.56603     37.25575 
26248000    290.22486    575.75171    519.57204   -112949.26    113048.86     56.17967    37.256853 
26252000    297.02935    319.50146    554.91835   -113013.19    113102.38   -235.41689    37.255436 
26256000     294.5135    284.59135    350.12802   -113027.41    113119.47   -65.536672    37.253113 
26260000    278.92554    280.42723    252.74666   -113056.66    113167.81    27.680569    37.257523 
26264000     271.2475    199.93805    287.19299   -113087.16     113184.3   -87.254946    37.259032 
26268000    255.56774     389.5631     381.2282   -113130.84    113236.88    8.3349018    37.263198 
26272000    271.19705    279.66713    443.29237   -113148.38    113260.15   -163.62524     37.26766 
26276000    271.37145    383.96689    350.78916   -113184.82    113282.75    33.177731    37.271387 
26280000      291.343    324.86295    362.79758   -113213.69    113279.47   -37.934632    37.270015 
26284000    286.43811    588.34149    242.24397   -113182.76    113277.21    346.09752    37.276358 
26288000    280.97579    452.34792    126.98937   -113203.61    113270.14    325.35854    37.278849 
26292000    285.45271    411.47052    339.23249   -113207.05    113306.22    72.238027    37.280558 
26296000     293.2985    325.03114    240.89203   -113248.83    113347.53    84.139112    37.281242 
26300000    279.70474    313.66546    285.93821   -113276.36    113379.36    27.727254    37.283246 
26304000    240.50247    441.33766    450.69996   -113284.54    113392.88   -9.3623015    37.283089 
26308000     297.9245    515.18292    351.06117   -113325.11    113394.83    164.12174    37.283571 
26312000    291.78478    370.10345    329.76964    -113332.9    113405.63     40.33381    37.286636 
26316000    297.90627    312.17936    251.21164   -113351.35    113431.56    60.967721    37.286695 
26320000     241.2522    335.54948    264.18617   -113364.23    113473.65     71.36331    37.283027 
26324000     267.4118    628.48219    462.05887   -113380.96    113488.24    166.42332    37.283424 
26328000    284.98083    192.10573    355.59617   -113412.07     113507.2   -163.49044    37.287334 
26332000    260.91107    515.11576    123.09291   -113425.66    113510.44    392.02285     37.28709 
26336000    284.04682    362.93747     349.2899   -113477.18    113547.81    13.647572    37.282764 
26340000    284.95027    554.63401    428.95175    -113487.5    113572.51    125.68226    37.282837 
26344000      304.065    324.04389    432.95614   -113479.07    113574.49   -108.91224    37.278513 
26348000    295.16897    311.78221    377.40928   -113501.64    113570.86    -65.62707    37.272744 
26352000    285.32206    327.33074    240.16096    -113512.9     113600.3    87.169775    37.272245 
26356000    283.71278    331.47643    210.66538   -113513.88    113602.49    120.81105    37.275685 
26360000    289.94905    223.82676     377.1782   -113543.51    113633.62   -153.35145    37.268549 
26364000    312.38057    302.30742    341.60045   -113567.95    113646.26   -39.293033    37.276675 
26368000    265.37985    425.42664    216.61953   -113575.98    113698.04    208.80711    37.274952 
26372000    284.26211     548.7553    371.79729    -113613.8    113699.99    176.95801    37.277164 
26376000    288.13756    218.16035    275.10927   -113638.22    113718.72   -56.948922    37.276931 
26380000    278.49424    488.58037    365.49778   -113669.24    113753.63    123.08259    37.276895 
26384000    301.01204    322.42895    394.88724   -113681.73    113780.82   -72.458283    37.284345 
26388000    305.03997    275.47339    462.26665    -113688.5    113769.46   -186.79327    37.284202 
26392000    272.75192    423.62978    408.61193   -113714.28       113807    15.017843    37.282554 
26396000    260.51313    384.04722    214.12569      -113709    113810.04    169.92153    37.284877 
26400000    298.24596    500.28892    300.00425   -113729.38    113803.53    200.28466    37.285194 
26404000    283.83186    390.05479    394.15865   -113766.58    113843.94   -4.1038626    37.285669 
26408000    281.53987    302.84199    451.50855   -113784.23    113869.39   -148.66656    37.283675 
26412000    296.42621    368.05986      300.427    -113783.2    113864.83    67.632856    37.281392 
26416000    299.41779    312.40206    460.23954   -113796.39    113865.35   -147.83747    37.282132 
26420000    292.35276    396.40764    186.93446   -113818.12    113896.27    209.47318    37.280905 
26424000    293.53379    473.21279     310.6849   -113853.17    113942.21    162.52789    37.279183 
26428000    295.14952    314.36303     378.8575    -113894.2    113966.95   -64.494466    37.280006 
26432000     278.7445    336.07658     396.5185   -113900.64    113990.28   -60.441913    37.278402 
26436000    256.14819    283.89219    298.32574   -113895.82    114009.34   -14.433552    37.272162 
26440000    295.13175    458.87125    260.83564   -113925.26     114026.9    198.03561    37.275664 
26444000    262.49773    400.21095    242.98843   -113939.05    114051.35    157.22253    37.279437 
26448000    302.13435    584.53748    244.35665   -113946.59    114045.38    340.18083    37.283333 
26452000    287.70767    488.88518    328.47469   -113977.43    114049.96    160.41049    37.282856 
26456000    274.53174    432.16664    340.70922   -113967.32    114076.32     91.45742    37.280618 
26460000     274.7432    200.75523    316.88562      -114018    114094.22   -116.13039    37.282046 
26464000    291.19264    331.87987    409.96511   -114041.34    114118.56   -78.085238    37.277989 
26468000    288.52948    302.18036    286.19692   -114023.23    114127.24    15.983442    37.269331 
26472000    266.41872    239.65355    281.28702   -114035.82    114138.72   -41.633468    37.274004 
26476000    266.16923    295.99798    486.13416   -114065.63    114151.76   -190.13618    37.273217 
26480000    266.66325    286.60683    282.06371   -114066.89    114172.57    4.5431257    37.275584 
26484000     291.2874    348.74342    436.46911   -114108.58     114181.9   -87.725694    37.273975 
26488000    280.24991    286.57425    254.81083   -114111.69    114200.23    31.763415    37.275552 
26492000    286.56663    337.78262    279.19697   -114146.22    114236.93    58.585652    37.279489 
26496000    296.50007    361.90045    359.94017   -114165.26    114246.48    1.9602814    37.271926 
26500000     298.7263    587.28617    239.62826   -114168.17    114260.22    347.65791    37.273511 
26504000    294.98692    280.31415    216.25183   -114191.27    114274.73    64.062325    37.270931 
26508000    250.95085    510.85819    233.44709    -114201.1    114316.14    277.41109    37.270976 
26512000    298.67901    384.29571    232.17228   -114222.88    114304.35    152.12342    37.272511 
26516000    257.45746    476.96106     222.1751   -114244.28    114334.42    254.78597    37.276127 
26520000     291.3338    344.89318    374.30768   -114268.27    114350.66     -29.4145    37.276189 
26524000    264.53779    323.46055    293.56996   -114282.75    114402.81    29.890586    37.268552 
26528000    286.87728    573.28034    262.98903   -114314.93    114419.36    310.29131    37.259765 
26532000     271.5715    384.65966    311.24241   -114350.78    114464.49    73.417253    37.260384 
26536000    253.53139      346.193    284.92596   -114379.05    114474.58    61.267038    37.255721 
26540000    303.98529     443.4282     312.0514   -114388.99    114476.31     131.3768    37.258465 
26544000    304.84156    438.88487    440.97969   -114418.26    114494.96   -2.0948207    37.267806 
26548000    293.14245    237.67034     520.0894    -114436.6    114499.18   -282.41906    37.256312 
26552000    263.69448    241.97308    276.26466   -114433.88    114540.04   -34.291576    37.259763 
26556000    272.68099    281.33407    403.46919   -114447.33    114560.23   -122.13512    37.258201 
26560000    294.07456    235.33127    218.86276   -114470.31    114563.73    16.468517    37.266487 
26564000    277.25397    217.92621    422.12877   -114502.08    114585.14   -204.20256    37.267766 
26568000    285.36396     333.4574    257.06723   -114502.56    114607.35    76.390174    37.266487 
26572000    285.07376    320.55214    277.89095   -114494.71    114608.22    42.661189    37.268042 
26576000    283.56086     385.9338    473.25727   -114530.68    114607.09   -87.323479    37.265944 
26580000    275.21707     370.5042    350.96862   -114548.14    114656.09    19.535583    37.267973 
26584000    292.63467    353.05878    268.85007   -114591.71    114682.85    84.208706     37.26843 
26588000    260.71259    220.52222    302.86306   -114578.71    114663.81   -82.340843    37.272613 
26592000    295.20329    377.44351    265.45602   -114611.45    114690.03    111.98749    37.269746 
26596000    261.95833    470.51637    450.84019   -114618.59    114711.14    19.676172    37.271833 
26600000    289.30188    411.98106    246.78622   -114651.65    114752.06    165.19485     37.26932 
26604000    264.79705    309.07779    260.78699   -114677.85    114772.43      48.2908    37.263841 
26608000    262.53804    345.35085    226.27373   -114695.38    114806.61    119.07712    37.259439 
26612000    278.17685    463.37575    286.90257   -114713.77     114818.9    176.47318    37.260561 
26616000    274.54012    533.03559    329.09634   -114725.73     114825.4    203.93925    37.267889 
26620000    263.80799    267.67415    269.85753   -114733.64    114847.66   -2.1833867    37.268689 
26624000    279.83108    230.39982    376.46672   -114757.04     114865.9    -146.0669    37.270591 
26628000    315.45947    372.57673     345.9239   -114776.15     114852.4    26.652828    37.273801 
26632000    270.72003    426.56755    303.85588   -114787.66    114889.38    122.71167    37.275147 
26636000    265.70027    216.71081    313.57648    -114796.9    114894.53   -96.865668    37.275205 
26640000     254.5257    339.38708    406.93951    -114825.6    114924.78    -67.55243    37.276032 
26644000     295.3691    413.95696    310.77132   -114845.44    114942.71    103.18563    37.272667 
26648000    292.20287    318.20554    238.03713   -114866.64    114968.71    80.168406    37.273353 
26652000    256.68034    370.93344    295.72078   -114914.38    115014.64    75.212657     37.26836 
26656000    281.87676    241.14161    334.11693   -114921.93    115042.96   -92.975318    37.265035 
26660000    284.23437    499.60851    336.70041   -114972.89    115062.17    162.90809    37.268303 
26664000    299.14289    480.68869    203.18647   -114989.67    115064.37    277.50221     37.26733 
26668000    287.09711     459.8922    294.09075   -114994.67    115088.95    165.80146    37.265506 
26672000    291.98338     388.2185     248.6242   -115021.95    115095.08     139.5943    37.262749 
26676000    290.16624    502.58652    328.54532   -115031.76    115136.45     174.0412    37.263698 
26680000    284.20714     477.9596    416.18938   -115053.92    115161.58    61.770218    37.270773 
26684000    258.84534    529.33833    216.90104   -115057.79    115168.15    312.43729    37.277095 
26688000    284.37043    267.43836    503.63077    -115086.5    115191.01   -236.19241    37.273179 
26692000    295.43702    422.06617    664.48883   -115117.73    115202.73   -242.42266    37.268011 
26696000    269.54305     499.9792    247.16368   -115132.36    115229.04    252.81553    37.268678 
26700000    296.31259    226.83007    373.84829    -115180.2    115262.01   -147.01821    37.264201 
26704000    261.49679     224.7589     310.5505   -115175.15    115291.48   -85.791599    37.261491 
26708000    285.35031    379.39177    556.91311   -115199.82    115292.35   -177.52135    37.262049 
26712000    276.24894    602.94122    414.06605   -115219.12    115319.92    188.87517    37.264786 
26716000    263.44313    300.22759    363.48402   -115224.98     115320.8   -63.256422    37.263888 
26720000    266.62582    312.20417    240.50425   -115241.41    115340.83    71.699917    37.271613 
26724000    283.87988    328.64716    197.82946   -115274.26    115372.52     130.8177    37.270165 
26728000    286.82384    572.61641    343.00794   -115256.66    115363.03    229.60847    37.271407 
26732000    275.11754    226.53428    302.21161   -115253.81    115371.25   -75.677332    37.269862 
26736000    298.16043    400.57557    277.77939   -115269.87    115368.86    122.79618    37.268716 
26740000    295.69315    394.65076    568.24286   -115290.35    115375.35   -173.59209    37.266924 
26744000    300.96173    464.35792    388.93914   -115305.23    115367.49    75.418777    37.273823 
26748000    290.39572     352.0982    333.01308   -115322.84    115398.29    19.085119    37.279219 
26752000    265.73589    210.90895    289.50518    -115302.2    115395.47   -78.596227    37.286817 
26756000    290.76279     314.9034    419.86253   -115324.55    115384.55   -104.95914    37.289851 
26760000    293.29909    445.67459    242.86901   -115339.61    115410.47    202.80558    37.292648 
26764000    288.43487    443.48146     393.1022   -115314.08    115414.48    50.379252    37.292008 
26768000    288.69801    338.88328    155.88944   -115361.11    115446.01    182.99385    37.287554 
26772000    289.65612    416.86114    316.06425   -115385.56    115465.46    100.79689    37.283013 
26776000    301.09294    382.43049     388.6967   -115408.86    115483.78   -6.2662109     37.27523 
26780000     280.6538    278.98365    484.41672   -115395.58    115487.46   -205.43307    37.280185 
26784000    258.56286    392.38856    376.77767   -115431.92    115540.92    15.610889    37.276497 
26788000    323.41095    300.07943    438.91628   -115454.77    115526.95   -138.83684    37.279575 
26792000    255.52399    215.50857    219.67571   -115467.84    115561.61   -4.1671428    37.283049 
26796000    284.80578    359.62189    250.30433   -115483.04    115562.13    109.31756    37.276463 
26800000    290.65762    376.29427    508.54468   -115495.25    115564.41   -132.25041     37.27287 
26804000    286.68728    197.96973    237.23471   -115508.95    115591.67   -39.264974    37.271072 
26808000    302.16199    412.86651    304.21839   -115510.99    115588.99    108.64813    37.273363 
26812000    293.19904    731.48356     376.4672   -115532.86    115616.08    355.01636    37.274893 
26816000    270.97106    295.35954    262.28077   -115535.33    115629.45     33.07877    37.272104 
26820000    266.99759    480.54452    189.65721   -115543.44    115642.87    290.88731    37.268572 
26824000    280.78825    337.09061    364.69804   -115557.03    115641.24   -27.607429    37.266866 
26828000    319.51939    434.97133    275.00238   -115592.56    115668.81    159.96894    37.267267 
26832000    281.16846    417.28036    338.35165   -115607.38    115691.58    78.928714    37.267537 
26836000    253.12646    385.71573    428.46547   -115617.82     115729.4   -42.749743    37.268007 
26840000    292.74775    176.26525    249.34911   -115632.28    115734.97   -73.083867    37.270324 
26844000    283.74489    389.07208    352.83807   -115657.42     115753.2    36.234013    37.273365 
26848000    292.28428    501.76851    219.06563   -115680.88    115773.76    282.70287    37.274348 
26852000    307.63019    392.45366    338.54125   -115705.18    115787.17    53.912416    37.276316 
26856000    255.98032    220.80831    363.82036      -115692     115812.2   -143.01205    37.277602 
26860000    272.56485    391.52802    369.58121   -115742.43    115838.26    21.946811    37.276547 
26864000    252.41096    268.50921    330.57282   -115761.25    115885.13   -62.063607    37.271213 
26868000    273.74895    598.28234    280.79396   -115775.76    115892.89    317.48838    37.273489 
26872000     270.6943    212.91103    345.50482   -115822.06    115919.87    -132.5938    37.275071 
26876000     275.2153    344.60259    305.55175   -115863.56    115947.14    39.050835    37.278718 
26880000    321.13098    234.89005    408.76093   -115884.38    115961.22   -173.87089    37.278498 
26884000    286.12854    320.04775    273.37741   -115896.68    115981.15    46.670339    37.273775 
26888000     284.5988    506.14084    455.77298   -115918.86    116029.35    50.367858    37.275552 
26892000    284.91045    242.44109    370.29793   -115956.07    116066.82   -127.85684    37.274772 
26896000    312.07314    464.36301    326.68222   -115988.72    116052.45    137.68079    37.277817 
26900000    314.79977    366.70097    433.57556   -116002.93    116073.88   -66.874586    37.276738 
26904000    279.34295    316.24109    349.74221    -116024.8    116124.14   -33.501126    37.282252 
26908000    280.23798    361.81826    391.84327   -116039.38    116139.45   -30.025009    37.278029 
26912000    300.80355    327.70547    456.16028   -116059.49    116145.76   -128.45481    37.279586 
26916000    282.49522    178.42271     401.5044   -116064.66    116171.92   -223.08169    37.278171 
26920000    280.42711    444.95324    256.91154   -116111.68    116198.93     188.0417    37.282707 
26924000    299.36491    218.43397    363.72348    -116132.8    116202.05   -145.28951    37.274546 
26928000    285.48937    526.99209    377.86094   -116142.49    116243.84    149.13116    37.274583 
26932000    295.50352    431.94998    300.62473    -116170.8    116227.69    131.32524    37.278331 
26936000    296.45526    307.07821    328.95814   -116169.73    116251.29   -21.879932    37.275963 
26940000    280.55591    155.99418    346.35137    -116184.6    116254.91   -190.35719    37.272588 
26944000    282.33175    369.89726    330.03617   -116201.67    116296.85    39.861095    37.270975 
26948000    301.45342    251.56527    409.04687   -116208.33    116303.78    -157.4816    37.278292 
26952000    264.83975    214.13807    249.78591   -116243.23    116334.24   -35.647833    37.277746 
26956000    264.62854    362.78374    271.71802   -116270.52    116357.03    91.065723    37.272521 
26960000    279.47837    338.03247    255.36337   -116278.23    116371.65    82.669099    37.272485 
26964000    276.33546    288.14099    224.46361   -116299.41    116388.16    63.677384    37.273759 
26968000    270.69417    267.91453    368.53346   -116324.09    116417.63   -100.61893    37.270283 
26972000    273.50202    169.75637    249.39587    -116326.4    116426.33   -79.639509     37.26703 
26976000    294.00286     382.4822    258.38616   -116355.02    116441.06    124.09604    37.267201 
26980000     287.2067    327.06377    298.43272   -116358.49    116450.54     28.63105    37.261339 
26984000    283.30142    450.04844    426.73314   -116361.52    116472.43    23.315309    37.257128 
26988000    278.82231    390.78094    283.95819   -116383.03    116492.69    106.82275    37.260235 
26992000    290.76186    399.28244    406.54152   -116415.22    116503.82   -7.2590838    37.252065 
26996000    288.47866    285.21657    377.71365   -116443.95    116536.31   -92.497083    37.251479 
27000000    300.20407    306.00145    323.76913    -116478.8    116557.67   -17.767677     37.24902 
27004000     298.6681    320.32996    289.34181   -116487.83    116583.42     30.98815    37.252267 
27008000    319.08618    241.99888    334.44527   -116532.94    116596.83   -92.446385    37.259102 
27012000    291.51656    336.46252    244.10084   -116524.88    116595.73     92.36168    37.253123 
27016000    256.10661    292.83584    321.31552   -116505.86    116619.19   -28.479683    37.248471 
27020000     276.2201    272.84401       256.89   -116511.12    116619.12    15.954014    37.248476 
27024000    267.24235    379.33011    167.62458   -116524.35    116642.17    211.70553    37.249757 
27028000     251.8021    249.21683    320.81829   -116538.33    116666.86    -71.60146    37.242257 
27032000    268.10687    411.95287    334.82045   -116576.81    116681.09    77.132419    37.242654 
27036000    270.28451    382.10856    260.48388   -116608.24    116691.81    121.62468    37.239891 
27040000    278.30305    387.56679    506.04415   -116607.61    116706.85   -118.47736    37.239873 
27044000    262.94995     361.5646    378.77237    -116646.3    116751.62   -17.207766    37.244204 
27048000    262.63196    398.13836    212.42791   -116671.58    116772.87    185.71044    37.243831 
27052000    251.80178    282.82383    418.42656   -116661.18    116778.94   -135.60273    37.235826 
27056000    241.13902    509.38479    338.43768   -116692.98    116798.34    170.94711    37.234677 
27060000    277.86385    228.66637    356.67538   -116696.67    116811.18   -128.00902    37.228979 
27064000    273.63672    351.58563    174.98365   -116726.04    116816.33    176.60198    37.234226 
27068000      279.142    585.61834    284.50407   -116738.77    116825.64    301.11426     37.24023 
27072000    268.51808    305.37254    356.83376   -116750.03    116845.74   -51.461222    37.237575 
27076000    305.28347    487.04377     172.8052   -116771.82    116858.68    314.23856     37.23812 
27080000    290.08827    304.60176    448.58264   -116798.46    116883.43   -143.98088    37.235336 
27084000    275.91947     480.9078    240.38555   -116813.39    116902.38    240.52225    37.235174 
27088000    256.23452    393.95895    336.01065      -116819    116938.23      57.9483    37.233857 
27092000    271.37861    346.45861    440.29478   -116840.42    116937.91   -93.836168     37.23451 
27096000    289.96084    394.27644    313.22673    -116870.5    116967.86    81.049711     37.23306 
27100000    286.56219    514.48879    283.75917   -116890.58    116979.86    230.72962       37.234 
27104000    313.31469    498.62528    315.12468   -116929.16    116985.13    183.50059    37.237161 
27108000    290.90641    462.49062    281.44122   -116962.59    117036.93     181.0494     37.23732 
27112000    284.28817    263.95893    240.78308   -116986.19    117069.54    23.175848    37.235977 
27116000    299.04211    366.01427    317.42913   -117001.26    117097.66    48.585135    37.238207 
27120000    260.78449    287.56187    317.07243   -117001.78    117119.28   -29.510565    37.238152 
27124000    304.94045    320.30905    396.07844   -117047.35     117129.1   -75.769387    37.235589 
27128000    271.85004    283.44674    363.95816   -117080.21    117154.54    -80.51142    37.242474 
27132000    295.55092    452.10061    331.16358   -117113.13    117197.91    120.93704    37.244132 
27136000    275.90137    340.05709    395.32267   -117128.02    117202.48   -55.265585    37.245685 
27140000    301.34729    165.71414    280.21363   -117148.24    117243.78   -114.49949    37.245153 
27144000     276.2111    266.00967    282.26904   -117176.07    117264.16   -16.259371    37.250779 
27148000    299.47534    348.74513    420.66602    -117198.4    117293.06   -71.920895    37.245796 
27152000    280.30554     265.7139    260.35566   -117230.28    117316.03    5.3582426    37.244477 
27156000    275.82069     347.4574    357.63795   -117265.11    117339.78   -10.180549    37.242081 
27160000    284.48913    247.77307    247.73783   -117274.02       117359   0.03524429    37.242249 
27164000    306.60252    250.71981    247.77764   -117279.08     117348.5    2.9421704     37.23977 
27168000    249.16741    257.99361     474.9928   -117271.81    117369.42   -216.99919    37.237472 
27172000    251.30935    455.81709    178.41656   -117303.82     117405.9    277.40053    37.237377 
27176000    317.86441    341.00948    419.86331   -117334.65    117401.97   -78.853836    37.237469 
27180000    296.56756    448.19154     317.3492   -117347.28    117426.87    130.84233     37.23171 
27184000    282.74194    648.11826    195.18776   -117340.88    117433.63    452.93051    37.231053 
27188000    289.56462    305.45178    461.39514   -117360.24    117444.09   -155.94335     37.23385 
27192000      317.525     254.4142    324.31174   -117392.16     117466.3   -69.897539    37.233355 
27196000    295.17121    323.18939    333.10369   -117410.26    117486.98    -9.914299    37.231844 
27200000    299.64217    429.71718    302.82438   -117431.66    117501.89     126.8928    37.230019 
27204000    275.00911    354.56284        517.1   -117448.47    117535.17   -162.53716    37.229295 
27208000    260.36006    294.63827      272.096   -117479.31    117581.08    22.542271    37.228154 
27212000    285.79029    331.62263    245.91158   -117525.42    117620.31    85.711057    37.227597 
27216000    266.48865    314.22095    325.76804   -117526.22    117639.25   -11.547096    37.234701 
27220000    287.60525    272.16332    281.64126   -117543.13       117632   -9.4779477    37.240078 
27224000    255.97349    304.43479    297.91812    -117553.7    117660.64     6.516671    37.239247 
27228000    262.38656    377.90608    300.27428   -117555.96    117639.78    77.631791    37.240396 
27232000    285.26403    370.82588    456.32748   -117561.72    117667.53   -85.501592    37.243696 
27236000    289.33649    233.84926    279.45843   -117574.19    117687.95    -45.60917    37.238588 
27240000    281.53063    362.23234    396.62023   -117606.08    117706.33   -34.387888    37.232177 
27244000     268.5707    259.91486    233.15572   -117644.29    117741.65    26.759147    37.236753 
27248000    315.82055    520.26664    286.02172   -117672.06    117745.26    234.24492    37.236292 
27252000    291.48532    284.21235    451.07688   -117681.31    117772.54   -166.86453    37.241243 
27256000    263.98261    270.80027    254.99859      -117694    117801.35    15.801687     37.24057 
27260000    294.01603    370.78792    355.28055    -117716.1    117793.42    15.507374    37.247818 
27264000    284.68817    431.61644    306.85906   -117730.58    117803.77    124.75738      37.2502 
27268000     255.1984    306.64735    347.34289   -117735.46    117840.84   -40.695537    37.249832 
27272000     296.4056    463.64704    195.27192   -117800.12    117872.52    268.37511    37.251943 
27276000     288.5065     287.8775    411.88055   -117796.85    117864.87   -124.00305    37.246421 
27280000    289.85826    323.82636    295.39861   -117813.16    117898.14     28.42775    37.239804 
27284000     287.2727     301.2277    313.52224   -117846.76    117933.19   -12.294539    37.241144 
27288000    290.39377    312.49593    240.70278   -117856.05    117938.73    71.793151    37.238848 
27292000     298.2467    471.27627    262.93694   -117893.25    117991.24    208.33933    37.234749 
27296000    276.14965    578.42658     407.3888      -117902    117999.06    171.03777    37.229703 
27300000    273.35959    274.84354    294.65384   -117915.52     118008.2   -19.810299    37.227755 
27304000    319.57578    392.96843    308.33349   -117944.12    118001.37    84.634935    37.225605 
27308000    315.72649    400.05412    160.94361   -117975.47    118058.86    239.11051    37.233673 
27312000    269.64524    375.26308    276.29285   -117982.47    118084.59     98.97023    37.234664 
27316000    284.17894    345.02924     413.5941   -118013.43       118108   -68.564858    37.232098 
27320000    255.96769    475.95022    287.68168   -118013.07    118141.52    188.26853    37.240971 
27324000    279.00066    456.71272    697.78011   -118060.32    118166.94   -241.06739    37.242108 
27328000    264.90709    159.08181    430.76037   -118084.04    118196.82   -271.67856    37.241872 
27332000    295.05983    180.18887    266.63142   -118110.66    118201.46   -86.442545     37.24485 
27336000    299.32326    306.20714    227.39468   -118144.11    118211.26    78.812456    37.241841 
27340000    305.97217    506.24665    379.53165   -118174.51    118232.63      126.715    37.241963 
27344000    268.27733    430.19205    302.31711   -118162.34    118272.11    127.87494    37.243639 
27348000    302.15956    373.64501    382.69085    -118181.5    118265.47   -9.0458368    37.241637 
27352000    259.07833    397.29143    360.68159   -118187.48    118303.64    36.609849    37.240511 
27356000    287.86383    315.52017    198.34237   -118217.27    118308.57     117.1778    37.241923 
27360000    284.60223     267.9186     191.4804   -118250.38     118345.1    76.438194    37.233661 
27364000     304.9091    483.03434    449.65847   -118282.99    118373.04    33.375875    37.231666 
27368000     282.9975    316.85868    228.55165   -118299.21    118396.45    88.307027    37.229576 
27372000    275.13499    299.60371    317.57436   -118299.99    118390.51   -17.970654    37.228386 
27376000    265.96883    295.67892     343.5978   -118299.48    118396.61    -47.91888    37.229696 
27380000    280.11807    529.85096    349.97827   -118326.66    118417.99    179.87269    37.229472 
27384000    285.33156     349.3152    364.53949   -118359.04    118435.08   -15.224284    37.229051 
27388000    314.19822    542.99264    394.50786   -118401.67    118483.24    148.48478    37.234745 
27392000     279.6636    368.80532    398.34596   -118434.88    118511.24   -29.540636    37.232078 
27396000    316.18353    427.22701    323.80383   -118425.01    118505.12    103.42318    37.224505 
27400000    288.96054      351.704    281.82303   -118452.78    118541.35    69.880964    37.222256 
27404000    281.04752    253.39287    254.63994   -118476.65    118576.57   -1.2470695    37.221582 
27408000    258.98458    259.92792    403.93104   -118462.43     118574.5   -144.00312    37.220374 
27412000    283.68594    342.39432    276.20764   -118494.65    118587.26    66.186675    37.221047 
27416000    304.84374    381.10843    296.77379   -118520.02     118589.2    84.334643    37.223276 
27420000    310.35832    157.23852    413.82936   -118526.12    118607.13   -256.59084    37.222043 
27424000    298.05522    302.73133    297.44272    -118532.8    118603.59    5.2886071    37.220501 
27428000    274.56043    236.00225    326.36549   -118544.92    118640.72   -90.363245    37.219943 
27432000    249.47003    231.36914    181.22534   -118565.61     118646.2    50.143798    37.219217 
27436000    292.14382    341.52655    284.90266   -118602.81    118667.69     56.62389    37.219152 
27440000    294.33323    374.13026    305.40316   -118612.46    118695.84    68.727098     37.22753 
27444000    268.50695    236.60028    469.35481    -118606.1    118711.84   -232.75453    37.228562 
27448000    270.24258    403.63743    242.10432   -118626.69    118735.95    161.53311    37.226814 
27452000    302.88643    497.68903    519.08916   -118651.26    118723.48   -21.400128    37.230056 
27456000    304.36317    287.52831    246.03619   -118650.28    118738.32    41.492119    37.233268 
27460000     309.7001    410.86183    262.49882   -118661.06    118727.52      148.363    37.232343 
27464000    288.11347    341.23579    324.37837   -118658.19    118731.66    16.857416     37.22909 
27468000    306.24504    624.35599    431.13667   -118663.76    118733.94    193.21932    37.228217 
27472000    308.76879    541.90743    304.06438   -118681.59    118765.76    237.84305    37.224232 
27476000     282.2134    352.18352    214.55743   -118715.96    118805.24    137.62609    37.227284 
27480000    270.38154    332.37826    251.67646   -118735.19    118814.26    80.701798    37.230981 
27484000    268.17749    427.72905    427.64457   -118726.06    118831.62  0.084481088    37.231614 
27488000    299.72468    329.66037    256.64759   -118755.65    118840.55    73.012782    37.229065 
27492000     303.6065    443.48278    223.44668   -118773.42    118844.55     220.0361    37.233107 
27496000    261.28809    431.77404    367.45464   -118777.07     118853.4    64.319403    37.237036 
27500000    300.09577    447.54962     264.6567   -118788.94    118878.48    182.89292    37.237086 
27504000    285.41629    319.88231    574.20212   -118794.72    118909.28   -254.31981    37.235559 
27508000    290.39694    386.18964    194.88252   -118836.07    118921.58    191.30712    37.235758 
27512000    297.50635    379.49211      250.511    -118852.1    118939.62    128.98111    37.234323 
27516000    290.61808    483.92466    296.42129   -118882.38    118965.17    187.50337    37.226984 
27520000     285.6054    302.01976    205.55079   -118900.81    118979.03    96.468971    37.224548 
27524000    256.26514    235.59649    205.23186    -118901.9    118995.76    30.364626    37.225041 
27528000    314.78519     262.0208    267.84527   -118922.38    118998.89   -5.8244776    37.221224 
27532000    308.00748    321.53985    408.54246   -118965.38    119036.63   -87.002613    37.222953 
27536000    321.32215     364.6231    264.05515   -118977.42     119066.9    100.56795    37.224367 
27540000    279.05765    278.70071    179.79375   -118981.91    119076.49    98.906951    37.224661 
27544000    300.72748    387.75348    350.51286   -119009.68    119099.91    37.240618    37.229799 
27548000    280.16728    319.63391    357.59431   -119015.34    119114.99   -37.960406    37.228295 
27552000    284.93156    409.82275    318.69981   -119033.45    119133.32    91.122942    37.227169 
27556000    296.88767    346.82914     346.3617   -119052.12    119110.95   0.46743905    37.226123 
27560000    297.29453    331.71486     248.4676   -119050.72    119144.01    83.247257    37.225263 
27564000    275.53546    303.71383    536.03648   -119086.86    119146.06   -232.32264    37.231308 
27568000    274.21606    181.97866    337.68747   -119077.15    119179.22   -155.70881    37.231826 
27572000    277.02913     174.8717    258.07364   -119086.57    119182.77   -83.201938    37.228104 
27576000    254.70638    368.42749    315.40984   -119093.44    119210.17    53.017656    37.228607 
27580000    284.90894     392.8974    223.49816   -119133.92    119229.66    169.39925    37.227209 
27584000    292.13498    470.52528    262.20996   -119166.31    119249.15    208.31532    37.225049 
27588000    253.73919    352.16806    327.32489   -119182.24    119271.76    24.843174    37.227124 
27592000    285.77116     226.6445    205.47707    -119201.2    119288.41    21.167423    37.226267 
27596000    280.17825    384.58023    406.52841   -119181.97    119292.13   -21.948179    37.230702 
27600000    281.37499    406.21336    270.83273   -119201.14    119303.93    135.38063    37.232145 
27604000    266.30447    363.93544    241.62901   -119227.08    119330.37    122.30643    37.228054 
27608000    267.46009    209.98098     255.6525   -119250.79    119355.41   -45.671524    37.225889 
27612000    284.35437    400.64895    269.83744   -119256.92    119342.45    130.81151    37.227349 
27616000    279.87116    276.81203    224.84586   -119258.68    119350.55    51.966167    37.221327 
27620000    277.33218    187.49973    234.85915   -119260.49    119364.57   -47.359423    37.225481 
27624000    298.20502    403.07986     302.6725   -119287.88    119377.81    100.40736    37.227876 
27628000    312.76583    257.56798    272.27285   -119307.52    119376.56    -14.70487    37.229786 
27632000    294.48911    407.94085    251.69472    -119316.7    119395.49    156.24613    37.233956 
27636000    282.44144    287.35968    195.46548   -119344.77    119417.05    91.894205    37.236399 
27640000    260.35444    440.69445    307.50998   -119361.25    119462.36    133.18447    37.241767 
27644000    272.50243    298.60637    253.17746   -119371.95    119472.59    45.428908    37.240356 
27648000    263.91995    277.59021    306.48271   -119375.14    119474.42   -28.892504    37.238989 
27652000    274.40732    319.23445    362.74325   -119380.55     119489.8   -43.508802    37.237349 
27656000    304.98863    415.65686    301.34987   -119428.66    119517.03    114.30698    37.241233 
27660000    280.08466    310.51102    224.59594   -119449.69    119564.31    85.915075    37.243868 
27664000    287.36835    319.94229    203.42136   -119459.73     119575.7    116.52093    37.243966 
27668000    292.62446    278.69523    239.78926   -119486.95    119571.86    38.905969    37.247245 
27672000     257.9149    306.88749    166.05564   -119483.71     119594.8    140.83185    37.246142 
27676000    288.45891    343.91603    339.77997   -119513.52     119606.1    4.1360599    37.248858 
27680000    275.70056    428.40976    317.05917   -119517.27    119626.62    111.35059    37.250536 
27684000    289.55795    376.88622    515.36602   -119540.52    119646.99   -138.47981    37.254713 
27688000    294.13206    342.30337    468.60941   -119569.36    119643.28   -126.30604    37.252009 
27692000    295.37419    401.37646    324.88853   -119567.13    119644.74    76.487929    37.253918 
27696000    278.27528    247.72646    548.53466   -119568.67    119654.91    -300.8082      37.2563 
27700000    256.69208    290.78261    193.67096   -119553.56    119658.12    97.111649    37.260104 
27704000    306.14976    380.97407    472.74163   -119580.98    119654.95   -91.767564    37.256789 
27708000    305.23262    424.21952    282.60624   -119598.29    119677.41    141.61329    37.259048 
27712000    280.16188     283.3504    319.98045   -119592.02     119694.2   -36.630051    37.257344 
27716000    285.51694    312.64226    200.91276   -119608.69    119701.57    111.72951    37.259766 
27720000    275.64286    419.55532      307.954   -119625.49    119730.25    111.60132    37.262155 
27724000    305.98549    374.46319    146.49246   -119653.51    119750.34    227.97073    37.257194 
27728000    308.52843    317.21572     381.5362   -119682.78    119762.03   -64.320486    37.259083 
27732000    290.80325    301.07527    374.72308   -119702.79    119796.32    -73.64781    37.258016 
27736000    288.62513    210.21727    379.00366   -119735.25    119822.71   -168.78639    37.252136 
27740000    269.26506    284.04219     305.0005    -119742.3    119852.53   -20.958307    37.251871 
27744000    270.09522    460.28307    331.65601   -119763.49    119877.05    128.62706    37.248379 
27748000    275.96513    448.46086    248.70863   -119788.28    119882.96    199.75223    37.247675 
27752000    300.74707     373.5951    353.91578   -119821.52    119883.67    19.679326    37.244855 
27756000    286.64702     295.1294    295.54581   -119847.99    119942.57  -0.41640446    37.248338 
27760000    295.90352    416.14551    569.95699   -119851.87    119945.16   -153.81148    37.247991 
27764000    268.16266     309.5286    455.20317   -119861.49    119970.32   -145.67458       37.251 
27768000    285.87976    296.45283    388.12723    -119896.1    119988.63   -91.674402    37.251212 
27772000    268.36821    403.92554    428.07012   -119920.79    120003.12   -24.144574    37.250498 
27776000    273.43688    474.95552    266.76789   -119946.27    120045.32    208.18763    37.250052 
27780000    283.50077    558.03737     246.9711    -119964.3    120055.43    311.06627    37.251332 
27784000    274.12269    279.71303    194.34606   -119979.38    120079.81    85.366974    37.249664 
27788000    263.06149    308.01509    416.19152   -120014.17    120108.58   -108.17643    37.254771 
27792000    295.13288    304.11851    523.86867   -120039.81    120130.77   -219.75015    37.254856 
27796000    285.40425    489.70912    398.09046   -120070.39     120154.9    91.618667    37.249979 
27800000      266.605    312.24449    262.18144   -120067.17    120161.88    50.063045    37.250057 
27804000    286.00704    449.61545    249.62866   -120078.45    120169.92    199.98679    37.249363 
27808000    283.61331    419.24175    326.11908   -120090.22    120185.55    93.122668     37.25402 
27812000    273.95119    282.99857    331.32779   -120106.27    120210.13   -48.329225      37.2525 
27816000    265.58499    266.05771    336.38836   -120114.03    120226.59   -70.330654    37.249521 
27820000    275.81348    364.60684    279.28058   -120110.57    120207.41    85.326252    37.253793 
27824000    283.01598    367.03596     333.5941   -120118.81     120222.7    33.441862    37.256977 
27828000    316.31551    524.19595    303.77149   -120151.04    120237.67    220.42446    37.257382 
27832000    306.57305    266.54966    335.74804   -120185.13    120262.58   -69.198381    37.259541 
27836000    274.03076    265.21797    202.93269   -120207.39    120308.49    62.285282    37.263049 
27840000    263.89694    336.94758    209.40055   -120208.63    120313.94    127.54703    37.268701 
27844000    260.83603    157.41828     510.9879   -120220.05    120315.65   -353.56962    37.273435 
27848000    260.75289    318.85261    164.99351   -120239.14    120343.34     153.8591     37.27345 
27852000    281.86958    402.93483    295.12205   -120282.41    120368.95    107.81278    37.271162 
27856000     321.2049    710.47251    303.87104   -120300.69    120363.28    406.60147    37.276588 
27860000    285.42679    524.08649    265.09422   -120305.54    120394.85    258.99227    37.270042 
27864000    236.24011    253.63449    215.81743   -120309.34    120433.79    37.817062    37.269959 
27868000     241.9647    439.71162    284.09228   -120338.26    120447.26    155.61933    37.271754 
27872000    280.59434    408.70087    156.52027   -120347.62    120462.02     252.1806    37.277448 
27876000    277.38229    386.89767    253.01496   -120349.23    120450.26    133.88271    37.279609 
27880000    289.94419    392.34703    250.76534   -120351.43    120457.17     141.5817    37.278206 
27884000    284.27839    366.51672    224.35684   -120390.47    120497.85    142.15987    37.278718 
27888000    301.33082    419.21161    293.29718   -120431.07    120520.35    125.91443    37.274512 
27892000     299.6949    348.06097    272.98238   -120471.88    120556.45     75.07859    37.277342 
27896000    317.72911    225.15577    356.30992   -120500.48    120581.87   -131.15415     37.27419 
27900000    293.25228    408.40071    332.83441   -120523.35     120612.9    75.566296    37.277542 
27904000    284.46256    769.78165    292.33922   -120536.58    120622.13    477.44244    37.279859 
27908000    301.62031    473.08463    354.95447    -120545.5    120605.52    118.13016    37.280805 
27912000    269.53573     319.7324    288.27193    -120567.2    120647.21    31.460471    37.274442 
27916000    286.55955    224.48325    232.60769   -120572.84    120668.76   -8.1244386    37.274841 
27920000    284.19001    442.28077    404.44178   -120595.37    120680.92    37.838985    37.282424 
27924000    266.60646    499.43029    301.83041   -120598.12    120695.96    197.59988    37.279271 
27928000    266.83996    310.74976    255.69344   -120610.41    120729.05     55.05632    37.275025 
27932000    285.68199    525.94914    266.22824   -120618.16    120702.78     259.7209    37.280251 
27936000    274.34185    331.80888    390.42937   -120610.08     120720.5   -58.620495    37.278458 
27940000    306.54836    424.30042    366.74734   -120659.65    120733.77    57.553079    37.278578 
27944000    302.29077     221.1555    362.34528   -120672.48    120744.84   -141.18978    37.279258 
27948000    271.35304    221.04958    369.69819   -120685.08    120778.41    -148.6486    37.276703 
27952000    302.45728    334.27419    270.65665   -120716.61    120800.11     63.61754    37.280611 
27956000    290.39787    464.18697    225.75438   -120728.96    120818.13    238.43259    37.279936 
27960000    291.80189    407.16253    294.73151   -120758.03    120849.26    112.43102     37.28366 
27964000    265.54738    429.57654    420.32168   -120757.91    120869.98    9.2548555    37.285964 
27968000    281.58422    479.17394    672.64936   -120799.65    120878.87   -193.47543    37.274296 
27972000    273.63769    304.18373    208.77417   -120790.79    120892.68    95.409556    37.271097 
27976000    278.46857    282.15596    168.84131   -120800.39    120917.38    113.31465    37.269356 
27980000    268.42249    388.93574    281.38459   -120831.08    120925.13    107.55115    37.266117 
27984000    265.03406    325.60336    189.09962   -120850.08    120949.68    136.50374    37.264967 
27988000    285.57964    353.68263    362.30285   -120885.29    120966.57    -8.620228    37.263035 
27992000    271.57539    229.28576    212.97413   -120900.75    121003.72    16.311637    37.259701 
27996000    285.70343    327.09008    457.65037   -120912.61    121011.47   -130.56029    37.252203 
28000000    282.17819    252.25924    280.58545   -120941.22     121028.6   -28.326212    37.253827 
28004000    299.30966    215.31202    516.23662   -120962.74    121051.01    -300.9246     37.25624 
28008000    286.05035      347.433    463.36525    -120962.6    121046.63   -115.93226    37.257683 
28012000    309.94833    464.91166    393.08505   -121022.15    121081.39    71.826601    37.255136 
28016000    299.34591      329.274    466.39581   -121018.55    121096.32   -137.12181    37.255235 
28020000    285.37109    335.35053    273.43715   -121022.08     121109.3    61.913379    37.258243 
28024000    267.56482    378.05048    266.54327   -121036.26    121130.48    111.50721    37.260197 
28028000    266.36467     271.2046     421.0667   -121050.65    121154.12    -149.8621    37.264513 
28032000    278.26981    387.05851     406.2759   -121070.95    121165.07   -19.217389    37.262122 
28036000    267.64997    295.96139    287.57212   -121098.79       121214    8.3892722    37.261525 
28040000    281.81992    463.92046    330.08518   -121130.75    121223.68    133.83528    37.263106 
28044000    276.30532    358.24736    208.54469   -121120.92    121223.61    149.70267    37.266419 
28048000    260.53619    408.95307    273.96707   -121111.71    121219.01      134.986     37.26693 
28052000    287.99942      417.275    244.56827   -121149.95    121246.95    172.70673    37.271168 
28056000    286.72954    249.75005    285.93478   -121171.57    121253.52   -36.184729    37.275899 
28060000    297.94462    376.38647    384.04347   -121207.74    121280.27   -7.6570022    37.278449 
28064000    290.35338    299.91512    346.06589   -121211.95    121286.19   -46.150772    37.270846 
28068000    300.42426    352.77993    492.21813   -121182.53    121271.03    -139.4382    37.274121 
28072000    272.93518    277.94835    502.33878   -121202.37    121286.89   -224.39043    37.267655 
28076000     279.6335    631.34697    198.11352   -121207.75    121308.84    433.23345    37.271243 
28080000    261.47356    428.46597    246.12189   -121225.75    121339.81    182.34408    37.273889 
28084000    259.22242    325.35805    418.90967   -121237.79    121341.07    -93.55162    37.269631 
28088000    264.40697    340.11436    285.63555   -121229.71    121330.77    54.478816     37.26582 
28092000    288.20723    321.65159    182.25371   -121264.02    121350.94    139.39788    37.265617 
28096000    292.53416    466.17409    391.04034   -121264.41    121358.82    75.133744    37.259567 
28100000    282.23652    221.46241    314.95166   -121279.29    121365.98   -93.489247    37.255124 
28104000    304.67946     368.1707    423.28498   -121336.41    121400.86   -55.114287    37.262093 
28108000    292.25561    304.61068    484.25506   -121354.19    121435.19   -179.64437     37.26696 
28112000    309.77222    394.02476    193.46009   -121389.76    121484.24    200.56467     37.26158 
28116000    257.70157    311.78891    251.57684   -121382.08    121475.64    60.212072     37.26341 
28120000    288.38116    508.30754    136.07906   -121383.33    121486.65    372.22848    37.256507 
28124000    265.99486    269.73104    434.93874   -121417.73    121512.94    -165.2077    37.259979 
28128000    268.12106    339.22199    137.69018   -121433.74    121532.27    201.53181    37.264164 
28132000     272.3009    329.26196    361.90033   -121474.99    121570.26   -32.638366    37.264592 
28136000      293.131    271.88494    233.28286   -121524.87    121617.26    38.602077    37.271061 
28140000    271.70132    317.22054    261.02629   -121533.42    121639.24    56.194252    37.271149 
28144000    277.29729     443.9459    302.27381   -121568.81    121660.14    141.67208    37.272457 
28148000    242.29112     522.2765    428.15522   -121571.82    121692.49    94.121288    37.276902 
28152000    274.11754    383.89155    397.36717   -121610.48    121705.95   -13.475625    37.273401 
28156000    281.56628    383.28926    414.58829    -121635.9    121717.99   -31.299031    37.267819 
28160000    249.34797    327.68144    280.00402    -121654.1    121775.42     47.67742      37.2626 
28164000    284.53101    467.51789    354.01894   -121694.72    121805.11    113.49894    37.265575 
28168000    239.98189    305.84302    236.01805   -121708.05    121836.11    69.824965    37.262779 
28172000    274.84711    367.84308    335.61338   -121725.64    121813.31    32.229694    37.260653 
28176000    247.45899     316.1672    195.14685   -121718.75    121846.79    121.02035    37.252565 
28180000    261.67784    223.95842    257.56128   -121728.79    121848.35   -33.602859    37.255141 
28184000    299.49528    510.38953    254.13565   -121781.11    121873.21    256.25388    37.261173 
28188000     250.0076    473.97246    275.53271   -121787.62    121903.62    198.43975    37.263603 
28192000    274.52298    511.88013    349.53556    -121821.7    121912.35    162.34457    37.264837 
28196000    314.49366    178.56521    486.26192   -121856.17       121927   -307.69671    37.264599 
28200000    285.80725    361.29989    270.55013   -121874.89     121965.7    90.749759    37.267792 
28204000    278.16778     231.4535    393.48927   -121896.67    121993.07   -162.03577    37.265266 
28208000    301.34109    231.87453    422.87742   -121902.02    122012.69   -191.00289     37.26327 
28212000    297.53813    356.81588    366.93975   -121938.17    122011.06   -10.123871    37.258227 
28216000     263.5515    275.25339    312.54122   -121948.71    122064.76   -37.287831    37.252469 
28220000    286.66691    321.95983     414.3576   -121980.24    122067.02   -92.397768    37.253265 
28224000    289.13818    205.39759    369.96599   -122017.33    122092.02   -164.56839    37.255701 
28228000     296.5701    318.36357    224.32567   -122012.52    122112.98    94.037896    37.251994 
28232000    279.38445    431.95517      416.559   -122036.34    122131.54    15.396171    37.251877 
28236000    273.33125     279.0375     324.1437   -122048.12    122160.53     -45.1062    37.250697 
28240000    274.84671    436.15246    198.67659   -122074.42    122176.82    237.47587    37.254666 
28244000     266.1964    270.65422    256.49127   -122067.64    122184.38     14.16295    37.259557 
28248000    263.81973    301.27614    216.25851   -122099.42    122223.79    85.017628    37.259326 
28252000    281.26388     219.3097    284.36513   -122126.58    122243.62   -65.055426    37.256787 
28256000    279.59789     376.6041    261.79554   -122142.27    122258.43    114.80856    37.257392 
28260000    266.42745    323.48533    326.50563   -122169.76    122289.87   -3.0203047    37.254734 
28264000    278.46817    283.71079    358.87832   -122212.38    122326.62   -75.167531    37.256281 
28268000     287.2457    348.25005    401.22467    -122254.7    122337.21   -52.974617    37.254501 
28272000    259.11251    313.52685    217.90464   -122253.91    122356.66    95.622205    37.255263 
28276000    281.18927    337.05683    285.38903   -122261.41    122364.68    51.667808    37.256513 
28280000    287.22373    502.65784    368.47407   -122280.99    122388.28    134.18377    37.257487 
28284000    258.45702     189.7375    410.77973   -122312.21    122411.43   -221.04223    37.257786 
28288000    296.39752    267.20459    392.61541   -122319.14    122411.32   -125.41083    37.260573 
28292000    297.65816    346.59676    299.22632   -122348.79     122442.7    47.370443     37.26152 
28296000     312.2854    402.98771     381.6227   -122358.09    122452.64    21.365009    37.259183 
28300000    306.57448    472.55886    220.40168   -122390.78    122484.88    252.15718     37.25509 
28304000    252.75878    321.01761     203.1844   -122409.17    122508.33    117.83321    37.255884 
28308000    282.22788    386.68978    419.87135    -122465.1    122542.29   -33.181563    37.251044 
28312000    275.61923    311.54745    655.18673   -122480.76    122568.65   -343.63927    37.251465 
28316000    299.70769    366.48484    460.87406   -122495.87    122589.12   -94.389219    37.252318 
28320000    317.88263    299.51817    447.47655   -122519.82    122594.15   -147.95837    37.251467 
28324000    275.95617    469.12922    587.36491   -122508.26     122607.7   -118.23569    37.252568 
28328000    291.48726    375.83371    411.35481   -122532.76    122609.75   -35.521098      37.2464 
28332000    284.58417    246.85532    388.32291   -122538.41    122623.21   -141.46759    37.241463 
28336000    297.95589     268.0151    202.00248   -122552.63    122657.47     66.01262    37.239082 
28340000    320.21807    255.84065    269.38644   -122581.51    122669.08   -13.545785    37.235823 
28344000    284.37143    378.18026    250.92491   -122607.04    122713.08    127.25535    37.232785 
28348000    272.42918    401.82418    267.81604   -122623.75    122712.66    134.00814    37.230802 
28352000    275.80754    284.52812    223.64675   -122633.11    122726.43    60.881371    37.231547 
28356000    303.40393    635.51622    529.77521   -122649.88    122734.01    105.74101     37.23337 
28360000    347.03676    434.27378    413.93562    -122689.6    122748.04    20.338164    37.232449 
28364000    298.94447    282.32749    406.08932   -122683.59    122762.24   -123.76183    37.235157 
28368000    268.11535    280.63961    268.52441   -122728.99    122818.15    12.115206    37.235621 
28372000    260.30441    492.31635    212.28514   -122741.05    122847.16    280.03121    37.230619 
28376000     277.0538    452.73735    379.63064   -122742.55    122843.28    73.106706    37.226924 
28380000    271.89853    454.61445    450.65093   -122765.03     122869.2    3.9635192    37.224602 
28384000    280.20477    254.84407    276.02791   -122801.06    122903.55   -21.183841    37.224479 
28388000    279.29657     265.8234    374.49583   -122815.97    122916.69   -108.67243    37.230706 
28392000    296.11976    509.73438    227.48148   -122856.16    122945.99     282.2529    37.241623 
28396000    246.78244    331.40303    183.12814   -122840.85    122958.17    148.27488    37.245413 
28400000    261.88536    280.77916     254.0689   -122852.42    122969.08    26.710259    37.241292 
28404000     267.7961    565.59249    337.45041   -122876.73    122968.05    228.14208     37.24672 
28408000    267.99968    278.65573    337.05528   -122901.87    122998.13   -58.399554    37.242514 
28412000    258.97408    239.46812    319.69861      -122923    123024.93    -80.23049    37.239979 
28416000    263.96868     263.8926    179.68299   -122968.82    123066.28     84.20961    37.244158 
28420000     336.1746    583.98213    355.26144   -123000.39    123065.08    228.72068    37.242195 
28424000    281.38928     594.0743     126.6207    -123021.1       123094     467.4536    37.239978 
28428000    294.87615    368.26376    297.90157   -123036.25    123131.46    70.362186    37.239609 
28432000    280.47652    263.24726    240.86595   -123050.27    123146.25    22.381302     37.24403 
28436000    307.22407    389.97907    275.29042   -123059.23    123140.29    114.68865    37.244338 
28440000     287.5073     406.9296    226.41217   -123070.25    123147.63    180.51744    37.242169 
28444000    304.34689    188.59374    269.74691   -123085.55    123159.25   -81.153174    37.243202 
28448000    303.36236    345.39118    242.10187   -123087.82    123187.25    103.28932    37.242924 
28452000    315.88119    375.61834    349.33174   -123125.31    123200.98      26.2866     37.24685 
28456000    266.38722    282.38313    302.58372   -123163.04    123253.79   -20.200585    37.248741 
28460000    271.07738     215.9293    281.83431   -123176.95    123259.75   -65.905012    37.248389 
28464000    281.49833    358.06626    416.57768   -123178.75    123266.77   -58.511419     37.25573 
28468000    263.90988    256.88578    249.69403   -123191.81    123310.65    7.1917466    37.253076 
28472000    280.84677    631.29223    218.29344   -123208.31    123296.37    412.99879     37.25817 
28476000    299.94274    348.11763    294.52528   -123251.76    123345.43    53.592344    37.259134 
28480000    280.10401    450.27198    256.50256   -123280.21    123381.21    193.76942    37.265133 
28484000    275.63126    456.29049    372.39368   -123312.94       123402    83.896806    37.261973 
28488000    330.32697    498.75369    206.53491   -123358.09    123426.94    292.21879    37.260309 
28492000    309.37719    243.44237    360.32016   -123376.16    123443.54   -116.87779    37.259945 
28496000    291.61734    343.33684    353.36108   -123423.44    123477.08   -10.024238    37.257947 
28500000    314.68555    646.12393    346.70952   -123448.67    123517.64    299.41442    37.253804 
28504000    286.36568    275.40706    279.22459   -123462.71    123551.89   -3.8175323    37.257269 
28508000    250.48681     264.6242     336.9745   -123487.66    123594.12     -72.3503    37.252908 
28512000    296.73675    489.62796    312.23409    -123518.2    123624.19    177.39387    37.254729 
28516000    273.27616    264.22935    231.69035   -123539.36    123653.84       32.539    37.256147 
28520000     286.3289    365.57401    285.24302   -123556.24    123648.97    80.330989    37.264886 
28524000     268.7184    463.11831    311.67709   -123564.03    123667.57    151.44121    37.262886 
28528000    277.81789    271.26911    209.34852   -123596.62    123687.99     61.92059    37.256475 
28532000    266.10392    260.52257    394.43614   -123609.62    123716.29   -133.91357    37.255168 
28536000     279.2828    660.57319     285.5773   -123657.51    123740.57    374.99589    37.260127 
28540000    279.39077    279.19769     315.4324    -123664.5    123764.25   -36.234703    37.263115 
28544000     294.3784    187.44344    371.23271   -123707.24     123787.8   -183.78927    37.265283 
28548000    282.09822     415.6059    428.50774   -123710.82     123805.3   -12.901844    37.271425 
28552000     281.5711    236.32827    266.39332   -123722.81    123811.37   -30.065057    37.271178 
28556000    275.19036    358.69771      370.691   -123729.96    123853.87   -11.993289    37.274732 
28560000    296.68984    465.55964    259.68877    -123747.2    123831.24    205.87087    37.271584 
28564000     288.9404    344.86876    401.98154   -123759.83    123860.44   -57.112778    37.276513 
28568000    266.14596    439.68569    345.97769   -123762.97    123858.69    93.708003    37.271959 
28572000    266.29756    445.38765    291.68556   -123773.43    123872.53    153.70208    37.270873 
28576000     286.6495    178.00275    297.72957   -123810.46    123916.22   -119.72682    37.267589 
28580000     264.2599    332.58133    206.45531   -123845.29    123949.08    126.12602    37.269306 
28584000     274.9371    415.08796    508.86387   -123858.85    123969.15   -93.775907    37.264951 
28588000    293.26734    291.96078    270.49569   -123883.81    123978.58    21.465097    37.267258 
28592000    274.87907     507.7314    432.04549   -123939.57    124037.65    75.685914    37.260346 
28596000     267.6617    325.60334    276.59565   -123959.08    124067.56    49.007684    37.262128 
28600000     285.6348    318.12255    282.02449   -123985.34    124067.74    36.098055    37.255939 
28604000    272.53721     404.1632    258.71835   -123989.32     124083.8    145.44485    37.256999 
28608000    277.78289     542.0195    152.21498   -123984.15    124081.68    389.80452    37.257198 
28612000    280.71272    174.70467    407.78467   -123997.97    124106.23   -233.07999    37.251792 
28616000    304.63236     347.9085    302.63412   -124003.06    124103.04     45.27438    37.245058 
28620000    284.34708    181.66048    332.96983   -124020.17    124125.06   -151.30936    37.243584 
28624000    279.11701    292.69764    561.26026   -124021.81    124135.72   -268.56262    37.243156 
28628000    305.72709    341.88474    461.24718   -124062.56    124160.34   -119.36244    37.242516 
28632000    292.80276    540.94309    310.08749   -124080.44    124172.15     230.8556    37.245088 
28636000    272.65721    459.74948    337.86257   -124083.86    124198.02    121.88691    37.247164 
28640000    258.89719    433.21553    398.65549   -124110.15    124214.21    34.560039    37.248939 
28644000    285.07375    498.28702    453.17427   -124116.63    124220.81    45.112752    37.247701 
28648000    283.80145    464.59726    417.32538   -124129.83    124224.95     47.27187    37.251348 
28652000    270.31642    384.97142    351.24494   -124131.15       124241    33.726486    37.249672 
28656000    244.39862     462.2267    302.53612   -124162.69    124268.39    159.69058    37.251877 
28660000    285.35417     435.3105    280.59639    -124177.9    124271.81    154.71411    37.252531 
28664000    314.90986    593.97461    486.17829   -124186.79    124284.53    107.79632    37.251125 
28668000    250.28228    270.58464    473.30531   -124202.21    124317.77   -202.72068    37.247717 
28672000    242.57882    353.58674    243.64028   -124209.39    124333.96    109.94646    37.244714 
28676000    252.74249    409.90055    243.44847    -124249.2    124369.59    166.45209    37.247301 
28680000     291.9773    289.67978    424.08072   -124286.51     124388.9   -134.40094    37.246923 
28684000    273.85953    476.31286    258.27608   -124305.84    124413.27    218.03677    37.248684 
28688000    253.10793    343.31085    267.50495   -124324.44    124437.14    75.805905    37.248948 
28692000    257.84163    300.66314    207.77957   -124357.28    124455.96    92.883569    37.250579 
28696000    286.44118    421.62977    308.51481   -124387.19    124486.64    113.11496    37.254831 
28700000    264.90834     325.5245    288.70985   -124419.99    124530.13    36.814652    37.256829 
28704000    323.16925    498.75755    466.46785   -124430.13     124514.1    32.289697      37.2598 
28708000    276.68359     248.2257    401.97735   -124440.56    124555.29   -153.75165    37.255952 
28712000    268.85284    439.44902    417.86297    -124462.2    124577.84    21.586055    37.263195 
28716000    253.05139    360.08797    246.88962   -124477.48    124595.52    113.19836    37.260918 
28720000    253.18247    227.48236    476.49148   -124488.93    124632.55   -249.00911    37.258322 
28724000    288.57388    319.23045    299.26498   -124536.17    124635.71    19.965466     37.25569 
28728000    261.35645     561.7663    268.28298   -124533.07       124632    293.48332    37.259587 
28732000    281.11698    379.84616    137.83275   -124559.72    124660.87     242.0134    37.261572 
28736000    305.66175    458.86707    347.05168    -124578.6    124673.43    111.81538    37.261101 
28740000     269.0606    253.34252    215.03638   -124608.41    124704.58    38.306135    37.265205 
28744000    292.08902    389.24676    188.74711   -124628.62    124716.46    200.49964    37.265764 
28748000    286.14079    364.27255    397.15235   -124633.73    124733.72   -32.879803    37.265536 
28752000    288.84821    288.62951    307.15418   -124625.39    124725.38   -18.524677    37.267934 
28756000    292.27825    336.25136    379.62212   -124647.77    124729.96   -43.370762    37.269323 
28760000    285.52109    351.01318    379.37046   -124635.21    124732.95   -28.357287    37.265729 
28764000    289.84684     386.6032    438.24704   -124662.05    124773.23   -51.643841    37.263278 
28768000     262.8778    567.56444    282.19908    -124685.4    124793.61    285.36536    37.266879 
28772000    283.29662     312.9294    210.40243   -124696.57    124799.16    102.52697    37.268588 
28776000    266.85568    288.72319    400.18026   -124693.57    124816.99   -111.45707    37.268898 
28780000    275.78737    339.69424    348.59472   -124687.17    124801.32   -8.9004834    37.265719 
28784000    273.44211    185.05589    319.29301   -124698.65    124793.46   -134.23712    37.268135 
28788000    280.48303     301.4033    319.35818   -124713.57    124812.91   -17.954882    37.267148 
28792000    284.22199    284.10667    342.79054   -124738.37    124811.11   -58.683869    37.271579 
28796000    321.24316    365.13745    422.65877   -124737.55    124821.41   -57.521321    37.272545 
28800000    291.86679    447.47131    441.69559    -124726.8    124829.63    5.7757179    37.277861 
28804000     256.5423    482.70538    219.30041   -124746.52    124842.22    263.40497    37.281555 
28808000    285.95388    512.69561    326.07729   -124759.52    124862.61    186.61831    37.277613 
28812000      315.066    346.90257    397.44081   -124800.17    124892.61   -50.538232    37.277846 
28816000    283.10932    435.98629     355.8951   -124810.33    124912.24    80.091186     37.28319 
28820000    273.42894    272.20604     508.6249   -124829.53    124924.61   -236.41886    37.283428 
28824000    290.80417    332.93274    328.85607    -124822.7    124920.23    4.0766705    37.288379 
28828000    294.47431    395.09964    427.03184   -124850.04    124930.68   -31.932197    37.289557 
28832000    273.57252    331.80059    257.33061   -124860.86    124973.76    74.469977    37.294936 
28836000    279.54701    530.80088     301.7364   -124890.31    124984.08    229.06447    37.292081 
28840000    310.58936    440.63735    289.11983   -124893.18     124991.2    151.51752    37.289263 
28844000    280.46506    552.62232    349.96754   -124926.42    125029.31    202.65479    37.289585 
28848000    288.98563    436.51953    294.16912   -124955.24    125057.57    142.35042    37.289545 
28852000    289.03695    248.82675    484.86087   -124979.86    125076.15   -236.03412    37.290696 
28856000    294.46985    216.47845    371.98058   -124989.88    125089.85   -155.50213    37.292842 
28860000    288.28629    212.81534    430.75601   -125020.18    125100.41   -217.94067    37.291716 
28864000    245.72379     377.4814    298.37854   -125015.42     125147.1    79.102862    37.291329 
28868000    275.52394    386.45938    364.68968   -125039.28    125139.94    21.769697    37.286834 
28872000    293.06491    404.86218    406.38095   -125043.96    125141.95   -1.5187735    37.286673 
28876000    263.30866     263.9438    332.52038    -125053.4    125180.66   -68.576575    37.289541 
28880000    267.37061    200.28004     392.0488   -125093.81    125214.92   -191.76875    37.286511 
28884000     272.7433    414.20277    201.34386   -125111.95     125217.4    212.85891    37.290378 
28888000    266.44087    270.98676    321.35789   -125114.69    125212.87   -50.371125    37.290165 
28892000    310.95063    219.05156    221.78171   -125148.33    125229.75   -2.7301499      37.2852 
28896000    267.29314    386.17877    244.24603   -125151.32    125274.78    141.93274    37.287534 
28900000    288.17876    415.37639    537.58251   -125164.75    125255.98   -122.20612    37.287929 
28904000    290.48429    347.90854    364.81571   -125192.87    125284.16   -16.907177    37.293301 
28908000    308.22294     319.3707    299.23312    -125251.3       125320    20.137583    37.292161 
28912000    265.58727    401.18409    424.91154   -125244.98    125341.02   -23.727448    37.294158 
28916000    276.81436    444.00402    483.51892   -125245.36    125352.35   -39.514897    37.292474 
28920000    282.38131    348.87499    198.55134   -125291.24    125389.02    150.32365     37.29054 
28924000    235.58884    297.24253    308.34613   -125292.19     125414.2   -11.103604    37.281635 
28928000     282.7336    400.66961    182.63062   -125327.28    125429.15    218.03899    37.281718 
28932000    280.97221    276.41181    286.02413   -125335.94       125450   -9.6123231    37.281057 
28936000    286.81022    449.30422    365.70895   -125342.57    125439.45    83.595264    37.280378 
28940000    271.38923     411.7159    236.91897   -125375.38     125476.4    174.79693    37.285093 
28944000     260.8615     415.8805    345.95264   -125384.21    125497.53    69.927857    37.288456 
28948000    274.81784    226.21941    250.20953   -125419.64    125507.34   -23.990119    37.288596 
28952000     265.6412    385.62948    429.62906   -125446.65    125548.39   -43.999574    37.286764 
28956000    285.90764    377.87958    346.50311   -125470.34    125585.69    31.376476    37.281471 
28960000     252.3727    477.16048    467.61007   -125482.01    125598.51    9.5504154    37.285889 
28964000    273.34672    480.06864    200.16525   -125516.12    125607.18    279.90339    37.286157 
28968000    278.44456    202.46611    280.88603   -125516.72    125620.71    -78.41992    37.284398 
28972000    269.10283    172.32199    344.01048    -125511.2     125610.2   -171.68849    37.286601 
28976000    266.71109     364.5671    334.94205   -125522.02    125638.92    29.625054    37.283957 
28980000    286.76152     326.5151      317.029   -125548.53       125647    9.4860982    37.278674 
28984000    303.24906    477.48699    440.76712   -125597.38    125658.27    36.719863    37.275765 
28988000    305.98656    300.98797    362.30991   -125582.27    125658.91   -61.321944    37.278437 
28992000    291.54349    409.65207    259.81406   -125610.37     125664.2    149.83801     37.27696 
28996000     270.9265    205.67735    410.71743   -125619.96    125729.49   -205.04008    37.277107 
29000000    276.82295    344.53588    223.14056   -125629.67    125727.72    121.39533    37.272026 
29004000    271.37749    338.59632     267.8937   -125669.49    125754.58    70.702623    37.272116 
29008000    293.89354    197.37837    325.16996   -125689.31    125788.52   -127.79159    37.275513 
29012000    259.66795    316.59813    352.86774   -125686.63     125798.3   -36.269612    37.275449 
29016000    283.51573    455.31892    392.17123   -125719.06    125807.15    63.147689    37.272256 
29020000    298.79685    537.14434    396.76839   -125740.17    125849.17    140.37596    37.268319 
29024000     278.9462    535.47771    561.52472   -125760.45     125859.7   -26.047008    37.260517 
29028000    275.84052    256.92111    229.04653   -125781.48     125885.6    27.874585    37.259636 
29032000    277.72658    276.57379    318.07489   -125791.38    125903.94   -41.501102    37.261307 
29036000    295.39685    657.34939    401.32791   -125833.56    125901.07    256.02148    37.262574 
29040000    262.44194    311.32391    400.99398   -125833.35    125931.95   -89.670068    37.266612 
29044000    276.12947     385.7802    287.93032   -125853.87    125941.59    97.849882    37.268385 
29048000    275.75928    283.75891    468.11974   -125842.51    125953.39   -184.36083    37.267722 
29052000    268.73926     365.8898    299.57742   -125861.25    125970.11     66.31238    37.276412 
29056000    260.07158    399.77236    395.18424   -125881.81    125992.56    4.5881156    37.280816 
29060000     291.3504    427.85363    208.69224   -125906.13     125991.2    219.16138    37.280945 
29064000    278.55012    529.20076    316.05093   -125924.76    126028.71    213.14983    37.281415 
29068000    273.11898    250.68597    342.83552   -125930.29    126044.09    -92.14955    37.283914 
29072000    266.78895    485.31763    343.28709   -125965.85    126080.66    142.03054    37.279379 
29076000    274.64068    326.95317    282.85811   -125992.83    126099.88    44.095062    37.279335 
29080000     293.0673     372.6693    297.72647   -125994.13    126070.07     74.94283    37.280489 
29084000    254.06547    322.35512    215.74957   -126015.35    126126.03    106.60555    37.285248 
29088000    287.14982    494.13151    530.58993   -126048.53    126126.71   -36.458417    37.278245 
29092000    269.89453    239.44616    248.29382   -126041.35     126146.1   -8.8476581    37.280099 
29096000    289.89937    559.85016    324.50082   -126092.34    126180.68    235.34934    37.274444 
29100000    269.56469    499.34161    401.90049   -126101.52    126190.31    97.441123    37.273384 
29104000    279.50096    376.81088    392.04776   -126128.28    126227.76   -15.236877    37.278914 
29108000    297.65803    248.71444    255.79788   -126165.68    126233.97   -7.0834399    37.280352 
29112000    271.65675    377.87093    242.57489   -126182.29    126277.27    135.29604    37.276415 
29116000    275.57381    332.24632    198.96202   -126208.83    126293.88     133.2843     37.27359 
29120000    300.58781    276.52183    337.16589   -126250.96    126337.44   -60.644058      37.2763 
29124000    284.25046    577.20106    291.32435   -126255.88    126331.37    285.87671     37.27863 
29128000    288.31536    246.02065    308.71199   -126265.19    126364.05   -62.691349    37.278858 
29132000    268.05099    460.54026    357.56604   -126269.19    126372.41    102.97422    37.282378 
29136000    293.12392     428.5371    274.26308   -126302.44    126396.19    154.27402    37.285965 
29140000    291.53621     462.6165     333.4183   -126314.31    126426.24     129.1982    37.285138 
29144000    266.78419    476.19666    241.95388   -126318.03    126425.66    234.24279    37.284648 
29148000    274.30555    285.05453     415.8561   -126320.46    126431.29   -130.80157    37.279318 
29152000    304.14285    331.78537    246.62319   -126347.77    126439.84    85.162173    37.282241 
29156000    259.58155    222.49559    325.39781   -126367.58    126481.16   -102.90222    37.281823 
29160000    275.96904    391.92118    491.73166   -126391.71    126483.52   -99.810477    37.279542 
29164000    268.97821    362.01202    466.86341   -126408.38    126515.04   -104.85139     37.27636 
29168000    274.12955    440.85694      288.163   -126429.67    126546.59    152.69395    37.274273 
29172000    288.59997    431.15315    454.82935   -126449.39    126544.97   -23.676204    37.277297 
29176000    253.97425    334.87415    200.98965   -126442.39    126568.12     133.8845    37.283594 
29180000      250.029     445.3484    216.83425   -126462.71    126581.16    228.51416    37.289549 
29184000    283.29552    270.27913    257.94169   -126477.21    126580.66    12.337437    37.288159 
29188000    268.37484    249.10233    248.33094    -126523.5    126631.34   0.77139433    37.287731 
29192000    293.56878    512.87524    437.44926   -126545.93    126643.35    75.425982    37.292183 
29196000     296.1673    317.72959     258.0034    -126589.1    126691.71     59.72619    37.295525 
29200000    296.40856    480.50338    269.15633   -126628.26    126734.31    211.34705    37.295548 
29204000     303.0174    489.54409    351.16925    -126641.4    126730.89    138.37484    37.307515 
29208000    289.04992    237.66448    364.87012   -126655.69    126754.26   -127.20565    37.304895 
29212000    323.33631    476.36433    391.62966   -126682.38    126759.43    84.734667    37.305444 
29216000     285.2504    321.90135    533.53896   -126681.22    126772.85   -211.63761    37.306735 
29220000    292.49849    406.28218    230.34655   -126691.98    126806.13    175.93563    37.304056 
29224000    280.47817    396.77701    247.30761   -126731.43    126825.82     149.4694    37.302306 
29228000    279.19089    473.48947    322.39837   -126759.12    126855.41    151.09111    37.304528 
29232000    274.03798     327.5385    468.55821   -126783.49    126881.95    -141.0197    37.309479 
29236000    289.53665    320.64306    388.44923   -126815.79       126905   -67.806163    37.310048 
29240000    274.48313    273.47917    411.72554    -126825.9     126935.7   -138.24637     37.31022 
29244000    267.23945    263.07938    315.74795   -126843.11    126955.07   -52.668565    37.312615 
29248000    294.87557     332.9749    224.95814   -126887.29    126973.98    108.01677    37.313274 
29252000    296.67484    391.39481    339.32225   -126894.96     126977.8     52.07256    37.312366 
29256000    287.06552    497.00487    284.13371    -126907.3    126993.46    212.87116     37.31028 
29260000    295.74113     419.3259    398.51636   -126916.46    127027.02    20.809537    37.317504 
29264000    279.64083    280.13252    473.09369   -126934.58    127031.83   -192.96117    37.320061 
29268000    268.71078    362.17362    327.10412   -126974.09    127079.01    35.069496     37.31782 
29272000    265.35905    367.33082    299.33785   -126980.78    127094.49    67.992965    37.317217 
29276000    277.72519    453.74135    363.79851    -127008.5    127119.85    89.942846    37.311741 
29280000    263.81346    620.46635      134.958   -127018.36    127137.94    485.50835    37.314208 
29284000    268.95884    417.31266    369.38256   -127030.98    127138.61    47.930099    37.304319 
29288000    282.92241    279.42753     354.4297   -127057.39    127157.34   -75.002178    37.304268 
29292000    249.72308    242.40965    220.97088   -127061.91    127183.24    21.438769    37.300736 
29296000    269.38635    406.27136    242.62835   -127085.09    127200.03    163.64302    37.297918 
29300000    261.10187    377.73877     479.2598   -127088.55    127193.66   -101.52103     37.29772 
29304000    268.32255    337.93874    303.53758   -127077.59    127188.07    34.401154    37.300524 
29308000    265.08006    323.55336    341.28801    -127122.6    127226.86   -17.734649    37.295294 
29312000    278.87314    253.10319    190.38002   -127138.66    127253.33    62.723171    37.292471 
29316000     276.7857    239.31327    272.53182   -127160.32    127278.33    -33.21855    37.288978 
29320000     286.1401    588.64456    287.37266   -127202.95    127298.83     301.2719    37.288422 
29324000    270.86069    463.68875    324.69384   -127221.27    127317.91    138.99491    37.293561 
29328000    292.73409    260.38801    311.53023   -127211.15    127317.77   -51.142224    37.298012 
29332000    263.51737    482.34239    358.87958   -127247.37    127352.58    123.46282    37.295483 
29336000    280.62858    665.15811     436.0761   -127262.64    127368.68    229.08201     37.29838 
29340000    252.30642    381.93175     280.1697    -127300.3    127414.01    101.76205    37.294938 
29344000    281.95822    294.28595    304.47983   -127331.53    127418.64   -10.193876    37.295618 
29348000    291.34346      369.766    376.50066    -127350.9     127432.4   -6.7346536    37.296123 
29352000    311.52316    432.64933    584.16901   -127368.98    127465.14   -151.51968    37.297492 
29356000     308.4598    317.64772    156.53585   -127409.26    127463.05    161.11187    37.290858 
29360000    295.32222    399.02427    353.10271   -127410.81    127482.39    45.921562    37.291589 
29364000    250.20632    331.27982    239.54784   -127404.81    127524.17    91.731981    37.294358 
29368000    281.07088    285.40928    422.48116   -127414.78    127520.22   -137.07188     37.29252 
29372000    255.20914    350.31598    408.04742   -127429.16    127542.77   -57.731433    37.288764 
29376000    303.90392    319.13993     310.4724   -127447.97    127527.67    8.6675266    37.282688 
29380000    291.40292     368.4389    346.72855   -127448.74    127551.61    21.710353    37.280452 
29384000    286.53763    404.69686    309.07124   -127454.06    127557.82     95.62562    37.275775 
29388000    257.45545    296.68642    227.93244   -127463.96    127589.94    68.753984     37.28465 
29392000    279.81203    361.47851    346.69081   -127485.29    127603.38    14.787699    37.284278 
29396000    274.95386    285.51402    399.97239   -127519.26    127633.94   -114.45837    37.287023 
29400000    261.19771    306.66727    318.51868   -127504.51    127619.72   -11.851405    37.283344 
29404000    299.54009    340.95283    247.08091   -127541.77    127620.39    93.871913    37.286082 
29408000    251.56208    446.67483    336.81405   -127530.19    127654.86    109.86078    37.285926 
29412000    285.41584     444.6609    390.46019   -127566.42    127662.79     54.20071    37.287434 
29416000    271.21443    443.56256     351.9248   -127577.66     127683.9    91.637768    37.289093 
29420000    287.79242    303.24356    248.17862   -127590.14    127679.13    55.064935    37.291574 
29424000    273.75955    303.87511    209.42003   -127574.13    127691.68    94.455083     37.29206 
29428000    273.98029    441.62444    208.97147   -127602.36    127705.83    232.65297    37.292254 
29432000    267.53623     459.2197    461.94844   -127619.58    127731.44   -2.7287366    37.295131 
29436000    254.24981    244.91818    276.36494    -127647.1    127770.97   -31.446759     37.29385 
29440000    272.95892    379.59235    217.30399   -127666.17    127772.34    162.28837     37.29444 
29444000    257.12481    387.62645    290.61383   -127657.16    127785.72    97.012625    37.295229 
29448000    279.74165    383.94065    292.52738   -127692.99    127796.93    91.413263    37.300155 
29452000    280.03447    422.99443     293.9217   -127704.91    127804.34    129.07273    37.303395 
29456000    258.10935    285.67465    262.14504   -127709.48    127822.59    23.529609    37.302814 
29460000     314.7169    268.91887    399.08793   -127745.01     127817.7   -130.16906    37.301846 
29464000    299.80502    374.68348    268.83929   -127763.84    127847.02    105.84418    37.298926 
29468000    292.63936    321.08714     151.6904   -127797.47    127865.45    169.39675    37.308891 
29472000    279.06944    304.60937    567.24876   -127798.75    127890.15   -262.63939    37.311936 
29476000    259.71897    312.77054    517.00683   -127819.16    127934.35   -204.23628    37.306842 
29480000    296.05277    337.00253    385.01769   -127835.46    127939.35   -48.015159    37.302896 
29484000    297.34926    237.80873    379.59914   -127865.28    127947.94   -141.79041    37.305544 
29488000    325.84128     411.2312    235.90281   -127909.88    127980.87    175.32839    37.302185 
29492000    301.48346    317.77343    381.45877   -127909.53    127994.81   -63.685342    37.298437 
29496000    285.55894    332.31559    316.66855   -127928.39    128010.93    15.647038    37.297832 
29500000    293.36854    380.43695    418.72407   -127952.14    128061.97    -38.28711    37.296395 
29504000    262.33275    266.81555    340.15763   -127962.49    128088.59   -73.342085    37.295768 
29508000    282.51447    305.87415    489.80531   -128007.28    128086.62   -183.93116     37.29865 
29512000    287.86941    497.61217    305.34593   -127996.66    128107.83    192.26624     37.30105 
29516000    237.60802    175.85115     249.2842   -128003.15    128113.68   -73.433044    37.298679 
29520000    305.89807    466.62147    310.37195   -128045.72    128131.45    156.24952    37.294651 
29524000    284.58964    297.51595    336.75336   -128060.34    128159.75   -39.237415    37.292287 
29528000    272.57952    416.29135    287.43396   -128055.73    128177.78    128.85739     37.29246 
29532000    275.20764    525.45436    236.65506   -128080.23    128190.25    288.79929    37.295492 
29536000    245.10921    327.28265    456.24852   -128091.54    128225.97   -128.96587    37.294751 
29540000    301.59461    277.96098    407.14759    -128140.6    128228.12   -129.18662    37.301729 
29544000    260.32665    415.90275    383.15316   -128161.07    128259.69    32.749585    37.301031 
29548000    260.04242    362.20322    493.65601   -128161.89    128265.22   -131.45278      37.3023 
29552000    280.17268    319.85071    258.55669   -128184.47    128287.06    61.294019    37.299714 
29556000    292.04662     227.4083     402.2754   -128185.71    128291.71    -174.8671    37.295814 
29560000    284.39404    184.47645    86.102885   -128212.52    128311.03    98.373561    37.295104 
29564000    280.24031    451.20957    309.08702   -128203.44    128313.08    142.12255    37.289626 
29568000    282.83185     216.4162    242.55372   -128219.12    128310.79   -26.137514    37.288395 
29572000     268.2653    433.99377    443.81782   -128228.94    128334.54   -9.8240497    37.286925 
29576000     280.2638    294.15791    340.42533   -128265.86    128365.08   -46.267424    37.282643 
29580000    289.99516    480.34066    416.28863   -128280.36    128370.77    64.052023    37.282199 
29584000    260.79392    543.40752    320.30832   -128316.45    128414.61     223.0992    37.279154 
29588000    282.89053     564.5864      234.191   -128346.77    128444.18    330.39541    37.287243 
29592000    246.30261    509.39762    350.56998   -128346.38    128453.22    158.82765    37.287238 
29596000    251.83704    349.26196    211.03846   -128340.09    128451.36     138.2235    37.283118 
29600000    243.68626     375.8585    216.96066   -128330.78     128459.4    158.89784    37.284614 
29604000    306.93553    400.23846    258.66312      -128389    128468.57    141.57534    37.288422 
29608000    283.66986    544.73641    295.55877   -128370.43    128455.24    249.17765    37.283309 
29612000    277.57323    495.27197    315.80352   -128377.28    128476.75    179.46844    37.284721 
29616000    281.15196    256.37961    353.94132   -128396.39     128491.8   -97.561716    37.280978 
29620000    253.79557     293.0496    406.86945   -128413.45    128531.42   -113.81985    37.277994 
29624000    323.31173    326.05462      345.335   -128437.79    128530.47   -19.280376    37.279287 
29628000    251.51214    332.99439    190.34174   -128440.85    128556.79    142.65266    37.280649 
29632000    290.27755    342.14915    345.70173   -128471.24    128565.61   -3.5525805    37.286321 
29636000      289.853    286.62431    309.88472   -128502.94    128585.12   -23.260413    37.286783 
29640000    270.12204    223.61762    231.31787   -128540.41    128626.74   -7.7002444    37.287099 
29644000    276.36989    288.73586    315.04617   -128524.14    128630.94   -26.310309    37.289065 
29648000     291.3129    409.87513    434.16374   -128558.86    128627.08   -24.288612    37.294047 
29652000    315.55688    467.57594     406.5506   -128566.37    128646.42    61.025347    37.292482 
29656000    281.12359    338.43239    419.84618    -128582.3     128670.9   -81.413786    37.288463 
29660000    310.81021     538.5877    283.30812   -128595.15    128677.81    255.27958    37.286553 
29664000    278.39664     373.5235    303.68831   -128628.14    128731.85    69.835193    37.286045 
29668000    269.89475    366.03946     374.0922   -128646.71    128741.53   -8.0527375    37.285172 
29672000    263.48982    513.92275    315.13948   -128653.34    128760.68    198.78327    37.288039 
29676000    257.78044    404.43745    307.38998   -128652.62    128782.05    97.047474    37.289008 
29680000    264.00529     341.3213     358.9829   -128674.46    128778.57   -17.661597     37.28851 
29684000    299.30657     555.8959    446.12464    -128722.2       128811    109.77126    37.288282 
29688000    279.64557    143.00545    303.96689   -128741.23     128841.5   -160.96143    37.284098 
29692000    280.43092    387.76898    357.63178   -128749.01    128852.48    30.137199    37.282008 
29696000    287.37259    391.29123    219.44266   -128781.39    128881.61    171.84857    37.280036 
29700000     280.4884    148.89208    393.06336   -128790.05    128889.72   -244.17128    37.279212 
29704000    305.89337    602.08481    180.68889   -128843.63    128925.29    421.39592    37.285322 
29708000    283.02009    320.79732    318.79373   -128835.97    128934.18     2.003592    37.286675 
29712000    296.64275    549.87064    255.74457   -128851.76    128947.18    294.12606     37.28498 
29716000    278.77637    396.01528    201.29932   -128870.93    128979.66    194.71595    37.284346 
29720000    276.46435    270.42748    198.74188      -128897    128995.67    71.685592    37.283005 
29724000    295.94954    318.82186    402.09102   -128907.89    129000.34   -83.269155    37.276634 
29728000    273.10153    336.04941    171.51805   -128942.15    129030.37    164.53136    37.273753 
29732000     303.6136    514.05476    320.81946   -128959.25    129028.38     193.2353    37.277194 
29736000    269.65767    377.33158    316.42658   -128963.79    129051.29    60.904999    37.275272 
29740000    278.28839    436.21153    253.30496   -128979.89    129087.28    182.90657    37.278536 
29744000    273.42674    599.97111    387.86044   -128965.93    129080.65    212.11067    37.277441 
29748000    283.29619    346.78021    227.31735   -128986.23    129095.94    119.46286    37.276093 
29752000    275.90626    308.02828     212.6172   -128982.81    129092.13     95.41108     37.26971 
29756000    272.86147    318.76539     254.3693   -129002.26    129097.42     64.39609    37.268438 
29760000    250.22232    330.66816    318.18704   -129010.51    129138.25     12.48112    37.271913 
29764000    264.64408      339.568    350.08584   -129053.37    129152.41   -10.517839    37.271547 
29768000    259.02278    204.47967    212.20377   -129066.46    129163.74   -7.7240989    37.271997 
29772000    283.19344    371.70567    400.45644   -129089.24       129182    -28.75077    37.269833 
29776000     262.8901    317.02091    417.64596   -129087.83    129198.64   -100.62505    37.274646 
29780000    328.30032    444.07624    351.29443   -129122.05    129198.03    92.781803    37.276647 
29784000    281.44892    248.24253    330.04605   -129113.34    129220.51   -81.803522    37.272498 
29788000    285.41726    482.26972    292.60079   -129117.11     129210.8    189.66893    37.269542 
29792000     271.5839    412.18063    447.23727   -129124.56     129239.7   -35.056648    37.263304 
29796000    256.12282    242.45555    291.78057   -129138.72    129251.84   -49.325018    37.268387 
29800000    278.49151    249.64693    304.88233    -129148.2    129255.23   -55.235403    37.270824 
29804000    267.88978     325.2244    224.94033   -129178.17    129266.17    100.28408    37.268449 
29808000    265.85556    457.55665    199.64347   -129190.51    129301.58    257.91318    37.269164 
29812000    305.96633    240.18774    343.69723   -129230.89     129290.6   -103.50948    37.268104 
29816000    289.02075    577.05481    282.53312    -129243.4    129333.05    294.52169    37.267869 
29820000    279.27085    303.63981    340.15552   -129261.79    129360.35   -36.515709    37.263939 
29824000    266.89592    456.68623    268.13014   -129274.74    129367.72    188.55609    37.267022 
29828000    279.27099    238.39608    352.50422   -129298.04    129409.44   -114.10813    37.267398 
29832000     275.9492    360.31877    319.30862   -129339.44    129431.66    41.010148    37.266951 
29836000    294.97169     283.7724    392.50263   -129352.82    129444.23   -108.73024    37.265505 
29840000    262.62571    235.10981    461.65982   -129356.42    129473.76   -226.55001    37.270667 
29844000    276.75371    314.55118    492.06171   -129413.45    129506.86   -177.51053     37.26287 
29848000    289.19828    371.31385    320.11949   -129425.48    129525.58    51.194361     37.26634 
29852000    289.47519    581.91934    535.30578   -129444.55    129557.42    46.613557    37.260783 
29856000    277.53498    310.11117    430.56655   -129431.38    129553.47   -120.45539    37.262533 
29860000    301.50807    335.12807    221.64542   -129471.71    129565.83    113.48265    37.257859 
29864000    285.59019    169.54854    395.95763    -129485.1    129576.82   -226.40909    37.251906 
29868000    272.68397    394.65486     325.2921   -129468.81    129589.81    69.362759    37.258349 
29872000    284.30692    457.62189    235.52131   -129508.61    129612.94    222.10058    37.254853 
29876000    255.07009    622.78019    219.33921   -129511.16    129625.84    403.44098    37.255049 
29880000    314.75248    422.77302    423.70412   -129532.57     129609.5  -0.93109986    37.259659 
29884000     267.0476    207.66544    355.66904   -129539.06    129648.13   -148.00359    37.254265 
29888000    255.96274    308.01008     383.1521   -129576.17    129685.67   -75.142016    37.251843 
29892000    267.96231    352.33219    332.82271   -129609.03    129711.29    19.509482     37.25536 
29896000    276.59589    291.13629    279.53694   -129619.28     129717.7     11.59935    37.257512 
29900000    301.64575    438.52732    410.05989   -129645.65    129715.18    28.467433    37.255525 
29904000    305.80217    276.49374    292.40412   -129649.31    129726.82   -15.910383    37.255098 
29908000    280.94056    423.65123    299.39243   -129627.55    129743.56     124.2588    37.258487 
29912000    292.18973     325.6856    302.70397   -129656.33    129735.32     22.98163    37.264292 
29916000    292.11744    341.06084    270.86236   -129682.19    129772.66    70.198478    37.266744 
29920000     296.7585    414.84923    300.73892   -129698.08    129792.59    114.11031    37.264212 
29924000     280.4504    281.54501    444.10778   -129688.07    129807.14   -162.56277    37.266743 
29928000    264.99709    299.75773    212.18241   -129714.43    129840.53    87.575318    37.274282 
29932000    270.25872    254.54597    307.21726    -129712.5    129828.43   -52.671281    37.275765 
29936000    278.89613    374.29389    480.84671   -129745.85    129859.31   -106.55282    37.282001 
29940000    259.28107    327.69764    517.11657   -129742.58    129860.23   -189.41893    37.280589 
29944000    259.16728    209.73008    278.87043   -129770.73    129895.36   -69.140344    37.283948 
29948000    254.59451     444.2183    505.59519   -129778.77    129905.76   -61.376889    37.281301 
29952000    280.71472    424.35961    288.51747    -129826.6    129947.24    135.84214    37.279791 
29956000    300.96035    398.18017    528.98301   -129858.47    129956.52   -130.80284     37.27772 
29960000    284.36976    471.48779    415.76678   -129879.83    129989.07    55.721013    37.276279 
29964000    270.68171    329.40235    535.80585   -129888.97    130005.25    -206.4035    37.270728 
29968000    289.41855    341.75147    359.83519   -129928.87     130018.5   -18.083716    37.275852 
29972000    264.87782    336.21527    243.67157   -129911.93    130035.79    92.543706    37.272051 
29976000     281.2207    322.16724    471.05869    -129930.4    130030.38   -148.89146     37.26987 
29980000    280.95749    453.58251    215.06459   -129960.64    130076.72    238.51792    37.266432 
29984000    290.68731    430.23755     550.5448   -129968.83    130060.96   -120.30724    37.270074 
29988000    269.67058    403.55852    298.41919   -129976.88    130065.95    105.13933    37.268829 
29992000    278.70525    317.71495    316.17371   -130000.23    130092.67     1.541241    37.266165 
29996000    279.58503    462.78545    345.05732   -130025.85    130133.84    117.72813    37.265874 
30000000    305.28697     357.3419    391.45665    -130063.6     130134.9   -34.114744    37.274652 
30004000    269.94558      252.816    359.66866   -130059.31    130185.79   -106.85265    37.274158 
30008000    272.84256    284.45525    556.66135   -130080.26     130174.7    -272.2061    37.276741 
30012000    282.69591    443.35654    141.37332   -130088.49     130199.8    301.98322    37.279187 
30016000    281.07451     332.2439    383.43674   -130120.94    130234.03   -51.192837    37.280305 
30020000    270.08924     340.7125    369.58215   -130122.06    130232.42   -28.869645    37.277134 
30024000    294.78029    447.27084    448.49187   -130152.32    130245.75   -1.2210203    37.272525 
30028000    250.95937    252.48517    326.78175   -130153.84    130266.55   -74.296577    37.272727 
30032000    312.32677    389.33692    390.26899   -130193.04    130286.11  -0.93206946    37.273446 
30036000    251.25747    432.18131    324.15851   -130188.46    130315.47     108.0228    37.270622 
30040000    281.12989    255.64303      422.967   -130213.52     130319.9   -167.32398    37.266991 
30044000    296.02722    387.97689    365.44401    -130233.5    130353.17    22.532886    37.272436 
30048000    289.21412    323.28539    263.43159   -130260.26    130350.62      59.8538     37.27021 
30052000    277.76089    361.86696    238.16038   -130257.72    130355.87    123.70658    37.266474 
30056000    237.43461      340.348    276.82048   -130259.88    130388.24    63.527519     37.26936 
30060000    263.46931    262.61885    188.01458   -130289.23     130402.7    74.604271    37.267844 
30064000    268.75517    343.74716    360.47401   -130304.52    130415.86    -16.72685    37.265386 
30068000    263.04416    350.90849    282.65281   -130329.44    130442.43    68.255683    37.264824 
30072000     271.1884    345.92231    405.84059    -130346.4    130446.61   -59.918275    37.268467 
30076000    279.16844    483.70505    232.58672   -130334.01    130443.44    251.11833    37.268423 
30080000    282.59005    257.79211    363.06041   -130352.82    130456.86    -105.2683     37.26604 
30084000    304.67482    300.41008     441.0422    -130360.7    130462.29   -140.63212    37.262815 
30088000    275.38254    473.44184    142.32136    -130374.2    130474.41    331.12048    37.261478 
30092000    288.57114    167.77275    376.38943   -130413.45    130503.43   -208.61668    37.261244 
30096000     252.6797    277.81386    216.93124   -130425.83    130541.54     60.88262    37.256967 
30100000    295.22179    440.31714    344.87286   -130473.07    130570.94     95.44428    37.256695 
30104000    256.43321     293.1784     312.5321   -130524.86    130632.82   -19.353692    37.258562 
30108000    256.51284    441.70339     330.3693   -130535.21    130651.02    111.33408    37.257702 
30112000    290.17446    244.20115    196.21958   -130551.19    130628.77    47.981568     37.25816 
30116000    288.49626    431.14707    321.31904   -130557.57    130636.15    109.82803    37.255844 
30120000    289.82547    93.944669    264.78787   -130576.77    130643.67    -170.8432    37.256197 
30124000    330.53702    420.43622    259.41012   -130592.18    130659.99     161.0261    37.256061 
30128000    273.14297    193.12356    309.65074   -130581.78    130686.45   -116.52718    37.255741 
30132000    302.67383     291.5309    363.91212   -130621.01    130715.87   -72.381226    37.248062 
30136000    283.80283    344.70089    343.92612   -130610.36    130717.04   0.77476858    37.253296 
30140000    283.55331    388.39072    502.00233   -130645.48    130741.48   -113.61161    37.254529 
30144000    294.65578    282.68752    304.96276   -130652.45    130744.15   -22.275239    37.255518 
30148000    299.38212    388.29325    355.65218   -130666.87    130758.22    32.641067    37.254904 
30152000    266.68026    502.69624     303.9462   -130680.68    130790.03    198.75004    37.253326 
30156000    298.80934    322.44961    304.13612   -130696.17    130798.26    18.313488    37.251243 
30160000    305.34951    247.70946    333.68968   -130723.05    130798.66   -85.980214    37.253073 
30164000    279.15045     407.0921    298.32982   -130747.43    130839.49    108.76228    37.251801 
30168000    291.64621       374.08    427.31577   -130758.25    130860.46   -53.235776     37.25638 
30172000    291.56666    392.18985    276.10517   -130797.78    130894.84    116.08468    37.255285 
30176000    286.83358    396.30138     208.4184   -130832.18     130917.5    187.88298    37.255871 
30180000    288.08657    362.35012    230.10362    -130857.3    130941.22     132.2465    37.254728 
30184000    271.59061    227.52378    267.33553    -130872.5    130966.29   -39.811754    37.256201 
30188000    292.21741    370.80696    436.59316   -130891.89     130994.1   -65.786204    37.255413 
30192000    287.35848    164.58031    270.28597   -130900.92    131008.64   -105.70566    37.253598 
30196000    278.06034     366.5125    322.82417   -130930.83    131044.17    43.688334    37.255947 
30200000    269.84747    387.98423    415.42467   -130953.82    131073.34   -27.440444    37.253063 
30204000    265.93889    298.52872    280.83538    -130983.4    131091.98    17.693333     37.25075 
30208000    257.99916    340.30082    257.91431   -130994.66    131105.22    82.386514    37.248483 
30212000    257.60452    314.26145    453.80594   -131016.49     131121.8   -139.54448    37.250291 
30216000    277.49876    271.74696    225.57969   -131043.51    131135.66    46.167268    37.248741 
30220000     310.3154    500.08812    278.27478   -131075.82    131165.95    221.81334    37.241703 
30224000    252.53357      239.841    106.30987   -131089.68    131189.93    133.53114    37.241178 
30228000    278.78943    333.54026     387.1604   -131123.23    131221.59   -53.620138    37.245509 
30232000    288.32413    206.80645    365.26048   -131148.65    131236.55   -158.45403    37.235542 
30236000    287.23558    281.31955    276.90255   -131163.95    131258.86    4.4170041    37.237103 
30240000    261.56576    297.83904    167.59721   -131168.99    131294.71    130.24182     37.23421 
30244000    293.68672     373.9646    366.71307   -131204.73     131294.6    7.2515307    37.232966 
30248000    288.21652    365.80356    295.08284   -131211.59    131315.81    70.720726    37.231801 
30252000    310.25073    560.61239    344.23007    -131253.8     131324.9    216.38232    37.230697 
30256000    304.00082    518.76164    292.55344   -131268.73    131358.68    226.20819    37.229002 
30260000    295.97406    397.90072    460.83954   -131289.57    131366.09   -62.938814    37.227157 
30264000    273.47528    299.73287    234.65758   -131277.59    131378.88    65.075286    37.228415 
30268000    261.51036    248.21975      320.413   -131294.64     131422.1   -72.193258    37.222221 
30272000    303.40802    406.45123    427.71539   -131337.11     131417.9   -21.264158    37.226338 
30276000    293.89095     413.1283      239.397   -131326.87    131440.07     173.7313    37.222223 
30280000    278.41795    391.13444     370.3189   -131350.48    131446.95    20.815544    37.217878 
30284000    295.11474    314.78599    326.67502   -131368.37    131462.71   -11.889034    37.215359 
30288000     305.5264    491.10066    526.65618   -131401.27    131502.54   -35.555514    37.209607 
30292000    292.34871    532.92204    389.24574   -131406.53    131501.71     143.6763    37.209355 
30296000    259.76539    394.33009     391.4212   -131416.24    131535.87    2.9088947    37.214764 
30300000    271.72154    296.69776    313.26671   -131433.05     131547.9    -16.56894    37.214129 
30304000    285.89634    339.15989    485.04719   -131468.82     131566.8    -145.8873     37.21706 
30308000    284.51809    265.56186    449.40845   -131505.95    131598.77   -183.84659    37.221641 
30312000    293.13537    344.48022    147.32428   -131542.32    131626.89    197.15595    37.223029 
30316000    289.87451    590.97544    268.45953   -131564.06    131655.43    322.51591    37.225086 
30320000    286.71265    404.81429    259.09365    -131594.2    131701.78    145.72065    37.225775 
30324000    269.67661    389.22108     254.5899   -131619.81    131720.79    134.63118    37.226571 
30328000    289.48087    235.72013    339.42884   -131629.25    131738.69    -103.7087    37.225881 
30332000    304.50467    491.94506    436.57014   -131645.57    131746.66    55.374918     37.22513 
30336000    303.82633    442.16299    174.18776   -131688.42    131783.38    267.97523    37.221855 
30340000    290.02028    439.92505    283.69481   -131702.57    131819.02    156.23024    37.219844 
30344000    281.84593    367.09757    614.63033   -131756.36    131863.72   -247.53276    37.219481 
30348000      298.459    452.55272    668.83258   -131779.69    131873.66   -216.27986    37.218346 
30352000    299.04985     473.7441    351.67867      -131795    131899.41    122.06543    37.218988 
30356000    299.49164    291.99959    326.45739   -131822.71    131917.36   -34.457806    37.214004 
30360000    283.74835    341.48866    297.97917   -131844.59    131953.05    43.509487    37.206544 
30364000    270.29794    347.91349    214.26608   -131853.69    131963.78    133.64741    37.200675 
30368000    291.12469    249.06586    372.88137   -131868.51    131969.52   -123.81551    37.198393 
30372000     269.4317    276.64428    305.62861   -131872.08    131977.67   -28.984335     37.19691 
30376000    272.44146    371.59182    451.11984   -131896.09    132000.07   -79.528014    37.196668 
30380000    277.23924    286.15034    242.41496   -131903.41     132022.5    43.735381    37.195211 
30384000    279.75975    345.77947    258.10707    -131904.6    132006.15    87.672402    37.196155 
30388000    281.23611    399.98904    284.53613    -131934.5     132020.3    115.45291    37.201257 
30392000    243.69744    379.07517    331.89602   -131943.25    132071.17    47.179149    37.204389 
30396000    228.33428    340.13712    254.53854   -131930.07    132087.22    85.598587    37.202728 
30400000    267.75329    263.71761    470.43726   -131972.81    132080.87   -206.71965     37.20369 
30404000     294.1319     417.5776    252.28696   -131978.64    132081.22    165.29063    37.200908 
30408000    317.16173    605.06157    317.81643   -132023.57    132118.68    287.24515    37.199187 
30412000    266.86088    196.90053    318.69413    -132030.2    132136.25    -121.7936    37.202967 
30416000    285.39336    112.97558    270.14084    -132056.2    132148.44   -157.16526    37.199952 
30420000    304.09783    243.51088    260.85202   -132053.82    132143.53   -17.341142    37.206984 
30424000    299.51258    423.64108    385.68586   -132089.21    132181.61    37.955217     37.20506 
30428000    278.46069    378.10701    325.84211   -132113.35    132223.75    52.264901    37.202477 
30432000    291.58774    176.17774    280.71668   -132116.14    132228.58   -104.53894    37.200721 
30436000      264.415    273.95671    569.14453   -132129.55    132228.88   -295.18782     37.20169 
30440000    296.62931    555.28444    252.39912   -132150.55     132255.5    302.88532    37.204322 
30444000    280.18916    418.83517    315.47533   -132155.35    132270.42    103.35984    37.197627 
30448000     272.6458    388.50787    361.10261    -132191.9    132296.27    27.405256     37.19379 
30452000    281.63646    416.94346    474.10361   -132250.14    132342.78   -57.160155    37.195942 
30456000    298.09255    305.08655    285.77274   -132262.06    132369.99    19.313807    37.196242 
30460000    320.22822    342.49747     457.1116   -132286.15    132380.86   -114.61412    37.195122 
30464000    280.51373    321.84264    355.94064   -132303.95    132408.58      -34.098    37.196996 
30468000    261.77343    246.09498    377.44111   -132332.98    132440.28   -131.34613    37.197577 
30472000    276.85289    305.22767    476.54466   -132337.55    132437.32   -171.31698    37.195217 
30476000    302.38701    390.78062     278.7701   -132344.49    132440.76    112.01052     37.20035 
30480000    314.08935    411.78911    473.27589   -132370.16    132464.11   -61.486782    37.196441 
30484000    262.58149    264.81772      368.876   -132369.67    132480.57   -104.05828    37.189503 
30488000    242.45309    345.98676    348.52585   -132374.03    132510.03   -2.5390895    37.190568 
30492000    273.30509    352.09413     318.6264   -132402.38     132521.8    33.467734    37.190643 
30496000    284.45501    428.71726    359.88976   -132398.47    132497.64    68.827508    37.187808 
30500000    243.24182    140.45658     297.4377   -132422.37     132553.4   -156.98113    37.183043 
30504000    282.70701    417.90703    397.72842   -132464.93    132567.77    20.178612    37.182575 
30508000    282.59104    473.30076    285.48711   -132465.93    132573.73    187.81365    37.183918 
30512000    310.64287    413.67764    292.47342   -132477.69    132555.14    121.20423     37.18338 
30516000    318.67628    411.13157    320.64685    -132499.8    132570.95    90.484721    37.184526 
30520000     299.1697    308.76305    577.59654   -132471.98    132561.33   -268.83348     37.18765 
30524000    297.93966    386.65256    291.83263   -132484.69    132579.33    94.819935    37.187522 
30528000    285.52504    353.99959    208.60348   -132478.84    132597.78    145.39611    37.190207 
30532000    297.86841    394.26561    234.73279   -132502.63    132587.35    159.53283    37.186389 
30536000    290.67958    304.45734    496.98496   -132521.87    132628.28   -192.52762    37.191597 
30540000    278.25324    269.35836    261.38707   -132566.14    132657.25    7.9712944    37.191055 
30544000    306.16435    599.13644    371.74925   -132577.33    132653.05    227.38719    37.191379 
30548000    292.27505    466.74048    184.62416    -132607.8    132688.85    282.11632     37.18994 
30552000    280.19248    333.16798    220.04893   -132625.76    132738.84    113.11905    37.197851 
30556000      318.274    493.45755    316.13528   -132649.99    132746.78    177.32226    37.197353 
30560000    267.09933    295.29994    258.46125   -132633.06    132755.79    36.838699     37.20025 
30564000    286.44819    559.20133    342.16742   -132668.03    132776.65    217.03391    37.202521 
30568000    269.13323    198.27735     426.7186   -132705.23    132813.26   -228.44125    37.200978 
30572000    309.24163    645.23458    382.84192   -132741.39    132837.41    262.39266    37.205184 
30576000    276.84332    254.72399    397.37507   -132772.73    132855.49   -142.65109    37.206577 
30580000    315.85427    436.49925    272.90425   -132783.77    132864.17      163.595    37.202138 
30584000    303.34569    220.69807    394.98104   -132797.34    132894.09   -174.28298    37.201202 
30588000    225.46428    305.09794    235.69473   -132786.72    132927.21    69.403218    37.198526 
30592000    267.33521    314.29882    200.21137   -132803.02     132908.7    114.08746    37.197024 
30596000    299.33826    216.27289    299.78918   -132830.94    132917.91    -83.51629     37.19752 
30600000    317.25675    477.40301    247.90651   -132855.42     132941.2     229.4965    37.198381 
30604000    300.13656    444.52555    278.88313   -132879.64    132960.73    165.64242    37.198202 
30608000    293.37462    493.11589    437.01505      -132879     132979.3    56.100832    37.201503 
30612000    286.04551    470.07697    325.59768   -132894.11    132987.24    144.47929    37.200084 
30616000    251.71455    354.22862    291.24132    -132881.8    133010.43    62.987294    37.198884 
30620000    314.93556    368.48346    421.27894   -132928.26    133019.71   -52.795484    37.198301 
30624000    324.83054    634.61402    514.38211   -132936.18    133022.72    120.23191    37.199254 
30628000    313.45367    334.29696    429.81487   -132974.21    133064.97   -95.517908    37.204792 
30632000     321.7227    291.70535    417.07585   -133019.96    133104.57    -125.3705    37.199981 
30636000    278.64947    386.51862    306.84826   -133027.85    133127.41    79.670357    37.198835 
30640000    280.90261    207.11283     357.8977   -133050.74    133152.55   -150.78487    37.197896 
30644000    281.89144    449.86869     294.6776   -133069.43    133174.42    155.19109     37.19838 
30648000    264.88001     274.2254    266.53343      -133055    133179.41    7.6919736    37.201388 
30652000    284.13421    289.50153    420.94524    -133078.7    133194.77   -131.44371    37.198111 
30656000    297.09749    166.16117    239.61012   -133114.72    133212.63   -73.448951    37.196847 
30660000     276.2908    301.34277    373.23179   -133112.26     133216.2   -71.889016    37.199272 
30664000    290.72499    213.04655    396.51204   -133133.73    133236.55    -183.4655    37.197483 
30668000    288.51469    309.96573    506.59698    -133143.8    133240.65   -196.63125    37.188915 
30672000    290.54466     254.7386    305.40487   -133140.41    133243.65   -50.666269    37.187209 
30676000    274.39457    294.38172    228.67821   -133169.16    133284.65    65.703503    37.186239 
30680000    292.53615    283.25777    182.93759   -133184.71    133279.39    100.32018    37.189635 
30684000     280.3678    264.18148    492.86051   -133195.26    133312.57   -228.67903     37.18732 
30688000    298.28442    521.36845    326.55028   -133238.57     133339.1    194.81817    37.192139 
30692000    294.86013    400.41683    394.20289   -133259.05    133359.74    6.2139448    37.195328 
30696000    283.13219    461.65322    277.08297   -133293.69    133381.97    184.57025    37.191359 
30700000    262.64124    379.08349    217.03418   -133290.87    133408.35    162.04931    37.198184 
30704000    293.09471     432.2072    205.65609   -133318.23     133402.7    226.55111     37.19465 
30708000    270.83424    342.70509    324.65323   -133305.31    133419.87    18.051861    37.194765 
30712000    291.38923    296.43779    227.00518   -133302.32    133399.97     69.43261    37.193332 
30716000    269.07055    392.27263     343.9707   -133313.71    133434.89    48.301931    37.194678 
30720000    275.42848    301.44793    561.59865   -133324.25    133428.12   -260.15071     37.19318 
30724000    277.15725    375.76634    371.13044   -133357.29    133480.73    4.6359058    37.187315 
30728000    266.78313    307.50512    366.13743   -133381.55    133486.83   -58.632313    37.183757 
30732000    261.05445    344.01676    277.23318   -133385.27    133483.22    66.783579    37.184552 
30736000    310.00769    336.42666    418.21501    -133394.9    133503.16    -81.78835    37.185377 
30740000    307.04739    413.13253    234.37186   -133430.49    133516.37    178.76067    37.187486 
30744000    262.69115    337.98139      300.145   -133424.84    133515.81    37.836393    37.188191 
30748000    304.93715    444.02639     400.0084   -133450.71    133528.81    44.017987     37.18557 
30752000    270.02285    372.06452    263.96747   -133456.69    133562.76    108.09705    37.180483 
30756000    251.09483    257.67714    348.92453   -133460.35    133582.97   -91.247387    37.178309 
30760000    281.98977    518.22489    455.61569   -133496.86    133588.03    62.609199     37.17562 
30764000    280.01248    376.98297    231.17972   -133528.47     133635.4    145.80325    37.178442 
30768000    271.31831    404.39542    254.81596   -133512.94    133628.28    149.57946    37.177088 
30772000    270.37594    579.21356    207.17153   -133554.24    133662.25    372.04202     37.17848 
30776000    263.26761     314.0813    233.80767   -133574.41     133712.4    80.273636    37.183314 
30780000    261.62053    111.52363    311.04225   -133618.91    133736.45   -199.51862    37.181461 
30784000    265.00761    187.78341     257.5465   -133634.44    133755.51   -69.763098     37.18089 
30788000    294.33357    376.15337    362.00512   -133657.78    133771.21    14.148255    37.183852 
30792000    309.11565    352.39083    776.82369   -133684.99    133774.71   -424.43286    37.178993 
30796000    320.02614    425.72798    371.01492   -133708.02     133782.3    54.713064    37.177424 
30800000    262.78152    252.13932     258.3405   -133719.36    133822.84   -6.2011832    37.179513 
30804000    267.17965     312.8149    308.99563    -133735.6    133846.17    3.8192693    37.181503 
30808000    282.91508    224.12687    515.62908   -133747.93    133855.97   -291.50221    37.179383 
30812000    261.59762    332.01793    282.05374   -133778.36    133895.95    49.964198    37.173099 
30816000    328.11595     515.9879    421.25546   -133817.09    133904.87    94.732448    37.174927 
30820000    305.76347    501.79027    397.30902   -133842.24    133937.98    104.48125    37.175381 
30824000    294.84783    364.83585    424.77927   -133845.33     133953.8   -59.943419    37.172816 
30828000    289.21736    460.74821    336.08784   -133882.78    133985.52    124.66037    37.170809 
30832000    269.78094    234.26958    394.93794   -133879.15    133995.66   -160.66836    37.164071 
30836000    304.41938    258.56636    298.98767   -133908.27    134012.91   -40.421315    37.162012 
30840000    295.80827    498.00062    342.09328    -133904.7     134015.8    155.90734    37.167369 
30844000    273.87235    364.48008    305.79083   -133916.29     134039.8    58.689247    37.160756 
30848000    270.09192    427.33559    448.28287   -133958.72    134070.46   -20.947276    37.159415 
30852000    254.70079     428.7008    421.81803   -133984.97    134105.18    6.8827702    37.158915 
30856000    292.96711    389.13185     608.8383   -133995.53    134094.91   -219.70645    37.160196 
30860000      253.224    193.41264    392.48018   -134027.22    134142.56   -199.06754     37.15994 
30864000    281.70484    307.98689    356.81586   -134037.37    134166.08   -48.828967    37.160505 
30868000    288.96951    339.25626    366.21114   -134065.44    134184.37   -26.954879    37.162926 
30872000    281.41823    495.00153    220.78134   -134070.75    134187.81    274.22019    37.164672 
30876000    285.41711    280.63687    448.10661   -134098.51    134207.54   -167.46974      37.1619 
30880000    292.32251    292.79882    349.48007   -134108.54    134214.01   -56.681251    37.157949 
30884000    293.26686    374.09115    357.63678   -134151.42    134233.29    16.454369    37.160018 
30888000       305.96     249.8414    374.86501   -134189.49     134258.6    -125.0236    37.158285 
30892000    264.56718    385.13187    294.18056   -134179.92    134301.76    90.951308    37.160179 
30896000    267.75485    367.11184    205.44077   -134197.63    134309.72    161.67107    37.162073 
30900000    279.26967    526.22378    491.99519   -134220.72    134333.93    34.228584    37.164342 
30904000    256.21937    338.79193    335.61483   -134247.93    134368.34    3.1771005    37.161885 
30908000    273.28905    220.41857    494.99835   -134260.57    134373.75   -274.57978    37.162932 
30912000    282.15672    371.97001    235.75543   -134299.43    134380.89    136.21458    37.166941 
30916000    283.61322    457.22807    162.82918   -134299.19     134396.5    294.39889     37.17026 
30920000    305.04335    492.36763    355.02629   -134340.08    134423.82    137.34134    37.165805 
30924000    275.58391    380.98334     303.7248   -134329.34    134457.99    77.258535    37.163216 
30928000     299.7545    498.79798    344.41503   -134360.82    134470.61    154.38295     37.16399 
30932000    252.56328    243.14136    442.54596   -134353.87     134480.8    -199.4046    37.166004 
30936000    254.28282    293.05952     299.4624   -134371.01    134482.42   -6.4028789    37.172589 
30940000    268.29612    381.51229    289.04734   -134375.82    134495.35    92.464945    37.166988 
30944000     276.1189     149.5071    176.87523   -134394.82    134498.46   -27.368126      37.1646 
30948000    314.90122    684.10531    259.82701   -134451.79    134525.15     424.2783    37.168989 
30952000    298.71553     259.2885    473.84384   -134450.57    134548.83   -214.55535    37.165655 
30956000    254.80852    428.29416    293.38404   -134494.36     134585.6    134.91012    37.168394 
30960000    288.54525    404.47688    300.56707   -134530.53    134618.46    103.90982    37.166938 
30964000    272.57303    373.93035    259.85478   -134543.92    134656.41    114.07557     37.16645 
30968000    285.48042    261.71909    267.75539   -134559.45    134662.35   -6.0362951    37.160753 
30972000    299.11084    768.18097     293.7319   -134570.46    134673.41    474.44908    37.152424 
30976000     272.2492    313.43866    384.48623   -134586.66    134701.05   -71.047574    37.151346 
30980000    287.06574    351.87537    369.57556   -134602.87    134702.59   -17.700192    37.149617 
30984000    299.57611    406.62101    479.48613   -134623.33    134719.05   -72.865118    37.144589 
30988000    277.59751    408.76986    337.69339    -134601.2    134711.24    71.076467    37.139296 
30992000    283.91929    387.79967    516.01551   -134637.46    134720.37   -128.21585    37.139059 
30996000    267.12095    146.66515    455.21145   -134655.53    134765.41   -308.54631    37.133843 
31000000    315.09871    421.14821    332.42281   -134681.08    134770.74    88.725401      37.1286 
31004000    285.97322    501.76624    342.18706   -134684.14    134803.86    159.57918    37.129402 
31008000    276.03935    199.54428    294.57539   -134689.47    134811.61   -95.031109    37.129714 
31012000    275.61781     377.0078    156.08813   -134712.01    134840.07    220.91968    37.135563 
31016000    260.39622    323.12422    250.58266   -134732.55    134873.01     72.54156    37.131981 
31020000    284.64898    640.73692    391.50929   -134762.11     134873.5    249.22762    37.132038 
31024000    277.55386    413.71403    319.63274   -134762.37    134893.99    94.081292    37.128318 
31028000     309.8197    129.68087    462.90285   -134786.46    134899.54   -333.22197    37.127534 
31032000    249.22112    425.90656    253.25979   -134812.58    134937.32    172.64677    37.128454 
31036000    277.36995    573.60118    328.83617   -134831.46     134956.1    244.76501    37.134514 
31040000    326.89249    779.95406    269.36478   -134870.28    134941.06    510.58927    37.136275 
31044000    267.61135    300.64153    441.87571   -134846.43    134973.06   -141.23419    37.134377 
31048000    282.54144    251.22778    251.44148   -134867.46    134968.19  -0.21370439    37.137304 
31052000    279.31093    233.04821    201.42542   -134892.18    134996.64    31.622796    37.138491 
31056000    273.39421     313.0097    550.93139   -134897.53    135005.23   -237.92169     37.14419 
31060000     287.3784    302.36129    231.89708   -134934.28    135015.95    70.464204    37.148866 
31064000    283.26249    353.36241    325.90277   -134964.61    135061.47    27.459638    37.150319 
31068000    301.28273     470.5585    303.58282   -134994.15    135073.44    166.97568    37.154799 
31072000    307.17417    341.13915    334.57426   -134974.64     135077.9    6.5648833     37.15855 
31076000    242.59559    361.44225    277.77847   -134983.49    135098.39    83.663778    37.161573 
31080000    253.51351    267.76695    543.13223    -135016.1     135127.2   -275.36528    37.156957 
31084000    280.38364    380.91715    249.43271   -135037.89    135148.87    131.48444    37.155837 
31088000    286.61573    288.59975      435.219    -135054.9    135149.97   -146.61925    37.160555 
31092000    289.78453    327.71602    330.65999   -135065.12    135173.86   -2.9439726    37.159051 
31096000    257.42893    300.94084    240.34206    -135091.3    135205.06    60.598781    37.163053 
31100000    298.48748    518.03936    288.56399   -135123.86    135220.55    229.47537    37.166038 
31104000    254.63807    369.25622    338.50332   -135131.88     135244.5      30.7529    37.172518 
31108000    259.94044    276.13377    333.12393   -135166.71    135275.28   -56.990163    37.168329 
31112000    259.19222    325.39254    337.69758   -135207.33    135334.73   -12.305043    37.170519 
31116000    268.33396    388.71222    232.81268   -135235.75    135362.82    155.89954     37.17124 
31120000     271.3531    453.45632    444.20808   -135263.71    135376.68    9.2482411    37.169706 
31124000    270.99747     358.7122    296.67359    -135283.3    135414.61    62.038605    37.169626 
31128000    237.29531    472.93388    443.02707   -135314.68    135450.72    29.906804    37.170396 
31132000    251.09545    337.61468    304.59596   -135366.72    135492.53    33.018724    37.170927 
31136000    276.00138    356.52656    349.06142   -135388.37    135511.53    7.4651395    37.168897 
31140000    271.02379    300.37823    432.35261   -135386.86     135503.4   -131.97438    37.165026 
31144000    305.57503    247.44451     495.3123    -135410.5    135485.38   -247.86779    37.162028 
31148000     256.9229    338.64053    393.28514    -135388.1     135510.9   -54.644602    37.167701 
31152000    271.80307    335.33843    584.60897   -135420.36     135522.6   -249.27054    37.171976 
31156000    282.40632    442.90987    114.24707   -135450.67    135564.17     328.6628     37.17051 
31160000    278.13843    306.84037    366.92257   -135466.06     135558.1   -60.082196    37.170745 
31164000    306.26608    383.92703    527.74567   -135497.67    135570.15   -143.81864    37.171512 
31168000    277.51149    591.45659     216.4868   -135512.28    135606.25    374.96979    37.170021 
31172000    255.87431    184.89107    379.38439   -135528.88    135643.62   -194.49332    37.171834 
31176000    273.70065    313.14525    144.26542   -135564.21     135662.7    168.87983    37.170694 
31180000      290.006    355.66345    178.57398   -135590.81    135678.83    177.08947    37.172605 
31184000    262.49198    205.03205    271.80784   -135587.48    135679.16   -66.775785    37.176536 
31188000    277.85512    250.09076    422.69309   -135578.82    135685.39   -172.60233    37.174181 
31192000    319.40611     490.0722    407.50423   -135600.96    135680.85    82.567965    37.177118 
31196000     264.7444    319.58974    261.25264   -135588.78    135705.53    58.337101    37.176388 
31200000    251.87401    396.75966    288.12641   -135610.48    135724.55    108.63325    37.174538 
31204000    287.84857    513.41158    429.28281   -135616.48    135729.86    84.128767     37.17828 
31208000    288.79644    321.33879    469.40449   -135641.42    135757.04   -148.06569    37.171779 
31212000    284.01858    367.30736    292.53061   -135641.44    135755.45    74.776748     37.17019 
31216000    288.90271     390.1556    360.86568   -135653.45    135763.72    29.289923    37.172481 
31220000    234.05832    347.02422    303.87207   -135667.84    135811.04    43.152155    37.173905 
31224000    290.91595    259.93897    513.40861   -135708.41     135819.1   -253.46964    37.167743 
31228000    269.44486    191.82989    249.34977   -135722.18    135834.28   -57.519872    37.168729 
31232000    302.86933     433.8382    353.06953    -135753.5     135857.8    80.768671    37.170313 
31236000    297.45371    300.33478    253.42286   -135767.56    135850.92    46.911912    37.167343 
31240000    255.07705    194.49899     241.6546   -135770.61    135902.54   -47.155607    37.168519 
31244000    298.78278    442.84503    382.34204   -135827.16    135901.73    60.502994    37.173575 
31248000    295.95457     544.6095    275.56501   -135859.11    135970.57    269.04449    37.177101 
31252000    301.59399    169.61463    364.95167   -135880.11    135989.78   -195.33704    37.181604 
31256000    264.49286    146.16214    231.18829   -135876.03    135995.86   -85.026155    37.185917 
31260000    273.04302    279.38101    218.33971   -135882.15    136023.19    61.041302    37.186457 
31264000    272.64277      427.319    323.14299   -135896.37    136008.66    104.17602    37.194409 
31268000    266.86123    354.50297    424.76482   -135917.21    136037.43   -70.261844    37.193869 
31272000    284.92694    441.39723    164.44528   -135960.22    136060.38    276.95196    37.195073 
31276000     241.0828    363.05994    363.36043   -135951.93    136089.08  -0.30049274    37.200019 
31280000    284.90849    575.30617    375.06287   -135949.78    136066.05     200.2433    37.199673 
31284000    276.68963    438.50623    346.87584    -135958.7    136070.72      91.6304    37.199868 
31288000    267.62389    248.45197    486.56649   -135972.88    136080.74   -238.11452    37.197913 
31292000    279.46762    333.86982    431.18601   -135972.62    136079.88    -97.31619    37.193123 
31296000     277.2406    524.22398    235.90546   -135968.18    136095.06    288.31853     37.19425 
31300000    281.53327    429.03183    226.65053   -136015.01    136123.79     202.3813    37.191995 
31304000    278.82285    189.54069    330.71482   -136021.82    136119.75   -141.17414    37.193796 
31308000    307.37352    329.10279    334.03563   -136042.12    136138.66   -4.9328434    37.197611 
31312000    296.93006    353.80997    416.08589   -136043.89    136140.28   -62.275921    37.192671 
31316000    299.97238    266.57972    311.84798   -136059.07    136158.65   -45.268259    37.193321 
31320000    267.62061    427.64096     442.2617   -136065.36    136188.08   -14.620734    37.192694 
31324000    281.57989    445.62099    312.45793   -136072.99    136170.02    133.16305    37.196093 
31328000    326.29148    452.31576    300.19319   -136108.48    136186.26    152.12257    37.198212 
31332000    299.72061    422.65571     455.2636   -136113.02    136217.43   -32.607887    37.194208 
31336000    299.73795    346.58865    279.62298   -136109.58    136215.42    66.965674    37.192999 
31340000    282.70927    336.81235    324.46659   -136130.92     136236.7    12.345759    37.194583 
31344000     298.0762     377.5424    644.89666   -136156.16     136262.3   -267.35426    37.191865 
31348000     276.2728    538.04235    215.85665   -136158.01    136272.35     322.1857    37.194942 
31352000    280.45086    543.23856    348.36178   -136188.15    136280.68    194.87677    37.189821 
31356000    285.12172    528.05204     481.8259   -136191.02    136293.31    46.226146    37.189036 
31360000    283.54401     649.8599    278.12728   -136198.85    136316.13    371.73263    37.190444 
31364000    269.48309    251.27978    367.74191   -136211.13    136329.81   -116.46213    37.184995 
31368000    274.45304    419.54412    490.42235   -136219.01    136328.52   -70.878231    37.186203 
31372000    288.75662    259.11471    403.90769    -136242.8    136340.42   -144.79298     37.18297 
31376000     293.7586    286.66471    381.28078   -136266.14    136371.41   -94.616072    37.186874 
31380000    265.10518    477.57809    269.62388   -136260.11    136392.85    207.95421    37.186295 
31384000    266.07134    328.33637    378.40946   -136287.93    136395.38   -50.073089    37.186128 
31388000    267.26459     319.6568    447.48538   -136297.72    136425.85   -127.82859     37.18732 
31392000    326.52423    390.93671    464.03118   -136344.09    136417.72   -73.094461     37.18618 
31396000    289.09597    310.36329    264.42357   -136354.37    136463.23    45.939715     37.18905 
31400000    283.76404    461.03912    243.42054   -136364.02     136477.4    217.61858    37.190544 
31404000    291.88096    646.57471    245.26921   -136370.44    136492.59     401.3055    37.191244 
31408000    279.91177    424.33074    335.80001   -136414.48    136512.93    88.530733    37.193161 
31412000     306.7558    384.02123    210.77846   -136431.06    136512.47    173.24277    37.192134 
31416000    332.08906    428.39767    296.37668   -136437.15    136516.66    132.02099    37.190583 
31420000    305.98763    385.54807    606.07584   -136433.31    136528.56   -220.52777     37.18506 
31424000    264.30597    236.24543    518.93546   -136441.21     136554.7   -282.69003    37.183145 
31428000    306.34555     369.0965    341.99922   -136471.72    136568.11     27.09728    37.180708 
31432000    306.28813    290.14468    328.06538   -136498.06    136599.04   -37.920708    37.180646 
31436000    274.68912    410.91362    175.44989   -136514.68    136633.11    235.46373    37.182883 
31440000    251.92957    215.45825    289.00415   -136529.81    136655.15   -73.545904    37.183346 
31444000     301.5137    428.03756    516.74102   -136560.92    136664.02    -88.70346    37.183399 
31448000    293.71786     280.8061     311.6789   -136579.88     136688.6   -30.872803    37.184377 
31452000    273.11247    269.07285    254.68245   -136571.69    136700.95    14.390401    37.186316 
31456000      257.698    208.72615     362.7575   -136596.46    136719.97   -154.03135    37.186196 
31460000    276.41293    389.00215    459.75551   -136611.89    136722.69   -70.753363    37.188042 
31464000     279.5683    612.28731    293.37364   -136638.72    136734.61    318.91367     37.19023 
31468000      271.785     411.0925    329.75557   -136654.13    136760.37    81.336932    37.188884 
31472000    294.03277    576.04127    467.56648   -136675.64    136772.13     108.4748    37.184932 
31476000    274.31513    341.84656    293.99507   -136676.28    136802.06    47.851489    37.183944 
31480000    253.87423    316.86333    253.59226   -136698.09    136839.63    63.271074    37.185814 
31484000    290.64285    259.34602    289.34737   -136743.88    136842.71   -30.001349    37.178376 
31488000    296.78769    210.77131    303.54602   -136739.25    136844.77   -92.774706    37.175377 
31492000    306.53761    230.16234    344.26341   -136752.52    136850.02   -114.10107    37.172451 
31496000    289.09687    360.88784    369.25564   -136788.24    136889.05   -8.3677999    37.169259 
31500000    307.71578     411.8717    493.64826    -136819.3    136918.19   -81.776557    37.168629 
31504000    315.67619     365.8799    236.37558   -136847.46    136941.62    129.50432    37.169324 
31508000    273.00002    369.43863    503.78981   -136862.96    136949.55   -134.35118    37.173674 
31512000    284.66575    396.19042    261.68343   -136883.28    136977.37    134.50699    37.174063 
31516000    267.99347    332.28261     282.7684   -136876.04    136989.41    49.514216    37.171704 
31520000    295.01464    492.77437    275.72926   -136896.72    137007.52     217.0451    37.169959 
31524000    257.47797    464.16031    384.20812   -136908.55    137036.34    79.952192    37.169109 
31528000    278.09855      586.081    389.73188   -136934.44    137042.14    196.34912    37.174355 
31532000    258.77121    297.86576    288.40975   -136932.11    137071.08    9.4560107    37.175713 
31536000    256.73929    273.64958    334.89904      -136935    137056.37   -61.249457    37.173307 
31540000    280.44332     592.8132    388.96506   -136960.42    137072.29    203.84814     37.17147 
31544000    286.61134    478.78242    236.18897   -136998.72    137106.98    242.59345       37.174 
31548000    270.15593    225.16258    366.47755   -137006.32    137121.48   -141.31497    37.176296 
31552000    268.30073    165.13882    240.21318   -137020.65    137144.35   -75.074352    37.177039 
31556000    263.07805    442.58441    250.30228    -137037.6    137159.38    192.28212    37.178527 
31560000    272.00027    230.49542    296.64695   -137049.47    137170.43    -66.15153    37.178873 
31564000    296.24624    218.57305    336.03884   -137079.97    137179.87   -117.46579    37.180083 
31568000    275.83645    407.07246    262.25286   -137080.67    137201.36     144.8196    37.179518 
31572000     275.5761    355.32665    385.24949   -137093.97    137201.23   -29.922841    37.179131 
31576000    287.32116    268.71516    362.52712   -137112.28    137221.06   -93.811961    37.181491 
31580000    257.61486    401.38544    205.71501   -137123.97     137251.2    195.67043    37.185131 
31584000    295.36717    245.05961    442.99403   -137166.71    137244.96   -197.93441    37.182294 
31588000    289.27279    360.76826    335.77138   -137186.65    137286.07    24.996884    37.182043 
31592000    274.15251    361.53602    359.79553   -137199.92    137302.26    1.7404959    37.181114 
31596000    258.94109    131.40698    290.93913   -137206.03    137315.65   -159.53215    37.174603 
31600000    312.97116    397.53398    329.03793    -137215.2    137302.53     68.49605    37.180616 
31604000    326.00734    286.66317    426.57408   -137232.24    137293.74    -139.9109    37.181297 
31608000     307.1025    401.59699    299.44575   -137258.93    137334.99    102.15124     37.17921 
31612000    295.41779    284.98168    394.43679   -137262.77     137370.4   -109.45511    37.179204 
31616000    285.56803     322.8009    356.76676   -137293.86    137407.04   -33.965866    37.175967 
31620000    295.52674    302.51464    547.36148   -137292.07    137398.02   -244.84684    37.174687 
31624000    261.21137    350.80483    350.10568    -137324.1    137453.17   0.69915169    37.175513 
31628000    277.99874    523.25315    267.22158   -137352.81    137468.16    256.03157    37.176666 
31632000    298.57346     426.2082    353.90751   -137395.64     137493.8     72.30069     37.17425 
31636000    302.64626    400.56193    468.67621   -137432.29    137519.76   -68.114279    37.173424 
31640000    289.27877    362.67844    266.25111   -137446.36    137561.79    96.427324    37.174485 
31644000    272.75526     345.4856    287.60145   -137479.76    137594.57    57.884153    37.177109 
31648000    301.92102    398.46228    528.10207   -137490.68    137581.64   -129.63979    37.177654 
31652000    272.36606    604.55665    256.73356   -137479.71    137598.81    347.82308    37.182694 
31656000    276.42357    299.12625    304.74323   -137515.97    137611.85   -5.6169721    37.184546 
31660000    291.03635    285.11252    396.12599   -137547.86    137654.53   -111.01347    37.183044 
31664000    285.81504    498.02662    285.13432   -137585.03    137678.79     212.8923    37.181612 
31668000    281.75239    511.54057    470.23962   -137587.78    137686.77    41.300954    37.179223 
31672000    278.73163    201.86574     267.3318   -137616.19    137727.73   -65.466063    37.180446 
31676000     296.2231    435.71782    193.56294   -137649.82    137737.53    242.15488    37.179996 
31680000     292.3829    246.52569    298.36712   -137658.24    137740.89   -51.841433    37.184007 
31684000    270.32551    349.36917    159.30494   -137679.53    137773.88    190.06423    37.194793 
31688000    276.68609    344.01271     444.8483   -137676.54    137784.77   -100.83558    37.192225 
31692000    293.91542    504.81972    255.69006    -137688.4    137801.35    249.12966    37.191023 
31696000    320.34168    568.27738    356.66036   -137723.54    137824.91    211.61702    37.189598 
31700000    289.65231    678.98261    273.95514   -137727.41    137834.38    405.02746    37.188294 
31704000    293.13391    385.61412    299.60376   -137735.55    137835.59    86.010364    37.190315 
31708000    284.31202    326.17744    420.03935   -137747.15    137855.06   -93.861908    37.193918 
31712000    305.73413    200.57426    580.55761   -137755.96    137858.99   -379.98335    37.195227 
31716000    282.42835    396.05996    216.57188   -137782.55    137879.92    179.48808    37.196913 
31720000    259.51225    448.41517    310.70362   -137797.91    137922.96    137.71156    37.195085 
31724000    254.34964    422.31857    134.95582   -137831.65    137959.48    287.36275    37.198768 
31728000    278.17003    406.14083    320.84869   -137872.74    137984.03     85.29214    37.197428 
31732000    276.95897    457.78564    246.82436   -137876.13    137992.31    210.96128    37.194653 
31736000    259.56828    353.79682     220.1609    -137897.3    138027.31    133.63592    37.194686 
31740000    272.59007    451.41889    324.85874   -137913.44    138037.65    126.56015    37.198673 
31744000    277.91719    182.83161    348.01176   -137920.47    138049.88   -165.18015     37.19758 
31748000    266.04562    578.26763    217.64516   -137961.42     138088.3    360.62246    37.200234 
31752000    290.96835    474.13269    322.11982   -137984.62    138072.27    152.01287    37.200549 
31756000    292.58326    151.22212    263.02384   -137987.27    138095.03   -111.80172    37.198811 
31760000    271.54631     204.3778    314.12346   -137970.88    138100.88   -109.74566     37.19703 
31764000    304.61695    529.18109    226.51036   -138001.78     138098.1    302.67073    37.198967 
31768000    275.84425    240.11074    384.86732   -138000.73    138125.44   -144.75658    37.196473 
31772000    276.91823    411.85302    304.11911   -138033.05    138142.43    107.73391    37.193191 
31776000    307.85223    336.64435     350.9834   -138053.16    138148.04   -14.339047    37.191712 
31780000    286.90836    291.06557     340.7233   -138069.29    138183.65   -49.657726    37.193198 
31784000     294.2673    391.46419    164.71497   -138110.28    138217.79    226.74922    37.192712 
31788000     262.3652    323.10353    369.08722   -138087.75    138222.62   -45.983695    37.187272 
31792000    259.27504    372.91183    312.87802   -138107.15    138232.75    60.033811     37.18863 
31796000    280.42204    482.56209    254.74471   -138142.79    138255.91    227.81738    37.185258 
31800000    284.82073    335.37734    377.44382   -138154.84    138271.27   -42.066474    37.184646 
31804000    282.56581    422.47155    494.10164   -138186.73    138289.36   -71.630089    37.178137 
31808000    307.19171    467.04216    405.42517   -138208.16    138306.45    61.616982    37.178252 
31812000    321.74863    346.35077     268.9265    -138226.3    138308.02     77.42427    37.175559 
31816000     289.0443    212.51153    485.71158   -138238.48    138340.61   -273.20005    37.173101 
31820000    277.96669    209.49254    216.55256   -138263.49    138379.59   -7.0600258     37.17423 
31824000    296.90526    555.01907    158.39074   -138311.14    138394.77    396.62833    37.180037 
31828000    290.60604     443.5802    290.82045   -138307.57    138396.12    152.75975    37.179293 
31832000    249.19701    233.52207    317.66083   -138314.86    138440.15    -84.13876    37.180177 
31836000    277.75857     414.7565    405.60922    -138336.5    138453.11    9.1472757    37.176339 
31840000    246.53744    391.01684    509.91202   -138339.29    138463.63   -118.89518    37.174321 
31844000    279.30899    245.13892    454.92791   -138356.38    138471.63   -209.78899    37.176579 
31848000    279.27967    291.82849    303.43574   -138364.43    138479.02   -11.607245    37.177234 
31852000    288.29791    365.34512    263.21632   -138372.23    138516.89     102.1288     37.17669 
31856000     317.2779    461.51659    291.78149   -138430.11    138524.03     169.7351    37.178724 
31860000    279.70783    304.85699    239.82674   -138430.07    138525.62    65.030258    37.178162 
31864000    295.08803    367.32029    195.75368   -138432.24    138523.62    171.56661    37.176121 
31868000    296.69319     256.6213    303.06073   -138434.68    138537.82   -46.439421    37.173829 
31872000    299.07073     401.2029    274.94233   -138462.06     138575.5    126.26057    37.170435 
31876000    297.02681    563.38901    172.04028   -138481.31    138594.32    391.34872    37.173726 
31880000    305.24806    311.11201     314.1929   -138516.55    138604.17    -3.080887    37.171884 
31884000    318.38226    336.13589    345.82633   -138549.98    138626.09    -9.690437    37.173985 
31888000    245.23791    391.86214    230.49187   -138530.77    138657.78    161.37027    37.177202 
31892000      294.013    287.06187     249.1719   -138570.18    138670.57    37.889971     37.18275 
31896000    299.32403      243.695    299.94761   -138567.78    138686.11   -56.252609    37.181651 
31900000    264.66225    450.30251     305.3199    -138597.8    138694.46     144.9826    37.184274 
31904000    271.33808    256.54653    249.41718   -138645.85    138740.24    7.1293425    37.179217 
31908000    249.44676    383.23103    356.91639    -138633.4    138770.27    26.314631    37.183719 
31912000    296.72534    243.93712    435.69438   -138652.34    138759.06   -191.75726    37.178411 
31916000    327.82097    566.25153    368.48251   -138697.52     138768.3    197.76902    37.186412 
31920000    299.60033    338.04916    665.01178   -138684.44    138785.89   -326.96263    37.186629 
31924000    295.11783    297.70724    232.88541   -138714.07    138814.21    64.821836    37.189561 
31928000    260.18915    337.50078    211.79678   -138741.17    138863.96      125.704    37.191666 
31932000    276.04838    334.14424    423.70674   -138743.38     138853.7   -89.562501    37.190707 
31936000    267.35462    198.28731     259.6563    -138765.2    138882.55   -61.368988    37.196664 
31940000    288.38042    426.50396    282.51568   -138777.73    138905.68    143.98828     37.19613 
31944000    291.18626    381.93029    296.67944   -138800.03    138915.58    85.250852    37.202683 
31948000     272.2464    397.51965    500.52687   -138804.97    138931.74   -103.00722    37.197016 
31952000    273.31398    218.88448    363.06704   -138835.51    138951.95   -144.18256    37.194633 
31956000    274.40567    518.42356    391.06685   -138849.57     138981.7     127.3567    37.192857 
31960000    254.69894     336.3612    188.66957    -138873.5    138995.02    147.69163     37.19893 
31964000    279.79234     318.5434    295.63993   -138892.13     138991.9    22.903478    37.202595 
31968000    274.09884    405.48186    439.18331   -138905.88    139005.08   -33.701448    37.204232 
31972000    289.04398    464.77157    337.15257   -138916.85    139020.11    127.61901    37.201539 
31976000    287.50772    566.86766    243.62198   -138951.73    139048.63    323.24568    37.204117 
31980000    307.00628    272.65934    382.93084   -138968.93    139066.28    -110.2715      37.2054 
31984000    248.67731    296.67833    271.77768   -138979.76    139109.38    24.900653    37.205129 
31988000    271.02994    607.00236    364.61335   -139007.48    139135.73      242.389    37.207056 
31992000    287.79611    269.93162    298.20217   -139029.36    139158.28   -28.270545    37.204172 
31996000     279.0942    143.39653    220.72865   -139042.61     139148.6   -77.332115    37.203039 
32000000    264.43925    261.79366    199.99976   -139067.34    139200.02    61.793897    37.206243 
32004000    269.57843    231.73234    336.70119   -139072.99    139186.36   -104.96885    37.205218 
32008000    285.41156    629.42235    288.02797   -139115.83    139224.69    341.39438    37.205426 
32012000    301.77826    343.26552    206.72181   -139115.11    139229.73     136.5437    37.206819 
32016000    263.73884    162.28334    401.90807   -139122.58    139243.83   -239.62473    37.204704 
32020000    303.39081    277.90881    336.55411   -139142.91    139256.85   -58.645295    37.201331 
32024000    294.14398    398.88488    329.62998   -139184.02    139293.48    69.254897    37.197003 
32028000    281.85227    379.40406    298.63131   -139207.17    139313.19    80.772749    37.195395 
32032000    311.68628    475.56559    385.66598   -139246.12     139337.3    89.899607    37.202216 
32036000    271.36298    253.11703    194.34085   -139244.31    139373.81    58.776181    37.204121 
32040000    280.51328    366.31238    357.71612   -139279.37    139399.03    8.5962615    37.198697 
32044000    298.52273    395.69922    326.54933   -139324.16    139428.65    69.149895    37.198218 
32048000    285.70623    331.61628    147.53112   -139340.96     139443.2    184.08516    37.207573 
32052000    277.48734    356.50875    210.57329   -139343.15    139471.96    145.93546    37.208833 
32056000    301.69832    330.57687    385.08635   -139374.75    139467.74   -54.509475    37.208804 
32060000    276.86212    343.71204    322.15484   -139394.08     139510.7    21.557204    37.209253 
32064000    309.50726    346.62591    228.24493   -139406.57    139491.61    118.38098     37.20852 
32068000    281.39812    244.93605    569.16036      -139394    139513.32   -324.22431    37.206922 
32072000    307.46166    342.54452    462.36559   -139430.04    139539.86   -119.82107    37.212739 
32076000     268.0278    400.90118    116.36752   -139443.48    139558.02    284.53367    37.215261 
32080000    286.71929    292.56863    440.01928   -139470.66    139583.83   -147.45065    37.208468 
32084000    294.28249    470.32605    294.07072   -139505.35    139609.06    176.25533    37.205561 
32088000     265.1786    272.41996    154.26139   -139543.44    139661.61    118.15857     37.20682 
32092000    266.90834     493.4225    248.72281   -139554.02    139696.94    244.69969    37.202688 
32096000    276.32314    463.06797    316.18904   -139572.29    139691.62    146.87892    37.204231 
32100000    264.20264    425.45199    406.24156    -139558.8    139681.71    19.210433    37.201327 
32104000    269.51056    285.29338    318.73812   -139587.29    139706.63   -33.444741    37.205344 
32108000    280.44347    265.72746    218.17616   -139604.09    139736.01      47.5513    37.208041 
32112000    294.27679    252.16409    351.88886   -139631.24    139745.72   -99.724765    37.203668 
32116000    278.10449    457.55059    367.91576   -139657.05    139770.92    89.634828    37.201367 
32120000    294.71699    248.36543    285.49952   -139677.41    139785.64   -37.134091    37.196266 
32124000    294.12922    581.41561    252.25424   -139696.55    139797.26    329.16136    37.200428 
32128000    284.69599    540.22629    261.25733   -139719.84    139828.47    278.96896    37.200074 
32132000    269.90121    356.77577    247.82574   -139730.87    139854.17    108.95003    37.204626 
32136000    251.04335    315.27738    166.01797    -139764.9    139891.61    149.25941    37.205524 
32140000    280.60969    326.75165    375.02999   -139785.32    139901.57   -48.278345    37.208966 
32144000    265.22268    351.70688    234.46925   -139809.19    139914.83    117.23763    37.209128 
32148000    294.31055    531.62906    322.86839   -139832.33    139923.92    208.76067    37.207109 
32152000    285.06205    344.44018    407.18858   -139829.92    139943.95     -62.7484    37.207222 
32156000    281.84162    443.03462    328.87018   -139843.26    139949.96    114.16444    37.205375 
32160000    250.50494      382.711    253.43601   -139851.14    139989.68    129.27499    37.208191 
32164000    299.52947    327.64262    312.72436   -139882.33    139991.28     14.91826    37.209675 
32168000    310.49122    341.13084    216.06696   -139911.77    140024.55    125.06389    37.214178 
32172000    284.70873    350.49106     241.4053   -139952.98    140040.46    109.08576    37.214206 
32176000     311.3389    530.05419    377.47751   -139996.47    140088.14    152.57669    37.217692 
32180000    290.99096     331.1827    353.47537   -140018.51     140106.4   -22.292676    37.213829 
32184000    293.81172    298.87723    304.76263   -140035.26    140115.04   -5.8854061    37.217588 
32188000    297.08529     401.8077    384.21012   -140045.77    140156.41    17.597583    37.212182 
32192000    277.13872    398.51746    429.70626   -140052.67    140170.67     -31.1888    37.213062 
32196000    258.31749    375.58979      443.471   -140055.06    140182.57    -67.88121    37.220543 
32200000    263.58716    382.41329    287.75529   -140075.67    140197.59    94.658007    37.229515 
32204000    270.58674    367.40142    318.28417   -140082.52    140199.54     49.11725    37.231732 
32208000     292.0155    448.96714     458.7489      -140096    140203.34   -9.7817574    37.232886 
32212000    242.06419    295.80108    179.67736   -140101.51    140243.37    116.12371    37.234791 
32216000     298.1596    428.21411    212.26729   -140157.06    140244.97    215.94681    37.239778 
32220000     304.6273    527.54953    320.10566   -140189.41    140276.03    207.44387    37.242122 
32224000    271.78032    370.96712     374.9001   -140194.22    140312.32   -3.9329758    37.240364 
32228000    272.22799    432.17164    279.84576   -140211.37    140338.47    152.32588        37.24 
32232000    274.74973    369.48977    373.04404   -140209.62     140328.9   -3.5542726    37.243571 
32236000    250.02182    279.67418    288.87616   -140242.74    140371.03   -9.2019706    37.240273 
32240000     291.7417    379.90034    352.99904   -140265.18    140360.85    26.901301    37.242938 
32244000    288.83141    430.25835    392.02355   -140278.57    140377.56    38.234806    37.238214 
32248000    295.17676    408.97447    318.96562   -140284.58    140392.64    90.008853    37.234257 
32252000    309.14199    421.26121    472.82335   -140317.23    140411.31   -51.562141    37.229996 
32256000    289.76315    656.58732    229.39266    -140331.4    140431.44    427.19466    37.234179 
32260000    316.92685    576.03529    252.79118   -140336.45    140430.67    323.24411      37.2371 
32264000    340.93452    451.62985     518.9589   -140347.63    140407.39   -67.329045    37.231646 
32268000    294.11534    365.47421    487.62035   -140348.42    140440.88   -122.14614    37.232009 
32272000    283.38226    291.53677    256.64749   -140380.71       140480    34.889276    37.232215 
32276000    262.61824    567.20248    185.53584   -140385.91    140515.59    381.66664    37.234979 
32280000    274.86899    328.18594    394.99363   -140379.23    140490.99   -66.807696    37.235713 
32284000    262.94539    199.24817     321.3627   -140412.55    140531.45   -122.11453    37.235532 
32288000    285.79973    430.19367    317.86603   -140447.73    140561.08    112.32764     37.23984 
32292000    272.72267    623.03323    222.78943   -140458.71    140576.24     400.2438    37.242903 
32296000    282.54519    318.89437    222.66514   -140481.03    140581.88    96.229223    37.244434 
32300000    283.44054    315.75049    475.74975   -140476.12    140590.79   -159.99926     37.24904 
32304000    264.77596    251.49849    381.33051    -140499.7    140608.79   -129.83202    37.249162 
32308000    277.76782    487.40168     541.0437   -140500.91     140607.6   -53.642022     37.24691 
32312000    313.38239    292.09773     319.2974   -140531.62    140609.83   -27.199666    37.243454 
32316000    276.57393    490.59772    450.11918   -140515.64    140633.11    40.478534    37.241404 
32320000    311.34325    470.71321    465.22457   -140514.19    140604.61    5.4886339    37.239776 
32324000     298.4687    322.16548    189.47157    -140543.9    140645.95     132.6939    37.238714 
32328000    274.16284    326.57988    442.82592   -140548.04    140659.06   -116.24604    37.237381 
32332000    299.52704    240.94007    394.83786    -140575.6    140687.11   -153.89778    37.240333 
32336000    303.98117    343.72684    249.51793   -140599.45    140701.17    94.208916     37.24332 
32340000     283.6289    583.60731    288.46111   -140609.33    140720.68     295.1462    37.241818 
32344000    272.66564    344.09729    349.61795   -140616.52     140743.9   -5.5206661    37.244688 
32348000    255.05641    387.17991    340.45181   -140635.98    140772.23    46.728094    37.249517 
32352000    297.45558    450.34603    282.89243   -140679.95    140793.45     167.4536    37.245087 
32356000    278.41229    229.71575    286.22904   -140674.93    140809.79   -56.513298    37.242459 
32360000    287.01731    436.37461    349.84414   -140717.14    140816.16    86.530467    37.244523 
32364000      269.506    273.93312    285.74641   -140722.88    140854.67    -11.81329    37.248557 
32368000    284.99465    293.89363    278.96828   -140752.31    140859.96     14.92535    37.239901 
32372000    280.24104    415.95973     594.6469   -140750.35    140843.62   -178.68717    37.236138 
32376000    287.30964    414.29175    266.87712   -140772.95    140881.17    147.41463    37.228661 
32380000    280.43588    312.31995    245.02182    -140782.4    140904.26    67.298128    37.229866 
32384000    279.12612    286.01671    287.52506   -140823.19    140938.07   -1.5083543    37.232408 
32388000     255.2494    177.24728    283.23717    -140829.2    140944.62   -105.98989    37.234401 
32392000    270.98782    337.74667    229.16643   -140847.53    140961.41    108.58024    37.234723 
32396000    270.24261    447.64044    362.48858   -140865.25    140976.06    85.151859    37.230992 
32400000    295.50922    277.74409    561.57353   -140881.21    141000.72   -283.82944    37.230285 
32404000    256.38594    292.01811    237.69747   -140888.31    141021.54    54.320637    37.226357 
32408000    284.17528    318.55392    355.70778   -140929.63    141037.74   -37.153861    37.220493 
32412000    309.30407    581.21104    256.71163   -140946.37    141051.18    324.49942     37.21743 
32416000    323.45188    665.66738    367.56594   -140955.16    141049.66    298.10143    37.219389 
32420000    288.50504    380.97949    252.93428   -140992.54    141075.57    128.04521    37.221496 
32424000    281.20788     214.2767    312.11839   -140985.04    141105.29    -97.84169    37.223981 
32428000    304.61232    204.14463    503.86192   -141020.65    141122.63   -299.71729    37.222196 
32432000     281.1841     383.7028    336.05933   -141034.38    141139.51    47.643472    37.223489 
32436000    329.66038    451.64723    334.23573   -141059.38    141136.48    117.41151    37.224949 
32440000    288.34235    358.75694    208.52486   -141075.71    141165.46    150.23208    37.221253 
32444000    272.43538    201.16746    425.23614   -141083.79    141190.37   -224.06868    37.223631 
32448000    267.32991    366.97859     182.7055   -141109.23    141240.39    184.27309    37.226103 
32452000    249.23497    344.04592    155.75256   -141123.75    141262.46    188.29336    37.224776 
32456000    286.92464    739.29829    311.07275   -141125.01    141254.81    428.22554    37.230367 
32460000    281.25613    443.93412    300.09027   -141145.86    141263.64    143.84385    37.233471 
32464000    285.34519     296.2038    400.57908   -141169.66    141286.42   -104.37528    37.235847 
32468000    294.01919    342.63434    360.29107   -141190.17    141313.12   -17.656734    37.232097 
32472000    300.15235    435.43315    254.36753   -141244.41    141350.97    181.06562    37.230746 
32476000    279.83284    193.15328    362.01628   -141268.79    141386.24     -168.863    37.231497 
32480000    253.56278    348.90764    256.30942   -141287.59    141409.97    92.598219    37.231633 
32484000    288.55526     196.5265    395.28316    -141325.6       141448   -198.75666    37.237861 
32488000     261.7407    408.71881    328.73231   -141332.23       141444    79.986502    37.241378 
32492000    315.13512    267.43203    318.77664    -141376.6    141460.01   -51.344618    37.241949 
32496000    272.81594    239.41656    244.01102   -141371.86    141489.87   -4.5944618    37.240169 
32500000     288.6739    393.60863    513.99595   -141388.08     141497.5   -120.38732    37.236422 
32504000    273.57746    335.72829    288.23444   -141409.85    141541.13    47.493848    37.234292 
32508000    263.89539    318.08168    269.48105   -141443.38    141558.43    48.600629    37.233052 
32512000     286.4912    331.27692    189.36399   -141461.82    141567.35    141.91293    37.236931 
32516000    285.03867    286.91637    599.30731   -141477.38    141566.52   -312.39094    37.238022 
32520000    257.75314    390.20288     193.7476   -141455.02    141583.41    196.45528    37.236608 
32524000    298.76613    362.54726     328.9824   -141474.59    141589.38    33.564861    37.238811 
32528000    271.41308    405.74295    220.97467   -141508.42     141610.3    184.76828    37.234626 
32532000    279.45987     522.2428     268.5875   -141531.29    141648.95     253.6553    37.231754 
32536000    273.84135    522.91784     321.8791   -141559.08    141680.59    201.03874    37.232466 
32540000    296.41038    616.75646    225.12932    -141600.8    141704.46    391.62715    37.235071 
32544000    267.35564    298.93986    336.59837    -141599.5    141729.27   -37.658517    37.231972 
32548000    293.47905     391.3116    302.10385   -141620.99    141740.48    89.207743    37.231659 
32552000    266.74397    442.25274    508.08205   -141627.13    141741.92   -65.829314    37.230793 
32556000    290.12859    515.92556    193.20512   -141660.64     141780.3    322.72045    37.229648 
32560000    283.10475    198.70888    577.71375   -141640.27    141761.19   -379.00487    37.227331 
32564000    275.66878    298.27436     194.2524   -141672.23    141801.83    104.02196    37.230022 
32568000    265.46681    332.11439    268.23778   -141698.73    141821.19    63.876618    37.225681 
32572000     284.9762    326.57253    523.66219   -141714.58    141836.87   -197.08966    37.227308 
32576000     266.4695    482.97859     323.4812   -141706.79    141837.55    159.49739    37.229231 
32580000    284.19531     504.1247    318.85498    -141751.3    141855.43    185.26972     37.22857 
32584000    283.64005      370.198    392.17103   -141791.94    141891.75   -21.973028    37.228296 
32588000    299.39075    377.76891    441.99625   -141816.57    141922.02    -64.22734    37.225042 
32592000    273.01107    257.96464    374.06144   -141819.22    141947.75    -116.0968    37.231591 
32596000    285.19608    310.60184    364.74695   -141851.42    141958.71   -54.145114    37.236099 
32600000     278.4574    196.59223    281.54886   -141851.72     141972.5    -84.95663    37.238088 
32604000    304.11654     416.2814    507.06167   -141868.84    141973.01   -90.780269    37.234779 
32608000    263.25743    169.71218    238.24543   -141864.42    141976.05   -68.533245    37.233366 
32612000    296.76143    312.37617    417.92449   -141866.76    141977.15   -105.54831     37.23329 
32616000    251.50887    297.44929    203.05447   -141865.36    142006.45    94.394825    37.232455 
32620000    299.56755    303.49506    395.35757   -141910.81    142001.81   -91.862513    37.238302 
32624000    259.17184    224.26768    339.16067    -141894.9    141997.91   -114.89298    37.238793 
32628000    267.02655    321.17544    578.54231   -141912.97    142020.83   -257.36687    37.242036 
32632000    295.56664    407.75444    345.98808   -141926.89    142048.86    61.766358    37.236855 
32636000    288.61758    347.26407    169.46836   -141942.95     142042.7     177.7957    37.233469 
32640000    315.91271    534.64356    326.13208   -141942.75    142041.09    208.51149    37.235303 
32644000    257.62022    303.47551    205.63437   -141923.37     142061.4    97.841145    37.237334 
32648000    289.43317    493.89154    318.61937   -141957.02    142061.87    175.27217    37.238181 
32652000    332.03908    384.84207    316.75311   -142004.44    142067.44    68.088957    37.237854 
32656000    333.73892    234.26279    479.11874   -141998.35    142089.66   -244.85595    37.236556 
32660000    291.64365    271.45406    215.97284   -142026.23    142136.83    55.481227    37.239328 
32664000    282.58908    288.07899    238.52352   -142017.72    142131.24    49.555471    37.238117 
32668000    313.90984    477.13552    265.72712   -142043.39    142153.29     211.4084    37.240821 
32672000    284.54391    475.53238    289.45622   -142037.18    142155.79    186.07615    37.245384 
32676000    278.75772    203.93384    175.29465   -142033.58    142152.01    28.639196    37.245124 
32680000    285.93027    309.98745    394.04642   -142081.52    142170.87   -84.058975    37.244577 
32684000    297.14985    422.76523    322.61269   -142112.67    142209.85    100.15254    37.242593 
32688000    262.58487    298.33797    330.43964   -142104.04    142226.64   -32.101671    37.239379 
32692000    272.81248     294.8177    288.00992   -142139.52    142258.44    6.8077743    37.240158 
32696000    268.43995    374.88453    393.27255   -142162.53    142275.16   -18.388022    37.235505 
32700000    288.17102    441.67058    557.80486   -142194.54    142300.37   -116.13428    37.234135 
32704000    267.46448    267.32302    280.52852   -142184.14    142306.19   -13.205502    37.233007 
32708000    315.56219    610.29819    398.89644   -142239.71    142328.57    211.40175    37.234591 
32712000    265.33791    343.33083    317.55238   -142255.19    142359.38    25.778453    37.229433 
32716000    301.13538    292.22336    282.96163   -142275.04    142374.15    9.2617371     37.22995 
32720000    295.25959    459.59259    297.26648    -142306.8    142390.18    162.32611    37.232493 
32724000    289.64705    279.84511    321.03965   -142339.02    142437.43   -41.194534    37.231278 
32728000    279.16817     292.1237    369.86383   -142346.46    142460.98   -77.740126    37.234524 
32732000    303.69342    615.90065    276.89765    -142373.1    142464.61      339.003    37.232252 
32736000    302.27878    169.93858    286.72484    -142372.6    142470.97   -116.78625    37.230622 
32740000    304.05653    324.85547    338.47137   -142396.96    142481.45   -13.615901    37.228837 
32744000    301.37576    366.02758     303.2841    -142423.8     142525.4    62.743476    37.226119 
32748000    279.54569    423.94601    299.26379   -142435.33     142532.3    124.68221    37.230739 
32752000    318.42458    342.38818    382.33718   -142450.66    142551.53   -39.949001     37.22757 
32756000    272.39408    433.57617    390.85098   -142455.12    142585.59    42.725193    37.223684 
32760000    271.89697    460.91813    382.34686   -142496.21    142608.32     78.57127    37.223252 
32764000    269.55691    280.94929     310.0623   -142490.06    142630.21    -29.11301    37.222484 
32768000     276.9657    224.34553     244.4355   -142513.87    142621.52   -20.089978    37.223739 
32772000    284.74219    216.12338    320.20456   -142519.22    142645.66   -104.08118    37.229967 
32776000    304.15597    552.27925     454.3359   -142562.68    142664.16    97.943348    37.235162 
32780000    263.67477    375.66187     354.9663   -142579.69    142712.89    20.695575    37.233898 
32784000    282.51831    485.46372    153.48009   -142629.81    142721.24    331.98363    37.233383 
32788000    289.37821    439.28275    295.99681   -142630.24    142736.42    143.28593    37.233933 
32792000    315.61271    373.90883    565.25856      -142661    142764.33   -191.34973    37.234545 
32796000    287.68542    361.69739    443.66607   -142657.98    142761.14    -81.96868    37.232244 
32800000    323.56625    311.32938    324.10476   -142663.85    142747.72   -12.775385    37.231291 
32804000     265.4518    371.19245    508.79893   -142641.92    142750.23   -137.60647    37.229922 
32808000    283.54614    221.47021    282.42116   -142652.13    142755.85   -60.950947    37.228458 
32812000    257.08854    242.71245    240.09608   -142678.17     142797.6    2.6163735    37.226772 
32816000    290.16471    381.14633    342.64787    -142662.2    142771.22    38.498468    37.224339 
32820000    270.09185    321.91278    286.33312   -142666.58    142784.64    35.579661     37.22445 
32824000    290.79533    465.81832    245.46248   -142695.07    142795.59    220.35584    37.223361 
32828000    297.67035    333.85699    397.15036   -142719.17    142813.88    -63.29337    37.219624 
32832000    248.01221    406.06533    265.18991   -142717.95    142853.43    140.87543    37.213791 
32836000    245.59526    346.40079    199.97654   -142733.75    142892.71    146.42426    37.215206 
32840000    241.36857    342.36669    262.54671   -142754.21    142881.18    79.819978    37.214166 
32844000     289.3633     327.7086    239.77776   -142771.46    142877.93    87.930847    37.221556 
32848000    258.17323    233.75812    551.83542   -142788.49    142914.76    -318.0773    37.220847 
32852000    293.60055    401.51287    416.46191   -142828.99    142946.05   -14.949038    37.223482 
32856000    285.28669    272.19869    321.19482   -142851.93    142961.44   -48.996128    37.227856 
32860000    279.91815    365.21461     365.0617    -142866.8    142976.52   0.15290508    37.229707 
32864000    279.62494    340.95771     296.7551   -142913.58    143013.87    44.202614    37.226476 
32868000    316.01898    242.25188     444.8938   -142919.86    143013.55   -202.64191    37.222826 
32872000    266.33257    317.90532    461.95387   -142912.01    143042.51   -144.04855    37.227473 
32876000    265.32737    286.25509    416.93953   -142932.99    143058.05   -130.68444    37.223568 
32880000     270.8529    217.11853    363.63792   -142954.85    143069.03    -146.5194     37.22783 
32884000    313.25024    482.16786    312.22643   -142965.84    143078.79    169.94144    37.224473 
32888000     287.8165    626.78551    414.23856   -142976.34     143087.2    212.54695    37.225827 
32892000    259.73422    244.99911    234.39205   -142992.11    143113.49    10.607057    37.228608 
32896000    297.46906    397.11305     330.9813   -143011.83    143125.79    66.131751    37.228633 
32900000    272.16885    222.71652    324.59337   -143001.48    143123.44   -101.87685    37.225338 
32904000    269.42956    432.37592    197.50229   -143034.46    143148.13    234.87362    37.225696 
32908000    274.69793    312.56456    307.41136   -143037.82    143148.36    5.1532037    37.220985 
32912000     273.7035    355.81683    348.04295   -143061.98     143190.2    7.7738812    37.220765 
32916000    290.38343    494.93256    314.16136    -143096.2    143210.25     180.7712    37.223608 
32920000    269.87564    497.32833    318.42169   -143110.68     143220.3    178.90664    37.226729 
32924000    278.74821    336.86492    295.22421    -143134.1    143259.02     41.64071    37.220846 
32928000    283.75764    285.27598    356.91835   -143161.87    143267.86   -71.642371    37.224046 
32932000    287.44698    257.32817    359.54095   -143155.04    143271.48   -102.21278    37.217133 
32936000    290.73832    465.29176    353.83867   -143170.24    143290.23    111.45309    37.222897 
32940000    300.87984    506.42641    339.06984   -143181.18    143275.98    167.35656    37.223313 
32944000    296.68939    164.13707    241.43277    -143190.1    143278.94     -77.2957    37.221468 
32948000    313.49653    585.50489    188.15906   -143232.84    143306.92    397.34583    37.225425 
32952000    333.31773    614.87777    334.41983   -143238.82    143318.57    280.45794    37.231093 
32956000    304.76682    348.43047    397.99535   -143273.31    143359.58   -49.564886    37.232713 
32960000    296.50189    232.81166    243.04753   -143275.43     143369.4    -10.23587     37.22892 
32964000    328.53906    375.02858    382.27355   -143289.18    143386.73    -7.244975    37.229078 
32968000    298.90961     214.5591    310.89301   -143320.48    143428.06   -96.333909    37.227964 
32972000    265.42742    484.62124    244.55053   -143344.96    143468.82    240.07072     37.22773 
32976000    298.97781     289.7301    193.10563   -143363.77       143467    96.624478    37.225747 
32980000    275.95294    362.85272    271.66837   -143386.94    143495.18     91.18435    37.225274 
32984000    268.10356    321.79438    185.22233   -143376.53    143500.76    136.57205    37.224172 
32988000    294.14633     435.9258    152.43458      -143404    143495.69    283.49122    37.222641 
32992000    318.16448    432.61143    364.40077   -143424.16    143522.96    68.210663    37.221288 
32996000    294.80053    341.39355    226.95864   -143455.22    143543.23    114.43491    37.219956 
33000000    287.54762    420.63026    522.79543   -143490.12    143569.08   -102.16516    37.215465 
33004000    281.84866    301.58416      302.256   -143498.01    143611.95  -0.67183965    37.219222 
33008000    261.32003    423.52142     330.6143   -143533.84    143649.21    92.907118     37.21654 
33012000    255.98188    508.87172    140.33554   -143554.75    143672.49    368.53618    37.218638 
33016000    250.60642    228.26452    234.61232   -143558.74    143687.27   -6.3477996    37.220401 
33020000    270.48718    368.13062    232.61633   -143588.51    143722.35     135.5143    37.221309 
33024000    279.75036    391.65989    361.45555   -143624.62    143749.81    30.204337    37.223969 
33028000    268.13965      267.823    350.58851   -143630.64    143745.58   -82.765508    37.223091 
33032000     263.5545    599.27021    488.43898   -143633.57    143755.68    110.83123    37.222502 
33036000     277.8441    526.23741    273.46038   -143656.79    143761.94    252.77703    37.220019 
33040000    275.04306    348.36813     363.8834    -143681.1     143803.3   -15.515268     37.22064 
33044000    284.81369    319.96831    242.76624    -143706.7    143809.82    77.202071     37.21845 
33048000    275.03105     337.8505    331.87164   -143740.45    143850.81     5.978853    37.223705 
33052000    296.04298    263.48753    278.26814   -143752.02    143851.45   -14.780606    37.221234 
33056000    295.28052    342.41484    229.67906   -143765.51    143874.31    112.73578    37.220063 
33060000    287.93891    417.18889    349.03575   -143797.22    143895.43    68.153136    37.222081 
33064000    293.06848    329.92322    254.54049   -143823.69    143932.56     75.38273     37.22026 
33068000    285.45574    425.32901    260.23225   -143841.51    143952.16    165.09676    37.220122 
33072000    281.34265    212.28437    367.08864   -143861.46    143978.73   -154.80427    37.220522 
33076000    276.06578    182.91895    453.67333   -143867.67    143987.53   -270.75438    37.217774 
33080000    298.08307    482.48535    378.12563   -143907.21    144007.88    104.35972    37.216313 
33084000    273.30265    244.17087    221.69391   -143934.49     144043.9    22.476961    37.219991 
33088000    306.27347    315.09929    304.47063   -143944.01    144054.11    10.628655    37.221471 
33092000    297.02028    315.72532    281.62559   -143943.67    144050.34    34.099728    37.226408 
33096000    275.63609    417.70438    233.52796   -143972.88    144076.68    184.17642    37.233139 
33100000    307.82619      322.772    413.76782   -143990.58    144097.78   -90.995816    37.234431 
33104000     269.1641    371.35247    195.66785   -144002.27    144138.58    175.68463    37.231542 
33108000    328.83995    558.68284    244.03393   -144033.19    144120.73     314.6489    37.225927 
33112000     307.6072    333.76554    314.27715   -144027.43    144130.11    19.488385    37.232435 
33116000    267.84364     273.3433    305.86908   -144021.24    144149.27   -32.525775    37.234199 
33120000    258.07653    388.16879    183.14225   -144028.35    144166.99    205.02654    37.231881 
33124000    269.82027     262.7102    250.38926   -144053.19    144174.03    12.320946    37.232236 
33128000    286.13862    490.96143    407.80265   -144096.97    144205.93    83.158788    37.231779 
33132000    285.77401    726.14363    506.26084   -144109.07    144231.05    219.88279    37.233548 
33136000     279.9022    282.44352    412.52399   -144135.18     144247.1   -130.08047    37.238646 
33140000     269.7133    429.03395    281.60186   -144146.26     144261.7    147.43209    37.243277 
33144000    293.12902    243.49401    346.19267   -144182.32    144273.16   -102.69866    37.241896 
33148000     268.5485    328.10049    439.08287   -144189.93    144318.33   -110.98238    37.238445 
33152000    228.39729    154.10973    387.91033   -144177.79    144321.31   -233.80059    37.238506 
33156000    280.36908    279.20558    261.81971   -144203.17    144331.34    17.385871     37.23794 
33160000    271.24592    361.02276    443.88153   -144250.82    144350.03   -82.858765    37.237739 
33164000    270.91182    317.24136    322.98946   -144260.31    144369.74   -5.7481062    37.237952 
33168000    271.53254    274.85081    274.61195   -144270.88    144390.83   0.23886041     37.24313 
33172000    291.75176     409.6305    338.21167   -144322.98    144437.32    71.418837    37.238218 
33176000    292.26741    227.61848    529.02039   -144354.97    144450.17    -301.4019    37.232397 
33180000    304.27048    189.06933    360.85232   -144370.82    144479.15   -171.78299    37.235686 
33184000    278.97289    403.60115    340.33574   -144388.43    144499.03    63.265406    37.239501 
33188000    279.47478    343.64822    325.52547   -144396.01     144515.8    18.122751     37.23671 
33192000    305.65288    344.07697    347.88149   -144425.56     144519.1   -3.8045236    37.231739 
33196000    305.58463    333.67029    355.76843   -144458.21    144549.43   -22.098138    37.231458 
33200000    278.87108    279.65085    240.13911   -144465.24    144574.11    39.511739     37.22999 
33204000    268.48862    350.73757    273.33899   -144467.51     144580.8    77.398577    37.228637 
33208000    267.50071    195.74874    353.13479   -144500.89    144625.32   -157.38605    37.226813 
33212000    292.68623    492.11299     331.2206   -144523.18    144646.62    160.89239    37.225703 
33216000    286.32617    354.95877    217.78024   -144550.85    144669.82    137.17854     37.22911 
33220000    267.29189     243.5417     322.3597   -144550.95    144677.62   -78.818001    37.228532 
33224000    231.89169    287.05643    304.53764   -144558.17    144701.87   -17.481208    37.228398 
33228000    322.47311    585.61041    193.02957   -144626.67    144715.89    392.58084    37.225848 
33232000    306.05811    190.76628    430.72688   -144638.57    144725.24    -239.9606      37.2227 
33236000    292.87486    450.65004    357.70363   -144655.13    144758.15    92.946413    37.227638 
33240000    266.87355    276.24943    285.66658   -144632.05     144762.2   -9.4171517    37.226767 
33244000    282.69267    400.14631    415.35274   -144669.95    144769.62   -15.206431    37.225622 
33248000    285.43215    297.03758    237.94751   -144690.24     144806.2    59.090065    37.223893 
33252000    286.99302    489.22927    297.89981   -144695.52    144820.37    191.32946    37.229239 
33256000    290.62948    384.40298    304.72802   -144722.26     144819.5    79.674962    37.232236 
33260000    287.98685    208.92359    239.22974   -144728.76    144827.18   -30.306149     37.23118 
33264000    282.62151    302.49092    444.45447   -144711.72    144856.76   -141.96356    37.228164 
33268000    290.03501    326.47668     324.2349   -144735.79     144837.7    2.2417784    37.221219 
33272000    271.92241    270.15981    240.72218   -144722.79    144850.02    29.437633     37.22075 
33276000     258.0171    497.22137     373.9848   -144755.19    144879.56    123.23657    37.221645 
33280000    269.90902    370.56066    269.79922   -144773.21    144886.21    100.76144    37.217686 
33284000    292.32958    356.12605    517.91037   -144794.63    144912.13   -161.78432    37.217148 
33288000    294.01465    406.37698    434.83515   -144837.43    144941.01   -28.458179    37.216057 
33292000    305.78165    412.38166    274.99142    -144878.4    144960.33    137.39024    37.221996 
33296000     283.6403     298.1996    367.46836   -144885.86    144990.44   -69.268754    37.227491 
33300000    275.47338    425.24028    390.08617   -144892.74    144998.35    35.154116    37.225296 
33304000    296.84832    461.11595    238.61226   -144927.52    145018.52     222.5037    37.227497 
33308000    290.12911    373.52537    225.95241   -144949.76    145038.96    147.57295    37.224092 
33312000    290.63993      287.551    264.25783   -144960.49    145062.93    23.293175    37.223655 
33316000    271.13249    436.50966    157.46798   -144975.96    145103.99    279.04167    37.226118 
33320000    277.05728    235.56698    269.71684      -145015    145128.94   -34.149869    37.222883 
33324000    267.24149    418.91847    291.84765   -145045.14    145165.46    127.07082    37.223667 
33328000    277.05876    423.30456    256.54738   -145068.38    145183.58    166.75718    37.222834 
33332000    273.59946    369.59867    248.59142   -145072.79    145205.08    121.00725    37.221451 
33336000    263.44591    448.95724    291.77437   -145083.38    145215.54    157.18287    37.222859 
33340000    283.09367    269.33369    356.83981   -145088.29     145227.3   -87.506123    37.218391 
33344000    289.29839    423.47682    329.62556   -145109.02    145218.79    93.851259    37.220475 
33348000    257.65974    461.48844    261.87932    -145117.9    145240.78    199.60912    37.218794 
33352000    267.71283    224.64221    293.57163   -145139.98     145244.6   -68.929421    37.221787 
33356000     280.5213    253.30996    266.96695   -145151.97    145276.32   -13.656994    37.219816 
33360000    284.58691    314.61159    334.71973   -145177.42    145304.08   -20.108144    37.221099 
33364000    278.98156    531.45837    205.93701   -145202.58     145323.4    325.52135    37.220498 
33368000    270.48578    291.00076    271.14717   -145213.64    145329.56    19.853588    37.217238 
33372000    263.71195    280.50025    327.07548   -145217.62    145337.19   -46.575228    37.219436 
33376000    281.36452    281.15947     350.0001   -145217.71    145344.56   -68.840627    37.214761 
33380000    266.62405    234.06121    145.41402   -145274.45    145391.17    88.647187    37.213188 
33384000    288.50762    374.81336    295.91039   -145303.28    145399.73    78.902972    37.214514 
33388000    277.74812    272.41738    269.87617   -145298.92    145422.53    2.5412172    37.213484 
33392000    285.49683    251.55063    246.80255    -145297.3    145423.02    4.7480824    37.210916 
33396000    314.24885    347.17674    363.43898   -145313.38    145418.92   -16.262246    37.213315 
33400000    241.41951    313.81553     237.4384   -145337.23    145462.96    76.377126    37.210332 
33404000     280.5645    389.07222     382.0907   -145354.95    145478.09    6.9815252    37.210282 
33408000    279.64713    376.33751    270.54548   -145354.06    145481.05    105.79203    37.210175 
33412000    261.93658    418.62895    171.03585    -145333.4     145466.9     247.5931    37.205984 
33416000    253.21785    476.66697     201.3892   -145352.07    145483.78    275.27777    37.202837 
33420000    291.92281    203.89498     313.2863   -145383.84    145489.28   -109.39131    37.202163 
33424000    277.52229    362.87301    312.43705   -145409.52    145512.63    50.435967    37.201281 
33428000    273.84268     495.6894    274.72723   -145425.97    145562.32    220.96217    37.205021 
33432000    250.15617     238.0285    240.86449   -145448.94    145595.92   -2.8359888    37.206864 
33436000    303.10567    330.83243    284.86395   -145499.16    145611.19    45.968473    37.206713 
33440000    272.50907    344.65216    333.50472   -145514.95    145615.83    11.147435    37.208509 
33444000    315.56623    365.74074    363.51674   -145528.08    145633.77    2.2240025    37.210684 
33448000      305.063    285.10626    243.73805   -145542.95    145645.52    41.368217    37.208663 
33452000    272.94787    440.44024    406.17574   -145546.63    145680.87    34.264502    37.205748 
33456000    285.96325    634.53896    335.63543   -145584.38    145706.75    298.90353    37.208615 
33460000    303.95827    388.52451    412.03705   -145604.55    145702.58   -23.512542    37.206234 
33464000    267.43371    340.86284     271.0869   -145610.92    145718.57    69.775942    37.207945 
33468000    314.39329    250.62832    311.03622   -145623.84    145727.23   -60.407892    37.203295 
33472000    252.60164      248.127    320.52888   -145642.43    145770.28    -72.40188    37.201779 
33476000    318.78365    603.49813    378.25489    -145679.1    145773.43    225.24323    37.199686 
33480000    283.69707    403.60329    214.55679   -145691.51    145791.04     189.0465    37.200973 
33484000    303.62177    242.41688     392.3305   -145687.89    145807.17   -149.91362    37.201693 
33488000    309.66664    481.89484    398.05767   -145711.63    145806.78    83.837175    37.200304 
33492000    293.23909    372.26651    136.49418   -145697.14       145814    235.77233    37.197226 
33496000    281.09189    325.49246    476.53215   -145703.48    145800.22   -151.03969    37.202032 
33500000    319.48366    181.02434    228.06113   -145744.81    145820.95   -47.036794    37.200623 
33504000    308.68948    470.19676    373.30316   -145757.72    145869.17      96.8936    37.196225 
33508000    305.28474    345.77325    272.09477    -145771.9    145872.21    73.678477    37.193294 
33512000    281.66051     274.1871     430.4299   -145800.36    145908.13    -156.2428    37.191213 
33516000     255.4831    232.17426    297.30793   -145814.96    145936.85   -65.133672    37.188848 
33520000    292.19053    592.07694     209.7859   -145845.83    145958.45    382.29104    37.190336 
33524000    300.60649    218.01742    332.10944   -145840.93    145950.88   -114.09202    37.189475 
33528000    289.08812     197.4021    318.30679   -145861.38    145967.58   -120.90469    37.191334 
33532000    280.96264     451.2562    382.46386    -145869.6    145998.66    68.792343    37.190238 
33536000    288.66101    240.52667    361.96627   -145909.31    146014.49    -121.4396    37.186842 
33540000    291.68084    180.00889    202.97705   -145893.45     146001.7   -22.968153     37.19275 
33544000    251.85057     389.6322    376.89523   -145918.82    146037.88     12.73697    37.189194 
33548000    320.03768    243.34976    341.83553   -145946.69    146061.62   -98.485766    37.188392 
33552000    314.97083    298.31409    491.16566   -145960.33    146062.55   -192.85157    37.190145 
33556000    301.12395    407.47443    334.23769   -145964.32    146080.94    73.236739    37.189763 
33560000    280.18179    590.16257    306.44947   -145995.68    146108.13     283.7131    37.192422 
33564000    295.48858    432.71506    410.49698   -146012.92     146119.2    22.218079    37.188556 
33568000    287.53624    520.27981    274.91884   -146035.81    146149.54    245.36098    37.188739 
33572000    268.26025    448.52651    187.92577   -146064.88    146184.43    260.60074    37.189489 
33576000    266.07129    184.98575    469.28129   -146089.54    146190.17   -284.29554    37.186991 
33580000    282.14186    378.29018    246.68114   -146138.15    146221.93    131.60903    37.188707 
33584000    306.64435    418.13583     418.0692   -146176.89     146263.9  0.066626449    37.190219 
33588000    275.56248    616.68155    367.78848    -146169.7    146288.03    248.89307    37.190507 
33592000    292.47577     386.4039     301.9866   -146175.05     146298.3    84.417302    37.190653 
33596000    298.34816    336.71705    286.78339   -146225.34    146323.47    49.933655    37.193363 
33600000    299.16924    296.62384    356.59576   -146249.59    146346.46   -59.971913    37.195591 
33604000    291.97648    213.36373    337.29307   -146238.55    146356.29   -123.92933    37.192346 
33608000    284.66012    449.35957    190.03504   -146246.92    146344.97    259.32454     37.19599 
33612000    247.15759    346.49333    312.80884   -146215.69     146351.7    33.684491    37.198853 
33616000     292.0531    316.77094    224.76273   -146286.91    146370.52     92.00821    37.197669 
33620000     316.3348    459.36497    286.74603   -146302.89    146390.25    172.61894      37.1982 
33624000     271.8462    262.70586    347.81431   -146301.22    146418.61   -85.108449    37.195536 
33628000    275.08959    568.09175    148.56607   -146322.21    146429.85    419.52569    37.197612 
Loop time of 10254.6 on 1 procs for 32000000 steps with 196 atoms

Performance: 337.021 ns/day, 0.071 hours/ns, 3120.561 timesteps/s
100.0% CPU use with 1 MPI tasks x no OpenMP threads

MPI task timing breakdown:
Section |  min time  |  avg time  |  max time  |%varavg| %total
---------------------------------------------------------------
Pair    | 3251.5     | 3251.5     | 3251.5     |   0.0 | 31.71
Bond    | 4965.5     | 4965.5     | 4965.5     |   0.0 | 48.42
Neigh   | 51.942     | 51.942     | 51.942     |   0.0 |  0.51
Comm    | 22.433     | 22.433     | 22.433     |   0.0 |  0.22
Output  | 8.776      | 8.776      | 8.776      |   0.0 |  0.09
Modify  | 1894.2     | 1894.2     | 1894.2     |   0.0 | 18.47
Other   |            | 60.3       |            |       |  0.59

Nlocal:    196 ave 196 max 196 min
Histogram: 1 0 0 0 0 0 0 0 0 0
Nghost:    0 ave 0 max 0 min
Histogram: 1 0 0 0 0 0 0 0 0 0
Neighs:    3900 ave 3900 max 3900 min
Histogram: 1 0 0 0 0 0 0 0 0 0

Total # of neighbors = 3900
Ave neighs/atom = 19.898
Ave special neighs/atom = 5.87755
Neighbor list builds = 108442
Dangerous builds = 0

write_restart FINALCONFIG

Total wall time: 2:59:23
