LAMMPS (16 Mar 2018)
# 1. INITIALIZATION
#allows pair, bond, bending and dihedral interactions
atom_style molecular

  # periodic (video game) boundaries in all cartesian directions
boundary p p s

  # uses real units (instead of units based on pair potential parameters).  List of units used in manual
units real

###########
# 2. ATOM DEFINITION
##########

   ##
   # Read in data from starting configuration file
   ##

#read_data chainconfig.dat

 #use to restart
read_restart RESTART
  orthogonal box = (-400 -400 -0.0371672) to (400 400 123.895)
  1 by 1 by 1 MPI processor grid
  196 atoms
  194 bonds
  192 angles
  190 dihedrals
  2 = max # of 1-2 neighbors
  2 = max # of 1-3 neighbors
  4 = max # of 1-4 neighbors
  6 = max # of special neighbors

   ##
   # Specify the nature of the bond interactions
   ##


bond_style harmonic
bond_coeff 1 450 1.54

special_bonds lj 0.0 0.0 0.0 angle no dihedral no

angle_style harmonic
angle_coeff 1 62.1  114.00

dihedral_style opls
dihedral_coeff * 1.4110 -0.2708 3.143 0.0

mass * 14.0

pair_style lj/cut 14.0
pair_coeff 1 1 0.0912 3.95 14.0
#pair_modify tail yes

group twistables type 3
6 atoms in group twistables
group freeze type 2
6 atoms in group freeze
fix startend freeze setforce 0.0 0.0 0.0
fix startend0 twistables setforce 0.0 0.0 0.0

################
# 3.  Simulation Settings
###############

neighbor        2.0 bin
neigh_modify    every 1 delay 0 check yes



# Define some variables
variable Lx          equal xhi-xlo   # Ang
variable Ly          equal yhi-ylo   # Ang
variable Lz          equal zhi-zlo   # Ang

variable dz          equal ${Lz}/30  # Ang
variable dz          equal 123.931948666893/30  

variable zzlo        equal zlo+0.05  # Ang
variable zzhi        equal zhi  # Ang
variable vol         equal ${Lx}*${Ly}*${Lz}  # Ang^3
variable vol         equal 800*${Ly}*${Lz}  
variable vol         equal 800*800*${Lz}  
variable vol         equal 800*800*123.931948666893  
variable TEMP        equal 300.00 # K
variable TThi        equal 320.00 # K
variable TTlo        equal 280.00 # K
variable dt          equal 1.25 # fs

timestep     ${dt}
timestep     1.25

variable zlo1      equal ${zzlo}+2.7
variable zlo1      equal 0.0128327665533126+2.7
variable zlo2      equal ${zzlo}+8.4
variable zlo2      equal 0.0128327665533126+8.4
variable zhi1      equal ${zzlo}+115.5
variable zhi1      equal 0.0128327665533126+115.5
variable zhi2      equal ${zzlo}+121
variable zhi2      equal 0.0128327665533126+121

# heat layers

region          hot  block  INF INF INF INF ${zlo1} ${zlo2}
region          hot  block  INF INF INF INF 2.71283276655331 ${zlo2}
region          hot  block  INF INF INF INF 2.71283276655331 8.41283276655331
region          cold block INF INF INF INF ${zhi1} ${zhi2}
region          cold block INF INF INF INF 115.512832766553 ${zhi2}
region          cold block INF INF INF INF 115.512832766553 121.012832766553
compute         Thot all temp/region hot
compute         Tcold all temp/region cold


# 1st equilibration run
fix             1 all nvt temp ${TEMP} ${TEMP} 50
fix             1 all nvt temp 300 ${TEMP} 50
fix             1 all nvt temp 300 300 50
thermo          100
run             8000
Unused restart file peratom fix info:
  fix style: STORE, fix ID: layers_COMPUTE_STORE
Neighbor list info ...
  update every 1 steps, delay 0 steps, check yes
  max neighbors/atom: 2000, page size: 100000
  master list distance cutoff = 16
  ghost atom cutoff = 16
  binsize = 8, bins = 100 100 16
  1 neighbor lists, perpetual/occasional/extra = 1 0 0
  (1) pair lj/cut, perpetual
      attributes: half, newton on
      pair build: half/bin/newton
      stencil: half/bin/3d/newton
      bin: standard
Per MPI rank memory allocation (min/avg/max) = 9.689 | 9.689 | 9.689 Mbytes
Step Temp E_pair E_mol TotEng Press Volume 
134452000    290.90544    4393.4735    11017.723    15580.288   -10.143505     79316447 
134452100     330.1579    4468.3661    10950.566    15610.839   -9.7207728     79316447 
134452200    307.02735    4357.8721    11049.062    15585.396   -10.334363     79316447 
134452300    323.47298    4481.8584    10914.003    15583.882   -9.5680581     79316447 
134452400    284.41668    4314.4054    11104.465     15584.19   -10.583749     79316447 
134452500    301.52236    4506.8228    10898.864    15580.949   -9.4599192     79316447 
134452600    297.43179    4321.2556    11086.465    15580.606   -10.521407     79316447 
134452700    315.61202    4498.3203    10905.062    15586.835   -9.5478011     79316447 
134452800     279.0421    4385.4234    11024.259    15571.878   -10.146016     79316447 
134452900    296.54237    4408.8047     11007.97    15589.143   -10.062465     79316447 
134453000    306.05885    4446.2857     10965.32    15589.505   -9.8000271     79316447 
134453100    303.14051    4348.0946    11065.434    15589.731   -10.375506     79316447 
134453200    300.56782    4485.5058    10914.712    15574.926   -9.5553924     79316447 
134453300    295.36134     4324.359    11084.256    15580.296   -10.543098     79316447 
134453400    289.38466    4521.7212    10900.808    15590.737   -9.3978827     79316447 
134453500    288.67822    4296.9568    11097.457    15562.211   -10.694273     79316447 
134453600    304.29348    4493.3253    10898.979    15569.177   -9.5029488     79316447 
134453700    314.38116     4303.653    11111.042    15597.431   -10.686846     79316447 
134453800    280.75358      4446.62    10956.369    15566.179   -9.8318365     79316447 
134453900    286.09465    4414.9673    11010.129    15591.391   -10.016389     79316447 
134454000    277.08964    4386.4656    11031.341    15578.868   -10.202289     79316447 
134454100    264.98831    4456.0103    10939.111    15549.148   -9.7719795     79316447 
134454200    323.25504    4343.6549    11054.829    15586.379   -10.426737     79316447 
134454300    252.65395    4468.6112     10948.04    15563.508   -9.7355377     79316447 
134454400    307.10493    4356.6585    11058.367    15593.533   -10.382372     79316447 
134454500    312.89548    4512.5663    10893.836    15588.275   -9.4483126     79316447 
134454600    259.07817    4319.6477     11099.23    15569.469   -10.591181     79316447 
134454700    318.08719    4497.3377    10904.021    15586.249   -9.4919832     79316447 
134454800    270.06812    4329.6626    11062.339     15548.98    -10.48128     79316447 
134454900    294.62438    4433.3471    10974.927    15579.527   -9.8771147     79316447 
134455000    311.64378    4388.8387    11026.688    15596.672   -10.180769     79316447 
134455100    281.94772    4396.8801    11003.129    15563.893   -10.101246     79316447 
134455200    314.91124     4455.468    10954.204    15592.716   -9.7504779     79316447 
134455300    274.57006    4337.7022    11063.901    15561.199    -10.45121     79316447 
134455400    292.59275    4493.0467    10925.349    15588.467   -9.5823088     79316447 
134455500     305.9014    4320.6798    11078.798    15577.285   -10.498833     79316447 
134455600    306.17884    4520.6144    10899.631    15598.214   -9.4095791     79316447 
134455700    301.63999    4330.0758    11072.735    15578.142    -10.49823     79316447 
134455800    277.85053    4495.3377    10924.546    15581.386   -9.5801036     79316447 
134455900     326.5818    4333.5345     11072.13    15595.493   -10.464368     79316447 
134456000    283.23488     4450.327    10951.703    15566.662   -9.7803448     79316447 
134456100    329.36156    4419.5256    10989.738    15600.707   -9.9943837     79316447 
134456200    283.80477    4395.1026     11011.55    15571.616   -10.123295     79316447 
134456300    335.01698    4449.8741    10961.805     15606.41   -9.7882159     79316447 
134456400    269.13373    4338.8005    11079.095    15574.332   -10.468062     79316447 
134456500     310.8805    4485.0745    10921.289    15587.065    -9.604248     79316447 
134456600    337.76418     4329.671    11088.158    15614.157   -10.532831     79316447 
134456700    295.41598    4484.8047    10916.977    15573.494   -9.5810794     79316447 
134456800     304.1795    4353.0088    11077.427    15607.242   -10.411151     79316447 
134456900    291.58692    4474.6537    10923.333    15567.474   -9.6684433     79316447 
134457000     323.2376    4328.3416    11073.662    15589.888   -10.498135     79316447 
134457100      272.112    4451.1407    10949.654    15558.962    -9.775021     79316447 
134457200    303.55555    4392.8175    11016.703    15585.965   -10.118771     79316447 
134457300    292.50277    4403.5387    11020.352     15593.91    -10.09949     79316447 
134457400    284.21054    4466.5092    10945.818    15577.526   -9.7105593     79316447 
134457500    324.78155    4361.1172    11037.191     15587.09   -10.288785     79316447 
134457600    300.95272    4481.4035    10936.567    15592.901   -9.6216337     79316447 
134457700    287.10644    4309.1716    11096.031    15572.086    -10.63797     79316447 
134457800    287.05407    4507.0954    10900.392    15574.339   -9.4618929     79316447 
134457900    307.52912    4346.5628    11066.725    15592.041   -10.437729     79316447 
134458000    281.14382    4455.8826    10937.347    15556.647   -9.7316088     79316447 
134458100    322.54055    4389.6617    11015.799     15592.94   -10.145637     79316447 
134458200    306.19543    4386.6188    11017.743    15582.341   -10.166862     79316447 
134458300    274.38686    4460.2254    10948.509    15568.224   -9.7631784     79316447 
134458400    300.10277    4326.5547    11091.803    15592.795   -10.502144     79316447 
134458500    287.72121    4501.4694    10897.354    15566.064    -9.493577     79316447 
134458600    298.55463    4335.6972    11079.845     15589.08   -10.489674     79316447 
134458700    308.53567    4454.7109    10947.951    15582.001   -9.7420384     79316447 
134458800    291.96868    4356.7925    11044.324    15570.826   -10.340608     79316447 
134458900    292.51029     4454.141    10965.173    15589.337   -9.7817117     79316447 
134459000    319.81192     4409.511    11018.053    15613.457   -10.094906     79316447 
134459100    262.20646    4419.9133    11000.136    15572.459   -10.026286     79316447 
134459200    314.21242    4449.9573    10970.935    15603.531    -9.824237     79316447 
134459300    300.76988    4386.4999    11023.452    15584.777   -10.176415     79316447 
134459400    301.40176    4427.0648    10970.166    15572.423   -9.9128454     79316447 
134459500    290.34255    4384.4392    11051.684    15604.887   -10.222392     79316447 
134459600    310.02857    4435.6201    10957.772    15573.599   -9.8771617     79316447 
134459700    327.17251    4392.8537    11016.805     15599.83   -10.133275     79316447 
134459800    270.32515    4393.6611    11025.973    15576.763   -10.154718     79316447 
134459900    337.65519    4411.1694     10987.53    15594.964    -10.01402     79316447 
134460000     285.5807    4380.7172    11020.867     15567.58   -10.234086     79316447 
Loop time of 1.08207 on 1 procs for 8000 steps with 196 atoms

Performance: 798.466 ns/day, 0.030 hours/ns, 7393.204 timesteps/s
99.9% CPU use with 1 MPI tasks x no OpenMP threads

MPI task timing breakdown:
Section |  min time  |  avg time  |  max time  |%varavg| %total
---------------------------------------------------------------
Pair    | 0.39628    | 0.39628    | 0.39628    |   0.0 | 36.62
Bond    | 0.6355     | 0.6355     | 0.6355     |   0.0 | 58.73
Neigh   | 0.0044863  | 0.0044863  | 0.0044863  |   0.0 |  0.41
Comm    | 0.0020278  | 0.0020278  | 0.0020278  |   0.0 |  0.19
Output  | 0.00051713 | 0.00051713 | 0.00051713 |   0.0 |  0.05
Modify  | 0.036022   | 0.036022   | 0.036022   |   0.0 |  3.33
Other   |            | 0.00724    |            |       |  0.67

Nlocal:    196 ave 196 max 196 min
Histogram: 1 0 0 0 0 0 0 0 0 0
Nghost:    0 ave 0 max 0 min
Histogram: 1 0 0 0 0 0 0 0 0 0
Neighs:    3914 ave 3914 max 3914 min
Histogram: 1 0 0 0 0 0 0 0 0 0

Total # of neighbors = 3914
Ave neighs/atom = 19.9694
Ave special neighs/atom = 5.87755
Neighbor list builds = 21
Dangerous builds = 0
velocity        all scale ${TEMP}
velocity        all scale 300
unfix           1

# Second Equilibration
fix             1 all nve
fix             hot all langevin ${TThi} ${TThi}  50.0 599804  tally yes
fix             hot all langevin 320 ${TThi}  50.0 599804  tally yes
fix             hot all langevin 320 320  50.0 599804  tally yes
fix             cold all langevin ${TTlo} ${TTlo} 50.0 27859 tally yes
fix             cold all langevin 280 ${TTlo} 50.0 27859 tally yes
fix             cold all langevin 280 280 50.0 27859 tally yes
fix_modify      hot temp Thot
fix_modify      cold temp Tcold


variable        tdiff equal c_Thot-c_Tcold
thermo_style    custom step c_Thot c_Tcold f_hot f_cold v_tdiff
thermo          4000
run             1600000
Per MPI rank memory allocation (min/avg/max) = 10.44 | 10.44 | 10.44 Mbytes
Step c_Thot c_Tcold f_hot f_cold v_tdiff 
134460000    429.47301    422.10902           -0           -0    7.3639961 
134464000    384.14094    268.00061   -34.782044    43.952041    116.14034 
134468000    336.40915    253.56875   -74.487992    91.183697      82.8404 
134472000    355.49169    387.35078   -129.86986    139.34163   -31.859087 
134476000    435.72963    363.13752   -168.72404    182.16027    72.592104 
134480000    602.69017    245.30809   -202.80651    224.07254    357.38208 
134484000    287.44074    486.99081   -216.58194    231.05363   -199.55007 
134488000    292.98186    229.92041   -239.16815    267.10695    63.061449 
134492000    380.77914    230.68277   -300.18416    300.52121    150.09637 
134496000    371.82551    475.49681   -330.39946    313.06343    -103.6713 
134500000    324.35486    180.56966   -353.36203    372.54911     143.7852 
134504000    318.82232    415.99928   -378.09743    372.54693   -97.176968 
134508000    132.74261    344.98316   -416.49144    443.25974   -212.24055 
134512000     321.5727    284.74624   -491.66164    503.21825    36.826463 
134516000    327.18901    393.86147   -521.58642    530.06754   -66.672452 
134520000    340.46065    329.32104   -557.64041    570.92762    11.139614 
134524000    329.83853    382.57679   -568.03003    596.94947   -52.738263 
134528000    190.85712    311.24291   -616.93314    628.19217   -120.38579 
134532000    337.90242    320.96135   -648.56317    667.62287    16.941075 
134536000    236.75751    362.85861   -703.89657    715.03693    -126.1011 
134540000    466.77993    300.11877   -720.62179    748.08569    166.66116 
134544000    365.86275    455.22777   -782.44183    761.68608   -89.365011 
134548000    707.46825    238.36843   -799.64229    799.52072    469.09982 
134552000    576.81544    227.42844   -843.60246     851.4126      349.387 
134556000    329.08187      322.684    -885.4241     881.5323    6.3978749 
134560000    248.72895    538.85051   -889.97263    934.32309   -290.12156 
134564000    385.63307    156.60397    -933.6345    943.18948     229.0291 
134568000    259.65239    268.90602   -979.77364    989.00993   -9.2536276 
134572000    394.73278    363.17267   -1021.8115    1007.7399    31.560106 
134576000    439.49426    226.50747   -1014.7472    1049.2918    212.98679 
134580000    444.32991    302.74248   -1091.2762     1092.246    141.58744 
134584000    510.59961    469.66907   -1139.4412    1161.8221    40.930533 
134588000     236.7321    261.25848   -1140.1552    1173.0175   -24.526381 
134592000    470.51369    280.23798   -1196.1944    1191.3942    190.27571 
134596000    234.73508    138.01135   -1227.4504    1232.5049    96.723727 
134600000    258.06373    293.79342   -1250.0054    1274.4643   -35.729683 
134604000    290.79679    294.48373   -1269.2252    1289.7205   -3.6869365 
134608000    248.20885    180.31249   -1286.0069     1295.549    67.896356 
134612000    385.73957     282.0886    -1337.118    1351.7791    103.65096 
134616000      308.064    324.90911   -1393.8824    1415.0943   -16.845111 
134620000    235.01852    354.38068   -1441.9864    1421.4741   -119.36216 
134624000    327.72256    364.45022   -1490.0279    1462.2706   -36.727663 
134628000    173.18788    233.26111   -1501.2763    1512.7667   -60.073232 
134632000    201.38837    205.37709   -1556.9568    1571.4966   -3.9887138 
134636000    574.64492      444.422   -1587.7394    1597.9518    130.22292 
134640000     385.6228    294.55589   -1649.0431    1638.5368    91.066911 
134644000    465.37945    244.49696   -1646.6005    1663.0626    220.88249 
134648000    345.69521    252.89617   -1693.9514    1708.5114    92.799046 
134652000    336.62911    142.19654   -1750.2199    1768.3158    194.43256 
134656000    289.73915    507.24012   -1784.1441    1791.8909   -217.50097 
134660000    317.37034    378.25999   -1787.5318    1809.5773   -60.889645 
134664000    352.58492    354.31433   -1857.4119    1857.2893   -1.7294094 
134668000     458.1455    277.54223   -1878.4924    1890.6771    180.60328 
134672000    488.92297    235.25634    -1914.164     1927.929    253.66662 
134676000    332.51682     318.9568   -1930.3974    1957.9804    13.560022 
134680000    255.32403     200.5269   -1941.9285    1955.8956    54.797132 
134684000    202.63808    197.93914   -1986.2705    2003.2799     4.698945 
134688000    274.65732    248.46131   -1973.1897    2025.1602    26.196012 
134692000    453.00125     366.8329   -2026.1542    2044.7019    86.168348 
134696000    435.81944    408.00368   -2044.3085     2043.962    27.815761 
134700000    492.81257    350.93926    -2070.048    2078.4111    141.87331 
134704000    287.20504    243.66278   -2100.0044    2134.4899    43.542267 
134708000    337.17174    343.74712   -2179.5206    2197.0089   -6.5753811 
134712000    163.14372    251.59709   -2212.7472    2212.5166   -88.453364 
134716000    264.51295    227.40313   -2243.6424    2248.3924    37.109812 
134720000    216.09805    433.63176    -2284.861    2305.6138   -217.53371 
134724000    355.41879    450.89915   -2334.2603    2342.7297   -95.480363 
134728000    423.01668    352.89487   -2366.2157    2365.6674    70.121819 
134732000    291.38665    333.67565   -2401.1536    2404.0601   -42.289005 
134736000    351.64154    427.90266   -2409.9568    2427.9969   -76.261116 
134740000    419.97026    168.11276   -2444.2256     2462.875     251.8575 
134744000    422.52218    568.56475    -2475.499    2493.9563   -146.04258 
134748000    188.94267    249.20441   -2457.9149    2489.4629   -60.261735 
134752000    344.42821    423.95057   -2497.4252    2513.1333   -79.522363 
134756000    330.73997    309.86139   -2573.5863    2565.9482    20.878583 
134760000    381.01414    321.97687   -2614.4018    2616.4599     59.03727 
134764000    387.79016    287.37424        -2651    2668.7148    100.41591 
134768000    279.40283    266.64467   -2722.7799    2764.6786    12.758162 
134772000     271.9466    350.43569   -2768.6532    2792.5839   -78.489092 
134776000    244.64357    296.66814   -2798.0249    2806.2332   -52.024572 
134780000    325.85942    239.46612    -2796.728    2827.0947    86.393299 
134784000    289.23766    380.37384   -2820.3523    2819.5915   -91.136186 
134788000    160.63263    377.49337   -2858.3599    2857.9179   -216.86074 
134792000     238.6535     417.1419   -2905.4518    2923.5842   -178.48841 
134796000    226.06549    341.10747   -2939.9171    2944.1526   -115.04198 
134800000    385.88512    273.20873   -2982.1769    2992.3762    112.67639 
134804000    156.81213    494.98834   -3058.6394    3061.6211   -338.17621 
134808000    300.31244    393.86402   -3092.9387     3126.117   -93.551582 
134812000    174.63953    391.36925   -3113.3587    3151.2797   -216.72973 
134816000    326.13481    258.96412   -3143.6119     3159.916    67.170689 
134820000    395.99488    352.36204   -3147.0899    3178.2733    43.632835 
134824000    324.09116    197.24804   -3180.8029     3178.448    126.84313 
134828000    634.44175    310.30151   -3208.8062    3223.5504    324.14023 
134832000    302.56849    291.11744   -3246.9197    3263.7758    11.451049 
134836000      378.685    306.67229    -3287.522    3258.8714     72.01271 
134840000     208.0257    269.35162   -3295.7047    3314.7173    -61.32592 
134844000    358.83032    303.88977   -3321.7125    3345.2847    54.940557 
134848000    245.99236    339.50537   -3366.2107    3378.0003   -93.513005 
134852000    535.51432    353.95468   -3387.8288    3401.3692    181.55965 
134856000    427.59558    333.51259   -3414.9381    3425.7073    94.082999 
134860000    333.15178    485.79787   -3428.2647     3425.747    -152.6461 
134864000    290.24153    403.15957   -3463.8561    3482.1589   -112.91804 
134868000    432.71726    428.54198   -3468.2029    3471.6243    4.1752806 
134872000    380.76011    290.99749   -3491.6368    3498.7345    89.762619 
134876000    271.66953    375.22342   -3526.8455    3536.7549   -103.55389 
134880000    234.62148    280.09893   -3555.4013    3562.2402   -45.477447 
134884000    276.71756    379.46352   -3588.3245    3595.2394   -102.74595 
134888000    335.56099     382.8218   -3635.8453    3647.7861    -47.26081 
134892000    217.10017     276.9495   -3661.9691    3695.4162   -59.849333 
134896000    341.33062     248.7474   -3677.6965    3692.8127    92.583221 
134900000    297.04082    226.31495   -3702.1168    3711.4825    70.725871 
134904000    593.25825     359.5724   -3734.6824    3733.3019    233.68584 
134908000    277.88876    319.82173   -3812.7696    3818.2563   -41.932968 
134912000    432.27317    430.31105   -3828.1513    3843.8503    1.9621198 
134916000    353.19009    204.35901   -3816.0344     3854.487    148.83108 
134920000    468.42216    412.42403   -3878.0819    3884.7606     55.99813 
134924000    210.11474    363.58878   -3905.6986    3918.4514   -153.47404 
134928000    394.85782    377.51113   -3968.4408    3994.7732    17.346689 
134932000    430.73316    288.43162   -4003.9735    4025.2503    142.30153 
134936000     360.0849    274.05779   -4046.3541     4081.107    86.027113 
134940000    305.00097    323.09807   -4127.6036    4121.9677   -18.097104 
134944000    242.66573    211.53254   -4173.0982    4218.1005    31.133187 
134948000    600.45423    203.99278   -4223.7974     4232.164    396.46145 
134952000    289.40412    239.41446   -4211.4412    4216.8691    49.989661 
134956000    187.24234    498.08282   -4211.3002     4239.254   -310.84048 
134960000    423.62252    329.33019   -4261.7198    4262.8195    94.292322 
134964000    330.45567    317.35096   -4280.3976    4282.2278    13.104706 
134968000    229.94382    330.48584   -4275.5606    4281.7109   -100.54202 
134972000    228.67694    300.83577   -4330.9031     4362.089   -72.158827 
134976000    346.25676    348.93925   -4401.7919    4411.0783   -2.6824822 
134980000    345.59764    297.10012   -4413.8738    4420.4219    48.497519 
134984000    371.61217    367.86078    -4453.827    4461.5176    3.7513851 
134988000    348.38186    506.25745   -4458.9767    4488.4504    -157.8756 
134992000    264.66846    535.48661   -4499.6017    4502.6004   -270.81815 
134996000    423.50305     307.8646   -4519.3897    4524.9812    115.63845 
135000000    490.01303    176.09303   -4565.5626    4586.4448       313.92 
135004000    329.90327    233.56804   -4606.9513    4631.9949    96.335223 
135008000    373.85157    330.63852   -4668.7581    4680.8798    43.213047 
135012000    435.74577    301.77382   -4724.1742    4721.9463    133.97195 
135016000    467.67198    443.88329   -4767.4491    4772.3456    23.788685 
135020000    271.29347    304.52441   -4805.8891    4801.9817   -33.230937 
135024000    289.65265    491.67314   -4829.5434    4838.5804   -202.02049 
135028000    477.79204    471.79541   -4872.8421    4891.4545    5.9966306 
135032000    456.20119    330.45838   -4926.2254    4940.9215     125.7428 
135036000    340.23186    345.69298    -4951.632    4970.0248   -5.4611248 
135040000    344.80783    192.42136   -4998.1668     4998.895    152.38647 
135044000    292.41282     357.0947     -5031.13    5009.2901   -64.681886 
135048000    314.01223    224.25829   -5018.7275    5040.5569     89.75394 
135052000    299.71699    351.53669   -5037.4893    5057.8602   -51.819694 
135056000    266.07882    336.82386   -5069.3263    5077.8108   -70.745035 
135060000    447.15549    322.78189   -5113.6844    5128.4292     124.3736 
135064000    384.58992    262.94877   -5170.1465    5196.1863    121.64114 
135068000    381.40926    291.56093   -5188.8674    5236.6486    89.848332 
135072000    369.05978    274.89455   -5243.8995    5259.6434     94.16523 
135076000    458.63461    439.61913   -5327.4623    5323.8252    19.015472 
135080000     287.6782    451.90286   -5343.6219    5364.3176   -164.22466 
135084000    397.06528    276.57378   -5351.6388    5382.5792    120.49151 
135088000    485.21514    333.79936   -5392.6619    5396.3067    151.41578 
135092000    370.42006    292.42718   -5440.3015    5445.5983     77.99288 
135096000    363.35603    199.23816   -5480.2361    5508.8273    164.11787 
135100000    439.09864    433.58332   -5515.1793    5519.7727    5.5153245 
135104000    481.49722    365.08728   -5550.7683    5565.0231    116.40994 
135108000    374.96724    454.94365   -5599.1876    5598.0503   -79.976409 
135112000    387.27491    404.81004   -5612.4867    5645.4622   -17.535131 
135116000    308.94938    385.59321   -5645.6752    5644.6205    -76.64383 
135120000    447.24232    306.32892   -5667.4206    5693.3708     140.9134 
135124000    342.34626    210.26133   -5722.8641    5769.9215    132.08493 
135128000    603.32435    340.94631   -5774.3327    5814.2333    262.37804 
135132000    197.12008    145.13305   -5805.6106    5845.8646    51.987022 
135136000    280.62273    343.78536   -5874.3999    5889.8019   -63.162628 
135140000     237.9034    409.45202   -5905.2862     5957.903   -171.54863 
135144000    269.82977    326.54461   -5944.7493    5971.1432   -56.714845 
135148000    399.80116    410.09852   -5981.8269     6004.793   -10.297359 
135152000    654.87647    278.34719   -6033.3418     6027.301    376.52928 
135156000    282.10246    266.28106   -6094.4202    6101.4786    15.821399 
135160000    299.03022    262.86669   -6142.4842    6168.3973    36.163533 
135164000    348.06318    239.75427   -6176.0864    6183.9724    108.30891 
135168000    498.19126    303.20651   -6187.8439    6192.2097    194.98475 
135172000      597.129    377.98234   -6206.1152    6242.5622    219.14665 
135176000      273.919     442.3228   -6231.0935      6258.97    -168.4038 
135180000    432.12643    495.62318   -6276.6313    6294.6414    -63.49675 
135184000     324.1803    332.42283   -6321.0803    6318.7322   -8.2425225 
135188000    397.73666    373.05059    -6362.594    6373.8729    24.686069 
135192000    281.50392    408.08326   -6388.2604    6391.5349   -126.57934 
135196000    336.73365    214.96112   -6384.4508    6422.5841    121.77253 
135200000    313.99093    224.75634   -6421.3411    6443.8794    89.234593 
135204000    237.32933    341.47066   -6473.8649    6468.0876   -104.14133 
135208000    548.17928    307.66468   -6491.2081    6526.6433     240.5146 
135212000    351.48126    213.58073   -6536.4581    6534.5921    137.90052 
135216000    353.40947    439.57709   -6578.3135    6606.0307   -86.167619 
135220000     271.6835    336.61236   -6601.6179     6612.035   -64.928859 
135224000    492.42464    226.20676   -6678.3276    6693.4833    266.21789 
135228000    388.54235    321.05302   -6710.6432    6731.8961    67.489326 
135232000    293.83744     446.6177   -6743.9134    6741.3524   -152.78025 
135236000    353.96606    291.10414   -6755.1223    6781.5888    62.861925 
135240000    423.87758    362.39558   -6767.2617     6780.983    61.482002 
135244000    429.43114    202.30823   -6808.7674    6832.5111    227.12291 
135248000    350.27958    374.13498    -6860.556    6882.7751   -23.855391 
135252000    244.23095    436.72428   -6903.0444    6922.9723   -192.49333 
135256000    376.14063    559.01378   -6936.5735    6964.7843   -182.87314 
135260000    384.43613    370.91232   -6979.3672    6996.2581    13.523815 
135264000    193.33094    207.53772    -7000.235     7013.931   -14.206779 
135268000    165.38021    173.50191   -7038.4512    7032.6331   -8.1216934 
135272000    191.15662    281.80247   -7018.0661    7055.5758   -90.645852 
135276000    406.09573    198.31814   -7046.8197    7085.6739     207.7776 
135280000     549.6773     371.0265   -7096.2296    7113.2701     178.6508 
135284000    558.93082    320.27109   -7126.8611    7127.8257    238.65973 
135288000    453.52209    448.30865    -7181.809    7187.9895    5.2134379 
135292000    273.35721    271.63349   -7221.2501    7241.9728    1.7237155 
135296000    434.97144    579.44251   -7262.2686    7285.3881   -144.47107 
135300000    330.13204    459.26429    -7295.002     7324.359   -129.13225 
135304000    302.74498    406.89531   -7325.3314      7334.74   -104.15033 
135308000    334.21514    437.92467   -7339.6896    7354.4147   -103.70953 
135312000    364.41071     307.8692   -7352.1167    7383.6423    56.541518 
135316000    299.51503    222.64431   -7391.2056    7418.8521     76.87072 
135320000    268.33053    198.82447     -7432.98    7449.3203    69.506057 
135324000    433.71684    259.17709   -7466.5521    7456.4583    174.53976 
135328000    350.65415    559.95625   -7516.5507    7520.1275    -209.3021 
135332000    237.39778    209.46904   -7566.0076    7570.8207     27.92874 
135336000     426.8794    277.79249   -7575.5173    7575.1772    149.08691 
135340000    368.58468    409.65427   -7551.1728    7576.2788   -41.069591 
135344000     395.8184    319.69544    -7573.536     7617.788    76.122966 
135348000     391.6524    350.90312   -7650.9756     7639.436    40.749277 
135352000    178.53573    237.32913   -7684.2673    7707.7886     -58.7934 
135356000    447.24095    235.66755   -7733.5425    7742.8488     211.5734 
135360000    319.43155    283.00286    -7742.936     7759.134    36.428683 
135364000    394.35041    558.59414   -7760.7298     7770.522   -164.24374 
135368000    391.77791    274.24318   -7790.9851    7800.7618    117.53473 
135372000      296.588      329.497   -7803.5419    7828.4075   -32.909002 
135376000    290.68688    370.08229    -7851.737    7866.4288   -79.395417 
135380000    604.67168    251.04705   -7878.3578    7873.5002    353.62463 
135384000    325.11843    500.18452   -7888.9702    7915.4362   -175.06609 
135388000    438.78879    297.06942   -7937.3478    7975.4684    141.71936 
135392000    420.23977    333.58094   -7989.1014    8005.1084    86.658838 
135396000    373.17891      275.838   -8025.4973    8042.9618    97.340911 
135400000    300.30481    311.88442   -8065.0131    8102.9026   -11.579609 
135404000    479.72256    329.95917   -8123.6265    8115.6043    149.76339 
135408000    426.19289    450.28323   -8142.1811    8160.3318   -24.090337 
135412000     517.5568    228.58386   -8171.0427    8188.1969    288.97294 
135416000    403.35587    229.71427   -8208.0359    8220.8383    173.64161 
135420000    471.57867    403.26227   -8258.0576    8250.4276    68.316396 
135424000    426.04074     270.7248   -8296.1235    8325.2723    155.31594 
135428000     538.7083    271.77891   -8340.1657    8360.0373     266.9294 
135432000    216.04746     254.6189   -8409.0385    8428.9985   -38.571441 
135436000    366.55288    330.44364   -8432.9288    8441.9653    36.109245 
135440000    261.68952    244.74921    -8483.788    8492.8342    16.940317 
135444000    364.53027    401.42921   -8538.2911    8518.6253    -36.89894 
135448000     455.7284    256.26368   -8576.2507    8566.7886    199.46473 
135452000    449.46605    284.34916   -8597.2408    8613.3715    165.11689 
135456000     464.9018    206.61804   -8645.2562     8674.063    258.28377 
135460000    539.22455    374.48115   -8676.8013    8698.0056     164.7434 
135464000    244.17004    292.24964   -8712.5347    8739.4775   -48.079601 
135468000    321.79306    217.77262   -8748.8035    8746.5463    104.02044 
135472000    319.40148    364.56132   -8783.5818    8808.7554   -45.159834 
135476000    303.05652    547.04226   -8857.3655    8863.5049   -243.98574 
135480000    516.31356    276.55337   -8903.1839    8922.7509    239.76018 
135484000    354.94023    350.74177   -8972.9557    8984.3897    4.1984642 
135488000    564.06871    430.60955   -9013.1452    8993.6237    133.45916 
135492000    405.12263    294.25611   -9064.5511    9055.5344    110.86652 
135496000     415.9079    211.59925   -9086.8493    9117.7065    204.30865 
135500000    441.64234    509.49853   -9144.8393    9155.5242   -67.856192 
135504000     247.1639    226.21464   -9177.0964    9186.4726    20.949267 
135508000    527.51958    271.63772   -9211.3067    9250.3005    255.88185 
135512000    285.27515    386.72039   -9257.2935    9274.8669   -101.44524 
135516000    409.24762    313.80359   -9278.2348    9303.9208    95.444028 
135520000    318.66944    177.16635   -9303.3383    9341.7178    141.50309 
135524000    326.48852    326.91946   -9363.3528    9380.9485  -0.43094279 
135528000     197.7159    351.62178   -9362.5177    9396.4339   -153.90588 
135532000    488.22028    327.44888   -9430.8144    9444.0826     160.7714 
135536000    267.44934    336.45539    -9446.076    9469.8901    -69.00605 
135540000    439.17623    308.63834    -9487.554    9524.5602    130.53789 
135544000    436.08852    184.50792   -9524.9652    9555.0717     251.5806 
135548000    229.96903    353.52545   -9549.6578    9568.2767   -123.55642 
135552000    390.42753     256.8628   -9590.1982    9596.9235    133.56473 
135556000    261.58029    402.33656   -9619.2541    9626.2896   -140.75628 
135560000    355.37339    372.58142   -9670.1025    9677.3923   -17.208031 
135564000    431.97509    376.22127   -9717.8833    9747.3698    55.753821 
135568000     225.2493     225.9215   -9778.3837    9798.4977  -0.67220202 
135572000    284.85452    268.12016   -9800.9075    9831.0364    16.734355 
135576000    344.13491     404.2473   -9846.7835    9874.5209   -60.112395 
135580000    399.60602    423.90711    -9870.938    9904.3319   -24.301081 
135584000    345.12833    295.92914   -9917.9158    9953.9059    49.199187 
135588000    424.33751    541.03767   -9978.0621    9986.3661   -116.70016 
135592000    322.95817    203.35223   -10008.432    10013.831    119.60595 
135596000    261.38378    350.94474    -10036.81    10039.747   -89.560952 
135600000    345.98635    293.30036   -10050.886    10063.474    52.685987 
135604000    231.34185    502.93367   -10098.759    10111.184   -271.59182 
135608000    383.03429    294.71308   -10144.436    10149.558    88.321213 
135612000    316.96139    523.47043   -10190.436    10202.353   -206.50904 
135616000    246.29115     276.3841   -10243.932    10262.924   -30.092956 
135620000     328.2724    276.65711   -10301.441     10330.64    51.615286 
135624000    228.03387    227.66779   -10352.004    10375.283   0.36608641 
135628000    357.40585    337.48539   -10368.495    10364.657    19.920459 
135632000    337.81262    365.56842   -10410.046    10445.808   -27.755806 
135636000    350.07168    214.00005   -10423.351    10456.207    136.07162 
135640000    362.68216    253.12305    -10469.02    10486.322    109.55912 
135644000    304.08651    196.49059   -10513.884    10514.624    107.59592 
135648000    183.41086    333.37128   -10536.232    10563.243   -149.96042 
135652000    376.57382      395.879   -10573.351    10566.776   -19.305178 
135656000    389.93445    393.46984   -10583.943    10599.896    -3.535389 
135660000    268.63173    406.86339   -10598.007    10632.667   -138.23166 
135664000    363.80185    312.18993   -10636.487    10662.312    51.611916 
135668000    290.90809    261.75323    -10678.58     10687.18    29.154858 
135672000    444.95443    288.71929   -10728.759    10725.476    156.23514 
135676000     446.7732     332.1065   -10751.041    10750.586     114.6667 
135680000     202.9716    310.72915   -10733.053    10779.914   -107.75755 
135684000    430.44948    268.30978   -10784.487    10800.931     162.1397 
135688000    351.80202    280.14325   -10823.472    10848.983    71.658768 
135692000     299.3029    255.46432   -10837.438    10865.956    43.838575 
135696000    169.00005    217.94054   -10858.714    10891.169   -48.940492 
135700000    338.78838    490.12069   -10886.603    10907.446   -151.33232 
135704000    469.09133    402.22662   -10909.631    10940.207    66.864711 
135708000    388.20543    305.60526    -10968.62    10972.712    82.600163 
135712000     376.2646    291.42918   -10973.982    11005.505    84.835423 
135716000    345.75781     436.5922    -11019.65    11021.057   -90.834391 
135720000     430.1604     384.9353   -11054.321    11081.958    45.225102 
135724000    381.42754    303.17298   -11081.714    11104.758    78.254561 
135728000     352.0542    355.26654   -11123.518    11144.996   -3.2123361 
135732000    327.62569    224.13365   -11154.568    11165.637    103.49204 
135736000    212.69795    200.97434   -11186.712    11210.753    11.723605 
135740000    213.92751    533.37055   -11216.885    11240.453   -319.44304 
135744000    207.80854    234.01227   -11242.729    11281.675   -26.203728 
135748000    403.06858    469.75846   -11283.053     11303.91   -66.689879 
135752000    534.33496    249.44076   -11325.545    11363.213     284.8942 
135756000    430.04457      187.182   -11386.006    11409.399    242.86257 
135760000    320.89748    250.37359   -11417.025    11432.354    70.523888 
135764000    312.86301    411.16342   -11456.557    11464.454    -98.30041 
135768000    303.42215    428.25885   -11489.844    11507.894    -124.8367 
135772000    270.07107    359.01161     -11523.4    11541.944   -88.940541 
135776000    228.07758    449.30459   -11549.895    11569.241     -221.227 
135780000    390.04303     192.2904   -11615.251    11658.465    197.75263 
135784000    450.64755    330.47019   -11627.929    11672.985    120.17737 
135788000    494.30682    227.63407   -11650.184    11675.027    266.67275 
135792000    246.31407    237.92266   -11693.564    11734.305    8.3914136 
135796000    222.14803    272.86172   -11736.639    11765.321   -50.713694 
135800000    471.84067    488.71387   -11762.816    11788.897     -16.8732 
135804000    307.69872    359.44966   -11779.055    11808.642   -51.750944 
135808000    327.89992    198.65864   -11824.642    11851.623    129.24128 
135812000    334.81106    454.81274   -11839.919    11853.143   -120.00168 
135816000    466.44028    275.93219    -11886.07    11898.583    190.50809 
135820000    501.64093    223.59049   -11914.388     11953.61    278.05044 
135824000    410.76235    430.31105   -11972.142    11988.753   -19.548704 
135828000    408.01191    228.12558   -11985.398    12013.568    179.88632 
135832000    487.64347    422.01997   -12019.641    12044.773    65.623498 
135836000    215.07489    260.92265    -12025.32    12062.778   -45.847769 
135840000    461.07419    315.12594   -12068.248    12087.568    145.94825 
135844000    469.53631    445.40433   -12121.557    12125.586    24.131981 
135848000    432.71795    213.73421   -12164.545    12200.035    218.98374 
135852000     360.8238    273.98325   -12226.594    12232.582     86.84055 
135856000     486.4542    306.71213    -12259.57    12283.601    179.74208 
135860000     360.4058    140.78951   -12298.413    12343.983    219.61628 
135864000    166.03332    329.65926   -12333.496    12356.818   -163.62594 
135868000    407.23291    404.09668   -12377.098    12401.524    3.1362284 
135872000    544.54499    415.05225   -12423.755    12445.028    129.49274 
135876000     274.7268    299.39282   -12492.633     12504.38   -24.666027 
135880000    423.03941    545.31407   -12527.271    12542.261   -122.27466 
135884000    218.74989    308.99924   -12577.437    12625.089   -90.249342 
135888000    288.25416    307.81299    -12610.68    12638.297   -19.558839 
135892000    349.95226    266.87852   -12666.443    12685.642     83.07374 
135896000    426.34118    504.97024   -12709.457    12726.069   -78.629059 
135900000    459.90601    497.14261   -12740.242    12774.171   -37.236601 
135904000    427.99921    317.93349   -12782.755    12804.304    110.06572 
135908000    235.60269    271.93837   -12799.245    12843.942   -36.335676 
135912000    279.13706    631.23306   -12825.748    12842.915   -352.09599 
135916000    290.24049    285.65692   -12871.129    12875.765    4.5835608 
135920000    354.54792    317.53828   -12920.624     12941.55     37.00964 
135924000    592.68755     252.2655   -12935.316    12932.049    340.42205 
135928000    442.31642    347.64865   -12975.229    12970.323    94.667766 
135932000    288.10045     298.3377   -12997.147     13033.34   -10.237248 
135936000     272.2108    433.24112   -13001.853    13040.743   -161.03032 
135940000    518.40414    405.40325   -13021.221    13057.757    113.00089 
135944000    424.19822    395.19751   -13059.333    13083.714    29.000711 
135948000    492.94192    193.68373   -13063.899     13073.42    299.25819 
135952000    239.94575    401.92044   -13097.147    13115.143   -161.97469 
135956000     303.9741     380.4569   -13145.929    13170.442   -76.482806 
135960000    381.95239    337.39327   -13179.418    13195.939    44.559125 
135964000    319.71527    401.00183   -13222.639    13233.136   -81.286552 
135968000    411.89266    235.27371   -13256.171    13270.825    176.61894 
135972000    253.71259     372.9412   -13273.493    13298.681   -119.22861 
135976000    235.84345    344.28495   -13298.187    13326.021   -108.44151 
135980000    401.98418    297.06023   -13327.965     13344.84    104.92395 
135984000    343.30408    196.43871   -13385.772    13426.485    146.86538 
135988000    181.81478    428.70871   -13419.691    13458.784   -246.89394 
135992000    508.72026    357.79785   -13473.337    13472.646    150.92242 
135996000    309.45177     243.8188    -13479.69    13491.673    65.632971 
136000000    399.30325    347.27852   -13502.861    13513.394    52.024723 
136004000    400.17488    266.93341   -13504.609    13532.632    133.24147 
136008000    382.75773    337.85165   -13567.393    13570.349    44.906083 
136012000    361.02742     475.1238   -13596.422    13628.991   -114.09637 
136016000    477.66605    270.03423   -13615.261    13640.899    207.63182 
136020000    325.99549    490.37531   -13644.658    13651.961   -164.37982 
136024000    538.70404    268.44065   -13686.398    13724.831    270.26339 
136028000     524.9418    232.07844   -13729.194    13734.782    292.86336 
136032000    524.38432    397.23089    -13766.51    13758.885    127.15343 
136036000    401.52011    447.88945   -13800.034    13823.936    -46.36934 
136040000    238.07147    532.31403   -13849.344    13853.515   -294.24255 
136044000    303.54174    357.09506   -13869.139    13892.346   -53.553323 
136048000    584.96189    353.82247   -13919.548     13921.54    231.13942 
136052000    306.79187    282.47747   -13954.598    13967.768    24.314397 
136056000     235.5004    405.96445     -13976.6    14008.897   -170.46405 
136060000    252.02394    242.49817   -13995.018    14034.022     9.525777 
Loop time of 257.341 on 1 procs for 1600000 steps with 196 atoms

Performance: 671.483 ns/day, 0.036 hours/ns, 6217.433 timesteps/s
99.9% CPU use with 1 MPI tasks x no OpenMP threads

MPI task timing breakdown:
Section |  min time  |  avg time  |  max time  |%varavg| %total
---------------------------------------------------------------
Pair    | 78.463     | 78.463     | 78.463     |   0.0 | 30.49
Bond    | 126.39     | 126.39     | 126.39     |   0.0 | 49.11
Neigh   | 0.71015    | 0.71015    | 0.71015    |   0.0 |  0.28
Comm    | 0.41942    | 0.41942    | 0.41942    |   0.0 |  0.16
Output  | 0.0041432  | 0.0041432  | 0.0041432  |   0.0 |  0.00
Modify  | 49.886     | 49.886     | 49.886     |   0.0 | 19.39
Other   |            | 1.47       |            |       |  0.57

Nlocal:    196 ave 196 max 196 min
Histogram: 1 0 0 0 0 0 0 0 0 0
Nghost:    0 ave 0 max 0 min
Histogram: 1 0 0 0 0 0 0 0 0 0
Neighs:    3914 ave 3914 max 3914 min
Histogram: 1 0 0 0 0 0 0 0 0 0

Total # of neighbors = 3914
Ave neighs/atom = 19.9694
Ave special neighs/atom = 5.87755
Neighbor list builds = 3319
Dangerous builds = 0
unfix 1


# PRODUCTION

fix             1 all nve
fix             hot all langevin ${TThi} ${TThi}  50.0 52804  tally yes
fix             hot all langevin 320 ${TThi}  50.0 52804  tally yes
fix             hot all langevin 320 320  50.0 52804  tally yes
fix             cold all langevin ${TTlo} ${TTlo} 50.0 297859 tally yes
fix             cold all langevin 280 ${TTlo} 50.0 297859 tally yes
fix             cold all langevin 280 280 50.0 297859 tally yes
fix_modify      hot temp Thot
fix_modify      cold temp Tcold


variable        tdiff equal c_Thot-c_Tcold
thermo          4000

dump gigo all atom 40000 dump.cords_xyz.dat
dump_modify gigo scale no
dump vfgigo all custom 4000 dump.velo.dat id vx vy vz fx fy fz

# thermal conductivity calculation
# # reset langevin thermostats to zero energy accumulation
#
compute         ke all ke/atom
variable        temp atom c_ke/1.5/0.0019872

fix             ave all ave/time 100 40 4000 v_tdiff ave running
thermo_style    custom step temp c_Thot c_Tcold f_hot f_cold v_tdiff f_ave

#compute         layers all chunk/atom bin/1d z lower 0.05 units reduced
compute         layers all chunk/atom bin/1d z lower ${dz} units box
compute         layers all chunk/atom bin/1d z lower 4.1310649555631 units box
fix             2 all ave/chunk  100 40 4000 layers v_temp file profile.langevin

dump mydump2 all xyz 40000 prod-coord.xyz
dump_modify mydump2 element C S S

run             32000000
Per MPI rank memory allocation (min/avg/max) = 11.82 | 11.82 | 11.82 Mbytes
Step Temp c_Thot c_Tcold f_hot f_cold v_tdiff f_ave 
136060000    271.26895    252.02394    242.49817           -0           -0     9.525777            0 
136064000    255.41662    308.40103    270.94597   -47.605226    46.746979     37.45506    40.604139 
136068000    284.28738    481.73738    330.52511   -79.575068    60.968222    151.21226    46.003601 
136072000    281.72487    437.71541    343.98727   -114.89121    97.577814    93.728144    51.385515 
136076000    259.47857    400.71886    215.27003   -142.78089    140.81864    185.44883    43.014725 
136080000    274.56729    308.23396    220.17191   -215.01322    204.14316    88.062054    47.778189 
136084000    277.78594    215.42362    296.06607   -233.75758    243.64602   -80.642449    46.280752 
136088000    282.21344    332.21626    306.07668   -271.54783    266.83581    26.139576    49.013263 
136092000    276.03913    396.91589    351.77538   -319.06932    300.02433    45.140506     45.58029 
136096000    296.08132    531.61485    379.00106   -359.14744    321.51923    152.61379     44.77584 
136100000    260.83135    349.05148    270.87014   -410.43948    409.64548    78.181344    46.083365 
136104000    269.88051    168.93929    274.34833   -445.99076    446.24876   -105.40905    44.063625 
136108000    269.31998     517.1433    194.41045   -503.85438    501.11943    322.73285    43.856679 
136112000    297.99976    487.95282     294.0013   -549.72185    531.93432    193.95152    42.997564 
136116000    292.38668    403.03205    233.64815   -580.73858    568.62725     169.3839    42.399729 
136120000     293.5569    461.56769     449.5186   -620.03823    595.23929     12.04909    41.461529 
136124000    309.03971    390.19797    468.42326   -672.79193    651.56467   -78.225285    37.515558 
136128000    334.90115    278.78626    401.84319   -722.19808    688.08969   -123.05692    37.986265 
136132000    294.62096     288.2287    256.94462   -738.51025    724.47327    31.284073     37.09759 
136136000    287.68268     522.3196    347.37432   -784.00551    749.90926    174.94528    37.024845 
136140000    292.03313    445.49392    285.51879   -810.08272    794.71851    159.97513    37.318392 
136144000     260.8139    326.99063    283.84518   -864.20983    847.18673    43.145452    35.519555 
136148000     289.1473    315.21465    364.06512   -922.86312    906.51564    -48.85047    35.621387 
136152000    243.02389    359.67823    323.45514    -930.8641    926.50091     36.22309    35.875367 
136156000    300.80414    476.39233    519.21503   -984.23647    948.94548   -42.822699    35.509461 
136160000    272.10734    352.71762    429.06754   -1026.0711    1008.0062   -76.349926    34.372243 
136164000    310.64326    449.59628      307.655   -1081.9649    1041.5317    141.94128    35.163969 
136168000    287.37681    304.85918    321.32068   -1054.1409    1051.3233   -16.461496    35.998462 
136172000    276.89731    432.18361    437.27047   -1088.6203     1086.144   -5.0868591    36.729691 
136176000    288.25424    288.80068    247.83331   -1139.3322    1127.3185    40.967366    35.872019 
136180000    263.39587    292.45891    282.85745   -1167.8368    1160.5033    9.6014647    36.721773 
136184000    291.47153    505.25553    376.78338   -1213.7523    1183.5755    128.47216    36.642305 
136188000    260.92827    208.84075    190.21393   -1245.4065    1246.8169    18.626818     36.36992 
136192000    262.34623    363.47262     287.9609   -1274.8118    1267.0068    75.511729    36.237425 
136196000     253.2277    712.46169    263.39404   -1275.4675    1282.9074    449.06765    37.174525 
136200000    280.44406    524.39049    321.67666   -1299.8414    1294.7575    202.71384      36.3645 
136204000    265.94238    284.61531    241.45092   -1315.6389    1322.5094    43.164388    35.440049 
136208000    287.87149    298.60753    302.79266   -1357.3728    1353.9026   -4.1851252    34.209219 
136212000    290.45164    317.04907    387.58319   -1391.1792    1371.8447   -70.534115    34.065804 
136216000    261.49951    525.75327    251.47224   -1438.0336    1443.1203    274.28102    34.261255 
136220000     266.4674    404.25012    256.92262   -1478.5437    1479.4051     147.3275    35.060075 
136224000    274.70755    274.25431     396.3431   -1531.6107    1523.1634   -122.08878    33.876454 
136228000    302.63138    519.51166    374.96951   -1539.2403    1506.5101    144.54215     33.30307 
136232000    296.14373    274.58696    362.63448   -1600.6195    1573.2671   -88.047521    33.526687 
136236000    270.97367    252.02971    276.56797   -1625.3528    1618.1062   -24.538263    33.760098 
136240000    255.92538    219.17842    253.68671   -1644.4141    1658.4796   -34.508297    33.203667 
136244000    294.44217    222.88148    278.62266   -1685.9834    1661.4173    -55.74118    33.400642 
136248000    282.16033    331.39673    377.35219   -1717.9523    1710.9405   -45.955451     33.50497 
136252000    270.18325    359.43235    326.10243   -1750.3037    1747.8879    33.329916     33.14633 
136256000    272.51226    150.13228    471.17254   -1732.7065    1726.0617   -321.04026    32.103428 
136260000    282.64028    328.50344    458.75338   -1789.4483     1774.759   -130.24994    31.740155 
136264000    297.18002    299.69432    505.04722   -1831.1454    1813.3087   -205.35291    31.958808 
136268000    251.31291    295.33631    221.83501   -1857.7038    1850.7265    73.501308    32.106386 
136272000    269.33607    338.79119    308.29535   -1874.9462    1863.4742    30.495837    31.929784 
136276000    297.05553    386.15474    286.19682   -1918.1382     1886.692     99.95792    31.910073 
136280000    263.69941    359.39019    274.77803   -1950.4482    1944.3755    84.612158    31.486182 
136284000     268.1232     336.0612    290.16755   -1982.5754    1980.4888    45.893641    31.737761 
136288000    271.24672    256.02153    369.18498   -2015.3591    1987.8563   -113.16345    32.431537 
136292000    268.40265    224.73393      258.877   -2038.7226    2054.8203   -34.143072    32.490166 
136296000    266.45227    414.92229    369.27177   -2084.5898    2073.8855    45.650512    32.172947 
136300000     265.7084    201.34846    334.06958   -2094.7645     2100.242   -132.72112    32.322895 
136304000    274.86087    419.98929    387.38729   -2169.3466    2159.6276    32.602005    31.959098 
136308000    282.11595    442.20869    278.51779   -2164.3312    2169.6868     163.6909    31.638919 
136312000    349.80171    316.61723    276.02961   -2252.5123     2198.573    40.587621    31.472553 
136316000    307.38817    340.48883    410.17779   -2288.0186    2268.7849   -69.688955    31.775923 
136320000    276.81373    306.74668     258.7358   -2317.1466    2297.7023    48.010875    32.098092 
136324000    279.82785    290.51801    434.92893   -2385.0424    2368.1411   -144.41092    32.114345 
136328000    284.02915    397.35356    192.68724   -2409.5157    2405.6732    204.66631    32.394572 
136332000    268.53055    396.52239    334.00835   -2453.9296    2447.4836    62.514034    32.566842 
136336000    301.83717    470.93962    271.62388   -2504.0537    2477.7085    199.31574    32.077682 
136340000     278.4981    499.73945    245.54147   -2544.1412    2533.8016    254.19798    31.776216 
136344000    271.51201    344.89638    318.62331   -2575.6189    2557.5868    26.273072    31.626063 
136348000    274.24688    304.29692    238.55708   -2593.4295    2591.2358    65.739841    31.375562 
136352000    288.72515    547.83455    264.50815   -2645.3532    2616.4372     283.3264    31.422063 
136356000    238.17445     337.7288    286.40427   -2674.4031    2695.3338    51.324532    31.751687 
136360000    276.30917    278.84558    215.88368   -2725.7328     2715.855    62.961891    32.115067 
136364000    282.57978    314.01105     283.7363   -2752.3989    2722.1579    30.274749    32.528933 
136368000    292.72858     152.8775    367.55685    -2795.572    2786.0837   -214.67935    31.900934 
136372000    284.57319    292.28156    294.71021   -2838.1495    2803.6383   -2.4286594    32.191212 
136376000    284.26782    495.21054    269.36758   -2895.9643    2872.3254    225.84296    32.832796 
136380000    261.91568    297.22182    291.27013   -2889.0493    2889.5667    5.9516855    32.904073 
136384000    294.18614    280.55106    263.33192   -2919.8547    2893.8118    17.219135    32.567251 
136388000    291.95196    323.08322    221.93422   -2961.7633    2936.3473      101.149    32.954194 
136392000    277.28246     363.4436    366.30722    -3032.443    3000.6492    -2.863626    32.679652 
136396000    296.99751    204.87172    525.05527   -3043.7683    3013.1858   -320.18355     32.12617 
136400000    259.78825    347.72043    332.49105   -3072.4042    3057.9153     15.22938    32.332046 
136404000    255.83612    380.15264    549.64126   -3124.4132    3112.1911   -169.48862    32.166127 
136408000    272.72139    378.87848    190.89696   -3138.7321    3125.4731    187.98152    32.425229 
136412000    285.81685    616.98537    330.34285   -3159.1842    3141.2641    286.64251    32.700795 
136416000    282.52688    331.95169    298.51977   -3192.6746    3187.7075     33.43192    32.747706 
136420000    279.11153    305.87729    277.35611   -3250.4762    3240.8883     28.52118    32.820049 
136424000    268.40386    289.32991     211.1402   -3245.4215    3235.8475    78.189704    32.803446 
136428000    285.56235    278.20772     358.7489   -3270.0148    3254.3152   -80.541183    32.981911 
136432000    283.26557    490.53909    327.61943    -3322.821    3281.7965    162.91966    33.367328 
136436000    266.94187    310.48787    392.43692   -3366.7774    3368.3959   -81.949049    33.257895 
136440000    291.09343    323.50615    331.39857   -3399.3284    3386.6284   -7.8924205    33.422153 
136444000     267.6182    286.15076    225.55247   -3417.9023    3401.1276    60.598286    33.241442 
136448000    300.20099     440.3359    384.92033   -3449.0333    3439.5372    55.415578    33.369296 
136452000    282.25514    335.51418    341.29686   -3468.8141    3446.0034   -5.7826811    32.999736 
136456000    283.27301    483.97573    230.86284   -3510.8507    3517.6706    253.11289    32.830555 
136460000    290.36414    391.83944    306.30261   -3573.5119    3551.9014    85.536828    32.779757 
136464000     275.5562    302.05246    243.81078   -3605.3948    3602.0171     58.24168    32.970142 
136468000    278.98824    221.39544    360.97831     -3691.31    3673.6907   -139.58288    32.730371 
136472000    281.99714    484.11616    365.03112   -3744.6524    3734.5331    119.08505    32.797485 
136476000    263.12609    188.68479     285.6595   -3777.6996    3788.5057   -96.974709    32.392691 
136480000    284.48432    261.33397    403.78333   -3806.4703    3793.8907   -142.44937    32.459403 
136484000    283.78171    385.86536    305.21649   -3851.8318     3854.618    80.648869    32.454716 
136488000    291.74476     307.5351    430.24234    -3913.935    3877.7409   -122.70724    32.360501 
136492000    266.80815    353.40826    318.46296   -3944.0978    3931.1989    34.945307    32.476438 
136496000    279.67658    339.29333    617.78893    -4003.912    3987.8119   -278.49559    32.053835 
136500000    285.92683    428.41175    211.73823    -4036.349     4019.499    216.67352    31.730229 
136504000    287.02158    710.35538    346.90629    -4056.365    4042.1755     363.4491    31.992184 
136508000    272.55868    534.38386    389.05026   -4070.9235    4056.2874     145.3336      31.8277 
136512000      265.051    315.05065    296.99604   -4113.4472    4096.7489    18.054601    31.925372 
136516000    289.29784    244.13026    450.57615    -4153.919    4130.7732   -206.44589    32.029323 
136520000    307.96652    713.74502    437.94127   -4210.6878    4180.5936    275.80376    31.912545 
136524000    308.11437    461.95358    200.72928   -4245.2481    4210.0277     261.2243    31.848841 
136528000    282.29433     256.4258    423.48457   -4271.8174    4244.1471   -167.05878    31.977685 
136532000    294.09248    434.87357     306.2798   -4305.0903    4284.2178    128.59376    31.830594 
136536000    292.00944    429.63745    289.78837   -4346.0795    4310.4728    139.84908    31.746393 
136540000    280.26157     466.7489    518.03798   -4363.6827    4362.7218    -51.28908    31.802002 
136544000    300.80228     592.2415    470.10602   -4390.7465    4362.4831    122.13548    31.772824 
136548000    285.28714    372.87215    331.84534   -4409.1185    4403.7404    41.026808    31.639401 
136552000    265.79838     429.3826    135.69983   -4443.7133    4413.2087    293.68277    31.898329 
136556000    279.62762    189.08243    308.17592   -4442.3341    4421.2513   -119.09349    32.012743 
136560000    289.65485    344.43964    294.60568   -4479.1868    4450.8477     49.83396     31.93037 
136564000    307.65858    462.86548    295.30421   -4526.0244    4494.6471    167.56127    31.843128 
136568000    293.26779    565.40844    264.30655   -4546.0428    4524.5687    301.10189    31.769992 
136572000    270.76383     287.3439    250.19717   -4590.1397    4579.8419     37.14673    31.913113 
136576000    281.68303     402.6443    285.38414   -4639.3669    4618.2031    117.26016      32.0936 
136580000    288.39996    357.40921    427.13797   -4683.2924    4658.8916   -69.728762     32.12679 
136584000    252.87519    358.70391    298.75889   -4711.7002    4730.9835    59.945018    32.372436 
136588000    277.48695    512.04668     204.4619   -4753.0807     4754.551    307.58477    32.280372 
136592000    278.29505    446.98833    269.74844   -4800.4027    4788.3588    177.23989    32.232324 
136596000     312.2072    615.77052    199.94992   -4853.5499    4816.6131    415.82061    32.436917 
136600000    278.12469    351.75649    440.61985   -4891.0533    4873.5403   -88.863361    32.636361 
136604000    300.60661    286.38765    309.50225   -4928.5251    4907.7925   -23.114602    32.538604 
136608000    315.13324    248.75183     280.9885   -4980.3063    4943.0282   -32.236664    32.259829 
136612000    279.89382    455.50217    392.86254   -5002.9013    4992.6897    62.639631    32.148742 
136616000    260.67129    306.69348    398.32431   -5044.6431    5055.8185   -91.630831    31.959207 
136620000     259.1684    490.43863    334.79504   -5102.2794    5098.3065    155.64359     31.65669 
136624000    296.56976    308.59762    428.72042   -5173.4046    5150.6198    -120.1228    31.644748 
136628000    282.16868    329.40052    345.76472   -5216.7326    5199.9674   -16.364192    31.808352 
136632000    288.61671    384.26059    363.48287   -5270.8851     5261.319    20.777725    31.838615 
136636000    281.86037    246.18949    411.86101   -5326.1672    5320.8387   -165.67152    31.727614 
136640000    318.01782    474.09902    343.94917   -5358.8903    5334.1517    130.14986    31.608939 
136644000    312.78081    341.44236    284.53583   -5399.9929    5372.6976    56.906537    31.704747 
136648000    266.08074    356.49847    321.78642   -5456.3796    5470.0564    34.712047    31.633187 
136652000     272.3309    286.49845    390.16609   -5530.9768    5526.4193   -103.66764    31.612792 
136656000    282.01005    558.15045     475.1456   -5568.3444    5538.7743    83.004851    31.773821 
136660000    288.76224     291.6945    341.78812   -5602.7887    5576.6243   -50.093617    31.854635 
136664000    273.86667     196.5278    495.59344   -5628.5725    5615.8301   -299.06564    31.747962 
136668000    283.46516    455.80935     414.1689   -5679.5617    5655.8419    41.640451    31.596481 
136672000    296.06833    372.56374    192.72257     -5729.39    5702.5693    179.84118     31.58021 
136676000     276.1793    553.98602     293.3979   -5739.8716    5746.4641    260.58812    31.654271 
136680000    309.29301    382.02325    345.23651   -5784.6975    5759.2519    36.786744    31.474126 
136684000     268.5169    420.43807    150.26963   -5800.3076    5781.0988    270.16844    31.493995 
136688000    272.69541    282.04584    628.56957   -5818.3879    5805.5304   -346.52373    31.186131 
136692000    274.66064    366.78829    457.81669   -5844.5596    5839.1034   -91.028399    31.221861 
136696000    287.40783    294.53913    340.22973    -5885.286    5870.1458   -45.690605    31.282166 
136700000    285.06651       175.85    273.65455   -5950.6658    5941.4333   -97.804549    30.759693 
136704000    270.56506    352.59178    335.58872   -5971.0138    5965.0323    17.003062    30.787025 
136708000    276.25178    315.12906    311.83299   -5971.4705     5966.201    3.2960676    30.830528 
136712000    246.57962    420.95231     264.3235   -6026.9595    6034.4654    156.62882     30.88888 
136716000    258.74233    188.49406    264.14685   -6068.3384    6065.2215   -75.652785    30.923058 
136720000     268.1286    330.83601    294.53524   -6117.4504    6112.7528    36.300775    30.822741 
136724000    310.31159    317.84085    301.33265   -6176.0467    6156.7395    16.508198    30.845221 
136728000     283.0181    285.56735    545.25468   -6196.2679    6186.1374   -259.68733    31.040781 
136732000    287.34282    291.83211     536.9104   -6251.0739    6235.1543   -245.07829    30.962848 
136736000    303.46898    242.66628    596.38796   -6297.6431    6258.8657   -353.72168    31.025659 
136740000     289.3765    418.41324     380.2876   -6337.2937    6307.2413     38.12564     31.10824 
136744000    273.85504    335.99756    341.85986   -6356.2153    6351.4684   -5.8622994    31.079631 
136748000    279.47288    256.60705    195.08847   -6395.8047    6400.0002    61.518583    31.198607 
136752000     261.4152    537.96684    479.93608   -6432.5251    6434.5786    58.030764     31.04824 
136756000    272.30483    471.26568     228.7409   -6494.7681    6493.1682    242.52479    31.228778 
136760000    299.04246    351.08231    404.71966   -6520.0383    6527.8769   -53.637346    31.213401 
136764000    293.75062    444.26856     240.2673   -6575.9697    6544.6844    204.00127    31.299266 
136768000    277.11991    351.21521    279.01817   -6595.9798    6592.7569    72.197037    31.302276 
136772000    264.73157    241.66766    354.37917   -6676.7363    6666.9684    -112.7115    31.274749 
136776000    268.40027    333.77151    309.36869   -6708.8146    6708.8503    24.402818    31.270094 
136780000    317.68465    513.64043     444.0951   -6762.9133    6732.5025    69.545335    31.113778 
136784000    269.93302    323.67951    266.15965   -6793.6783    6778.1022    57.519859    31.297797 
136788000    302.21985    188.99821    400.07078   -6842.4221    6819.5594   -211.07257    31.301454 
136792000    311.32248    215.63673    388.06195   -6864.6856    6846.3573   -172.42523     31.20747 
136796000    273.15471    415.16822    286.52042   -6913.1071     6905.744     128.6478    31.091216 
136800000    330.15054    521.54313    298.57289   -6977.8769    6916.1222    222.97024    31.365096 
136804000     267.9897    453.97219    244.74628   -6980.8215    6982.7901    209.22591    31.426632 
136808000    299.79212     389.9867    304.91994   -7058.0656    7049.0091    85.066758    31.386117 
136812000    320.52685    592.70694    414.25732   -7091.2785    7062.2199    178.44962    31.604325 
136816000    295.74786    323.27587    175.27021   -7141.4551    7119.3294    148.00565    31.702356 
136820000    273.92552    719.54062    294.41444   -7189.1955    7172.5363    425.12618    31.719662 
136824000    249.29129    398.67095    252.51172   -7211.0439    7234.0956    146.15923    31.662908 
136828000    325.46043    296.49509    422.55651   -7269.4441    7214.0897   -126.06142     31.61001 
136832000    313.22566    270.01051    553.84873   -7292.7007    7266.0019   -283.83822    31.503177 
136836000     307.0589    317.61982    272.66888     -7314.52    7284.7878    44.950938    31.373221 
136840000    297.30256    287.16229    369.43079   -7330.0387    7324.8227   -82.268493    31.366106 
136844000    260.54889    199.64989    266.55784   -7368.3113    7368.2711   -66.907951    31.126882 
136848000    273.34613    279.96588    384.48399   -7410.9293    7401.7757   -104.51811    30.966461 
136852000     292.5209     379.5418    363.26425   -7466.8218    7451.7443    16.277547    31.243503 
136856000    266.09271     263.8927    464.27346   -7495.4065    7495.8349   -200.38076    31.215158 
136860000    277.86602    294.84125    307.06495    -7517.009    7520.7318   -12.223697     31.15852 
136864000    270.15269    425.56265    362.12362   -7552.4852    7551.3894    63.439033    31.204352 
136868000    274.74954    471.19318    171.43975   -7571.0733    7557.2885    299.75343    31.107216 
136872000    263.98911     207.8126    296.55236    -7589.933    7578.6293   -88.739755    31.129052 
136876000    275.63609    415.54932    249.10069   -7642.1153    7627.6438    166.44863    31.299931 
136880000    281.31865    306.79784    211.95342   -7690.0341    7671.1014    94.844426    31.294853 
136884000    271.24715    247.11556    132.77574   -7725.9457    7718.4579    114.33982    31.253803 
136888000     284.0805    283.38322    208.83876   -7765.9761     7736.267    74.544461    31.278238 
136892000    261.70486    406.52355    454.43959   -7792.8347    7791.5492   -47.916043    31.197692 
136896000    247.29061    252.26639    201.72699   -7818.9127    7815.5007    50.539399    31.286573 
136900000    259.57942    262.94225    302.91738   -7818.2994    7818.6875   -39.975131    31.306343 
136904000    276.10229    381.54318    273.59302   -7883.8638     7868.042    107.95016    31.310777 
136908000    275.73461    370.82027    358.52723   -7894.5459    7894.0879     12.29304    31.463193 
136912000    293.82951    279.40618    187.92692   -7929.6025    7894.4972    91.479256    31.603897 
136916000    278.77804    507.77809    234.20139   -7940.5921    7932.3725     273.5767    31.476947 
136920000    327.12837    515.34011    377.46169   -8012.9103    7965.9981    137.87842    31.595461 
136924000      282.849     293.3179    382.28709   -8035.7699    8026.6599   -88.969199    31.646412 
136928000    306.60256    437.75799    244.46956   -8095.1801    8076.3347    193.28843    31.824222 
136932000    254.90304    425.80616     323.7453    -8135.717    8142.9259    102.06086    31.754969 
136936000    242.76887     402.7233    303.28652    -8203.945    8218.2962    99.436774    31.791309 
136940000     284.1244    320.29625    169.41249   -8249.1945    8236.5375    150.88376    31.900119 
136944000    303.36743    436.20811    306.59088   -8293.0279    8286.7222    129.61723    31.842749 
136948000    271.16684    372.49654    188.24299   -8307.1629    8301.6194    184.25355    31.739784 
136952000    272.12683    406.69757    323.67812   -8348.4438    8335.8234    83.019445    31.791318 
136956000    294.10439    413.01731    190.77605   -8375.8071    8364.0322    222.24125    31.800919 
136960000    296.76483    360.14286    403.98315   -8402.5247    8368.0148    -43.84029    31.858118 
136964000    324.24221    347.56665    555.52557   -8416.4121    8379.3553   -207.95892    31.840798 
136968000    295.17788     172.9824    301.01819    -8418.989    8404.6086    -128.0358    31.842759 
136972000    248.33638    355.13845    194.38022    -8418.045    8442.6512    160.75823    31.901632 
136976000    303.90373    267.90271    363.32238   -8463.0269    8452.5154   -95.419671    31.852895 
136980000    279.85573    241.56593    199.88628   -8497.1143    8489.8386     41.67965    31.775213 
136984000    296.13739    265.29181    359.67607   -8573.5231    8537.1388   -94.384258    31.655968 
136988000    284.97566    479.25746    433.06794   -8605.6128    8602.0743    46.189518    31.697757 
136992000    284.47335    323.58701     276.9184    -8643.611    8637.9318    46.668616    31.839426 
136996000    287.11346    322.33534    254.02325   -8672.6588     8652.808    68.312094    31.687648 
137000000     274.9493    443.95227    423.01088   -8694.3579    8685.0553    20.941387    31.718252 
137004000    273.37214    277.53587    425.67975   -8725.9253    8726.1399   -148.14389      31.6824 
137008000    313.65816    158.71303    294.21025   -8809.7819    8786.0011   -135.49722    31.841681 
137012000     261.2629    245.20211    434.77228   -8833.4979    8823.5482   -189.57017    31.791698 
137016000    305.64243    377.75336    212.99672   -8877.9844    8859.6282    164.75664     31.72262 
137020000    298.81081    522.07031    254.94961    -8908.066    8902.4374     267.1207    31.740286 
137024000    277.07573    329.70455    564.19868   -8941.1358    8947.3049   -234.49414    31.787764 
137028000    272.97438    457.18734    302.56867    -8986.994    8995.4929    154.61867    31.761409 
137032000    272.62483    380.41733    392.39034   -9039.0284    9021.5087   -11.973015    31.809693 
137036000    281.37111    290.57111     333.9192   -9080.4446    9059.2773   -43.348087    31.752375 
137040000    250.98969    407.73078    305.99799   -9111.0399    9135.8523    101.73278    31.705966 
137044000    265.28567    278.32996    325.71183   -9160.4194    9164.2331   -47.381864    31.663134 
137048000    278.47468     477.6182    245.25798   -9232.2885    9218.0662    232.36022    31.682354 
137052000    295.99913    247.07279    321.56413   -9247.4308    9242.5174   -74.491345    31.678561 
137056000      297.627    239.33061    352.87726    -9285.102    9260.4409   -113.54665    31.688741 
137060000    257.02403    222.04909     160.9159   -9319.3014     9326.827    61.133194    31.724641 
137064000    296.03863    526.60356    373.40117   -9364.6522    9336.3065    153.20239    31.693537 
137068000    270.87817    147.52454    404.23122   -9388.9679     9377.681   -256.70668    31.545435 
137072000    311.02716    312.01179     387.3547    -9451.429    9412.3918   -75.342902    31.529899 
137076000    291.04685    428.86751    496.09501    -9453.127    9436.9946   -67.227495    31.705812 
137080000    293.10249    326.02763    437.01442    -9478.489    9471.8137   -110.98679    31.896097 
137084000    279.84123    297.17774    394.58701   -9522.6673    9516.8312   -97.409277      31.8414 
137088000    285.14961    189.28896    187.64993   -9566.7453    9558.5377    1.6390292    31.777597 
137092000    270.47389    221.94535    310.87647    -9614.925    9599.9123   -88.931122    31.735419 
137096000    254.47039    430.22116    236.68278   -9630.1708    9642.1318    193.53838     31.84275 
137100000     299.1582    433.86853    280.17603   -9684.1244    9666.9845     153.6925    31.897322 
137104000    268.51354    229.24448    166.29069   -9717.1932    9708.3266    62.953787    31.813723 
137108000    264.18861    255.93475    215.83569   -9729.1667    9726.1754    40.099059    31.772935 
137112000    265.51631    392.36814    283.50413   -9763.3693    9763.7433    108.86401    31.734489 
137116000    281.13384    337.39053    192.13513   -9789.2876    9776.4206     145.2554    31.810354 
137120000    275.56551    243.17263    341.67354    -9808.307    9815.0827   -98.500909    31.718091 
137124000    254.50315    457.12161    307.02885   -9832.9766    9849.7433    150.09276    31.809402 
137128000    246.06872    262.07572    230.64432   -9869.8004    9873.2628    31.431394    31.735116 
137132000    269.51021    255.23384    413.38245   -9897.0097     9894.963   -158.14861    31.816712 
137136000    269.33237    471.72348    486.16771   -9938.9651    9944.8846   -14.444228    31.774105 
137140000    299.78312     454.4495    332.47914   -9970.2499    9936.2487    121.97036    31.725504 
137144000    258.87379    157.85595    255.01873   -9996.8589    9988.5893   -97.162786    31.707649 
137148000    276.93886    165.08382    323.41825   -10055.319    10048.482   -158.33442    31.685119 
137152000    277.40531    153.55535     312.6958   -10086.292    10066.917   -159.14046    31.553268 
137156000    262.58756    243.95125    301.08871   -10113.491    10118.903   -57.137465    31.612112 
137160000    301.00722    221.17903    293.56018   -10148.484    10125.911    -72.38115    31.616057 
137164000    274.45757    153.53437    258.58722   -10155.659    10140.646   -105.05285    31.526497 
137168000    280.23246    340.10896    293.26279   -10194.771    10205.625    46.846172     31.53651 
137172000    260.02715    222.70441    242.42186   -10215.188    10222.872   -19.717458    31.516038 
137176000      287.195    250.61071    370.28374   -10212.259    10200.729   -119.67303    31.599618 
137180000    262.26227    310.78249    565.74794   -10235.894    10240.233   -254.96545    31.622495 
137184000    296.38167    265.78568    384.90239       -10257    10243.179   -119.11671    31.612952 
137188000    318.39793    205.18226    447.13064   -10307.356    10276.431   -241.94838    31.833595 
137192000    263.50025    267.89542    354.26554   -10307.785     10320.85   -86.370118    31.785627 
137196000    258.01032    388.20384    144.41639   -10334.503    10338.131    243.78745    31.912451 
137200000     287.1823    295.69568    293.97199   -10353.061    10344.379    1.7236833     31.85759 
137204000    294.70769    391.17124    479.63184   -10389.232    10372.325   -88.460601    31.692082 
137208000      253.932    207.85647    152.12726   -10418.642     10417.61     55.72921    31.630875 
137212000    267.16837    174.52036    350.09155   -10438.826    10443.199   -175.57119      31.6819 
137216000    325.07575     369.7366    393.54393   -10499.233    10470.575   -23.807331    31.666126 
137220000    287.63409    280.68614     454.4757   -10512.735    10517.509   -173.78955    31.701405 
137224000    269.84119    420.01099    170.27046   -10574.681    10544.615    249.74054    31.737319 
137228000    285.61885    377.67379    270.06158   -10616.651    10592.699     107.6122    31.699301 
137232000    275.86697    308.82562    333.93508   -10607.693    10607.817   -25.109464    31.771092 
137236000    272.92822    392.53578    189.81608   -10682.281    10672.298    202.71971    31.744605 
137240000    266.14291    345.44736    218.72847   -10690.796    10694.495    126.71889    31.813581 
137244000    253.49667    430.16293    178.67669   -10704.146    10711.787    251.48624    31.859416 
137248000    304.51506    407.93961    361.17411   -10720.499    10714.099    46.765499    31.928134 
137252000    280.35211    268.42189    358.92599    -10732.96     10727.11   -90.504102    32.013856 
137256000    277.29415    450.53307    259.48207   -10751.532    10746.654      191.051    32.086321 
137260000     311.9386    726.14017    423.39482   -10798.427    10775.931    302.74536    32.091355 
137264000    257.81606    242.63355    302.12295   -10833.962    10852.318   -59.489405    32.090763 
137268000    277.17271     423.7707    277.27877   -10887.249    10877.989    146.49193    32.087644 
137272000    289.68259    322.76741     271.0282   -10936.623    10918.418    51.739214    32.101419 
137276000     256.3221    460.41939     448.5557   -10991.639    10981.906    11.863697    32.037862 
137280000    265.60492      383.521    482.97448   -11010.995    11004.934   -99.453481    32.053557 
137284000    312.00241    418.38442    390.18282   -11054.227    11028.861    28.201601     31.98311 
137288000    296.70532    223.59302    410.13791   -11073.266    11060.352   -186.54489    31.975678 
137292000    278.04591    225.90912    195.40212   -11115.732     11104.56    30.507002    31.983285 
137296000     292.2975     337.3424    204.38009   -11146.114    11144.291     132.9623    31.986759 
137300000    271.94712    374.24008    196.08438     -11174.1    11182.301     178.1557    31.998545 
137304000    283.27127    328.11661     324.9614   -11243.226    11216.586     3.155215    31.992454 
137308000    289.66118    461.58103    462.00991   -11285.631    11291.354  -0.42887454    31.878334 
137312000    301.36775    460.31636    353.58412   -11325.459    11298.228    106.73224    31.926111 
137316000    294.96449     633.0984    227.70416   -11365.782    11343.718    405.39425     32.02622 
137320000    262.02654    297.19074    226.85806   -11379.384    11372.925    70.332681    31.940285 
137324000    296.77211    520.03142    414.65582   -11419.412    11379.083     105.3756    32.058755 
137328000    305.79374    324.96983    438.25257   -11446.857    11414.061   -113.28274    32.021807 
137332000    272.49716    449.52186    426.21069   -11492.169    11475.249    23.311175     31.98901 
137336000     267.1848    189.58852    213.08471   -11505.794    11507.485   -23.496192    32.032139 
137340000    273.86359    339.60695    629.69351   -11544.488    11547.878   -290.08656    32.117614 
137344000    286.42939    304.26027    144.72211   -11620.273    11588.947    159.53816    32.046351 
137348000    291.19335    226.55265    290.57375   -11643.475    11617.844   -64.021098    32.078647 
137352000    271.02364    355.37963    388.17832   -11677.658    11667.687   -32.798697    32.103289 
137356000    282.23582    500.75512    427.75214   -11734.445    11717.084    73.002981    32.069125 
137360000     325.4515    379.89676    283.94531   -11771.077    11739.327    95.951445    32.076737 
137364000     296.9578     452.9836    358.74724   -11809.027    11804.133    94.236365    32.108443 
137368000    302.58766    333.95694     475.1618   -11877.344     11842.24   -141.20486    32.053917 
137372000    247.54783    319.68798    230.73072    -11886.97    11902.741    88.957252    31.914707 
137376000    274.62247    259.67832    341.97492   -11893.016    11901.639   -82.296597     31.88932 
137380000    283.35481    280.66635     528.8393   -11924.603     11923.91   -248.17295    31.844645 
137384000    275.07234     621.2471    255.56041   -11991.905    11996.797    365.68669    31.869821 
137388000    247.86822    266.92377    342.39679   -12057.768     12077.25   -75.473025    31.821884 
137392000    282.83327    377.64816    455.92741   -12130.547    12114.316    -78.27925    31.659117 
137396000    282.32059    275.07525    248.93868   -12170.843    12159.442    26.136568     31.68637 
137400000    306.43383    288.25945    260.08688   -12211.326    12186.577     28.17257    31.768613 
137404000    286.57689     207.3436    416.22369   -12271.821    12249.385   -208.88009    31.802298 
137408000    291.34191    230.30085    487.49578   -12283.485    12277.206   -257.19493    31.877731 
137412000    297.51221    409.58332    375.17566   -12326.564    12318.474    34.407661     31.87666 
137416000    282.60369    339.07825    362.15262   -12342.347    12340.268   -23.074371    31.989314 
137420000    305.78445    225.36969    263.48692   -12382.418    12373.144   -38.117231    32.024764 
137424000    292.55663    340.33616    380.49327   -12426.148    12415.939   -40.157105    32.061781 
137428000    291.95589    446.20542    342.35828   -12438.342    12452.016    103.84713    31.894715 
137432000    288.67305    474.35991    360.45331   -12482.169    12466.099    113.90659    31.885732 
137436000     265.4978    385.63054    439.75421   -12469.663    12485.247   -54.123672    31.890392 
137440000    257.92838    269.29956     214.5422   -12512.941    12522.129     54.75736    31.892112 
137444000    274.53455    269.85359    454.27252   -12532.346    12524.568   -184.41893    31.833304 
137448000    282.53202    309.57472    197.18302   -12585.619    12592.064     112.3917    31.776393 
137452000    282.17918    341.85631    340.30637   -12653.518    12644.919    1.5499444    31.829163 
137456000     297.8332    469.09499    367.16703   -12708.505     12698.54    101.92796    31.854922 
137460000    318.00256    326.48063    318.38144   -12759.673    12725.688    8.0991856    31.908369 
137464000    288.21563    452.79723    298.89213   -12795.796    12773.446     153.9051    31.861105 
137468000    273.12488    280.31939    311.32241   -12850.175    12842.596   -31.003022    31.799235 
137472000    251.12963     285.9706    297.44554   -12867.454    12878.076   -11.474948    31.707619 
137476000    293.89694    250.18985     381.6734   -12902.295    12889.739   -131.48355    31.706784 
137480000    296.21086    394.67844    272.97798   -12978.248    12953.957    121.70047    31.733638 
137484000    318.54043       309.96    305.87835   -13036.534    13002.892    4.0816475    31.650033 
137488000    281.13569    432.27949    407.89661   -13038.515    13025.522    24.382885    31.678657 
137492000    284.87008    275.13748      309.712   -13086.868    13051.891   -34.574522    31.664008 
137496000    292.07097    273.38327    302.76754   -13135.324     13131.16   -29.384267    31.631766 
137500000    284.32643    239.87925    304.71426   -13193.856    13194.769   -64.835014     31.56974 
137504000    296.56146    281.95932    490.98369   -13223.833    13221.506   -209.02437    31.517236 
137508000     281.3497     305.1656     283.6541   -13259.058    13255.105    21.511507    31.480836 
137512000    248.75799    561.41224    198.84598   -13236.388    13251.856    362.56626     31.50999 
137516000    274.68439    325.32937    217.46181   -13266.251    13274.474    107.86756    31.520238 
137520000    291.12142    296.44239     297.0153    -13324.03    13302.332  -0.57290291    31.445478 
137524000    297.83343    321.65857    338.31266   -13376.754    13343.888   -16.654091     31.44872 
137528000    313.32641    468.26915    404.67991    -13419.03    13393.216    63.589243     31.47648 
137532000     288.2689    599.10928    297.77644    -13432.27    13422.919    301.33284    31.483595 
137536000    286.46003    475.06246    276.81344   -13448.309    13431.717    198.24902    31.542825 
137540000    260.40027    278.65573    223.66133   -13488.017    13474.562    54.994402    31.572871 
137544000    260.97302    402.04106    425.62135   -13510.889    13506.588   -23.580289    31.555249 
137548000     300.3416    153.14944    151.55309   -13588.879     13558.36    1.5963502    31.549759 
137552000    260.04829    300.99049    204.06102   -13622.392    13607.289    96.929475    31.543209 
137556000    293.67363    456.68868    438.37012   -13687.164    13651.232    18.318564    31.462061 
137560000    286.42078    364.93632     217.6991   -13711.411    13679.506    147.23722    31.407143 
137564000    291.56975    459.84964    296.59666   -13738.252    13717.195    163.25298    31.396622 
137568000    258.25823    250.30912    471.14207   -13756.624     13776.49   -220.83296    31.390313 
137572000    284.46542    345.91441    305.21483   -13817.299     13816.81    40.699577    31.363541 
137576000    263.16811    386.63642     231.7598   -13815.199    13813.095    154.87662    31.338906 
137580000    272.26349    323.48592    402.64715   -13852.181    13862.155   -79.161233     31.34061 
137584000    284.71507    372.48475    249.03904   -13899.013    13898.812     123.4457    31.330262 
137588000    278.64295    354.73971    375.93425   -13934.953    13927.237   -21.194533      31.2661 
137592000    281.91273     352.0383    255.16353    -14003.57    13995.453    96.874776    31.242537 
137596000    272.77213    300.12397    224.81247   -14055.344    14054.319    75.311498     31.22442 
137600000    283.74991    312.08752    177.52058   -14131.805    14128.211    134.56694    31.259282 
137604000    288.68188    397.25398    200.78351   -14145.615    14135.415    196.47047    31.261739 
137608000    279.04196    371.52972     357.8059   -14179.276     14170.91    13.723819    31.312053 
137612000    275.35549    288.87642    305.02581    -14195.42    14192.081   -16.149382    31.197011 
137616000    332.90706    355.53332    452.68828   -14247.129    14231.535   -97.154962    31.244423 
137620000    284.99665    286.61704     237.0027   -14286.653    14270.575    49.614333    31.242391 
137624000    264.27642    348.36553    304.85812   -14322.544    14318.719    43.507409    31.108228 
137628000    288.94573    391.93209    401.41307   -14385.549    14343.391   -9.4809809    31.057799 
137632000    298.33416    434.88489    302.51486    -14387.26    14379.165    132.37003    31.149464 
137636000    306.65263    444.14813    402.28294   -14442.631    14416.038    41.865183    31.209959 
137640000    277.15098    422.37588    102.27059    -14479.63    14465.397    320.10529    31.153966 
137644000    300.67016    228.71188    237.95405   -14489.672    14471.294   -9.2421741    31.117555 
137648000    265.91642     254.7389    422.24571   -14513.673    14519.252   -167.50681    31.037301 
137652000    280.66129    539.51477    250.27711   -14539.507     14526.05    289.23766    30.997663 
137656000    286.62818    450.35975    332.81785   -14572.114    14559.177     117.5419    31.069624 
137660000    289.55773    227.95567    378.29542    -14615.39    14605.629   -150.33975    31.124444 
137664000    270.22585    272.23688    354.20401   -14659.781    14662.149    -81.96713    31.120458 
137668000    305.12452    306.74295      176.124   -14692.163     14659.82    130.61895    31.062958 
137672000    302.26887    425.45959     338.8549   -14710.003    14701.177    86.604689    31.061954 
137676000    261.89027    255.63841    187.84345    -14745.71    14758.497    67.794965     31.11074 
137680000    282.56549    362.22219    347.50233   -14789.863    14793.387    14.719859    31.090168 
137684000    283.75961    313.80138    235.37464   -14806.065    14808.454    78.426747    30.960833 
137688000     286.8748    305.60467    275.40164    -14857.57    14850.363    30.203023    31.018606 
137692000    291.01046    354.73253    240.56908   -14890.088    14881.879    114.16345    31.013835 
137696000    267.91406    408.76122    279.89702   -14956.406    14943.289     128.8642    31.019616 
137700000    304.11962    355.86143    392.57906   -14993.411    14975.332   -36.717635    31.032522 
137704000    270.07214    186.08707    432.72934     -14985.9    14976.479   -246.64227    31.084173 
137708000    293.33763    308.66061    483.17317   -15026.011    15028.035   -174.51256    31.087715 
137712000    276.82045    362.49261    207.06391   -15058.634    15037.197     155.4287    31.168099 
137716000    275.85557     330.1902    194.27035   -15077.321    15079.377    135.91985    31.159448 
137720000    268.73086    438.02103    299.77994   -15102.264    15113.591    138.24109    31.126287 
137724000    295.33072    259.35185    310.63354   -15127.381    15116.087   -51.281691     31.04375 
137728000    276.96611    286.68977    292.90823   -15138.291    15147.395   -6.2184576    31.055334 
137732000    271.71545    420.04434    265.77132   -15167.696    15179.667    154.27302    31.059729 
137736000    284.48961    288.68217    279.65718   -15222.828    15220.762     9.024993    31.139651 
137740000    279.56782    309.85529    325.72896   -15266.228    15267.206   -15.873677    31.109537 
137744000    295.21419    359.57091    447.23089   -15303.296    15288.062   -87.659973     31.03244 
137748000    278.86153     344.3983    123.03512    -15290.36     15305.21    221.36318    31.019612 
137752000    291.33619    332.33451    363.27451   -15351.798    15343.519   -30.939997    31.062715 
137756000    275.77872    465.90415    395.17685   -15381.111      15382.9    70.727302    31.072055 
137760000    293.33138    470.87815    467.95607   -15397.749    15404.335     2.922083    30.982716 
137764000    283.79407    292.99226    183.98742   -15448.991    15449.878    109.00484    30.959636 
137768000    305.11875    340.92317    503.13616   -15497.293    15491.428   -162.21299    30.951287 
137772000    306.07106    425.96049    275.16999   -15542.851    15514.421     150.7905    30.989166 
137776000     292.3921    495.78839    400.54565   -15564.379    15544.556     95.24274     31.02835 
137780000    325.43985    410.39706    276.43386   -15631.008     15598.99     133.9632    31.036181 
137784000    283.50521     567.0334    478.20898   -15646.823    15636.562    88.824422    31.077462 
137788000    269.71639    495.24817    319.21637   -15688.832    15701.467     176.0318    31.150648 
137792000    284.05501    321.35451    450.70659   -15733.109    15726.024   -129.35208    31.181904 
137796000    282.68542    237.94416    353.85627   -15750.882     15743.24   -115.91211    31.112803 
137800000    273.62617    457.50076    244.84288   -15768.369    15775.758    212.65788    31.078129 
137804000    289.77257    213.03232    443.33296   -15813.308    15787.589   -230.30064    31.096877 
137808000    294.97209    638.32493    329.15026    -15855.24    15846.588    309.17467    31.176245 
137812000    286.78609    249.84098    293.66228   -15946.152     15904.13   -43.821292    31.161949 
137816000    293.00178     145.1306    329.59069   -15984.323    15968.573   -184.46009    31.135506 
137820000    287.93661    485.40414    449.40122    -16034.96    16018.776    36.002923    31.214199 
137824000    271.04499    297.19086     263.0639     -16051.6    16048.308    34.126961    31.168382 
137828000    282.31035    532.97666    376.33136   -16107.898    16085.097    156.64531    31.195278 
137832000    317.77065    425.28511    306.14175   -16147.984    16108.783    119.14336    31.227463 
137836000    312.73309    339.85273    309.36634   -16180.811    16158.029    30.486391     31.20531 
137840000     293.4513    416.57854    262.31627   -16178.894    16160.841    154.26227    31.205022 
137844000    304.93646    393.09802    270.80997   -16219.959    16213.943    122.28805    31.218566 
137848000    302.99247    266.09161     328.7183   -16249.634    16229.549   -62.626694    31.166089 
137852000    263.25498    408.71935    199.74362   -16260.325    16277.719    208.97573    31.148953 
137856000    288.06947    281.74109    341.98066   -16307.122    16292.302   -60.239571    31.148052 
137860000    298.13977    300.88161     275.0792   -16318.335    16304.121    25.802407     31.12036 
137864000    313.69969    307.98402    267.31874   -16350.784    16323.176    40.665282    31.132829 
137868000    302.35255    340.72833     484.5883    -16393.89    16375.469   -143.85998    31.102545 
137872000    308.90632    553.58069    537.46714   -16438.388    16416.942    16.113551    31.097187 
137876000    274.72604    348.70863    225.07259   -16458.519    16462.479    123.63604    31.103536 
137880000    258.76712    243.18835    257.31624   -16469.894    16487.623   -14.127884    31.120844 
137884000    280.65725    436.51024    222.71103   -16506.625    16523.912     213.7992    31.110362 
137888000    312.29552    443.82189    190.02518   -16555.897    16532.061    253.79671    31.065318 
137892000    307.56775     357.5615    342.32579   -16567.419    16542.129    15.235704    31.069874 
137896000    313.87906    418.77607    319.90192   -16566.411    16550.217    98.874141    31.087183 
137900000    284.33231    477.42792    386.07604   -16574.764     16572.51    91.351874    31.126881 
137904000    269.51627     190.9497    224.41176   -16592.859    16611.796   -33.462057    31.090969 
137908000    293.57281     260.7379    322.94013   -16649.696    16655.009    -62.20223    31.084949 
137912000    282.61635    240.49328    263.44987   -16701.221    16715.907   -22.956588    31.039824 
137916000    283.75414    502.04524    539.02881   -16750.839    16752.149   -36.983571    31.052568 
137920000    298.62964    315.68487    407.79231   -16810.564    16811.312   -92.107447    31.071941 
137924000    284.14875    358.42596    351.10923   -16849.554    16857.682    7.3167311    31.119704 
137928000    293.47434    449.43056    268.20314   -16908.263     16901.69    181.22742    31.124675 
137932000    249.42874    241.15531    368.35291   -16925.588    16933.778   -127.19759    31.056784 
137936000    267.98162    307.27166    365.84113   -16958.215    16954.527   -58.569474    31.012874 
137940000     292.0895    420.67092    240.48931   -16966.767    16970.759    180.18161    31.017682 
137944000    301.41425    373.78745    400.29596   -17005.706    16986.561   -26.508519    31.036328 
137948000    291.70786    290.47768    279.03649   -17020.613     17013.66    11.441183    31.055603 
137952000    276.58624    329.41736    373.78001   -17014.513    17007.409   -44.362652      31.0418 
137956000    284.91019    494.57874    485.77702   -17085.013    17082.986    8.8017199    30.988597 
137960000    287.17011    315.39268    240.48571   -17119.193    17117.456    74.906962    30.956379 
137964000    287.04071    419.35474     484.4729   -17154.747    17134.804   -65.118163    30.862339 
137968000    312.35259     385.4941    225.76127   -17170.685    17172.014    159.73283    30.970086 
137972000    322.80853    547.96699    555.06164   -17254.027    17223.181   -7.0946521    30.911686 
137976000    294.39252    205.29045    282.83996   -17269.778    17285.157   -77.549507    30.850094 
137980000    279.18805    541.28198    422.82662   -17288.128    17297.941    118.45536    30.856658 
137984000    270.14723     221.6809    284.69443   -17324.966    17334.186   -63.013535    30.904307 
137988000    270.08377    407.89318    502.20371   -17347.401    17344.768   -94.310533     30.85654 
137992000    281.73003    482.71416    229.47905   -17374.352    17376.087    253.23511    30.935962 
137996000    293.28115    359.28698    297.60973    -17456.21    17420.361    61.677248     30.97029 
138000000    300.89224    411.73654    326.84251   -17451.891     17443.35    84.894024    31.067728 
138004000    287.03823    260.67336    224.52133   -17479.568    17474.491     36.15203    31.130804 
138008000    278.74527    471.36453    259.45343   -17485.081    17481.681     211.9111    31.102856 
138012000    275.83399    338.52801     225.2834   -17541.293    17527.768    113.24461    31.097539 
138016000    307.00629    483.88367    401.23848   -17584.312    17571.504    82.645189    31.139018 
138020000    269.24019    541.89873    264.48015   -17576.301    17574.762    277.41857    31.132143 
138024000    284.40273    407.62233    150.97749   -17615.816     17623.15    256.64484    31.182592 
138028000    271.94896    356.04229    314.51919   -17676.183    17667.944    41.523095    31.168524 
138032000    274.69936    306.19516    400.47963   -17727.298    17731.258   -94.284465    31.155025 
138036000    266.11181    296.85084    233.62261   -17780.415    17789.605    63.228228    31.258738 
138040000    241.92039    265.26024    306.61586   -17792.036    17814.488   -41.355624    31.249284 
138044000    255.73766    221.29761    327.08072   -17813.022    17829.556   -105.78311    31.232539 
138048000    291.75417    537.11439    317.12579   -17826.914    17821.625     219.9886    31.241668 
138052000    291.36479    218.33398    333.33194   -17850.254    17841.046   -114.99796     31.23355 
138056000    280.95716    448.31746    300.62914   -17897.326    17886.533    147.68831    31.244893 
138060000     289.1912    447.24081    345.79691    -17950.54    17936.079     101.4439    31.216215 
138064000    283.03687    320.29038    277.19046   -17963.829    17974.434    43.099919    31.246212 
138068000     276.2926    215.77733    324.51065   -17994.689    17997.408   -108.73332     31.26262 
138072000    299.06577    449.31439    544.36675   -18053.765    18047.795   -95.052356    31.286758 
138076000    283.59868    557.68345    304.14762   -18047.505     18058.81    253.53583    31.265276 
138080000    253.59656    186.53731    280.72607   -18073.974    18094.691   -94.188758    31.256853 
138084000    285.02002    264.14086    351.51648   -18134.903    18144.085   -87.375617    31.294137 
138088000     283.0324    309.48961    252.60781   -18169.942    18166.174      56.8818    31.226605 
138092000    290.46366    328.67693    514.93325     -18159.7    18167.721   -186.25632    31.196583 
138096000    251.28061    338.32171    248.80852   -18172.852     18187.51    89.513191    31.139266 
138100000    270.10024    252.08037     297.6917   -18187.898    18214.188   -45.611323    31.148203 
138104000    281.77755    316.07929    231.66785   -18197.821    18213.189    84.411437    31.187264 
138108000    255.96733    400.15831    269.00459   -18233.931    18246.763    131.15372    31.157597 
138112000    262.29898    426.88178    343.77989   -18232.926    18242.935    83.101892    31.090679 
138116000    266.63763    214.66928    287.60463    -18292.92    18288.207   -72.935358    31.020807 
138120000    251.07754    346.22619    197.79322   -18338.066    18355.914    148.43297    30.985305 
138124000    274.90617     281.3105    277.94029   -18407.374    18416.244    3.3702091    30.970324 
138128000    275.35907    243.40419    275.93958   -18461.107    18463.816    -32.53539    30.939001 
138132000    262.84451    134.55088    367.37559   -18503.653    18502.862   -232.82471    30.888124 
138136000    287.72377    223.19179    154.72059   -18557.134    18536.737    68.471205    30.862736 
138140000    281.42427    446.31535    269.80801   -18607.154    18591.933    176.50734    30.920386 
138144000    299.70469    649.00396    270.19582   -18666.225    18659.024    378.80814    30.960289 
138148000    298.99133    267.26797    329.03759    -18725.78    18713.517   -61.769625    30.949543 
138152000    287.27585    520.38637    337.77134   -18749.343    18747.085    182.61504    30.954882 
138156000    261.59963    326.15944    428.94535   -18784.114     18794.43   -102.78591    30.922283 
138160000    293.91792    409.04854    339.65173   -18833.179    18836.344    69.396806    30.920533 
138164000    280.01506    567.55011    234.67496   -18872.325    18874.854    332.87515    30.907233 
138168000    246.28191    235.45782     218.0381   -18900.426    18923.056    17.419724    30.919417 
138172000    263.77245    296.60417    302.81061   -18942.965    18961.633   -6.2064398    30.918956 
138176000    287.42207    525.49037    380.80033   -18977.778    18986.227    144.69004     30.89669 
138180000    282.35417    380.96445    260.34591   -19031.349     19015.55    120.61854    30.891741 
138184000    290.59555    544.24351     191.6912   -19053.784    19034.822    352.55231     30.88819 
138188000    280.81698    389.71025    189.88619   -19082.531    19082.547    199.82406    30.898611 
138192000     273.5187    266.00154    349.65203   -19082.616    19089.057   -83.650498    30.870066 
138196000    259.27448    243.17152    211.86589   -19112.516    19130.637    31.305633     30.89791 
138200000    257.32617    416.20942    402.03535   -19147.176    19150.991    14.174073    30.996468 
138204000    268.28122     287.5964    258.38026   -19158.759    19162.886    29.216139    30.941712 
138208000    293.18832    206.51723    395.85876    -19204.77    19206.544   -189.34153    30.964766 
138212000    286.01749    568.91098    400.59143   -19245.726    19258.983    168.31955    30.948983 
138216000    293.42839    342.94905    217.19537   -19288.341    19283.542    125.75368    30.925232 
138220000    309.70655    412.74012    440.39527   -19318.065    19302.603   -27.655144     30.92607 
138224000    277.54024    289.03165    360.11805   -19351.389    19356.485   -71.086392    30.845483 
138228000    283.98479    386.02397    357.25916   -19405.862    19383.359    28.764814    30.923436 
138232000     291.4486     471.9724    479.68042   -19429.648    19406.735   -7.7080223    30.915994 
138236000     287.7166    156.82879    290.63375   -19445.734    19444.457   -133.80496    30.879452 
138240000    301.93985    351.37333    315.28039   -19508.349    19488.907    36.092948    30.889113 
138244000    303.40628    413.15457    579.98233   -19567.364    19541.286   -166.82776    30.855232 
138248000    320.78722    316.56441    490.41984   -19588.641    19582.473   -173.85543    30.828626 
138252000    282.66798    442.24908    483.25498    -19625.96    19609.867   -41.005896    30.830623 
138256000    280.11657    462.61133    268.29896   -19641.996    19649.963    194.31237    30.872576 
138260000    264.98414    155.26203    309.31452   -19663.736    19669.757    -154.0525    30.822568 
138264000    284.12235    277.54602     226.0041   -19696.031    19680.741    51.541927    30.837902 
138268000    251.56343    273.57792    243.30174   -19708.916    19713.963    30.276173    30.847617 
138272000    325.74436    508.81588    268.07054   -19747.925    19732.665    240.74534    30.818464 
138276000    300.39335    510.70147    373.49483   -19780.288    19784.791    137.20664     30.80685 
138280000    281.48414    346.66988    544.51633    -19810.15    19815.439   -197.84646    30.822304 
138284000    291.49668    270.00493    283.66085   -19836.003    19833.155   -13.655919    30.768722 
138288000    260.16061    286.18362    298.72666   -19859.895    19869.354    -12.54304    30.751853 
138292000    296.39955    354.58353    320.57526   -19907.868    19912.993    34.008275    30.753179 
138296000    303.90037    404.47187      265.785   -19964.843    19967.247    138.68687    30.770088 
138300000    292.94408    299.33227    210.35566   -20014.809    20027.896    88.976609     30.79113 
138304000    272.49763     275.9852       342.68   -20041.081    20052.911   -66.694802    30.815858 
138308000    280.66587    432.11594    393.35685   -20081.257     20089.99    38.759091    30.833078 
138312000    277.25778    373.47132    360.87974   -20163.989    20161.278    12.591576    30.775675 
138316000    273.20102     526.6401    403.54777   -20233.353     20217.45    123.09232    30.724935 
138320000    265.39224    314.25645    274.96388   -20264.736    20267.753    39.292575     30.72853 
138324000    309.39595    170.21064    320.51253   -20320.912    20314.859   -150.30189    30.702794 
138328000    310.03512    184.16365    251.89785   -20350.036    20343.138   -67.734204     30.67144 
138332000    241.44517    240.76288    121.43509   -20343.567    20369.325     119.3278    30.682278 
138336000    279.27397    591.68323    231.10229   -20423.266    20413.301    360.58094    30.703176 
138340000     265.9627    356.53286    216.99973   -20445.487    20455.697    139.53313     30.71608 
138344000    270.01191    425.34988    321.38065   -20498.077    20474.475    103.96923    30.705915 
138348000    259.67091    481.63065    325.56843   -20508.725    20540.561    156.06222    30.758252 
138352000    279.72476    288.27029    326.57074   -20525.806    20531.963   -38.300454    30.750083 
138356000    285.14283    270.93028    470.32829   -20573.466    20557.425     -199.398    30.781891 
138360000     306.9576    327.68789     361.9763   -20611.447    20597.623   -34.288412    30.732208 
138364000    297.82598    584.60992    186.22062   -20629.062    20634.185     398.3893    30.798646 
138368000    272.06105    268.25616    274.01596   -20667.011     20677.16   -5.7598013    30.814995 
138372000    266.19695    431.63074    207.96284    -20717.97    20715.917     223.6679    30.796044 
138376000    291.46747    315.79036    533.52868   -20754.379     20745.99   -217.73833     30.80122 
138380000    283.88256    512.50097    353.70361   -20792.461    20791.513    158.79736    30.809152 
138384000    277.78604    393.13077    294.64344   -20851.812    20866.416    98.487327    30.832554 
138388000    260.70433    246.49323    326.80253   -20906.001    20906.539   -80.309295     30.89863 
138392000    294.16049     412.9496    422.17367    -20936.19    20929.725   -9.2240719    30.911485 
138396000     296.7073    680.88751    264.25538   -20962.246    20947.256    416.63212    30.832395 
138400000    273.90751    314.73466    438.15394   -20990.523    21003.211   -123.41928    30.793717 
138404000    253.14886    280.65422    347.93139   -21020.836    21050.105   -67.277171    30.841107 
138408000    262.47356    363.06981    261.05328   -21091.155    21110.349    102.01652    30.836057 
138412000    304.20611     384.8272    300.52657   -21156.663    21140.106    84.300626    30.818391 
138416000     274.1146    342.41237    304.95094   -21183.407    21177.081    37.461424    30.839212 
138420000    302.69057    209.61235    312.21577   -21193.894    21178.816   -102.60342    30.844317 
138424000    291.84682    250.06317    394.37988   -21201.349     21196.67    -144.3167      30.7798 
138428000    289.32883    274.09555    203.42454    -21213.87    21214.328    70.671005    30.801265 
138432000    260.37262    467.82045    298.91536   -21237.484    21259.738    168.90509    30.797544 
138436000    266.53879    224.75297    257.04775    -21276.18    21289.213   -32.294777    30.806621 
138440000    275.88664    167.89289    236.45877   -21312.528    21315.679   -68.565886    30.776669 
138444000    314.49015    465.91341    507.47974   -21337.805    21320.552   -41.566327    30.830413 
138448000    275.96884    354.64222    430.32196   -21363.645    21372.792   -75.679739    30.827477 
138452000    266.75571    278.33856    193.63126   -21384.461    21393.264      84.7073    30.833747 
138456000     290.9765    284.71375    409.91503   -21417.466     21410.23   -125.20128    30.898415 
138460000    245.32052     236.6648    325.95462    -21431.54     21464.04   -89.289815     30.93401 
138464000    289.12148    321.72486    242.23787   -21503.995    21482.915    79.486991    30.961931 
138468000    255.28755    285.67795    273.40392   -21522.715    21510.571    12.274037    30.960023 
138472000    303.32491    317.85852    253.92119   -21553.014    21540.512     63.93733    30.975209 
138476000    258.65825    314.84377    272.03855   -21553.776    21579.441    42.805224    30.908223 
138480000    281.60813    354.13414    411.43294   -21622.601    21614.342   -57.298803    30.915152 
138484000     283.6648    327.00628    289.18573   -21637.165    21628.138    37.820554    30.928582 
138488000    291.90552    387.73947    291.19916   -21696.049    21673.019    96.540301    30.897189 
138492000    306.02955    397.29882    216.56024   -21739.465    21726.216    180.73858    30.963267 
138496000    294.69138    293.13499    239.96247   -21757.925    21745.721     53.17252    30.959792 
138500000    316.64373    335.76892     287.2751   -21785.562    21769.689    48.493825    30.989181 
138504000    278.55483     439.6861    97.190976   -21829.977    21822.467    342.49513     30.96066 
138508000    293.45475    232.88298    282.26569   -21843.858     21821.14   -49.382713    30.956842 
138512000    286.36709    397.18416    269.36287   -21874.369    21876.966    127.82129    30.992322 
138516000    265.80176    452.73077    169.34448   -21924.779    21947.357    283.38629       30.981 
138520000    281.00091    279.52865    458.04432   -22006.039    21996.716   -178.51567    30.948124 
138524000    262.57648    411.48453    245.18979   -22049.217     22047.22    166.29474    30.986515 
138528000    306.20867    381.99084    603.51265   -22084.099    22071.005   -221.52181    30.966071 
138532000    288.56998    355.76114    487.70978   -22103.191    22112.926   -131.94864     30.98877 
138536000    293.53287     420.7838    405.28268   -22154.255     22148.43    15.501121    31.021713 
138540000    286.73343    303.82731    314.99822   -22191.813    22180.264   -11.170911    31.068656 
138544000    294.05321    290.49989    219.73227   -22221.523    22218.035    70.767619     31.06009 
138548000    302.25049    461.92396    269.82538   -22268.712    22265.365    192.09858    31.080869 
138552000    277.19231     277.4137     345.0214   -22275.379    22283.896   -67.607694     31.10879 
138556000    295.23393    565.28899    261.38683    -22318.04    22295.323    303.90216    31.136588 
138560000    296.92554    315.49974    350.38758   -22348.318    22330.094   -34.887834    31.161254 
138564000    287.98927    265.15446     412.7804   -22351.339    22337.172   -147.62594    31.163782 
138568000    269.85068    444.67171    241.30456   -22373.907    22374.589    203.36715    31.157366 
138572000     280.8238    294.51911     464.7522   -22392.358    22388.793   -170.23309    31.217954 
138576000    274.81214    368.65916    221.39699    -22407.19    22405.821    147.26217    31.307316 
138580000    285.65287    206.33225    172.79391   -22438.312    22451.574    33.538342    31.328828 
138584000    295.53892    343.26919    169.17285   -22467.999    22465.118    174.09634    31.355589 
138588000    301.19491    435.67116    393.07471   -22519.368    22499.894    42.596454    31.280453 
138592000    282.47775    288.69356    492.19039    -22542.52    22536.189   -203.49682    31.272903 
138596000    292.65297    371.25204    301.20273   -22549.165    22553.338     70.04931    31.327424 
138600000    324.24666     491.4165    368.78748   -22562.669    22543.819    122.62901    31.247743 
138604000    284.65806    279.86196    320.80503   -22590.502    22578.736   -40.943076    31.228831 
138608000    267.59379    391.83194    377.36359   -22660.324     22659.06    14.468348    31.244931 
138612000    292.67169    438.49128    369.69738    -22702.21    22690.207    68.793896    31.315018 
138616000    269.87521    352.62834    278.94065   -22708.909    22705.461    73.687689    31.279939 
138620000    286.72113     273.4888     297.9242   -22760.573    22736.496   -24.435404    31.246032 
138624000    259.00985    323.02627    343.38463    -22765.31    22768.811   -20.358361    31.254799 
138628000    282.74631    257.79352    437.13949   -22778.186    22797.088   -179.34597    31.233563 
138632000     279.3103    487.83498    318.04986   -22853.178    22843.693    169.78512    31.241257 
138636000    291.13655    330.18646    388.62006   -22895.359    22882.541     -58.4336     31.23501 
138640000    274.89846    226.27699     237.5038   -22931.218      22943.7   -11.226812    31.249991 
138644000    262.52458    318.36522    277.98733   -22983.603    22993.547     40.37789    31.260358 
138648000    285.14168    462.82209    305.29013   -22996.854    22986.607    157.53196    31.197207 
138652000    289.86691    539.75055    198.29605   -23057.659    23049.775    341.45451    31.230462 
138656000    291.71767    375.40439     304.8221   -23081.304    23073.548    70.582295    31.251107 
138660000    293.96316    415.42201    401.07021   -23139.042    23136.555    14.351799    31.304306 
138664000    258.57267    487.54381    262.59844   -23191.092    23191.573    224.94536    31.343266 
138668000    280.38518    213.84824    369.62963   -23235.166    23228.542   -155.78139    31.336908 
138672000    297.89775    388.27427    326.65353   -23247.468    23241.497     61.62074    31.308938 
138676000    278.34346    411.94813    337.05799    -23279.93    23265.648    74.890139    31.309277 
138680000    265.52855    383.75829    230.00625   -23295.319    23299.026    153.75205    31.329617 
138684000    271.59547    322.79299    356.01803    -23288.48    23298.345    -33.22504    31.312433 
138688000    287.72239    516.39577    345.15136   -23358.943    23342.283    171.24441    31.329525 
138692000     279.2584    396.94822    359.18218   -23374.947    23356.309    37.766037    31.239358 
138696000    304.71091    439.12179    361.36702   -23418.944    23392.752    77.754766    31.229237 
138700000    292.10564    274.98454    370.78584   -23475.034     23458.63   -95.801301    31.162593 
138704000    297.66492    651.83191    272.68446    -23491.24    23482.861    379.14745    31.136755 
138708000    310.68297    399.34066    384.95407   -23537.713    23529.002    14.386583    31.171712 
138712000     279.5165    274.34674    248.65994    -23574.28    23572.072    25.686803    31.164912 
138716000    295.36023     334.5405    478.02275   -23615.768    23613.864   -143.48226     31.21668 
138720000    300.65813     591.0356    418.20783    -23667.42    23662.771    172.82776    31.228217 
138724000    301.50416    379.01514    279.97337   -23680.496    23677.527    99.041777    31.243168 
138728000    286.14801    349.76351    326.83938    -23699.24    23679.793    22.924131    31.241179 
138732000    271.20648    326.54425    290.39465   -23682.417    23693.298    36.149595    31.147149 
138736000    261.92071    387.94226    322.05406   -23719.708    23740.112    65.888194    31.186427 
138740000    290.02877     244.8212    329.89249   -23759.971    23769.315   -85.071286    31.168383 
138744000    277.83961    238.32849    249.91983   -23833.607    23829.994   -11.591339    31.166609 
138748000    298.25719     257.3903    450.73174   -23864.543    23882.893   -193.34144    31.129944 
138752000     279.6067    357.15188    451.32701    -23919.28    23932.376   -94.175133    31.108296 
138756000    280.80744    395.62124     311.4889   -23974.269    23977.812    84.132343    31.144989 
138760000    311.35181    363.81277    221.50712     -24023.6    24022.341    142.30565    31.152507 
138764000    290.98446    430.93147    380.15022   -24061.992    24042.755    50.781256    31.157108 
138768000    282.09513    440.47263    319.88839   -24098.724     24093.31    120.58425    31.168914 
138772000    280.00387    334.80626    310.02113   -24141.847    24142.746    24.785135     31.13842 
138776000    271.37894    324.59793    304.46068   -24174.033    24178.484    20.137253    31.100611 
138780000    270.37967    256.22847    199.09995   -24236.261    24244.504    57.128523    31.090272 
138784000    281.05968    507.62598    352.10106   -24264.641    24282.704    155.52493    31.061009 
138788000    276.04437    403.30912    385.30261   -24267.482    24283.699    18.006507    30.981588 
138792000    306.27941    506.91391    303.34414    -24313.38    24293.114    203.56977    31.017633 
138796000    294.62588      397.669    294.50701    -24346.18     24342.96    103.16199    30.967104 
138800000    276.36498     495.0108    349.87481   -24393.148    24360.855    145.13599     30.99534 
138804000    279.68919    188.79337    619.60491   -24405.861    24405.274   -430.81154     30.90882 
138808000    287.30562     293.5518    354.32745   -24445.838    24438.909   -60.775652    30.862341 
138812000    296.41777    268.48368    331.85669   -24475.156    24461.976   -63.373009    30.868394 
138816000    268.47938    434.81182    210.25763   -24501.544     24517.52    224.55419    30.915486 
138820000    306.98944    543.72017    292.25492   -24553.599    24552.414    251.46525     30.88093 
138824000    319.28966    617.32701    504.68611   -24585.321    24564.056     112.6409     30.88109 
138828000     274.8868    273.94541    215.56499    -24585.35    24594.466    58.380421    30.895754 
138832000    314.00341    279.22505    344.42344   -24654.061    24612.322   -65.198381    30.895945 
138836000    295.78761    205.24971    445.72136   -24684.395    24661.274   -240.47166    30.964417 
138840000    281.71654    456.44996    176.14395   -24738.862    24728.265    280.30601    30.961512 
138844000    282.32287    266.31914    452.96529   -24801.342    24801.657   -186.64615    30.905326 
138848000    265.16072    206.70466    274.46381   -24831.124    24833.534   -67.759151    30.807019 
138852000    296.08836    364.76683    366.47817   -24891.117    24868.939   -1.7113439     30.83291 
138856000    275.01741    186.55346    328.35508   -24913.521    24910.042   -141.80162    30.798848 
138860000    288.05521    304.56345    419.12606   -24982.906    24967.969   -114.56261    30.810333 
138864000     276.3184    439.47038    406.51559   -25006.222    25004.774    32.954796     30.78718 
138868000     317.6661    570.89513    255.91995   -25057.722    25040.935    314.97518    30.802048 
138872000    260.04781    323.11072    262.53511   -25067.924    25079.584    60.575603    30.779796 
138876000     258.9965    310.66902    290.52921   -25091.822    25112.156    20.139815    30.792417 
138880000    298.23611    280.26399    220.63069   -25120.863    25113.219    59.633299    30.831866 
138884000    259.52712    344.13886    349.74305   -25153.348    25172.824   -5.6041911    30.807983 
138888000    294.20302    505.48972    422.19307   -25187.133    25210.177    83.296642    30.782722 
138892000    310.08815    437.89863    439.67919   -25226.601    25224.551   -1.7805586    30.776349 
138896000     286.2727    323.64214    561.70997   -25265.752    25271.331   -238.06783    30.850794 
138900000     281.2689    390.48119    300.63861   -25305.132     25292.87    89.842587    30.846645 
138904000    288.73584    367.49635    262.94546   -25347.169    25342.619     104.5509    30.791396 
138908000    264.61855    397.12274    283.82844   -25370.454    25384.681    113.29429    30.810969 
138912000    288.27548    306.45376    322.00602   -25397.992    25380.828   -15.552261    30.851179 
138916000    262.12972    494.13344    306.08489   -25417.936    25440.146    188.04855     30.83445 
138920000    298.89906    390.58885    246.38554   -25448.708    25432.896    144.20331    30.893785 
138924000    305.99622    255.31725    551.95462   -25482.221     25480.74   -296.63737    30.901645 
138928000     310.6673    341.04018    518.20169   -25532.176    25504.621   -177.16151    30.911821 
138932000    277.91786    258.46782    306.26202    -25566.52    25544.377   -47.794203    30.883882 
138936000    266.74556    253.29407     264.9226   -25583.615    25577.224   -11.628526     30.84778 
138940000    319.27889    481.36326    236.37446   -25619.061    25617.194     244.9888    30.847633 
138944000     251.7672    244.79132    367.25581    -25616.92    25616.309   -122.46449    30.858028 
138948000    252.76399    410.90496     261.9099   -25622.716    25641.824    148.99507    30.903378 
138952000    292.06294    417.73329    229.51975   -25662.109    25668.734    188.21355     30.95886 
138956000    300.36703    731.31598    552.16853   -25703.498    25702.073    179.14745    30.967391 
138960000    257.12563    292.86192    185.22769   -25716.628    25725.008    107.63423    30.944195 
138964000    258.15096    481.48895    191.59607   -25708.375    25738.917    289.89288    30.961299 
138968000      286.501    326.61337    262.77749   -25743.886    25762.456    63.835876    30.962219 
138972000    291.68253    407.13872    304.92226   -25802.076    25808.813    102.21646    30.938557 
138976000    259.34432    389.75539    308.69135   -25851.078    25857.195    81.064035    30.989856 
138980000    285.54184    401.30962    461.14925   -25903.707    25898.733   -59.839628    30.981243 
138984000    281.45825    401.37607    357.08029   -25908.944     25927.49    44.295776    30.996547 
138988000    270.31647    321.99608    555.89795   -25909.787    25921.733   -233.90187    31.025896 
138992000    279.93638    435.30808    218.95314   -25941.544    25954.206    216.35494    30.994224 
138996000    269.12579    302.43556    441.42116   -25974.488    25985.218    -138.9856    30.959281 
139000000    261.18865    545.91778    233.49763   -25995.237    26005.206    312.42015    30.941413 
139004000    272.77856    282.10035    442.00948    -26047.34    26052.366   -159.90913    30.961764 
139008000    277.23169    321.96502    470.51526   -26104.028     26116.43   -148.55024    30.953368 
139012000     281.2057    308.44201    294.14216   -26150.817    26152.697    14.299854     30.96268 
139016000    288.40384    378.16492    371.42036   -26174.637    26182.026    6.7445552    30.963007 
139020000    323.19489     303.2343    325.02656   -26216.239    26199.887   -21.792256    30.967993 
139024000    292.52564    400.75852    309.95699   -26255.957    26243.168    90.801527    30.935108 
139028000    284.90459    391.22836    648.44234   -26282.665    26265.081   -257.21398    30.889364 
139032000    279.45776    257.59579     300.7673   -26296.208    26311.384   -43.171512    30.892407 
139036000    283.74808    311.14102    501.19789   -26349.654    26338.944   -190.05687    30.886081 
139040000    259.29872    205.91212     263.1762   -26343.279    26357.686   -57.264086    30.852326 
139044000    293.46652    524.41306     338.7941   -26400.382    26403.699    185.61897    30.921644 
139048000    281.61195     400.5323    268.89711   -26425.655    26435.264    131.63518    30.916361 
139052000    247.91311    322.99245    322.62176   -26446.737    26474.095   0.37069778    30.952409 
139056000    278.51637    298.89595    277.45782   -26497.815    26508.979    21.438136     30.93877 
139060000     277.6388    392.43507    291.39956   -26473.364    26483.461    101.03551    30.925811 
139064000    283.84272    297.73437    366.29819   -26502.086    26511.042   -68.563816    30.922203 
139068000    309.34344    458.48345    342.87431   -26559.956    26537.478    115.60914    30.965642 
139072000    299.23028    433.73111    277.16387   -26568.501    26566.065    156.56725     30.95838 
139076000    272.02354    537.18017    290.90791   -26626.983    26627.148    246.27226    31.011993 
139080000     270.5106    301.18836    278.88578   -26647.601    26661.029    22.302578    30.948609 
139084000    251.19492    300.68515    282.87527     -26669.1    26688.128    17.809886     30.95499 
139088000    279.67679    335.88155    237.73934   -26714.277    26721.678    98.142214    30.937043 
139092000    311.09607    420.06799    412.30406   -26740.055    26739.858    7.7639307    30.944827 
139096000    269.54748    448.82777    223.00678   -26779.909    26788.636    225.82099    30.953234 
139100000    265.01168    453.15272    223.44818   -26805.818    26821.011    229.70454    30.941649 
139104000    302.51955    574.30052    456.87635    -26874.04        26867    117.42417    30.957283 
139108000    290.87161    409.34491    257.15632   -26928.172      26925.6    152.18859    30.953231 
139112000     283.2171     291.0284    287.95367   -26984.384    26990.501    3.0747337    30.943488 
139116000    290.78658    471.16334    257.33454   -27020.225    27023.635    213.82881    30.929463 
139120000    263.96621    344.89713    209.16136   -27024.045    27043.177    135.73577    30.993715 
139124000    255.23442    247.51617    337.74819   -27049.392    27079.849   -90.232023    30.977975 
139128000    303.13213    213.24931    524.76564   -27095.994    27091.203   -311.51633    30.940374 
139132000    275.55501    245.61341    216.07504   -27133.578    27126.783    29.538371    30.925273 
139136000    275.48122    321.13273    311.94776   -27173.375    27185.395    9.1849745    30.897806 
139140000     291.6375    324.10235    436.02924   -27214.106    27209.466   -111.92688    30.944139 
139144000    272.37302    508.05207     265.3926   -27265.604    27271.497    242.65947    30.940938 
139148000    258.42475    201.10969     274.8312   -27289.974    27319.014   -73.721509    30.903756 
139152000    291.78407    516.53851    411.59317   -27338.177    27346.641    104.94534    30.890215 
139156000    269.15287    297.09324    269.74554   -27381.693     27390.99    27.347694      30.8526 
139160000    280.19054    342.39725      361.973   -27416.806    27426.022   -19.575755    30.858242 
139164000    307.23836    357.32548    517.11383   -27434.281    27438.379   -159.78835    30.879691 
139168000    263.47161    412.71648    288.64339   -27435.628     27446.04    124.07309     30.88331 
139172000    316.88883    472.19338    307.00704   -27463.018    27447.911    165.18634    30.857666 
139176000    275.25843    278.70191    362.80715   -27459.829    27462.827   -84.105249    30.824649 
139180000    298.04222    274.09582    271.35853   -27530.051    27533.109    2.7372872    30.846649 
139184000    275.09471    99.239157    284.77436   -27549.889    27558.539    -185.5352    30.800981 
139188000    308.25354    386.19478    430.52529   -27575.474    27553.885   -44.330515    30.775651 
139192000    278.01421    502.86513    259.13276   -27596.589    27603.082    243.73238    30.799823 
139196000    269.55158    511.53564    227.39858   -27649.176    27662.208    284.13705    30.819453 
139200000    267.34193    401.50145    422.73854   -27658.989     27665.67   -21.237091    30.835944 
139204000    281.80829    226.99064    224.64808   -27683.521    27702.203    2.3425568     30.77462 
139208000    286.79834    276.81277    246.88653   -27745.658    27732.893    29.926244    30.809047 
139212000    300.57204     250.4923    277.12815   -27768.309    27767.718   -26.635846    30.829713 
139216000    317.76675      382.021    440.25049   -27814.576    27804.752   -58.229485    30.822076 
139220000     299.7013    381.84605    366.92047    -27813.68    27819.281    14.925575    30.825694 
139224000    279.39038    474.95728    337.43022   -27833.844    27848.426    137.52705    30.858043 
139228000    286.24495    355.16494    343.37655   -27892.201    27901.856    11.788384    30.821165 
139232000     266.0439    254.79027    395.05972   -27928.181    27942.752   -140.26945    30.795529 
139236000    287.72923    245.70978    332.23269    -27956.63    27977.804   -86.522915    30.820422 
139240000    307.21792    333.26199    537.24765   -28021.268    28019.395   -203.98565     30.84402 
139244000    268.10683    328.04429    435.25451   -28064.012    28070.569   -107.21023    30.867895 
139248000    306.41301    389.41702    280.91636   -28106.931    28098.248    108.50066    30.868851 
139252000    261.41361    137.87377    319.14556   -28128.013    28142.943   -181.27179    30.887809 
139256000    301.19756    371.37327     336.7968   -28189.425    28168.525    34.576473    30.895999 
139260000    277.69373    182.51658    309.96077   -28219.671    28220.341   -127.44419    30.860632 
139264000    307.71974    337.12463    198.59826   -28269.076    28258.676    138.52637    30.888029 
139268000    316.30335    319.04656    210.03336   -28285.722     28270.75     109.0132    30.924283 
139272000    302.71949    322.45339    490.09703   -28321.583    28329.533   -167.64364    30.947282 
139276000    297.77888    249.96587    446.89909   -28372.765    28370.324   -196.93321    30.896016 
139280000     303.1716    300.97455    262.70563   -28408.985    28387.396    38.268926    30.874613 
139284000    271.15611    342.64991    292.40354   -28431.063    28442.575    50.246378     30.88276 
139288000    282.44341    425.09436    334.54808    -28434.87      28445.6    90.546278    30.845419 
139292000    289.81062    391.71516     318.3815   -28454.469    28461.706    73.333658    30.862234 
139296000    298.45864    293.30014    253.16858   -28483.093    28483.911    40.131558    30.872506 
139300000    258.71965    386.86441      221.379   -28496.339    28498.946    165.48541    30.849985 
139304000    312.03339    312.76903    306.17898   -28542.325    28529.216    6.5900447     30.82129 
139308000    299.29602    370.07874    407.72496   -28585.757    28566.188   -37.646226    30.850142 
139312000    279.21171    467.02488    253.23617   -28597.619    28607.808    213.78871    30.840101 
139316000    270.85536    339.30347    276.77435   -28614.662    28623.735    62.529118    30.851227 
139320000    274.08146    417.47417    257.26275   -28627.215    28635.264    160.21142      30.8447 
139324000    314.16076    323.47053    302.03363    -28670.99     28659.73    21.436904    30.815468 
139328000    268.10491    620.41758    335.13583   -28673.743     28682.93    285.28175    30.858509 
139332000     290.6778    267.86007    384.36749   -28716.924    28699.768   -116.50742    30.842733 
139336000     274.4018    483.10225    229.46618   -28727.566    28742.454    253.63607    30.856808 
139340000    269.85861    330.77276    309.46467   -28758.542    28769.009    21.308084    30.856815 
139344000    291.24189    316.72592    366.44713   -28798.202    28795.154   -49.721218    30.847791 
139348000    299.43103    624.41026    212.11917   -28830.777     28817.81    412.29109    30.853373 
139352000    298.72352    316.79623    373.87641   -28847.864    28840.814   -57.080174    30.846578 
139356000    290.17566    469.14418    263.16128   -28891.529    28903.361     205.9829    30.841438 
139360000    285.40388    165.50219    475.62471   -28918.006    28936.347   -310.12252    30.781751 
139364000    273.86669    418.17822    372.53226   -28959.709    28977.366    45.645966    30.788985 
139368000    290.54621    307.29582    340.91289    -28992.73    28996.704   -33.617075    30.768811 
139372000     281.4655     378.9377    292.13749   -29034.606    29039.316    86.800204    30.749127 
139376000    271.36927    421.44217    230.99171   -29048.987    29060.803    190.45045    30.762307 
139380000    275.80358    401.07671    316.56639   -29099.104    29102.445     84.51032    30.723373 
139384000    279.69316    432.88877    422.89867   -29140.242    29147.266    9.9901032    30.739683 
139388000    272.07132    356.06178    211.34687   -29171.215    29195.871     144.7149     30.74194 
139392000    279.78968    367.08753    332.34312   -29234.216    29239.179    34.744402     30.74548 
139396000    286.75118     398.8547    257.22347   -29303.828     29288.02    141.63123    30.757785 
139400000    267.25756    289.60824    226.51128   -29304.213    29296.212    63.096957    30.733463 
139404000    308.75526    504.00804    530.57983   -29330.776     29315.92   -26.571791    30.697699 
139408000    267.54063    498.57815    239.95012   -29321.181    29332.328    258.62803    30.758311 
139412000    287.66438    271.66038    336.80862   -29318.493    29320.617    -65.14824    30.765731 
139416000    262.07444    347.06341    201.19902   -29316.459    29345.663    145.86439    30.763267 
139420000    285.82239    371.70549    449.91236   -29334.927    29351.956   -78.206878    30.759868 
139424000    290.90508    292.08828    243.41434   -29380.627    29387.356    48.673948    30.743621 
139428000     304.3154     502.0977    252.11545    -29419.87    29405.547    249.98225    30.729827 
139432000    293.17617    273.00289    399.74269   -29439.659    29438.397    -126.7398    30.726661 
139436000    311.90846    238.03714    434.01192   -29466.493    29447.003   -195.97479    30.730476 
139440000    286.24139    437.75669    359.41404    -29505.74    29498.844    78.342646    30.774303 
139444000    265.47954    370.22542    261.57317   -29539.789    29558.923    108.65225    30.772403 
139448000    267.50688    322.75547    289.64384   -29553.856    29567.799    33.111626    30.720015 
139452000    278.04314    289.78408    328.67432   -29599.301    29604.295   -38.890241    30.737707 
139456000    297.60605    343.11789    373.32668   -29651.576    29644.867    -30.20879    30.717609 
139460000     293.5099    454.18758    208.53727   -29698.119    29704.683    245.65031     30.72033 
139464000     292.5536    290.02013    172.46526   -29732.671     29736.03    117.55487    30.761141 
139468000    268.99239     299.3628    332.30144   -29780.849    29778.157   -32.938637    30.790426 
139472000    291.01216    479.71226    281.84187   -29822.255    29819.236    197.87039    30.809556 
139476000    291.83817    303.59504    385.42168   -29864.243     29867.15   -81.826639    30.813967 
139480000    266.69573    322.56753    410.44214   -29883.046    29894.463   -87.874617    30.787617 
139484000    282.56113    387.98228    468.80811   -29956.449    29967.703   -80.825831    30.775938 
139488000     268.0485    259.14902    370.04403   -29975.177     29998.31   -110.89501    30.802552 
139492000    274.04005    307.59951    402.51905   -30012.426    30032.953   -94.919533    30.800304 
139496000    281.58976    420.71257    390.28591   -30053.291    30060.098    30.426665    30.759049 
139500000    284.18982    252.40988    298.53727   -30080.536    30079.596   -46.127388    30.753543 
139504000    268.60343    196.71443    260.71392   -30120.337    30128.089   -63.999487    30.719864 
139508000    263.10787     413.6352    363.38477   -30133.636    30168.589    50.250422     30.71497 
139512000    248.74877    300.91439    343.67287   -30158.913    30188.941    -42.75848    30.682731 
139516000    274.63234    427.10282    239.98491   -30214.021    30223.803    187.11791    30.726306 
139520000    305.97629    397.20454    264.58539   -30273.429    30249.403    132.61916    30.694422 
139524000    273.83958    282.39009    404.74245   -30289.504    30289.295   -122.35235    30.681415 
139528000     278.0851    387.65208    203.55625   -30282.209     30304.39    184.09583    30.679498 
139532000    245.06221    214.48565    260.14183   -30314.102    30339.256   -45.656184    30.676986 
139536000    273.56747    360.22801    332.36554   -30363.149    30366.685    27.862479    30.663839 
139540000    274.05566    425.12536    311.27299    -30394.69    30408.927    113.85237    30.692474 
139544000    245.39846    336.67699    243.64449   -30422.386    30444.455    93.032499    30.713694 
139548000     254.2613    493.07327    230.49428   -30468.071    30501.541    262.57899    30.722132 
139552000    275.58234    452.09431    157.34191   -30555.611    30554.082     294.7524    30.676413 
139556000    313.09862    509.58466     264.5083   -30610.191    30608.164    245.07635    30.645309 
139560000    309.14039    435.84802    220.87969   -30631.759    30622.478    214.96833    30.662012 
139564000     297.6728    469.15172    328.78168   -30667.107     30648.75    140.37004     30.66132 
139568000    276.03902    355.17839    226.82443   -30698.968    30704.146    128.35396    30.621898 
139572000    299.99455    293.04835    332.38079   -30707.019    30699.885    -39.33244     30.59948 
139576000    297.37578    374.04325    413.04955   -30732.288    30743.044     -39.0063    30.600952 
139580000    295.61146    407.51539    423.26964    -30768.97    30788.844   -15.754256     30.59573 
139584000    277.76395    438.21597    285.09612   -30806.599    30800.192    153.11985     30.61945 
139588000    307.58046    245.71346    376.38187   -30835.185    30825.386   -130.66841    30.593738 
139592000    272.61356    229.81069    301.34555   -30872.799    30874.909   -71.534856    30.583812 
139596000    293.74055    375.24351    462.21678   -30927.288    30934.981   -86.973268    30.566465 
139600000    288.02415    331.33081     267.6716   -30940.183    30941.268    63.659215    30.614329 
139604000     306.8229    268.95009     288.0849   -30982.533    30969.505   -19.134807    30.654157 
139608000    292.86255    391.01362    315.26778   -30997.732    31006.928    75.745838    30.658061 
139612000    272.94277    482.53894    283.70921   -31001.832    31000.068    198.82973    30.684236 
139616000    276.20749    286.60136    361.08741   -31048.676    31050.053   -74.486059    30.706685 
139620000    293.38635    288.23324    455.09889   -31098.683    31079.472   -166.86565    30.668743 
139624000    284.99685    462.64507    261.72465   -31110.562    31123.461    200.92042    30.661076 
139628000     278.5617    232.09843    339.87222   -31183.013    31178.537   -107.77379    30.700309 
139632000     291.2548    511.91949     404.3816    -31200.12    31217.492    107.53789    30.690503 
139636000    285.47527    241.06302     358.5532   -31240.902    31246.514   -117.49018    30.698098 
139640000    263.23546    234.69497    332.62944   -31276.847    31288.172   -97.934469    30.749183 
139644000    280.70508    233.62572    273.79373   -31324.396    31335.367   -40.168003    30.719579 
139648000    265.81564    441.22594    328.82103   -31368.264    31385.127    112.40491    30.690268 
139652000    267.85184    333.78983     235.9965   -31391.668    31392.207    97.793333    30.691477 
139656000    298.30174    321.28154    578.35684   -31425.934    31411.715    -257.0753    30.685325 
139660000    271.19179    470.84776    311.17989   -31455.482    31467.478    159.66787    30.705382 
139664000    303.39371    381.39461    196.47078   -31495.937    31484.785    184.92383    30.772842 
139668000    284.38314    317.24472    403.28405   -31506.215    31506.752   -86.039332    30.765119 
139672000    290.33603    262.03384    500.12683   -31531.381    31516.875   -238.09298    30.737715 
139676000    288.45074    316.27941    297.58946   -31579.191    31590.563    18.689952    30.736207 
139680000    275.79363    269.12337     260.8025   -31642.639    31643.183    8.3208755    30.740166 
139684000    288.70305    593.15875    237.53358   -31677.004    31686.097    355.62517    30.744557 
139688000    295.49783    271.36736    400.68329   -31696.133    31690.771   -129.31593    30.723147 
139692000    297.94629    351.51557    481.04184    -31721.31    31711.416   -129.52627      30.7193 
139696000    277.05362    382.97523    409.29725   -31765.484    31753.772    -26.32202       30.735 
139700000    296.55332    636.68952    269.98027   -31802.693    31786.465    366.70925    30.754165 
139704000    273.60233    415.96048    321.39221    -31813.21    31838.471     94.56827    30.728714 
139708000    284.68249    413.45287    270.63601   -31852.294    31852.613    142.81686    30.714441 
139712000    271.05081    323.87517    353.20413   -31887.642    31884.379   -29.328968    30.748946 
139716000    262.69055    339.91762    272.47255    -31912.51    31924.491    67.445073    30.817389 
139720000     278.8039    319.02959    359.75862   -31919.394    31926.544   -40.729028    30.843049 
139724000    314.77619    335.36317    189.61721   -31966.489    31952.689    145.74596    30.856973 
139728000    258.12841    411.64458    307.56535   -32000.817     32019.65    104.07923    30.865466 
139732000    271.93791    542.64138    234.96961   -32037.202     32051.52    307.67177    30.863002 
139736000    280.35838    283.42119    488.90146    -32071.14    32063.728   -205.48027    30.848853 
139740000    277.51411    468.45706     244.8859   -32070.611    32085.736    223.57115    30.843498 
139744000    283.72614    489.83726    501.85008   -32067.084    32086.584   -12.012819    30.881197 
139748000    260.34657    370.24264    419.20636   -32064.917    32105.977   -48.963728    30.898496 
139752000    288.92382    394.04894    390.44246   -32102.444    32119.871    3.6064782    30.919054 
139756000    287.09589    281.30925    464.21709   -32133.167    32147.454   -182.90784    30.897585 
139760000    266.89281    385.71432    221.27378   -32183.413    32179.955    164.44054    30.870242 
139764000     297.2717    552.04127    248.88623   -32243.115      32234.4    303.15504    30.857763 
139768000    263.89894     403.3764    350.93586   -32223.436    32251.471     52.44054    30.877385 
139772000    268.96458    373.97338    242.59452   -32262.027    32275.148    131.37886    30.870441 
139776000    287.91101    275.23066    403.22707   -32310.823    32309.685    -127.9964    30.849705 
139780000    253.45074    378.62286    292.01742   -32352.847    32375.759    86.605444    30.848447 
139784000    292.83906     318.2628    277.17159   -32435.839    32420.241    41.091213    30.841111 
139788000    267.69245     248.3027    355.92585   -32472.971    32481.343   -107.62315    30.815872 
139792000    309.94264    541.52865    208.61346     -32526.8    32514.806    332.91519    30.803345 
139796000    303.93215    498.99111    382.34654   -32536.506    32536.355    116.64457    30.805545 
139800000    286.34972    355.56102    292.81351   -32591.233    32574.229    62.747509    30.814491 
139804000    258.73056    254.24588    264.47957   -32599.478    32627.682   -10.233691    30.821164 
139808000    280.37696    358.47042    542.47679   -32634.526    32643.279   -184.00638    30.834992 
139812000    297.96479    385.21845    278.42102   -32691.086    32698.225    106.79743    30.828452 
139816000    295.30234    370.25563     245.1299   -32730.073    32718.053    125.12573    30.844063 
139820000    282.18417    283.71663    375.46815   -32765.786    32773.154   -91.751513    30.821321 
139824000    319.54867    509.42242    222.33201   -32836.202    32814.094    287.09042    30.837503 
139828000    283.34844    356.55342     297.9401   -32845.353     32850.21    58.613322    30.856488 
139832000      284.497     240.1178    239.18604   -32879.029      32886.2   0.93176031    30.843431 
139836000    288.59638    210.81373    244.68458   -32908.558    32912.956    -33.87085    30.836858 
139840000    287.35517    382.71127    389.02612   -32969.643    32954.598   -6.3148526     30.87352 
139844000    254.43623    394.30249    257.91071   -32973.687      32975.8    136.39178    30.882686 
139848000    266.05753    356.95046    462.66654   -32997.506    33021.819   -105.71608    30.863708 
139852000    268.06342    325.17148    373.36867   -33041.378    33051.481   -48.197182    30.845113 
139856000    264.47897    310.29113    310.96907   -33104.189    33118.612  -0.67794067    30.868799 
139860000    293.75122    428.18964    455.92784   -33154.412    33159.603   -27.738205    30.857628 
139864000    303.50862    191.52709    268.96746   -33194.759    33192.436    -77.44037     30.82307 
139868000    277.49893    296.01176    206.67298   -33213.752    33221.364    89.338776    30.805882 
139872000    258.71612    380.03118    461.43275   -33238.464    33255.808   -81.401566    30.760111 
139876000    251.53345    388.07725     597.3183   -33255.713     33275.08   -209.24106    30.778575 
139880000    299.33546    326.09926    292.01334   -33309.505    33298.839    34.085924    30.767269 
139884000    302.72893    356.91748    236.52903   -33313.764    33308.561    120.38844    30.764135 
139888000     267.2442    277.49351    193.45968   -33328.668    33350.246    84.033835     30.77229 
139892000    292.82604    490.92296    278.34719   -33387.002     33378.04    212.57577     30.78735 
139896000    288.36891    680.11432    231.60763   -33412.713    33405.214    448.50669    30.811605 
139900000    274.14528    403.59525    291.77189   -33446.421     33460.38    111.82336    30.774366 
139904000     268.4391     379.5823    341.71379    -33501.59    33500.406    37.868507    30.811293 
139908000    300.74224    470.10575    279.47979   -33547.358    33544.631    190.62596    30.790619 
139912000    273.41542    372.88186    305.46747   -33563.536    33566.499     67.41439    30.827971 
139916000    263.85684    191.33914    278.57699    -33586.77    33605.285   -87.237851    30.792249 
139920000    275.37276    335.95202    323.56503   -33632.174     33631.63    12.386997    30.774297 
139924000    287.93341    450.26431    319.40276   -33676.771    33673.544    130.86155    30.753414 
139928000    252.63843    306.32971    237.56928   -33717.936     33734.39    68.760425      30.7567 
139932000     287.3709    303.91838    165.27678   -33746.939    33746.015     138.6416    30.773726 
139936000    318.35081    407.48798    386.62975   -33775.436    33763.761    20.858233    30.783613 
139940000    275.41675    306.33723     313.1661   -33811.899    33836.313    -6.828863    30.812139 
139944000    316.99336    383.98045     418.8587   -33868.788    33853.309   -34.878251    30.788144 
139948000    297.36194    530.07325    351.13901   -33926.534    33927.325    178.93424    30.770019 
139952000    260.62151    559.94492    252.55733   -33954.727    33944.748    307.38759    30.767514 
139956000    271.97621    295.31934    241.41377   -33975.067      33990.3    53.905566    30.762341 
139960000    303.57466    310.75618    381.32655   -34031.226    34023.136   -70.570364    30.799183 
139964000    284.21684    223.59714    258.46194   -34060.985    34055.601   -34.864808    30.759177 
139968000     291.3856    284.02264    268.58104   -34103.086    34099.376    15.441597    30.765914 
139972000    284.93908    184.17392    267.80085   -34093.553    34096.402    -83.62693    30.768012 
139976000    277.43307    273.15501    253.22225   -34089.969    34104.659    19.932758    30.777461 
139980000    268.40776     230.9723    326.38782   -34104.798    34104.433    -95.41552    30.758422 
139984000     297.9811    169.98799     472.5039   -34173.406    34150.766   -302.51591    30.752812 
139988000    291.81096    475.77859    414.86932   -34212.376     34205.94    60.909276    30.749935 
139992000    287.64135    461.21982    347.54978   -34213.375    34204.087    113.67003    30.749376 
139996000     282.5115    349.67151    238.59362   -34248.026    34248.262     111.0779    30.746695 
140000000    286.79273    269.60692    180.09763   -34309.027    34310.568    89.509291     30.73993 
140004000     326.5867    541.12477     216.7436   -34380.768    34346.767    324.38117    30.753138 
140008000    330.51564     583.7385    494.16809   -34408.328    34393.504    89.570407    30.764888 
140012000    276.18642    343.86012    225.56304   -34453.725    34455.369    118.29708    30.755034 
140016000    279.90811    482.19205    242.64909   -34466.416    34478.504    239.54295     30.76812 
140020000    280.99788     254.1438    297.09242   -34510.669     34510.77   -42.948617      30.7779 
140024000    266.10249    466.11541    425.48151   -34574.313    34579.836    40.633894    30.751891 
140028000    263.91418    385.32396    463.57397   -34613.717    34635.335   -78.250003    30.765809 
140032000    283.28526    436.55791    275.54732   -34674.225    34666.679    161.01059    30.791558 
140036000    304.87386    620.79148     290.1713   -34715.886    34709.504    330.62018    30.803861 
140040000    282.93677    327.50383    372.73339   -34747.574    34766.498   -45.229559    30.767984 
140044000    256.47944    333.66694    214.21327   -34793.405    34828.669    119.45367    30.764665 
140048000     296.1206    311.52368    339.66913   -34845.027    34850.807    -28.14545    30.777005 
140052000    268.51431    436.19134    455.24057   -34909.048    34923.278   -19.049226    30.753343 
140056000    290.24904     519.5148    255.28841    -34950.55    34947.512    264.22638    30.731962 
140060000    295.27239    312.70788    426.64889   -35006.134    35002.719   -113.94101    30.746945 
140064000    286.90077    278.46287    308.03943   -35023.406     35049.97    -29.57656    30.742563 
140068000    296.97334    236.48586    394.42348   -35068.381    35071.306   -157.93762    30.716418 
140072000    301.20001    423.83601    326.55226   -35109.865    35103.289    97.283747    30.704746 
140076000    271.68431    321.36957    483.80967   -35145.192    35147.658    -162.4401    30.675511 
140080000    272.79999    382.75599    347.66521    -35197.47    35187.146    35.090778    30.674903 
140084000    283.55291     524.8369    354.85525   -35238.413    35217.192    169.98165    30.670766 
140088000    277.93463     352.5868    381.33034   -35265.603    35255.924   -28.743544    30.686129 
140092000    287.23458     375.6751    413.47029   -35290.931    35302.819   -37.795189     30.72347 
140096000    318.92863    251.82179     365.9359   -35378.134     35358.18   -114.11411    30.741206 
140100000     319.6867    604.22832    371.10004   -35415.397    35401.105    233.12829    30.727686 
140104000    294.26322    336.29638    370.81334   -35439.082    35448.915   -34.516964    30.746473 
140108000    281.39614    345.15819    351.56471   -35441.737    35465.518   -6.4065216    30.778804 
140112000    291.15266    381.42515    426.23672   -35504.116    35484.698   -44.811564    30.795655 
140116000    289.91432    345.43428     427.1426   -35532.269    35534.456   -81.708313    30.747549 
140120000    277.31876    459.44086    376.34434    -35573.18    35577.894    83.096528    30.757034 
140124000     270.3231    346.52565    304.88229   -35610.373    35637.173    41.643363    30.772663 
140128000    294.10454     245.5542    407.69705   -35668.218    35668.132   -162.14286    30.740742 
140132000    276.87225    349.55822    305.47748   -35703.836    35708.281    44.080741    30.776015 
140136000    281.21937    263.89965    426.14137   -35729.261    35741.317   -162.24172    30.755496 
140140000    283.52682    392.16627    380.36947   -35809.818     35798.58    11.796791    30.741082 
140144000    273.74486    341.79224    313.87025   -35834.966    35851.277    27.921982    30.728635 
140148000    288.17398    489.96766     333.2793   -35865.343    35878.429    156.68837     30.74502 
140152000    283.69106    531.87142    272.35428   -35896.628     35900.33    259.51715    30.775409 
140156000    299.09518    489.91842    374.11763   -35917.474    35905.926    115.80079    30.745886 
140160000    315.50914    559.09441    487.30879    -35948.06    35917.848    71.785629    30.703149 
140164000     280.8908    375.33715     231.1651   -35972.523    35992.389    144.17205    30.720472 
140168000    295.53552    276.67495    350.77633   -35993.514    35991.503    -74.10138    30.717312 
140172000    288.07092    439.26777    258.25225   -36051.134    36048.847    181.01552    30.745937 
140176000    306.03416    428.45027    422.37583   -36105.414     36092.67    6.0744464    30.686165 
140180000    291.19088    325.54285    543.97517   -36126.014    36109.331   -218.43232    30.670201 
140184000    264.19918    354.36035    331.54775   -36147.355    36177.359      22.8126    30.703055 
140188000    277.63266    366.80857    236.32465   -36178.454    36201.933    130.48392    30.710206 
140192000    290.94374    350.15563    349.18419   -36232.857    36220.634   0.97143698    30.755304 
140196000    280.37267    379.62372    306.01702   -36258.863    36270.416    73.606697    30.770191 
140200000    285.84384    251.84367    515.13036   -36279.363    36296.941   -263.28669    30.753121 
140204000    295.11072     283.3082    544.62828    -36305.51    36325.512   -261.32008    30.708069 
140208000    284.95636    469.78006     180.3053    -36334.51    36348.411    289.47476    30.679261 
140212000    269.85593    291.28274    494.02673   -36367.567    36385.813   -202.74399    30.671627 
140216000    282.24877    440.66827    173.39364   -36411.006    36421.832    267.27463    30.711499 
140220000    296.64799    296.09919    316.77875   -36459.512    36454.311    -20.67956    30.718581 
140224000    281.32044    261.36674    413.67308   -36480.032    36488.315   -152.30634    30.692139 
140228000    297.83664    425.18193    503.55485   -36519.011    36505.998   -78.372924     30.67098 
140232000    290.16104    586.03075    580.56126   -36566.476    36566.699     5.469496    30.678173 
140236000    285.84472     260.7992    266.27581    -36604.69    36601.829   -5.4766147    30.711026 
140240000    293.65011    259.33256    356.56065   -36625.028    36625.521   -97.228086    30.689432 
140244000    268.94834    325.00148    394.40185   -36645.943    36673.288   -69.400369    30.678416 
140248000    282.39146     430.6041    304.97051   -36704.834    36705.507    125.63358    30.625312 
140252000    295.05276    377.72452    419.56119   -36718.346    36708.452   -41.836668    30.606592 
140256000    292.33023    304.96013    423.57091   -36759.632    36764.515   -118.61077     30.58447 
140260000    291.15826    251.29285    266.34864   -36797.532    36792.275   -15.055792    30.590058 
140264000    291.63465    330.98314     462.0265   -36836.064    36830.397   -131.04336    30.622683 
140268000    271.03582    259.44347    197.05421   -36846.813    36887.481    62.389255    30.611206 
140272000     291.2746    422.17069    402.78521   -36943.196    36937.377     19.38548     30.63007 
140276000    297.45061    439.45458    215.49269   -36972.946    36962.359    223.96189    30.647395 
140280000    294.51044    463.36644    243.92378   -37006.002    37011.942    219.44265    30.614942 
140284000    300.72555    272.59905    398.34651   -37035.811    37040.868   -125.74746    30.605745 
140288000    287.36754    320.47455    369.36849   -37106.681    37115.957   -48.893931    30.589697 
140292000    269.35152    258.01179     293.6707   -37126.125    37137.759   -35.658911    30.579444 
140296000    321.03818    237.94462    374.54682   -37190.067    37189.396    -136.6022    30.566296 
140300000    253.69319    266.68552    431.32115   -37217.523    37249.232   -164.63563    30.554038 
140304000    270.45257    225.89669    374.55419   -37218.654    37256.689    -148.6575    30.546646 
140308000    266.99537    379.33286     187.9635   -37279.579    37303.784    191.36936    30.543615 
140312000    294.71937    539.74092    344.36233   -37320.771    37324.819     195.3786    30.554046 
140316000    279.91789    440.75774     277.4751   -37356.532    37366.875    163.28264    30.550001 
140320000    294.62428    287.26442    282.41108   -37401.093    37390.095    4.8533438    30.558902 
140324000    322.56131    267.09679    221.29509    -37439.32     37437.16      45.8017     30.57922 
140328000    259.81255    245.83349     322.1759   -37472.486    37495.626   -76.342416    30.582212 
140332000    303.91352    424.64965     310.5186   -37509.701    37500.769    114.13105     30.57971 
140336000    302.77097    295.29022    397.08461   -37520.936     37518.74   -101.79439    30.609479 
140340000    275.00546    399.74159    327.03905   -37540.114    37549.854    72.702543    30.580395 
140344000    304.12879    281.35099    375.19176   -37589.373    37598.378   -93.840773    30.598461 
140348000     272.4755    263.89346     318.4322   -37650.909    37660.207   -54.538746    30.596244 
140352000    288.63663    494.29502     527.5784   -37677.131    37688.569    -33.28338    30.595306 
140356000    274.81581    367.91704    382.62058    -37679.63    37692.499   -14.703545    30.588062 
140360000    282.12955    434.39123    228.46298   -37700.201     37709.83    205.92825    30.604074 
140364000    268.92431    316.44239    405.85275   -37687.367    37723.631   -89.410368    30.612586 
140368000    296.97157    376.05253    424.30528   -37766.296    37761.569   -48.252741    30.615776 
140372000    279.47759    262.99918    325.96861    -37799.92    37789.598    -62.96943     30.63668 
140376000    295.36101    247.88534    162.43513   -37848.597     37833.78    85.450211    30.638765 
140380000    281.71112    280.61097    317.72665   -37876.409    37882.449    -37.11568    30.632127 
140384000    256.27929    428.69037    363.52149   -37915.869    37922.494    65.168872    30.658294 
140388000    262.82644    519.92277    489.78587   -37961.337    37962.593    30.136903    30.684472 
140392000    269.04009    206.01866    208.87845   -37971.736    37981.218   -2.8597962    30.715978 
140396000    285.73573    391.86774    180.48929   -38001.335    38007.669    211.37845    30.698788 
140400000    287.71297    389.02973    286.48915   -38062.553    38057.672    102.54058    30.681747 
140404000    295.29906    300.92303    382.21763   -38097.198    38111.893   -81.294598    30.664825 
140408000    287.81763    348.63906    279.32397   -38151.475    38151.602    69.315092    30.619248 
140412000     256.5496    291.65183    254.92178   -38163.003    38195.452    36.730052    30.646003 
140416000    272.91314    436.44824     351.3489   -38194.972    38203.888    85.099334    30.626462 
140420000    285.79492    378.43816    463.28218   -38237.848    38248.432   -84.844022    30.656849 
140424000    282.32823    409.46438    256.66165   -38279.736    38295.391    152.80272    30.649363 
140428000    291.67608    323.85053    304.16773   -38321.819    38314.769    19.682799    30.637723 
140432000    274.94168     348.9586    247.09889   -38361.465    38377.693     101.8597    30.623548 
140436000    297.39471    621.63584     354.1857   -38421.715    38435.144    267.45014    30.663924 
140440000    264.35396    218.31617    366.94507   -38425.722    38451.833    -148.6289    30.653954 
140444000    283.26283    228.96199    253.78168   -38454.376    38466.462   -24.819692    30.672774 
140448000    257.81661    337.78022    175.87645   -38481.907    38497.868    161.90377    30.685194 
140452000    283.51351    416.55938    265.83802   -38527.591    38530.201    150.72135    30.694339 
140456000    277.51969    614.23612    420.56722   -38564.144     38565.46     193.6689    30.688399 
140460000    277.94469    343.29168       334.84   -38590.804    38610.349    8.4516761    30.678932 
140464000    293.60162    365.98193    261.63704   -38625.364    38641.067     104.3449    30.699367 
140468000    283.01497    364.64413    572.97096   -38675.545    38694.122   -208.32683    30.700705 
140472000    283.38326    530.42758    219.65504   -38704.691    38690.649    310.77254    30.707854 
140476000    308.36341    283.04768    515.31581   -38746.995    38754.607   -232.26813    30.757615 
140480000    284.42234    463.74346    394.17981   -38781.355    38784.784    69.563647    30.742353 
140484000    273.78418    281.45139    415.97811   -38790.014    38789.268   -134.52672    30.730118 
140488000    248.21288    291.84336    285.89476   -38818.977    38849.673    5.9485974    30.709366 
140492000    272.68083      240.945    163.42484   -38854.457    38862.782     77.52016    30.725407 
140496000    286.24422    359.94848    255.16176   -38878.977    38897.233    104.78672    30.711792 
140500000    264.46588     409.8713    450.03898   -38924.279    38940.494   -40.167684    30.745823 
140504000    302.95377    450.41984    285.15145   -38947.286    38947.963    165.26839    30.702395 
140508000    297.34352    363.38045     501.0319   -38972.048    38968.786   -137.65145    30.710742 
140512000    281.91176    297.60616    243.60427   -38987.703    38989.817    54.001889    30.714403 
140516000    283.24395    374.33927    213.47506   -39004.208    39013.108    160.86421    30.676376 
140520000    285.66981    372.34538    325.20323    -39039.73    39040.991    47.142146    30.681548 
140524000     247.3927    341.00585    233.00382   -39070.633    39087.501    108.00203    30.683766 
140528000    291.72304    387.29536    321.71141   -39122.389    39119.235    65.583948    30.676537 
140532000    275.14659    329.63555    335.47973   -39156.317    39165.314   -5.8441823    30.648018 
140536000    265.95585    338.48479    281.34794   -39197.329    39202.858    57.136847    30.644688 
140540000    265.29366    368.06351    247.58621    -39198.77    39219.307     120.4773    30.635449 
140544000    295.82682    221.80068    375.23193   -39214.189     39218.19   -153.43125    30.639405 
140548000    267.99949    398.05058    315.02782   -39193.196    39210.694    83.022763    30.595979 
140552000    289.35841     300.3721    358.32107    -39231.45    39243.654   -57.948965    30.604537 
140556000    285.67149    486.98087    383.07415   -39283.785    39291.519    103.90672    30.588941 
140560000    257.78878    357.13258    296.08776   -39306.864    39334.586    61.044819    30.562488 
140564000    272.66029    382.32262    278.21575    -39355.07    39354.816    104.10687    30.570823 
140568000    264.68429    378.34574    460.41647   -39354.595    39376.657   -82.070723     30.55163 
140572000    264.96403    303.56173    332.08384   -39371.366    39377.073   -28.522107    30.538176 
140576000    288.89292     421.0202    320.02072   -39400.643    39412.469    100.99949    30.537837 
140580000    283.55806    427.61667     355.9467   -39435.388     39435.02    71.669971    30.555938 
140584000    243.86654    333.35697    345.71945   -39452.007     39494.81   -12.362474    30.580883 
140588000    272.83876      435.787    267.63451   -39500.856      39511.1    168.15249    30.600346 
140592000    269.64427    522.25681    228.28645   -39554.371    39568.149    293.97035    30.588108 
140596000    294.47168    348.90272    389.52494   -39572.685    39579.274   -40.622216    30.592589 
140600000    316.17768    362.14487    389.13363   -39602.662    39604.964   -26.988752    30.585027 
140604000    277.84037    391.32288    247.65143   -39639.524    39649.955    143.67145    30.611804 
140608000    261.07948    217.76893    241.93933   -39672.853    39684.573   -24.170398    30.594896 
140612000    272.35795    289.13161    224.44731   -39721.645    39729.751    64.684295    30.610695 
140616000    252.55841    246.97464    513.97693   -39774.399    39795.311   -267.00229     30.59943 
140620000    271.94955    372.52736    233.76704   -39815.878    39842.358    138.76032    30.615151 
140624000    275.83603    400.83436    288.57262   -39877.128     39874.75    112.26173    30.601754 
140628000    291.27349    354.76871    234.30374   -39905.395    39910.226    120.46497    30.601939 
140632000    284.50859    342.89089    315.44569    -39925.99    39915.742    27.445199    30.636248 
140636000    271.92495    254.34471    324.71509    -39981.28     39982.79   -70.370383    30.642976 
140640000    266.79838    385.34201    271.70157   -40003.217    40011.874    113.64044    30.643139 
140644000    277.13172    276.26061     270.1226   -40020.566    40037.527    6.1380087    30.647533 
140648000    242.13278    381.63556    366.43513   -40028.153     40064.44    15.200432    30.637053 
140652000    264.49419    513.75513     228.9785   -40041.725    40074.913    284.77663    30.660769 
140656000    277.84858    226.59206    394.19441   -40066.118    40074.557   -167.60236    30.664225 
140660000    250.64422    346.40417    362.50386   -40080.148    40107.235   -16.099697    30.668821 
140664000    284.99633    417.88344    364.74717   -40144.298    40153.327    53.136277    30.678529 
140668000    301.08575    442.17909    378.67022   -40196.802    40204.371    63.508869    30.671151 
140672000    283.15307    297.90481    246.85841   -40221.278    40211.562    51.046407    30.669003 
140676000    294.14768    530.78179    227.29105   -40250.864    40230.326    303.49074    30.689257 
140680000    268.82087    279.88863    306.40582   -40301.014    40305.105   -26.517185    30.695489 
140684000     270.8291    379.71429    521.29146   -40332.167    40333.024   -141.57718    30.716293 
140688000    287.90454    326.10575    276.87022   -40355.916    40367.887    49.235535    30.726425 
140692000    297.95406    551.75741    320.45818   -40396.145    40400.739    231.29923    30.724749 
140696000    282.10465    233.08876    341.08413   -40428.627    40445.149   -107.99537    30.701371 
140700000    278.46722    217.20615    437.29734    -40466.95    40472.761   -220.09119    30.677366 
140704000    291.73276    445.85466    312.22306    -40533.64    40536.875     133.6316    30.681996 
140708000    277.83013    510.84998    239.14102   -40573.407    40578.904    271.70896    30.690419 
140712000    262.30747    298.77635    287.42176   -40591.201    40629.182    11.354589    30.662288 
140716000    293.23059    337.09116    359.05049   -40620.333    40618.696   -21.959332    30.669152 
140720000    261.66532    475.33031    216.05126   -40640.225    40658.352    259.27905     30.69471 
140724000    285.10878    267.55778    464.59145    -40709.95    40721.129   -197.03367    30.683861 
140728000    273.97798    401.80722    216.68826   -40724.927    40739.576    185.11896    30.710094 
140732000    294.61263    211.99801     455.8467   -40810.284    40804.528   -243.84869    30.701347 
140736000    294.97706    344.07098    279.03303   -40872.602    40855.871    65.037947    30.697736 
140740000    302.14112    432.04159    245.36344   -40932.284    40934.818    186.67815    30.721856 
140744000     298.8746    286.32559    458.55738     -40962.5    40954.649   -172.23179     30.76177 
140748000    283.83751    450.51409    352.45067   -41012.122    41028.166     98.06342     30.75867 
140752000    263.39107    286.79942    388.37632   -41070.425    41066.037    -101.5769    30.764763 
140756000     284.2396    564.13067    272.96574   -41094.959    41096.525    291.16493    30.756248 
140760000    275.55204    370.55496      351.752   -41136.654    41149.916    18.802962    30.763035 
140764000    291.88778    417.04301    218.56756   -41174.742    41160.663    198.47545    30.757818 
140768000     310.2309    405.66394    403.56137   -41209.192    41199.242    2.1025735    30.738128 
140772000    280.02232    414.97391    260.14306   -41248.958     41251.99    154.83086      30.7634 
140776000    281.79001    229.65161    195.83225   -41297.529    41314.927    33.819354    30.779639 
140780000    292.91291    489.48862    266.71269   -41314.625    41328.256    222.77592    30.799725 
140784000    294.20481    535.51135    178.93032   -41356.452    41357.201    356.58103    30.826623 
140788000    283.52778    245.28819    332.19673   -41389.985    41423.177   -86.908543    30.811315 
140792000    273.21761    237.16045    381.38554   -41436.996    41452.949   -144.22509    30.819071 
140796000    294.56617    273.12561     517.6391   -41463.111     41475.31   -244.51349    30.808213 
140800000    271.36659    618.71808    215.53008   -41475.821    41495.224      403.188    30.829816 
140804000    279.28393    252.23407     166.2936   -41496.459    41501.579    85.940462    30.819327 
140808000    265.91751    458.35419    262.15581   -41521.265    41552.057    196.19838    30.858918 
140812000    294.44542    465.78995     490.4998   -41537.724    41555.672   -24.709849    30.878976 
140816000    261.68506    306.84961    260.80909   -41578.496    41602.424    46.040524    30.863102 
140820000    303.25228    344.23146    309.19901   -41616.123    41618.142    35.032446    30.828365 
140824000    282.43859    231.03139     246.8049   -41639.168    41647.707   -15.773512    30.829571 
140828000    307.63161    517.66694    365.12792   -41664.128    41679.112    152.53902    30.847531 
140832000    299.78881    629.71182    475.89008    -41719.26    41729.525    153.82174     30.85733 
140836000    280.60944    284.31044    285.76361    -41752.58    41751.234    -1.453172    30.900449 
140840000    311.77568    386.63408    478.28147   -41792.046    41777.755   -91.647398    30.891132 
140844000    300.23221    292.36672     373.5076   -41848.033    41813.634   -81.140873    30.893972 
140848000    308.01363    386.99582     371.4645   -41862.946    41860.548    15.531319    30.893918 
140852000    261.14486    230.06655    337.84265   -41887.742    41905.255    -107.7761    30.887865 
140856000      277.323    270.61167    396.80853    -41905.23    41898.635   -126.19686    30.860692 
140860000    289.90127    376.56158    312.70154   -41955.788    41948.213     63.86004    30.862394 
140864000    289.93719    458.55504    624.59167    -41975.26    41972.565   -166.03663    30.850651 
140868000    272.07484    316.29621    327.89543   -41995.572     42014.13    -11.59922    30.889057 
140872000    297.66785    344.25075    514.18066   -42068.069    42064.646   -169.92991    30.883602 
140876000    286.40522    409.60659     316.8685   -42090.974    42097.954    92.738097    30.894139 
140880000    284.64375    269.15841    283.67156   -42147.318    42163.831   -14.513149    30.893413 
140884000    281.92662    273.23915    357.15446   -42168.804    42185.096   -83.915309    30.894407 
140888000    266.11598     440.2042    352.02729   -42219.259    42236.237    88.176906    30.920526 
140892000    295.60834    343.42218    393.42999   -42248.889    42261.232   -50.007816    30.942802 
140896000    281.14556    269.38147    499.00967   -42316.845    42323.843    -229.6282    30.919284 
140900000    291.14007    345.43404    363.89233   -42358.087    42362.161   -18.458294    30.889971 
140904000    335.81738    404.66756     506.5136   -42436.509    42406.434   -101.84604    30.858102 
140908000    270.20977    259.77636    191.54581   -42449.057    42464.512    68.230559    30.866737 
140912000     268.3702     411.8315    320.49125    -42471.22    42491.691     91.34025    30.842491 
140916000    258.99863    299.12544    492.02835   -42512.073     42537.91   -192.90291    30.840291 
140920000     276.1621    493.60503    308.42126   -42524.672    42543.772    185.18377    30.822569 
140924000    279.90878    357.64436    278.07521   -42573.795    42573.064    79.569146    30.796007 
140928000    284.07749     370.7175     424.8864   -42580.112    42592.122     -54.1689    30.819717 
140932000    295.56606    326.50667    208.94123   -42627.468    42655.143    117.56544     30.82066 
140936000    271.71844    333.61054    283.49528   -42665.556    42671.256    50.115268    30.865196 
140940000    255.22177    257.13077    325.67007   -42692.579    42720.359   -68.539296    30.845062 
140944000    285.27402    391.27614    246.30491   -42747.289    42762.941    144.97122    30.847283 
140948000     285.8447    456.35552    341.47714   -42754.986    42764.714    114.87837    30.834084 
140952000    277.04309     372.6934    216.68832   -42777.571    42806.352    156.00508    30.832018 
140956000    293.23171    504.69594    262.17541   -42820.396    42820.287    242.52053    30.832808 
140960000     264.4938    374.44179    352.42601   -42840.479    42863.789    22.015778    30.842503 
140964000     288.9336    273.93057    222.97378   -42915.079    42930.023     50.95679    30.857449 
140968000    311.12703    465.97584    239.37605   -42977.863    42979.589    226.59979    30.862738 
140972000    252.50965    308.90406    243.99926   -43008.807    43027.561    64.904795    30.844978 
140976000    284.67774    325.33472    232.98644   -43062.048    43075.389    92.348284    30.847929 
140980000    272.36906     451.5407    255.91365   -43131.039    43139.088    195.62705    30.855338 
140984000    309.73171    599.21025     220.8578   -43164.274    43158.174    378.35244    30.863105 
140988000    259.38073     319.6331    301.43453   -43191.728    43232.888    18.198571    30.894756 
140992000     262.5733    272.07936    222.23028   -43221.942     43247.38    49.849074    30.900959 
140996000     314.7604    452.87513    288.74176   -43265.866    43259.507    164.13337    30.881378 
141000000     329.2805    361.80069    445.60867   -43304.142    43279.683   -83.807975    30.865555 
141004000    269.46783    297.68125    365.56144   -43287.002    43319.144   -67.880183    30.844035 
141008000    275.33464    516.90046    250.43621   -43345.874    43370.433    266.46425    30.832846 
141012000    262.56623    272.04049    430.48341   -43342.532    43359.022   -158.44293    30.817025 
141016000    312.83108      400.439    583.06745   -43384.441    43377.788   -182.62845    30.800996 
141020000    286.96514       346.08    455.51971    -43411.09    43427.635   -109.43971    30.791311 
141024000    291.36162    273.98469    341.63936    -43426.91    43444.648   -67.654662    30.813038 
141028000    272.70336    393.83456    422.39112   -43445.758    43460.202   -28.556561    30.793403 
141032000    283.33775    434.74833    431.65233   -43497.031    43495.567    3.0960038    30.765122 
141036000    268.22511    160.27091    285.51817   -43514.597    43517.683   -125.24726    30.751666 
141040000    299.73222    450.33323    275.63979   -43570.352    43570.348    174.69344     30.72946 
141044000    259.03951    153.58898    330.98224   -43592.385     43606.42   -177.39326    30.701291 
141048000    291.55539     342.1256    349.43265     -43615.7     43618.98   -7.3070492    30.683236 
141052000    287.37288    504.39344    203.53775   -43649.811    43646.408    300.85569    30.691491 
141056000    288.74339     270.8203    399.58723    -43677.15    43695.843   -128.76693    30.675446 
141060000    284.20206    265.26393     306.7591   -43722.152    43753.301   -41.495174     30.63637 
141064000    280.09878    215.56053    312.70498   -43760.594    43760.425   -97.144446    30.616563 
141068000    285.42206    445.09264    499.03847   -43765.988     43777.16   -53.945823    30.609722 
141072000    311.72602    463.05641    377.20886   -43786.088    43793.329     85.84755    30.600268 
141076000    266.27614    312.62977    330.37346   -43798.352    43840.951   -17.743692    30.608165 
141080000    297.18132    311.54694    313.38587   -43854.248     43854.49   -1.8389279    30.600329 
141084000    287.35588    246.47085    225.96983   -43873.753    43884.481    20.501025    30.574482 
141088000     292.2279    228.34132    496.24845   -43876.823    43893.416   -267.90713     30.57298 
141092000    283.91215    255.09507    193.77387   -43916.594    43932.076    61.321199    30.580519 
141096000    255.48622    284.42407    242.68594   -43949.616    43988.782    41.738131    30.569529 
141100000    264.23982    399.60329    360.08715   -44005.849    44026.073    39.516142    30.559677 
141104000    277.28164    229.59662     384.5419   -44037.771    44048.149   -154.94528    30.529565 
141108000     285.6877    237.76092    422.25719   -44070.582    44082.604   -184.49627    30.476708 
141112000    255.25356    311.21777    225.56264   -44098.085     44134.94    85.655124    30.443226 
141116000    265.67852    447.76947    215.56274   -44125.785    44158.195    232.20673    30.441587 
141120000    285.69017     267.9333    276.14936   -44188.547    44209.319   -8.2160534    30.455598 
141124000    252.28919    392.04491    393.23822   -44185.122    44212.521   -1.1933137    30.441025 
141128000    272.51493    323.14158     338.3813   -44216.542    44237.104   -15.239718    30.440143 
141132000    267.23596    260.73649    252.44175   -44242.462    44266.796    8.2947403     30.44407 
141136000    296.87108    503.44265    272.96311    -44288.13    44301.509    230.47955    30.464373 
141140000    320.44145    464.63944    362.19224   -44327.032    44317.423    102.44719    30.447407 
141144000    243.34021    304.71041    273.24132    -44336.66    44348.972    31.469089    30.475771 
141148000    258.71724    545.53875    251.66479   -44322.211    44359.842    293.87397    30.456592 
141152000    296.73711    213.68593    299.11574   -44409.719     44412.26   -85.429812    30.444926 
141156000    271.56754    373.00541    227.29598   -44439.021    44476.259    145.70943    30.402569 
141160000    278.72137    505.75488    281.20965   -44476.032    44493.978    224.54523     30.39329 
141164000    261.15178    430.72607    167.12024   -44478.045    44500.915    263.60583    30.415557 
141168000    279.54542    517.43813    386.72341   -44498.413    44520.016    130.71472     30.42721 
141172000    270.88382    130.19604    320.54353   -44523.545    44550.441   -190.34749    30.405325 
141176000      253.974    345.48208    523.24387   -44572.404    44589.365   -177.76179    30.413139 
141180000    317.73851    419.57585    312.59188     -44618.8    44622.556    106.98397    30.425314 
141184000    294.71615    402.54924    313.18577   -44671.236    44677.818    89.363471    30.463225 
141188000    279.42555    312.94693    521.14961   -44714.499    44706.637   -208.20268    30.448631 
141192000    280.78503    211.81179    287.37893   -44738.701    44736.344   -75.567144    30.438709 
141196000    268.23513    200.69195    378.71156   -44735.528    44767.902   -178.01961    30.420382 
141200000    261.94355    218.54159    247.83938   -44777.652    44781.013   -29.297785    30.418263 
141204000    279.89005    456.71022     247.6761   -44771.785    44789.258    209.03412     30.43648 
141208000    275.59643     325.8611    545.23732   -44809.629    44828.145   -219.37621    30.438663 
141212000    284.33249     377.5041    210.24796   -44838.258    44850.086    167.25613    30.426925 
141216000    256.22119    443.31139    218.68239   -44858.321    44874.949    224.62901    30.435017 
141220000    279.45961    305.21652    244.03544   -44916.247    44918.288    61.181081    30.431653 
141224000    265.21156    495.68566    446.22421   -44904.014    44930.032    49.461445    30.420463 
141228000    254.41492    214.01372    250.78226   -44939.665    44960.997   -36.768538    30.440498 
141232000    265.20762    326.54849     316.6205   -44950.282    44979.967    9.9279881    30.427382 
141236000     266.6336    153.21707    125.41424   -44969.451    44996.116    27.802834    30.408438 
141240000    253.55958    391.04403    218.77958   -44999.889    45044.134    172.26445    30.402668 
141244000    258.32832    275.11691    200.00213   -45034.747    45071.843    75.114778    30.381609 
141248000    277.91205     444.5233    219.33175   -45116.613    45117.142    225.19155    30.365946 
141252000    302.86687    280.50505    626.42693   -45142.284    45150.919   -345.92188     30.35927 
141256000    269.39309    346.52185    162.78485   -45177.936    45199.065    183.73701    30.366611 
141260000     264.6678     269.0694    268.33026   -45214.865    45243.754   0.73914604    30.378263 
141264000    254.89618    328.44845    270.19202   -45226.293    45257.496    58.256435    30.341976 
141268000    258.29676    318.77036     277.2872   -45265.116      45293.9    41.483154    30.353646 
141272000    291.47683    510.39411    237.54486   -45297.736    45303.841    272.84925    30.360659 
141276000    261.11291    409.70543    397.04584   -45329.572     45350.01    12.659597    30.355002 
141280000    292.61712    535.88477    664.33517   -45366.112    45375.628    -128.4504    30.347964 
141284000    307.64007    435.51367    342.09355   -45405.907    45417.367    93.420118    30.326851 
141288000    269.22073    301.63247    265.23292   -45412.679    45434.459    36.399553    30.330215 
141292000    287.03943    302.20798    258.19943   -45459.319    45458.797    44.008543    30.356396 
141296000    305.12894    563.74885    414.39536   -45483.195    45489.851    149.35349    30.361354 
141300000    289.99357    338.47485    263.85174   -45548.571    45549.741    74.623112    30.370222 
141304000    266.35037    257.81734    318.44163   -45550.241    45581.457   -60.624286    30.369124 
141308000    314.94397    537.94936    295.34064    -45639.48    45627.303    242.60873    30.382167 
141312000    318.57009    506.25986    309.16984    -45691.83    45685.423    197.09001    30.356159 
141316000    304.92207    450.27946    249.07999   -45704.561    45699.772    201.19947    30.361873 
141320000     283.6866    272.67364    255.12021   -45753.712    45749.203    17.553436    30.382872 
141324000    263.79788    280.66108    385.76036   -45780.419    45790.734   -105.09928    30.360342 
141328000    291.33191    484.42383    277.41113   -45829.502    45840.248    207.01271       30.391 
141332000    274.70935     351.9129    493.01102    -45875.69    45890.777   -141.09812     30.41573 
141336000    268.25392    276.56329      436.229   -45920.443     45943.42   -159.66572     30.43126 
141340000    299.75884    348.10288    255.81432   -45978.296    45983.664    92.288561    30.459221 
141344000    310.43214    249.92313    280.63531   -46006.357    46003.618   -30.712178    30.461094 
141348000    298.90332      363.164    318.39182   -46045.694    46040.388    44.772175    30.456772 
141352000    290.06051    388.59782    294.57604   -46111.452     46118.69    94.021779     30.46452 
141356000    293.47076    545.62954    335.56831   -46191.348    46190.085    210.06124    30.459776 
141360000     276.4516    513.64527    397.95638   -46224.654    46229.588    115.68889    30.476145 
141364000    263.16966    317.89649    428.58672   -46245.594    46279.084   -110.69023    30.464963 
141368000    313.14529    375.35443    221.72095   -46299.067    46287.997    153.63348    30.497811 
141372000    293.40765    311.27383    325.63187   -46316.646    46316.941   -14.358048    30.453477 
141376000    276.18147    360.33593    419.20242   -46317.605    46348.689    -58.86649    30.461629 
141380000    256.83718    477.29744    251.65461   -46342.906    46368.195    225.64283    30.449974 
141384000    265.96703    280.43956    601.39163   -46375.866    46397.494   -320.95207    30.421354 
141388000    277.14851    342.17022    358.06511   -46406.787    46424.118   -15.894893    30.438336 
141392000    279.03859    242.26276     326.7951   -46438.888    46460.706   -84.532336    30.408537 
141396000    268.65282    545.92348    298.34441   -46469.794    46490.171    247.57907    30.382809 
141400000     275.6733    336.71066    297.14853   -46491.248    46509.759    39.562134     30.37243 
141404000    283.85115    332.34671    420.67874   -46497.796    46515.148   -88.332035    30.366735 
141408000    279.16421    328.08319    370.30604   -46539.382    46565.226   -42.222849     30.39565 
141412000    277.30869    590.85809    430.42589   -46594.867    46601.805     160.4322    30.381007 
141416000    262.69415    270.34404    367.05025   -46598.631    46617.143   -96.706209     30.36793 
141420000    309.34235    625.53806    386.45756   -46657.815    46653.667     239.0805     30.37215 
141424000     281.9922    184.86499    252.30802   -46710.647    46729.272   -67.443024    30.367932 
141428000    275.71977    333.24306    362.89243   -46754.518    46780.717   -29.649369    30.386202 
141432000    319.81086     629.1501    504.09571   -46786.857     46783.14    125.05439    30.397698 
141436000    290.50658    449.81209    257.11908   -46827.277    46830.567    192.69301    30.396702 
141440000    279.89997    523.05669    226.66478    -46904.64    46888.506    296.39191     30.38497 
141444000    271.13122    154.15495    329.88564   -46916.504    46922.567   -175.73069    30.362381 
141448000    285.87017    246.09542    481.67167   -46978.177    46980.976   -235.57625     30.36904 
141452000    298.03304    444.85882     158.1991   -47019.148    47023.156    286.65972    30.373305 
141456000    260.95421    363.32397    154.68841   -47076.939      47091.7    208.63556    30.372971 
141460000    237.56001    228.25971    308.24934   -47079.854    47133.695   -79.989634    30.368101 
141464000    271.46649     288.1907    180.24707   -47124.711     47151.33    107.94363    30.389543 
141468000    295.28268    254.39452    381.26237   -47183.352    47199.692   -126.86785    30.381704 
141472000    313.89823    242.22257    483.66637   -47225.888    47235.681    -241.4438     30.37751 
141476000    269.70455    287.63938    481.97332   -47268.523    47280.484   -194.33394    30.379048 
141480000    275.19271     181.0095    482.40342   -47288.347    47291.589   -301.39392    30.360211 
141484000    262.64514    207.06537    243.36384   -47294.515    47325.126   -36.298473    30.364737 
141488000     266.9082    321.48152    386.99981   -47345.543     47378.96   -65.518292    30.376215 
141492000    273.97307    353.22488    601.03573   -47360.198    47402.215   -247.81086    30.377954 
141496000    294.40249    498.67703     421.3205   -47400.571    47415.693    77.356532    30.368693 
141500000     248.4922    343.47558    180.80288   -47410.179    47431.206     162.6727    30.367064 
141504000    283.46805     422.0611    312.53789   -47472.431    47474.307    109.52322    30.355166 
141508000    271.97335    256.16781    291.27867   -47477.283    47515.368    -35.11086    30.357229 
141512000    287.05475    495.52612    345.52663   -47513.244    47506.642     149.9995    30.374432 
141516000    297.48464    640.09464    238.78595   -47547.838    47555.729    401.30869    30.369482 
141520000    278.82598    317.21311    224.15047   -47592.014    47610.262    93.062646    30.354498 
141524000    253.62884    223.47971    400.80523   -47610.391    47641.559   -177.32552    30.335279 
141528000    281.92141    213.09943    352.92561   -47655.841    47670.785   -139.82618    30.316557 
141532000    274.37847    430.46532    306.02263   -47662.912    47675.071     124.4427    30.323069 
141536000    287.58513    249.38138    270.36157   -47657.065    47667.041   -20.980189    30.357104 
141540000    303.41298    285.17158    199.36363   -47703.798    47693.645    85.807957    30.349842 
141544000    261.77435     299.0891    519.50737   -47731.812    47760.963   -220.41827     30.33185 
141548000    294.19876    264.45452    278.96686   -47777.565    47774.116    -14.51234     30.31984 
141552000    277.93308    267.61856    248.25455   -47811.413    47810.478    19.364003    30.327908 
141556000    298.79798    306.09874    247.18569   -47850.252    47846.019    58.913057     30.34544 
141560000    279.39448    285.04756    399.30703   -47874.268    47897.548   -114.25947     30.33172 
141564000    289.40148    452.68828    578.37392   -47906.821    47915.769   -125.68564    30.319826 
141568000    277.35649     129.2152    237.96181   -47950.771    47956.144   -108.74661    30.292479 
141572000    306.86003    372.84558    341.12641   -47950.258    47951.529    31.719175     30.29114 
141576000    243.01405    291.15541    150.90651   -47970.362    48000.708     140.2489    30.288069 
141580000    281.49011    366.84996    320.47294   -48006.392    48026.696    46.377019    30.305744 
141584000    280.23278    251.35158    340.67821    -48022.51    48053.152   -89.326635     30.30465 
141588000    293.34868    468.01846    217.28125   -48081.468     48100.46    250.73721     30.32317 
141592000     273.4926    339.05072     417.9084   -48130.784    48154.607   -78.857684    30.338758 
141596000    261.64307    551.55783    235.72793   -48153.529    48194.083     315.8299    30.327024 
141600000    250.41961    231.56971    189.80204   -48184.253    48222.643    41.767671    30.325581 
141604000    282.91819    255.48697    262.90242   -48252.095    48263.285   -7.4154485    30.325516 
141608000    268.16634      195.998    404.00258   -48291.368    48325.147   -208.00458    30.314252 
141612000    264.58202    391.52963    349.80154   -48334.962    48363.275    41.728089    30.346278 
141616000    288.65987    418.92923    175.09716   -48389.638    48393.795    243.83207    30.336603 
141620000    276.49104    250.83264    416.29227   -48416.208    48428.413   -165.45963    30.323698 
141624000    296.24829    376.34561    362.80674   -48470.329    48478.833    13.538863    30.302439 
141628000    280.86499    483.19287    276.48986   -48479.417    48503.719    206.70301    30.317269 
141632000    247.60416    222.49465     258.8007   -48515.801    48541.666   -36.306052    30.294208 
141636000    283.34764    239.01902    181.22957   -48556.293    48591.312    57.789446     30.30996 
141640000    269.83829    327.91783    307.51659   -48598.881    48612.863    20.401239    30.278714 
141644000    274.18087    300.73598    382.50623   -48623.212    48655.907   -81.770252    30.286357 
141648000    289.59039    380.65423    406.36837   -48673.318    48707.877   -25.714134    30.285855 
141652000    285.30505    238.54111    283.94529   -48727.553    48722.853   -45.404173    30.288819 
141656000    278.54659     218.2163     252.7664   -48738.025    48747.454   -34.550101    30.291777 
141660000    251.49003    322.45287     255.5177   -48778.344    48808.688    66.935169     30.30148 
141664000    260.65556    168.19476    296.97976   -48789.803    48831.738   -128.78499    30.278599 
141668000    285.48296    494.48155    256.25613   -48847.851    48864.984    238.22542    30.302546 
141672000    296.43138    449.63298    404.78571   -48868.478    48877.536    44.847272    30.321039 
141676000    286.83033     409.5006    295.15517   -48925.809    48934.552    114.34543     30.33661 
141680000    278.00628    269.66499    267.07869   -48914.825    48949.432    2.5863047    30.327245 
141684000    284.22009    510.08832    518.88966    -48979.13    48991.033   -8.8013411    30.350839 
141688000    308.85026    491.79681    212.11202   -49021.749    49010.288    279.68479    30.339841 
141692000    296.51432    604.97194    449.11219   -49031.749    49043.454    155.85976    30.349861 
141696000    317.49842    560.09596    370.33483   -49041.726     49038.98    189.76113    30.339526 
141700000    269.18001    662.70007    267.86079   -49068.078     49074.85    394.83928    30.341984 
141704000      256.729    540.52297    272.88933   -49048.121    49083.679    267.63365    30.376173 
141708000    275.40937    300.93235    306.77204   -49099.436    49121.795   -5.8396904    30.425997 
141712000    260.02688     276.8408     527.0316   -49089.616    49106.831    -250.1908    30.404953 
141716000    288.31998    300.73086    393.14736    -49150.94     49160.55   -92.416502    30.413374 
141720000    272.61523    402.53655    250.60316   -49165.841    49190.022    151.93339    30.427771 
141724000    267.86355    242.44844    450.12768   -49185.476    49208.793   -207.67924    30.434456 
141728000    272.48677    269.07508    360.38401   -49206.307    49234.243   -91.308929    30.413815 
141732000    282.40239    350.24933     210.5495   -49253.508    49267.435    139.69983    30.401164 
141736000    262.21125    314.05997    395.95084   -49281.904    49306.529   -81.890871    30.365514 
141740000    260.26508    239.71542    186.66271   -49314.307    49344.366     53.05271     30.38605 
141744000    275.24452     309.8738    255.17948   -49345.631    49374.853    54.694324    30.382888 
141748000    301.71988    284.37077    269.52582   -49375.535    49384.317    14.844946     30.38523 
141752000    268.52121    336.81342    467.11947   -49385.149    49411.016   -130.30605     30.36628 
141756000    283.39365    210.24651    314.20948   -49401.295    49427.604   -103.96297    30.356053 
141760000    287.46134    292.02978    447.70783   -49440.385    49449.641   -155.67805    30.364913 
141764000    275.45879    431.05152     308.9101    -49417.59     49455.86    122.14143    30.360113 
141768000    260.50264    309.42918     275.6704   -49455.024    49473.545    33.758782    30.341573 
141772000    299.01529    323.55715    352.08005    -49480.46    49484.226   -28.522899    30.339528 
141776000    262.51039    363.50027    346.97383    -49501.17    49500.741    16.526444    30.318611 
141780000    265.79461    464.79133    283.23556   -49510.003    49540.558    181.55577    30.338287 
141784000    280.07448    258.74098    220.29978    -49565.87    49566.265    38.441201    30.321409 
141788000    289.08858    328.53586    429.85769   -49609.398    49609.154   -101.32183    30.325996 
141792000    276.21666    222.61282    269.54115   -49648.445    49663.626   -46.928338    30.319139 
141796000    273.98648    496.20525    177.79961   -49707.501    49726.653    318.40564    30.291099 
141800000    266.42496    425.19024    233.68281   -49738.758    49744.043    191.50742    30.318401 
141804000    289.02471    238.72263    251.67058   -49728.528    49749.095    -12.94795    30.337106 
141808000    287.35069    256.34675    340.87854   -49766.057    49786.569    -84.53179     30.34494 
141812000     304.8729    484.26842    323.58192   -49819.728    49828.953    160.68649    30.348667 
141816000     302.2858    377.61781    245.94054   -49865.013    49861.978    131.67728    30.337152 
141820000    295.79184    515.84532    376.74742   -49892.309    49916.738     139.0979    30.322718 
141824000    288.43664    285.29876    425.65301   -49917.968    49923.259   -140.35425    30.338081 
141828000    270.38444    99.811116    307.44993    -49939.59    49956.059   -207.63881    30.342109 
141832000    309.11511    331.27312     432.5198   -49991.726    49963.536   -101.24667    30.325992 
141836000     292.5531     348.2987    239.87355   -50013.754    50022.166    108.42515     30.32669 
141840000    291.58906    240.41062     324.8217   -50073.862    50081.606   -84.411076    30.359632 
141844000    274.83347    304.02152    474.81762   -50114.229    50125.533    -170.7961    30.318024 
141848000    288.87271    510.20551    312.09197   -50152.917    50167.093    198.11354    30.322253 
141852000    295.27328    323.55037     348.7237   -50168.798    50177.553    -25.17333    30.330395 
141856000    286.67764    417.90482    258.10904    -50191.48    50192.888    159.79577    30.311757 
141860000    307.73052    252.88473    384.00464   -50233.163    50243.782   -131.11991     30.29706 
141864000    353.13506    793.83881    293.82095   -50273.264    50236.896    500.01786    30.303862 
141868000    274.72188    325.01295    299.18723   -50286.719    50305.081    25.825716    30.268881 
141872000    286.97808    233.04041     352.5191   -50338.642    50355.139   -119.47868    30.264152 
141876000    288.09458     440.4069    362.91507   -50379.114    50395.643     77.49183    30.265707 
141880000    268.87147    272.51988    199.91215   -50404.203    50429.734    72.607731    30.247497 
141884000     261.8937    167.59026    254.70154   -50454.367    50462.889   -87.111273    30.239391 
141888000    286.03295    145.45567    346.92292   -50463.018    50476.708   -201.46724    30.244997 
141892000    276.03164    368.41212    306.04412   -50516.843    50526.189    62.368002    30.231868 
141896000     291.5799     224.6021    354.21158   -50560.657    50562.213   -129.60948    30.244038 
141900000    282.71751    288.68902    694.99454   -50607.596    50621.154   -406.30552    30.219957 
141904000    271.40657     302.7411    281.77492   -50634.902    50647.787    20.966181     30.20596 
141908000     260.0436    500.32109     297.9849   -50657.054    50666.592    202.33619    30.179734 
141912000    256.77925    339.07923    483.82606   -50665.158    50690.714   -144.74683    30.155725 
141916000     272.1968    422.07551    206.50882   -50718.272      50728.6    215.56669     30.15917 
141920000    271.15311    337.64039    391.81835   -50767.963    50773.794   -54.177959    30.142425 
141924000    280.87985    275.41742    360.66648     -50786.3     50806.02   -85.249058    30.118577 
141928000    279.60925    427.50838    382.77089   -50815.406    50830.431    44.737488    30.103839 
141932000    310.25744    398.21381    316.39102   -50860.481    50851.361    81.822794    30.103457 
141936000    266.35882    300.45218    282.01644   -50865.284    50878.053    18.435744    30.102333 
141940000    267.82561     277.7628    379.99602   -50891.497    50919.898   -102.23322    30.079748 
141944000    330.00746    536.31831     303.7779   -50920.867    50918.483    232.54041    30.069149 
141948000    276.94094    243.18675    224.24666   -50946.128    50970.784    18.940096    30.043409 
141952000     305.6785    339.43906    239.55495   -50983.077    50981.414    99.884107    30.051463 
141956000    281.72026    411.37095     334.0424   -51040.129     51032.78    77.328547    30.013919 
141960000    281.85978    247.19655    257.09012   -51067.849    51085.833   -9.8935667    30.021303 
141964000    301.34503    335.65004    402.42917   -51107.225    51086.927   -66.779132    30.014143 
141968000    316.35708    227.63373    328.61268   -51147.836     51148.67   -100.97895    29.984432 
141972000     293.7854    345.29677     310.0925   -51192.536    51194.344    35.204268    29.989325 
141976000    285.81084    460.43796    281.76171   -51237.406    51238.615    178.67625    29.994502 
141980000    266.46917    427.88023    279.14713   -51254.278     51268.72     148.7331    30.001333 
141984000    302.65089    452.57402     452.6995   -51282.731    51296.983  -0.12548359     29.99806 
141988000    290.34092    425.04948    546.92178   -51330.547    51320.628    -121.8723    30.016376 
141992000    301.17924    324.82466    261.29002   -51362.212     51366.04    63.534636    29.994464 
141996000    296.08161    247.24776    377.07382   -51423.261    51423.074   -129.82606    30.016742 
142000000    264.46925    283.55733     186.7563   -51429.068    51451.399    96.801025    29.993096 
142004000    315.94688    444.03287     425.8389    -51473.42    51470.152    18.193962    29.993539 
142008000    276.70886    276.46861    175.66253   -51515.036    51536.465    100.80608    29.983207 
142012000    303.21986    331.47155    322.56544   -51561.525    51563.725    8.9061049    29.969442 
142016000    298.74862    399.88138     315.3821    -51572.51    51584.543    84.499277    29.942082 
142020000    309.76179    281.07647    382.56165   -51638.112    51635.558   -101.48518    29.934783 
142024000    280.19805    410.69574    133.06213   -51692.752    51698.578    277.63361    29.927873 
142028000    283.84924    395.88104    239.02781   -51709.478    51714.964    156.85323    29.922957 
142032000    293.21456    281.96304    181.54506   -51754.944    51741.541    100.41798    29.917222 
142036000    292.14822    223.84214    326.80958   -51762.914    51753.419   -102.96744    29.903737 
142040000    298.58753    304.71389    333.91257   -51806.157    51801.986   -29.198678    29.911127 
142044000    299.35493    399.45523    340.99933   -51836.928    51837.029    58.455894    29.933858 
142048000    307.53497    406.34533    382.72902   -51879.607    51886.545    23.616313    29.918078 
142052000    297.47121    384.16876    331.33817   -51923.043    51916.205     52.83059    29.923797 
142056000    301.41346    369.38652    296.53374     -51940.2    51948.059    72.852782    29.947008 
142060000    269.52539    414.29956    252.52037   -51952.134    51967.043    161.77919    29.932601 
142064000    296.56768    485.92607    416.49856   -51975.416    51996.539    69.427516    29.916032 
142068000    275.32279    296.52312    328.69399   -52006.812    52040.388   -32.170865    29.902506 
142072000    297.29211    237.45341    386.81012   -52067.686     52071.33   -149.35672    29.882159 
142076000    306.59352    532.26871    304.76172     -52105.9    52101.152      227.507    29.895907 
142080000     333.2632    311.53003    258.73438   -52138.302    52122.961    52.795649    29.888565 
142084000    258.83053    442.54249    170.22453   -52170.346    52198.174    272.31796    29.888795 
142088000    233.12801     233.3264    266.92594   -52178.628    52228.631   -33.599544    29.874049 
142092000    290.41186    485.56649     399.3537   -52242.654    52262.879    86.212789    29.893426 
142096000    291.23129     402.5118    492.98376   -52301.562    52298.606   -90.471961      29.9222 
142100000    321.49608    408.04848    526.24847   -52324.096    52328.393       -118.2    29.920656 
142104000    259.93923    367.81015    310.98862   -52329.492    52354.549    56.821533    29.906011 
142108000    295.29574    333.12768    318.29064   -52378.751    52384.166    14.837044    29.901987 
142112000    264.99097     491.7969     402.0004   -52406.654    52417.626    89.796501    29.901387 
142116000    268.54191    466.68086    369.44542   -52431.035    52452.481    97.235442     29.90512 
142120000    270.85195    339.25344    351.47765    -52481.13    52493.744   -12.224203    29.908845 
142124000    290.40921    463.67411    471.31255   -52525.054    52513.819   -7.6384386    29.917394 
142128000    328.75012    319.64063    356.90212    -52526.96    52521.372   -37.261485     29.89472 
142132000    300.29912    407.97817    318.15187   -52526.077    52538.903    89.826296    29.911984 
142136000    278.76565    362.31739    380.60489   -52551.903      52565.9   -18.287502    29.912766 
142140000    283.66377     288.5063    278.22173   -52595.957     52619.91    10.284568    29.917197 
142144000    288.97459    408.52899    523.61776   -52634.576     52640.91   -115.08877     29.92854 
142148000    264.52345    499.15304    379.58987   -52648.285    52684.986    119.56317    29.932891 
142152000    249.50097    261.20088    280.15709   -52669.522    52709.583   -18.956211    29.933946 
142156000    302.76928    383.09276    276.51327   -52711.295    52719.027     106.5795     29.91756 
142160000    268.71377    401.31847    312.77052    -52738.26    52754.173     88.54795    29.933388 
142164000     311.6455    397.02658    321.31242   -52801.684     52802.76    75.714161    29.920145 
142168000    305.13692    375.13289    371.35055   -52832.173    52844.046    3.7823341    29.955057 
142172000    260.16902    268.06231     475.5263   -52841.037    52865.289   -207.46399    29.936885 
142176000     283.3811    341.18257    315.52191   -52899.054     52912.66    25.660661     29.93075 
142180000    285.32819    523.52948    292.18207   -52949.713    52953.504    231.34741    29.929428 
142184000    268.94778    287.17728    437.53877   -52938.582    52976.681   -150.36149    29.927266 
142188000    278.17793    342.19687    353.44726   -52980.391    52988.146   -11.250392    29.943343 
142192000    309.86531    342.28066    389.81431   -53021.242    53017.754   -47.533658    29.963959 
142196000    280.45071    496.27131    353.98315   -53060.421    53063.833    142.28816    29.950876 
142200000     278.4386    369.44433    419.55953   -53106.604    53124.738   -50.115205    29.963736 
142204000    266.93848    421.98295    131.84253   -53148.321     53161.56    290.14042    29.950198 
142208000    299.66376    415.19665    443.46451   -53190.411    53163.555   -28.267861    29.935663 
142212000     295.1616     595.5538    260.99947   -53186.442    53189.131    334.55434    29.950788 
142216000    277.81425    436.46329    258.97132   -53233.018    53241.788    177.49197    29.945227 
142220000    283.84161    408.76204    390.53629   -53293.396    53290.618    18.225746    29.938806 
142224000    280.52721    417.50113    279.06239   -53324.951    53335.053    138.43875    29.948768 
142228000    249.40694    320.10906    344.90118   -53355.887    53409.638   -24.792127    29.942503 
142232000    268.26762    259.04183    374.29349   -53401.591    53423.294   -115.25166     29.92189 
142236000    268.38827    313.11439    388.09717   -53455.925    53473.938   -74.982781    29.908773 
142240000    292.11586    356.04217    348.90948    -53506.82    53504.051     7.132687    29.905245 
142244000    299.87368    372.62114    595.30998   -53537.548    53545.822   -222.68884    29.895988 
142248000    288.97423    440.95864    261.97012   -53615.172    53604.728    178.98852    29.884034 
142252000    265.70574    330.85125    327.96773   -53627.623    53647.419    2.8835141    29.881989 
142256000    295.33032    595.08721    448.61319    -53696.44    53680.413    146.47402    29.850064 
142260000    281.63289    259.78788    430.75845   -53693.008    53713.461   -170.97056    29.850656 
142264000     284.7617    391.85492    415.64674   -53732.025    53748.133   -23.791829    29.865912 
142268000    284.99155    256.78073    184.36853   -53758.486    53761.036    72.412204    29.867091 
142272000    295.90711    377.93358    245.11906   -53827.077    53808.427    132.81452     29.88862 
142276000    310.20318    321.24334    390.55732   -53840.521    53828.555   -69.313976    29.917242 
142280000    296.99584    211.38393     311.4156   -53903.613    53913.872   -100.03168    29.910594 
142284000    279.97944    277.61755    407.49339   -53933.414    53940.399   -129.87585    29.907578 
142288000    264.01147    447.51357    412.96933   -53980.134    53991.866    34.544242    29.901272 
142292000    316.38866    277.39301    453.22945   -54018.015    54020.172   -175.83644     29.86382 
142296000    295.10318    364.85395    527.38533   -54053.816    54074.088   -162.53137    29.867284 
142300000    273.91227    197.37746    395.74867   -54084.458    54107.666   -198.37121    29.845526 
142304000    283.41485    198.86884    522.56226   -54120.184    54133.198   -323.69342    29.820054 
142308000    268.92107    346.89375    239.38574   -54159.509    54169.335    107.50801    29.809633 
142312000    298.07023      278.743    342.65897   -54193.885    54189.156   -63.915967    29.818823 
142316000    264.37005     307.7024    228.75589   -54210.592    54234.491    78.946515    29.835283 
142320000      287.715    421.96061    256.30266   -54239.614    54242.072    165.65796    29.825444 
142324000    296.60456    480.54275    333.20176   -54279.059    54288.375    147.34099    29.815729 
142328000    294.83147    532.19114    258.23294    -54299.37    54315.663     273.9582    29.813485 
142332000     279.3083    342.30147    245.54649   -54305.782    54330.143    96.754977    29.807315 
142336000    269.88035    263.90064    203.18547   -54359.156    54384.215    60.715162    29.798953 
142340000    273.58091    469.77229    224.13725   -54409.003    54391.034    245.63504    29.825216 
142344000    284.00587    342.97072     255.2779   -54442.015    54435.935    87.692825    29.822202 
142348000    293.90698    442.11638    160.93157   -54482.561    54461.694     281.1848     29.83411 
142352000     302.7647    320.12391    218.86418   -54513.622    54510.176    101.25973    29.843302 
142356000    285.22015    271.24187    382.48875   -54528.119    54551.138   -111.24688    29.854084 
142360000    311.07314    595.81287    468.29811   -54602.583    54599.714    127.51476     29.84783 
142364000    297.97027    378.40865    403.13845   -54615.095    54615.118   -24.729803    29.848494 
142368000    281.31136     348.6783    352.18271   -54632.431    54647.389   -3.5044067    29.800314 
142372000    288.20066    383.80265    475.39745   -54671.959    54681.605   -91.594807    29.823429 
142376000    249.43689    229.97052    469.39623   -54694.278    54725.087   -239.42571    29.813391 
142380000     274.0805    307.64303     270.6434   -54731.712    54741.685    36.999635    29.808138 
142384000    269.65438    347.16384    443.38654   -54761.994    54788.055   -96.222701    29.815185 
142388000    257.04459    317.76483    361.77608   -54791.761    54823.873   -44.011246     29.82807 
142392000    286.55908    261.75847    261.52953   -54849.841     54862.19   0.22894264    29.819786 
142396000    296.43636    345.31346     340.8033    -54891.79    54886.618    4.5101583    29.834453 
142400000    250.03455     360.7052    290.20027   -54909.076    54943.322    70.504926    29.824547 
142404000    285.48944    298.20807    275.31177   -54943.756    54970.506      22.8963    29.829058 
142408000    279.05899    367.12471    342.77968   -54985.687    55001.971    24.345026      29.8392 
142412000     287.6188    518.05716    253.23243   -55028.005    55057.111    264.82473    29.856291 
142416000    279.39897    304.45825    345.31616   -55071.415    55097.927   -40.857914    29.864944 
142420000    295.01433    359.31051    399.99992   -55111.659    55129.663   -40.689414    29.858038 
142424000    260.63534    229.84049    243.40284   -55144.982    55170.777   -13.562351    29.857308 
142428000    270.84816    231.52415     294.2818   -55172.003    55194.056   -62.757646     29.85251 
142432000    278.58242    285.33341    171.26424   -55204.429    55250.404    114.06917    29.852189 
142436000    296.04407     178.1028     341.8952   -55239.826    55246.409   -163.79239    29.849515 
142440000    254.95037    345.26809    223.19092   -55284.817    55322.325    122.07718     29.83653 
142444000     290.5494    383.19601    193.33538   -55345.547    55347.918    189.86063    29.842808 
142448000    298.26989     572.5844     256.0132   -55385.395    55392.862    316.57119    29.855728 
142452000    286.98141    330.75043    316.83326   -55375.264    55395.363    13.917164    29.846381 
142456000    286.91989    428.14169    387.45035   -55440.783    55445.783    40.691337    29.845578 
142460000    290.35508     304.8603    336.03537   -55491.767    55497.467   -31.175071    29.846171 
142464000    265.29281    135.38252    556.16225   -55530.581    55528.886   -420.77973    29.839141 
142468000    279.93204    231.37305     416.4826   -55581.625    55589.985   -185.10955    29.866016 
142472000    304.14565    441.14202    253.92676   -55622.842    55619.137    187.21526    29.866704 
142476000    276.70849    308.04721    297.18307   -55632.472    55656.477    10.864134    29.837144 
142480000    246.88703    298.71071     283.2646   -55663.689    55710.759    15.446108    29.809463 
142484000     304.9745    368.42328    206.59385   -55723.562    55711.821    161.82943    29.812773 
142488000    293.05726     242.5295    281.22873   -55732.588     55738.31   -38.699235    29.795718 
142492000    298.13603    466.29789    257.50403   -55753.217    55760.517    208.79387    29.787509 
142496000    308.72041    539.63415    247.92916   -55816.033    55814.231    291.70499    29.791648 
142500000    278.32152    313.47688    255.98812   -55815.803    55826.026    57.488756    29.774712 
142504000    256.12439    300.85419    150.98185   -55833.166    55857.623    149.87235    29.795279 
142508000    247.65222    465.82121    329.60872   -55855.292    55901.115    136.21249    29.801921 
142512000    269.99008    243.74357    339.24374   -55868.079    55904.843   -95.500174    29.810154 
142516000    273.35527    368.72088    169.62101   -55925.743    55940.674    199.09987    29.797141 
142520000    271.41661    298.67827    322.43744   -55973.179    56005.677   -23.759175    29.782993 
142524000    271.80551    221.88583     405.3318   -56001.368    56022.743   -183.44598    29.769651 
142528000    271.88594    396.82229    228.37495   -56048.028    56044.486    168.44734    29.750965 
142532000    298.13162    524.76188    340.35994   -56044.057    56057.726    184.40194    29.753532 
142536000    301.36937    359.22684    359.07434   -56081.149    56088.267    0.1524962    29.733482 
142540000     270.8647    432.20895    417.18388   -56089.661    56096.816     15.02507    29.719983 
142544000    277.91443     398.9869    375.71287   -56101.635    56118.868    23.274035    29.731507 
142548000    303.29447    671.66536    370.17726   -56139.855    56154.841     301.4881    29.736876 
142552000    275.00562    287.83638    364.92835   -56158.747    56174.137   -77.091972    29.734473 
142556000    285.18158    581.63241     360.7965   -56183.751    56192.199    220.83591    29.732645 
142560000    264.69356    420.02766    173.69593   -56234.319    56258.505    246.33173    29.727896 
142564000       276.15    300.42215    572.33504   -56308.929    56313.039   -271.91288     29.71474 
142568000     290.1815    510.83612    255.48013   -56330.116    56327.408    255.35599    29.712989 
142572000    285.99135     258.2592    210.77343   -56341.463    56349.367    47.485769    29.685621 
142576000    264.61104    208.04934    241.97486   -56387.796    56398.798   -33.925518    29.676827 
142580000    273.76339    310.50568    229.66354   -56418.736    56432.536    80.842139    29.674535 
142584000    301.03238    271.40129    317.45021   -56464.778    56460.923   -46.048922     29.68904 
142588000     289.7759    233.95708    548.19524   -56483.338    56479.854   -314.23816    29.681547 
142592000    280.13674    333.66895    210.31933   -56499.304    56514.615    123.34962     29.67015 
142596000    291.02381    327.45197    518.99632   -56496.173    56517.936   -191.54435     29.68889 
142600000     270.2216    231.25924    401.58119   -56494.741    56517.974   -170.32196    29.705686 
142604000    287.16294    298.47499     356.8491   -56528.323    56533.813   -58.374111    29.699051 
142608000    288.71489    362.76837    282.13377   -56585.468    56584.505    80.634597    29.690795 
142612000    271.29658    245.77885    291.65069    -56642.19    56658.696   -45.871836    29.704126 
142616000    279.06278    265.86243    304.99946   -56682.734    56696.506   -39.137039     29.71292 
142620000    284.73518    323.38863    340.74191   -56764.264    56772.592   -17.353285    29.718978 
142624000    276.26078    263.14023    293.19728   -56803.637    56815.765   -30.057048    29.725911 
142628000    298.28473    398.53062    210.34272   -56861.169     56858.29     188.1879    29.726747 
142632000    303.49811    391.61984    422.19162   -56944.714    56950.198    -30.57178    29.725222 
142636000    295.14214    359.11923    200.14621   -56988.395    56999.309    158.97302    29.745153 
142640000    251.27296    409.31588    201.81649   -57013.578    57039.465    207.49939    29.744939 
142644000    263.92798     379.2578    259.73925   -57028.893    57059.016    119.51855    29.735361 
142648000    293.27813    249.29958     409.5412   -57069.608      57071.4   -160.24162    29.753386 
142652000     296.2778    447.52439    319.07722    -57111.96    57131.354    128.44717    29.752615 
142656000    293.17484     352.2974      297.801   -57164.781    57172.776    54.496399    29.751432 
142660000    302.15397    398.58401    241.93847   -57205.545    57185.414    156.64554    29.769389 
142664000    313.31352    239.49598    466.86311   -57220.552    57191.135   -227.36714    29.797493 
142668000    261.20399    247.64396    207.94973   -57228.946    57247.111    39.694228    29.797996 
142672000    296.44808    252.20186      306.808   -57252.795    57261.988    -54.60614    29.789583 
142676000     273.8725    411.65065    316.48042   -57278.015    57301.246    95.170228    29.774897 
142680000    275.27355    141.76111    271.01276   -57284.187    57300.552   -129.25165    29.776157 
142684000    293.11461    299.52815    311.76846   -57305.652      57309.6   -12.240318    29.786217 
142688000    313.80632    555.95812    234.43428   -57331.041    57338.248    321.52384    29.786856 
142692000    283.72622    227.63722    161.24874   -57356.902    57375.637    66.388476    29.807971 
142696000    266.90136    255.73563    222.70471   -57372.557    57389.113    33.030921    29.814224 
142700000    272.45489    283.66178    341.84518   -57398.917     57404.62   -58.183397    29.815053 
142704000    289.04686    276.72495    496.44492   -57444.837    57442.947   -219.71997    29.813305 
142708000    256.99322     398.8249    235.07659   -57443.909    57468.993    163.74832    29.814406 
142712000    302.89876    433.99904    263.96745   -57499.187    57497.289    170.03159    29.805148 
142716000    330.18129    440.03372    397.00857   -57539.833    57511.059    43.025149    29.813244 
142720000    268.36107    318.64898    381.01426   -57556.679    57569.801   -62.365277    29.805007 
142724000    292.22046     430.6817     151.1527   -57573.309    57596.174      279.529    29.817268 
142728000     265.5762    397.52671    323.15386   -57597.261    57617.249    74.372849    29.823442 
142732000    293.85392    203.74165     347.8824   -57632.498    57637.439   -144.14075    29.808244 
142736000    302.66153    188.98936    358.42559    -57660.55     57644.46   -169.43623    29.810158 
142740000    288.84948    302.88811    241.22192   -57679.649    57683.683    61.666188    29.812152 
142744000    276.32061    265.48643    357.64953   -57718.098    57727.706   -92.163097    29.821578 
142748000    292.99714    233.72888    319.18162   -57748.128    57749.879   -85.452745     29.81988 
142752000    243.84953    284.06345    354.99948   -57786.522     57827.78   -70.936033    29.812353 
142756000     244.9399    225.87328     304.7564   -57810.811    57846.886   -78.883128    29.807252 
142760000    258.52496    354.10306    178.92177   -57879.092     57906.94    175.18129    29.813311 
142764000    290.51169    170.55286    406.89732     -57945.3    57964.917   -236.34447    29.812307 
142768000    299.95007    384.23856    410.40523    -57999.12    58004.206   -26.166673    29.794559 
142772000    270.73872    490.85888    243.90445   -57974.093    58007.178    246.95442     29.79188 
142776000    287.32659    363.04513    359.30074   -58021.456    58027.107     3.744389    29.796526 
142780000    273.39442    304.83347     218.5995   -58056.534    58082.769    86.233967    29.809845 
142784000     284.8537    427.40811     262.3095   -58119.905    58131.031    165.09861    29.816111 
142788000    282.42993    302.95885    269.35099   -58166.895    58169.208    33.607856    29.815974 
142792000    261.30892    348.51453    254.11928   -58216.533    58235.932    94.395243    29.806871 
142796000    258.80229    238.92059    193.50284   -58223.004    58262.494    45.417751    29.828206 
142800000    292.64824    475.72183    433.59527   -58276.245    58287.721    42.126567    29.822507 
142804000    279.26381     421.6912    359.17561   -58313.822    58320.351    62.515585    29.826748 
142808000    277.87447    236.02612    467.77591   -58332.909    58343.397    -231.7498    29.807293 
142812000    279.21246    358.64469    265.49507   -58363.859    58384.679     93.14962     29.81227 
142816000    285.99806    456.85958    461.20413   -58382.074    58399.505   -4.3445513    29.815788 
142820000    294.10209    504.67607    237.12127   -58416.866    58436.468    267.55479    29.828575 
142824000    279.23533    377.42562    297.20798   -58466.232    58472.761     80.21764    29.831256 
142828000    303.15842    533.32031    353.67782   -58491.679    58508.557     179.6425    29.820872 
142832000    284.60017     244.3612    295.23996   -58508.559    58528.835   -50.878762    29.809881 
142836000    291.36011     493.0031    320.38926   -58555.773    58563.135    172.61384    29.806999 
142840000    290.48714    324.58293    409.72956   -58592.406     58598.88   -85.146629    29.812217 
142844000    300.21062    406.96515    276.34159   -58669.739    58670.861    130.62356    29.795723 
142848000    339.36044    341.77619    252.93299   -58678.983    58674.113    88.843201    29.818549 
142852000    279.97331    454.56246    313.25065   -58686.863    58709.408    141.31181    29.796926 
142856000    312.29901    257.91144    327.89019    -58709.52    58719.083   -69.978752    29.781585 
142860000     276.4853    251.00231     299.1274   -58729.962    58743.401   -48.125085    29.790017 
142864000    282.31626    238.21367    285.93948   -58751.936    58778.597   -47.725813    29.774135 
142868000    260.53334    246.92804    361.05144   -58799.232    58821.006    -114.1234    29.760854 
142872000    276.06784    481.39389    364.86842    -58818.82    58819.986    116.52547    29.755594 
142876000    253.34215    283.73673    333.74026   -58868.484      58895.2   -50.003529    29.756775 
142880000    292.69436    318.64951    282.80946   -58917.794    58922.145    35.840047    29.750287 
142884000    277.25351    329.83329    542.71474    -58943.59    58966.334   -212.88145    29.753172 
142888000    283.28515    230.18053    182.01988   -58969.624     58991.95    48.160658    29.763359 
142892000    278.76955    260.30927    212.77071   -58995.916    59009.984    47.538555    29.764858 
142896000    280.70395    343.61702    360.33208   -59015.778    59034.527   -16.715064    29.765001 
142900000    331.23325    478.37716    419.69976   -59061.659    59057.565    58.677404    29.756745 
142904000    287.63841    475.37265    483.94736   -59116.116    59136.444   -8.5747083    29.739297 
142908000    310.57755    476.52871      347.556   -59179.269    59176.419    128.97271    29.732653 
142912000    267.36552    341.86167    257.85906   -59193.224    59211.137    84.002608    29.723321 
142916000    300.98631    289.73648    455.75769   -59245.643     59250.29   -166.02121    29.730503 
142920000    288.28441    627.35121    125.48182   -59262.157    59277.492    501.86939    29.732175 
142924000     287.6959    357.90412    340.33901   -59310.506    59317.188    17.565109     29.73723 
142928000    320.01895    259.01769    343.29932   -59367.109    59370.245   -84.281634    29.733689 
142932000    265.40047    393.32729    215.36189   -59425.653    59436.554     177.9654    29.734455 
142936000    263.09133    451.30775    161.09909   -59466.415    59511.468    290.20866    29.757725 
142940000    305.26978    405.85146    439.74924   -59503.287    59500.999   -33.897777    29.753089 
142944000    237.64939     269.6117    317.98293   -59525.483    59572.421   -48.371231    29.735944 
142948000     291.7653    351.20281    396.59362   -59541.034    59559.427   -45.390816    29.748263 
142952000    255.60087    289.26322    348.13859   -59551.907    59592.871   -58.875368    29.760553 
142956000    287.47941     353.5636    374.50479   -59580.715    59589.983   -20.941185    29.784632 
142960000    275.05032    403.05879    317.35973   -59603.422    59630.109    85.699054    29.789418 
142964000    287.39538    586.52956    286.99221   -59658.924    59665.789    299.53735    29.813515 
142968000    284.04392     416.2251    279.37909   -59689.483    59718.274    136.84601    29.798681 
142972000    287.18183    244.86673    183.15756    -59749.89    59754.865    61.709172    29.800316 
142976000    283.72692    426.04601    382.79056   -59784.054    59777.494    43.255446    29.788122 
142980000    292.45392    368.84697    281.90802   -59792.773    59809.359    86.938949      29.7813 
142984000    263.37003    448.80757    292.45557   -59794.934    59838.432      156.352    29.783943 
142988000    289.21571    365.40915    332.65445   -59808.405    59819.359    32.754695    29.789442 
142992000    258.65534    416.00934    183.96884    -59839.59    59872.885     232.0405    29.794033 
142996000    239.83198     288.8796    296.23691   -59855.654    59894.673   -7.3573112    29.783897 
143000000    308.24188    363.28459    152.96566   -59911.108    59928.664    210.31893     29.76948 
143004000    288.20898    587.95928    279.58571   -59936.642    59956.272    308.37357    29.751041 
143008000     266.3651    250.16148    218.00945   -59956.578    59985.523    32.152029    29.748747 
143012000    268.69696    281.86331    348.06036   -59983.795    60009.218   -66.197047    29.756614 
143016000    271.63864    301.35771    321.04087   -60005.304    60028.088   -19.683166    29.755505 
143020000     275.9064    320.90882     318.0439    -60046.49    60062.562    2.8649288    29.760585 
143024000    265.93621    300.34912    215.56473   -60079.032    60098.704    84.784384    29.744032 
143028000    275.16384    497.54586    310.94762   -60146.285    60153.334    186.59823    29.756194 
143032000    294.98605    315.29238    363.46776   -60151.984    60154.094   -48.175373    29.752312 
143036000    291.00963    555.43958     391.3505   -60181.862      60189.9    164.08909    29.777711 
143040000    287.87292    502.07547     250.3396    -60218.92    60242.061    251.73588    29.775569 
143044000    263.40099    240.20905    298.61099   -60255.766      60277.2   -58.401943    29.779105 
143048000    268.58127    233.54379    382.42959   -60261.564    60296.232   -148.88579    29.765491 
143052000    250.02933    256.19894    172.10881   -60292.926    60328.569    84.090123     29.78444 
143056000     267.3657    380.63227    404.79634   -60326.913    60348.378   -24.164072    29.768556 
143060000    287.99216    341.52965    313.66287   -60379.879    60397.439    27.866784     29.74825 
143064000    295.45959    351.95582    424.15731    -60446.44    60442.865   -72.201489    29.728707 
143068000    270.44045    253.74077    296.79633   -60464.942    60498.285   -43.055557    29.727337 
143072000    278.64094    386.22518    319.80282    -60527.36    60542.001    66.422364    29.741606 
143076000    283.55766    213.18646    473.31671   -60563.286    60571.563   -260.13025    29.733188 
143080000    283.03457    413.51975     351.2871   -60613.421    60642.338    62.232642    29.750456 
143084000    303.07598    419.27683    319.99215   -60642.652    60652.647    99.284679    29.756292 
143088000    284.48585    471.22529    362.31326   -60673.184    60677.365    108.91202    29.776779 
143092000    295.28968    254.76776    191.34803   -60690.456     60701.22    63.419725    29.798859 
143096000    286.45137    353.17965    288.40994   -60694.947     60726.31    64.769706    29.822026 
143100000    269.93412    297.00204    321.27347   -60723.959    60743.786   -24.271429    29.826357 
143104000    271.12805    365.42125    274.23982   -60762.727    60784.506    91.181438    29.815781 
143108000    293.28267    301.60919    249.07008    -60804.86    60828.507    52.539111    29.826414 
143112000    267.03063    239.38578    405.87488   -60872.043    60881.507    -166.4891    29.794304 
143116000    262.07114    453.44115    266.31165   -60917.529    60948.797     187.1295     29.80773 
143120000    287.78361    476.85765    254.16873   -60946.005    60943.634    222.68891    29.811955 
143124000     322.0939    409.58995    278.74384   -60975.521    60971.739    130.84612    29.797551 
143128000    298.37684    383.51188    356.31754   -61008.178    61001.156    27.194342    29.803606 
143132000    293.12518     210.7759    359.13401   -61053.008    61060.003   -148.35811    29.791384 
143136000    272.19521    418.03665    443.52595   -61065.003    61086.437   -25.489302    29.759492 
143140000    318.40156    490.28979    377.53073   -61105.702    61092.049    112.75906    29.753782 
143144000    307.68574    321.85341    532.32414   -61149.393    61141.727   -210.47073    29.752157 
143148000    282.51342    467.82395    445.58954   -61174.072    61183.093    22.234407    29.740385 
143152000    262.25315    237.12023    380.73421   -61188.521    61203.415   -143.61398    29.738911 
143156000    260.47544    310.98195    301.08194   -61211.744     61252.94    9.9000184    29.747243 
143160000    267.77152    257.16106    233.16427   -61249.004    61264.919    23.996796    29.766375 
143164000    266.63253    344.27692    338.72738   -61304.009    61326.082     5.549542    29.771062 
143168000    265.28951    200.92779    472.38976   -61368.808    61381.295   -271.46197    29.778413 
143172000    283.46374    376.28581     369.3896   -61405.131    61427.351    6.8962108    29.762597 
143176000    297.39271    296.83735    248.49301   -61431.533    61446.651    48.344347    29.770197 
143180000    309.91598    473.78727    329.30346   -61472.193    61472.441    144.48381    29.774185 
143184000    260.39804    307.70533    534.83464   -61473.495    61500.141   -227.12931    29.767971 
143188000     285.1338    441.84141    310.66251   -61515.126    61537.567     131.1789    29.763573 
143192000    291.96348    407.35846    449.07105    -61578.74    61587.542   -41.712587    29.742253 
143196000    269.29152    176.99714     311.0443   -61627.533    61652.841   -134.04716    29.744072 
143200000    285.26698    270.40945    280.53217   -61661.935    61669.071    -10.12272      29.7412 
143204000    274.77065    258.22983    292.51835   -61695.534    61721.647   -34.288521    29.735156 
143208000    282.40456    330.69943    272.23146   -61714.814    61727.654    58.467971     29.73947 
143212000    292.09771    461.83593    502.84764   -61772.316    61782.159   -41.011704    29.736676 
143216000    305.34745    378.26207    401.45249   -61832.632    61821.463   -23.190419    29.730159 
143220000    270.06193    273.78634    243.20757    -61799.71    61838.398    30.578765    29.734081 
143224000     261.8701    209.05608    498.58466   -61828.671    61864.511   -289.52857    29.721949 
143228000     281.0236    353.79458     263.3893   -61879.371    61902.021    90.405284    29.725814 
143232000    275.14499    324.60324    313.27153   -61894.957    61914.596    11.331708    29.715789 
143236000    262.14129     303.8802    242.15763   -61924.493    61942.508    61.722576    29.728232 
143240000    280.41864    271.73806    400.69349    -61975.88    61989.431   -128.95544    29.705849 
143244000    283.19771    302.20477    199.29504   -62006.431    62047.024    102.90974    29.717131 
143248000    292.77365    248.02062    186.79773   -62034.651    62054.443    61.222893    29.706938 
143252000    285.59582    455.65313    340.79421   -62092.899    62100.064    114.85893    29.704431 
143256000    274.27433    375.25943    400.12074   -62094.558    62125.221    -24.86131     29.71143 
143260000    295.70285    336.92705    179.32505   -62174.258    62178.438      157.602    29.719846 
143264000     297.3964    371.68208    261.08268   -62231.444    62242.366     110.5994     29.74439 
143268000     273.0711    516.67629    267.56971   -62242.352    62263.231    249.10658    29.751679 
143272000    272.38192    247.92298      403.093   -62307.865    62305.614   -155.17001    29.767748 
143276000    290.49143    282.67196    326.40443   -62286.561    62316.995   -43.732469    29.763989 
143280000    284.83133    264.29549    391.06582   -62304.282    62322.399   -126.77033    29.753711 
143284000     273.4635    251.34892    268.00083   -62349.939    62359.963   -16.651906     29.75008 
143288000    272.22054    310.39135    226.30911   -62371.219    62379.521    84.082244    29.747661 
143292000    290.84695    442.66445    339.34083   -62386.999     62398.81    103.32362    29.760321 
143296000    288.09295    471.83514    462.48427    -62373.54    62403.714    9.3508727     29.74257 
143300000    276.26591    245.04371    346.20265   -62411.857    62427.409   -101.15894    29.729345 
143304000    280.59858    239.18849    242.42611    -62439.82    62476.249   -3.2376202    29.735936 
143308000    275.81424    367.06886    324.16798    -62471.64    62496.743    42.900873    29.739005 
143312000    288.45575    370.50734    419.19573    -62523.14    62532.859   -48.688389    29.740522 
143316000    262.67396    282.00699    251.82394   -62562.881    62600.245    30.183048     29.74197 
143320000    267.28142    390.23932    238.24033   -62601.351      62634.6    151.99899    29.725345 
143324000    267.79044    279.07783    199.17024   -62635.944    62673.573    79.907589    29.712574 
143328000     297.4127    366.48111    332.87019   -62692.424    62674.435     33.61092    29.717869 
143332000    306.05457    488.89499    197.96933    -62705.94    62695.107    290.92566    29.706296 
143336000    305.05463    517.75315    377.08103   -62734.651    62720.225    140.67211    29.708141 
143340000    280.90854    349.35529     161.1856   -62763.104    62773.486     188.1697    29.715918 
143344000    300.62728    361.44792    389.09729   -62781.836    62788.088   -27.649367    29.727468 
143348000    319.18691     533.4554    245.54625    -62823.18    62816.977    287.90914    29.738741 
143352000     288.7713    427.32464    514.65177   -62835.184    62852.133   -87.327129    29.741055 
143356000    270.48495    521.17729    280.50558   -62863.502    62898.612     240.6717    29.726706 
143360000    270.84293    381.79753    416.82837   -62936.773    62951.086   -35.030843    29.719247 
143364000      276.493    443.17231    301.01476   -62988.175    63013.375    142.15755    29.727328 
143368000    297.29244    315.18425     265.6541   -63041.978    63044.258    49.530142     29.71479 
143372000    295.57152    576.59994    301.40328   -63076.436    63088.991    275.19665    29.740204 
143376000    294.92888    359.22647    599.10372   -63119.554    63126.064   -239.87725    29.742139 
143380000    301.49031    281.77014    435.99846   -63175.656    63186.893   -154.22832    29.765645 
143384000    267.84233    235.91132    200.22804   -63233.862    63238.271    35.683279    29.773631 
143388000    306.05833    363.29787    331.40122   -63274.594     63255.35    31.896644    29.783819 
143392000    290.39438     265.1325    409.46394   -63327.007    63325.465   -144.33144    29.788662 
143396000    283.41079     345.4531    453.56484    -63346.32    63360.402   -108.11173    29.797715 
143400000     277.5407    422.44128     242.9157   -63398.226    63419.912    179.52558    29.779395 
143404000    279.84269    313.84495    335.56206   -63454.112    63475.222   -21.717112    29.781039 
143408000    255.51501    260.30267    280.02697   -63490.513    63532.931     -19.7243    29.785671 
143412000    282.94502    436.47208    334.98226   -63517.747     63525.97    101.48982    29.800747 
143416000    281.90353    318.53267    395.38341   -63539.318    63558.812   -76.850736    29.796786 
143420000    290.50722    403.17279    445.65719   -63555.072    63566.215   -42.484395    29.798419 
143424000    294.52567    443.42095    468.83105   -63598.551    63606.843   -25.410101    29.816439 
143428000    293.30666    574.02464    338.72204   -63618.646    63613.165     235.3026    29.813016 
143432000    286.41433    277.63078     462.5567   -63634.369    63628.188   -184.92593    29.793025 
143436000    298.99553    332.00425     360.7799    -63677.43    63683.091   -28.775657    29.813234 
143440000    303.23935    526.72983    273.90469   -63712.834    63722.896    252.82514    29.812046 
143444000     291.2623    370.20652     447.7557   -63756.448    63754.098   -77.549182    29.811755 
143448000    314.36615    501.19508     262.7035   -63774.095    63776.621    238.49158    29.833491 
143452000    305.75433    400.51673    518.21905   -63804.003    63809.926   -117.70232    29.815682 
143456000     299.5998    305.83949    297.28703    -63816.21    63834.701    8.5524522    29.817803 
143460000      303.778    364.39377    388.28249    -63895.26    63875.298   -23.888713    29.807759 
143464000    288.08203    381.26037    391.44873   -63919.079    63925.138   -10.188361    29.810722 
143468000    300.20816    375.83399    420.88786   -63969.654    63963.853   -45.053864    29.812794 
143472000    297.34943    384.46062     404.4567   -64023.759    64032.311   -19.996079    29.809944 
143476000    304.33101    199.99837    317.99059   -64027.312     64031.06   -117.99222    29.801761 
143480000    263.27283    287.43164    278.13505   -64067.874    64109.004    9.2965834     29.79624 
143484000    286.12854    206.70208    353.88411   -64089.588     64107.89   -147.18203     29.79497 
143488000    285.97617    258.17675     287.8254   -64101.353    64105.857    -29.64865     29.79052 
143492000    290.00374    329.85892    584.77066   -64126.408    64122.871   -254.91174    29.795688 
143496000    286.23115    444.88474    223.99825   -64151.415    64167.136    220.88649    29.775974 
143500000    285.66597    158.25559    420.01312   -64171.634    64180.178   -261.75753    29.767347 
143504000    285.54098    380.76737     136.1905   -64246.998    64253.504    244.57687     29.76233 
143508000    265.03537    456.02548    482.61932   -64288.852    64318.146   -26.593833     29.75082 
143512000    291.00655     339.6953    286.07327   -64351.549    64362.454    53.622036    29.765211 
143516000    285.62368    299.10105    451.69619    -64368.28    64402.838   -152.59514    29.756868 
143520000    304.65935    553.91336    219.95644    -64402.68    64411.205    333.95692    29.751656 
143524000    301.49485    386.43334    329.81621   -64443.291    64429.389     56.61713    29.754661 
143528000    301.58647    341.83559    216.01195   -64472.142    64464.721    125.82365     29.76642 
143532000    297.17461    334.12989    456.83819   -64503.507    64495.946    -122.7083    29.777268 
143536000    268.32848    448.41787    346.48001   -64518.174    64535.907    101.93786    29.771376 
143540000    297.17803    309.49993    304.85185   -64584.411    64564.852    4.6480859    29.777425 
143544000    291.68455    350.62105    359.78312     -64585.9    64597.189   -9.1620673    29.800756 
143548000    284.63751     393.8047    414.05465   -64624.049    64627.826   -20.249946    29.826283 
143552000    278.95258    313.64526    325.96224   -64637.108    64656.724   -12.316984    29.824908 
143556000    275.55639     394.9369    319.61266   -64664.723    64680.076    75.324239    29.836051 
143560000    297.12835     442.4308    363.38119   -64661.045    64672.602    79.049605     29.85535 
143564000     282.7392    349.38093    363.76364   -64679.673    64691.712   -14.382712    29.850786 
143568000    269.83671    320.83136    193.66407   -64691.936    64733.842    127.16728    29.840646 
143572000    299.09841    480.65765    269.67706    -64754.32    64747.455    210.98059    29.850529 
143576000    294.36564    176.90243    349.92303    -64780.34    64777.604   -173.02061    29.843061 
143580000    277.47129    226.98425    421.11061   -64829.684    64837.347   -194.12636    29.841967 
143584000    257.06728    423.67246    253.79788   -64873.024    64891.606    169.87458    29.856191 
143588000    268.99702    460.41379    198.65995   -64921.209    64912.895    261.75384    29.865539 
143592000    255.10808    306.77159     254.3206   -64948.083    64988.686    52.450989    29.875403 
143596000    270.60758    340.59583    312.15437   -64982.413    64991.949    28.441456    29.863909 
143600000    274.39964    304.94565    315.73078   -65004.171    65021.347   -10.785131    29.877917 
143604000    274.09348    374.79574    341.34924   -65029.459    65059.046    33.446492    29.884641 
143608000    292.31413    542.72125    205.17744   -65081.002    65078.234    337.54381    29.905521 
143612000    296.95423    405.68732     339.0573    -65092.81    65096.429    66.630023     29.89869 
143616000    277.70412    531.13697    228.99099    -65106.94    65104.738    302.14599    29.899002 
143620000    286.58911    244.57651    491.80858   -65175.969    65183.493   -247.23207    29.896444 
143624000    282.13567    350.14023    285.67459   -65192.269     65211.24    64.465644    29.887787 
143628000    268.97119    300.60872    262.59247   -65226.678    65255.744    38.016248    29.881007 
143632000    262.99267    275.52625    280.91714   -65273.901    65296.979   -5.3908898    29.889348 
143636000    285.29339    421.32336     194.1508   -65271.288    65299.504    227.17256    29.894804 
143640000    279.82124    489.77028    380.30271   -65295.279     65322.91    109.46757    29.893037 
143644000    277.68698    356.28837    248.18386   -65374.086    65383.758    108.10451    29.870777 
143648000    277.65089    238.37052     271.1108   -65423.689    65429.119   -32.740282    29.862188 
143652000    234.00837    288.34929     218.1599   -65421.002    65469.599    70.189395    29.835827 
143656000    275.07148    329.70724    134.67486    -65487.39    65510.158    195.03238    29.825698 
143660000    296.46551    374.43765    220.27464   -65546.309     65541.81    154.16301    29.829777 
143664000    268.73706     385.8236    423.50171   -65570.852    65602.958   -37.678111    29.823245 
143668000    248.22896     257.6362    291.47966   -65616.664    65672.919   -33.843461     29.82542 
143672000    299.81964    291.03864    181.59802   -65656.754    65657.896    109.44062    29.838301 
143676000    284.94878    307.17174    375.72636   -65667.345    65689.627    -68.55462    29.827602 
143680000    272.87237     330.5755    400.96656   -65750.003    65763.659   -70.391066    29.813737 
143684000    282.38988    318.09643    400.95955   -65806.659    65812.356   -82.863115    29.803114 
143688000    291.15014    383.48156    246.44668   -65841.671    65824.176    137.03488    29.786663 
143692000    277.74566    144.12801    327.05056   -65850.387    65846.689   -182.92255    29.784189 
143696000    269.76281    235.75652    324.02118   -65893.783    65891.176   -88.264657    29.788858 
143700000    303.82442    311.93235     297.8429   -65946.694    65956.179     14.08945    29.778617 
143704000    292.59653    242.68064    308.99673   -65998.392    65996.317   -66.316096    29.761996 
143708000    300.43842    275.60185    264.38229   -66031.002    66044.294    11.219558    29.759679 
143712000    269.55988    333.15576    399.65071   -66061.469    66089.337   -66.494955    29.762204 
143716000    288.31327    394.39168    236.95773   -66116.405    66114.443    157.43395    29.768052 
143720000    276.58915    282.50467    466.45704    -66126.06    66142.986   -183.95237    29.760747 
143724000    251.20139     307.4051    529.58897   -66154.414    66187.978   -222.18387    29.756651 
143728000    276.29746    173.00439    258.53994   -66191.655    66196.923   -85.535555    29.751953 
143732000    284.40238    201.53337    326.01007   -66216.064    66215.652    -124.4767    29.749459 
143736000    279.67392    505.56825    354.59274     -66239.8    66248.404    150.97552    29.754772 
143740000    264.74561    207.14243    292.27516   -66264.544    66286.035   -85.132733    29.752796 
143744000    308.01192    424.03174     253.4813   -66334.158     66322.78    170.55044    29.746808 
143748000    290.40703    365.55628    344.59183   -66349.185    66368.246    20.964449    29.752488 
143752000    294.51116    224.34543    221.96666     -66389.1    66399.577    2.3787723    29.770469 
143756000    270.81315    265.87558    188.42483   -66420.624    66451.826    77.450752    29.787538 
143760000    252.61279    242.65607    439.27381   -66448.274    66472.993   -196.61774    29.796913 
143764000    267.18124    327.95303    283.38813   -66488.188    66510.341    44.564906    29.802017 
143768000     302.4111    232.90712     267.6526   -66525.425    66536.922   -34.745478    29.796282 
143772000     298.6957    523.59912    551.50105   -66569.684    66584.951   -27.901928    29.788723 
143776000    259.12292    309.96757    235.18422   -66612.669    66655.244     74.78335    29.796538 
143780000    263.29744    247.84831      319.981   -66664.039    66673.543   -72.132683     29.78187 
143784000    292.76352    363.97359    353.89235   -66690.742    66708.229    10.081247    29.774846 
143788000    262.25889    480.88427    179.53011   -66725.393    66759.455    301.35416    29.775475 
143792000    260.92878    215.68358    247.15621   -66756.548    66796.829   -31.472628    29.769692 
143796000    294.12764    309.87474    230.45824   -66805.392    66814.671    79.416497    29.777663 
143800000    309.93809     267.2581    484.94404   -66846.066    66834.989   -217.68594    29.794944 
143804000    295.15297    426.91024    223.15052   -66880.176    66890.405    203.75972    29.803429 
143808000    290.14425    258.53249    299.05402   -66874.518    66890.912   -40.521523    29.815275 
143812000    291.89865    423.94965    305.68867   -66917.433    66927.901    118.26098    29.816364 
143816000     296.9447    342.43859    248.07816   -66951.057    66962.769    94.360438    29.811191 
143820000     319.6305     402.2798    303.22217   -67007.919    66985.156    99.057629    29.788307 
143824000     279.7692    420.73745    490.04801   -67014.694    67011.379   -69.310556    29.794423 
143828000    271.90293    618.86051    387.99354   -67030.706    67048.757    230.86697    29.783554 
143832000    275.39627    488.54046    280.75919   -67108.592    67118.292    207.78127    29.781209 
143836000    304.34392    407.42884    334.35667   -67143.202    67121.501    73.072169    29.766011 
143840000    255.91019    311.77389    276.66157    -67153.34     67183.09    35.112313    29.769826 
143844000    265.05652    347.78073    327.22191   -67166.546    67204.039    20.558814    29.757889 
143848000    289.61135    424.90488    385.68069   -67192.145    67216.067    39.224189    29.760565 
143852000    295.22944     435.9029    403.63688   -67223.508    67242.169    32.266017    29.759432 
143856000    283.35465    569.15134    189.17631   -67247.687    67254.644    379.97503    29.766239 
143860000    342.95551    480.83125     548.0529   -67300.787    67293.206   -67.221655    29.740619 
143864000    268.41888    417.94601    260.47648   -67316.505    67342.805    157.46953    29.753328 
143868000    266.89118    352.17519    304.14806   -67330.796    67349.945     48.02713    29.773363 
143872000      274.347    236.96619    499.83133   -67342.383    67363.513   -262.86515    29.754236 
143876000    305.05119    363.43921    325.25007   -67393.725    67387.853    38.189139    29.768446 
143880000    301.20125    285.43275    399.67076   -67436.048    67420.427   -114.23801    29.754322 
143884000    271.58517     371.6223      328.552   -67436.912    67472.531    43.070297    29.772462 
143888000    255.72809    397.79101    190.28926   -67482.298    67497.284    207.50175    29.754325 
143892000    293.42747    284.08727    452.45853   -67516.697    67530.509   -168.37125     29.73978 
143896000    300.47907    368.19758    449.79334   -67545.572    67517.867   -81.595755    29.756871 
143900000    289.08273    400.36031    433.10921   -67577.479    67595.151   -32.748896    29.751229 
143904000    264.28946    465.50428    281.27602   -67607.427    67615.117    184.22825    29.754789 
143908000    311.25954    280.42196    384.94001   -67690.696    67675.141   -104.51806    29.748027 
143912000    293.77627     512.4012    321.39492   -67729.687    67726.494    191.00628    29.745911 
143916000    293.33641    300.24266    256.05631   -67746.863    67752.878    44.186349    29.758536 
143920000    283.92099    361.42565    403.45527   -67762.647     67787.59   -42.029617     29.74865 
143924000    263.09835    261.82795    297.05181   -67811.084    67842.207    -35.22386    29.735369 
143928000    296.23534    406.74792    393.76339   -67878.758     67872.97     12.98453    29.718615 
143932000    275.89716    415.43336    337.39687   -67866.051    67888.288    78.036491    29.728311 
143936000    261.39915    403.16094    267.27849   -67911.189    67936.191    135.88245    29.739436 
143940000    288.03944    404.50264    136.39543   -67962.235    67974.298    268.10721    29.764767 
143944000    298.11987    173.63528    248.38566   -67983.518    67993.438   -74.750385    29.761889 
143948000    309.41794    525.81222    428.99823   -68015.471    68002.712    96.813991    29.756484 
143952000    289.14593    295.07197    411.91382   -68063.514    68066.794   -116.84185    29.734434 
143956000    264.63556    385.68362    250.62076   -68104.595    68131.057    135.06286    29.743011 
143960000    285.61648    406.73178    238.09287   -68124.183    68146.133     168.6389    29.736697 
143964000    276.00367    425.40656    376.12738   -68163.571    68190.422    49.279181    29.737233 
143968000    319.00302    285.17993    317.51264   -68224.066     68221.73   -32.332712    29.735492 
143972000     306.7415    362.15874    490.70267   -68243.315    68231.636   -128.54393     29.73123 
143976000    296.94378    275.30064     237.1345   -68261.144    68278.592    38.166132     29.74648 
143980000    278.85764    301.61104    208.74706    -68312.19    68317.047    92.863975    29.716785 
143984000    283.71214    318.95972    467.32392   -68352.068    68356.086    -148.3642    29.719285 
143988000    291.55395    404.97985    253.79345   -68359.848    68379.909     151.1864    29.715188 
143992000    286.28722    564.15197    250.66033   -68425.536    68431.613    313.49164    29.734227 
143996000    274.46912    338.87871    227.10866   -68447.195    68439.406    111.77006    29.739136 
144000000    284.87016    298.30318     348.3512   -68487.115     68484.53   -50.048022    29.720597 
144004000    312.44351    278.42186    513.14156   -68523.505    68530.303    -234.7197    29.723637 
144008000    292.21084    240.26858    414.06403   -68543.318    68559.058   -173.79545    29.713488 
144012000    279.02965    487.17421     342.5386   -68582.876    68613.496    144.63561     29.70833 
144016000    237.06849    225.88194    415.44291   -68603.314     68651.15   -189.56097    29.685483 
144020000    261.59078    362.13159    326.36257   -68656.856    68675.113     35.76902    29.685917 
144024000    288.58479    437.51252    334.48771   -68714.049    68716.782    103.02481    29.682878 
144028000     280.9008    451.36571    175.99037   -68745.067     68740.08    275.37534    29.681414 
144032000    268.54719    347.15908    308.89831   -68798.024    68817.603    38.260772    29.666756 
144036000    267.75409    394.29177    338.83312    -68848.77    68863.422    55.458651    29.693181 
144040000    300.49402    485.95725    267.56183   -68884.617    68869.155    218.39542    29.680087 
144044000     254.8579    281.28563    339.65242   -68911.934    68934.908    -58.36679    29.672612 
144048000    293.35789    363.63001     261.7143   -68964.845    68980.407    101.91572    29.672815 
144052000    275.11699    227.87811     298.0591   -69017.065    69036.931   -70.180986    29.664537 
144056000    269.21601    299.77181    293.56013     -69058.9    69076.351    6.2116727    29.673363 
144060000    288.57289    375.01542    410.23999     -69099.5    69108.507   -35.224572     29.66682 
144064000    292.22807    274.66467    341.65757   -69134.251    69151.148     -66.9929    29.658237 
144068000    277.35222    353.67513    389.07001   -69169.979    69199.203   -35.394874    29.663596 
144072000     267.7306    468.06189    285.66782   -69213.741    69260.226    182.39408    29.677768 
144076000    296.15161    344.22951    338.60292   -69287.235    69294.543    5.6265947    29.673895 
144080000    277.11273     360.2888    479.38068   -69311.624    69323.569   -119.09188    29.695448 
144084000    292.04519    363.92396     323.4299   -69366.991    69365.241    40.494056    29.695344 
144088000    301.32901    404.21279    372.87282   -69379.867    69382.311    31.339972    29.711862 
144092000    292.09237    307.22824    295.71819   -69403.015    69404.401    11.510044    29.701866 
144096000    286.16387    468.01458    390.90799   -69446.448    69466.475    77.106585    29.700152 
144100000    268.59254    400.28736    239.52322   -69492.172    69509.413    160.76413    29.701038 
144104000    273.83494    338.19797    343.83249   -69531.018    69551.179   -5.6345223    29.691157 
144108000    277.55911     239.7003    231.77749   -69551.906    69576.673    7.9228072    29.702479 
144112000    300.97211    629.57595    270.98515   -69613.335    69605.386     358.5908    29.720343 
144116000    260.41331    191.21187    364.02821   -69617.344    69652.574   -172.81634     29.71283 
144120000    276.16313     223.6201    203.14653    -69697.74     69711.63    20.473567    29.720392 
144124000     298.1384    235.21262    369.28831   -69727.717    69736.043   -134.07569    29.709586 
144128000    313.96821    405.91706    402.52603   -69778.698    69765.416    3.3910245     29.71011 
144132000    285.39466    248.69491    369.72521   -69784.078    69795.861   -121.03029    29.720488 
144136000    267.02592    332.56986    355.99203   -69783.365    69811.423   -23.422164    29.718162 
144140000    269.81655     428.2606    237.70597   -69817.193    69860.451    190.55463    29.722754 
144144000    295.55562    370.10736    243.94324   -69834.948    69846.016    126.16412    29.725292 
144148000    293.08698     368.6743    439.61408   -69855.008    69865.988   -70.939774    29.710634 
144152000    295.02701    225.99726    439.82151   -69912.425    69924.331   -213.82425    29.713427 
144156000    295.03548    540.71948    230.43099   -69969.788     69988.76    310.28849     29.71591 
144160000    260.43001     280.8222    263.56518   -69970.639    69994.353    17.257014    29.714427 
144164000    259.38018    399.35093    328.10807   -70001.608    70019.213    71.242862     29.72074 
144168000    279.77546    389.10928    253.51047   -70043.482    70068.684     135.5988    29.723788 
144172000    276.13612    380.68135    269.10805   -70105.616    70104.099     111.5733    29.724296 
144176000    277.67401    466.71851    351.58696    -70155.79    70175.718    115.13155      29.7306 
144180000    292.46683    472.18361    281.92609   -70175.507    70200.556    190.25752    29.730761 
144184000    261.01886    109.43461    153.20504   -70221.582     70226.33   -43.770429    29.737821 
144188000    285.70651    350.34098    313.27217   -70255.494    70262.623    37.068816    29.749072 
144192000    267.81335    464.19377    276.19476   -70287.244    70325.199      187.999    29.758194 
144196000    289.29603    495.67197    359.11164   -70333.042    70340.401    136.56033    29.761161 
144200000    299.01824    528.93946    543.03401    -70360.95    70358.569   -14.094556    29.775008 
144204000    301.09542    283.44983    424.22473   -70382.584    70389.893   -140.77489    29.762426 
144208000     280.7894     434.1055    453.39083   -70412.709    70443.997   -19.285327    29.748886 
144212000    266.42038    535.48733    279.26935   -70465.992    70484.331    256.21798    29.773687 
144216000    286.60506    314.06526    527.91051   -70494.838    70512.374   -213.84525    29.764575 
144220000    267.77988    209.93401    330.10278    -70504.66    70531.929   -120.16877    29.753201 
144224000    275.12568    304.47272    374.46834   -70562.211    70583.532   -69.995622    29.748492 
144228000    280.07981    225.50429    440.06206    -70584.11     70606.37   -214.55777    29.769582 
144232000    292.93899    231.29586    226.32075    -70613.23    70638.615    4.9751172    29.773257 
144236000    267.00501    570.85065    244.84066   -70662.847    70681.695    326.00999    29.774584 
144240000     306.0859    371.54901    550.79221   -70718.315    70732.987    -179.2432    29.759282 
144244000    253.36108     229.4235    118.73631   -70718.794    70759.294     110.6872    29.750511 
144248000    276.04681    430.14259    238.40225   -70779.541     70795.81    191.74034    29.746932 
144252000    297.22915    352.30669    243.72822   -70834.563    70843.777    108.57848    29.755672 
144256000    277.82302    467.32817    367.74424    -70892.49    70914.255    99.583934    29.744731 
144260000    246.67477    405.05629    222.16559   -70916.908     70956.96    182.89069     29.75372 
144264000    258.32681    355.31823    171.42761   -70980.433    71009.296    183.89062    29.736234 
144268000    312.74138     308.7193    425.48987   -71036.682    71044.374   -116.77058    29.722151 
144272000    260.00473    244.25344    406.95403   -71030.222    71069.129   -162.70059    29.716875 
144276000    287.21173    307.66295    270.86274    -71057.14     71076.25    36.800219    29.719537 
144280000    284.25507    290.88181    409.91301   -71089.018    71105.602    -119.0312    29.721015 
144284000    292.51616    417.52318    167.09808   -71130.392    71145.714     250.4251     29.73959 
144288000    268.74125    576.45897     232.2226   -71139.943    71169.707    344.23638     29.74763 
144292000    287.54712    425.74077    240.16785   -71204.593    71204.024    185.57292    29.760434 
144296000    292.14314    233.55153    341.93292   -71230.653    71243.447   -108.38139    29.767971 
144300000    292.73765    328.62645    441.21949   -71270.605    71301.003   -112.59304    29.769175 
144304000    294.64904    427.62334    316.19175   -71327.826    71346.878    111.43159    29.778267 
144308000    282.64367    201.35986    174.11477   -71329.947    71356.209    27.245083    29.761593 
144312000    311.49286    309.61077    423.68092   -71383.169    71366.259   -114.07015    29.771266 
144316000    273.13848    562.39093    211.99764   -71370.492    71411.338     350.3933    29.779097 
144320000    275.94242    338.53671    192.17653    -71412.04    71423.198    146.36018    29.784598 
144324000    312.73657    432.91159    493.43267   -71450.011    71455.063   -60.521075    29.777662 
144328000    270.15527    305.90789    351.99392   -71464.115    71478.141   -46.086038    29.765813 
144332000    313.49837    612.53132    379.55189   -71502.926    71517.071    232.97942    29.781536 
144336000    277.22558    276.42902    442.18699   -71540.214    71558.113   -165.75797    29.804435 
144340000    286.51952    165.32257    362.20243   -71560.327    71579.933   -196.87986    29.807572 
144344000    266.48714    386.15922    258.23213   -71599.231    71611.121    127.92709    29.819762 
144348000    252.97759    328.24106    191.80599   -71611.159    71646.159    136.43507    29.808887 
144352000    299.02908    355.71275    313.86707   -71672.095     71684.08    41.845681     29.82849 
144356000    278.05699    553.79052    343.56944   -71729.392    71743.357    210.22108    29.827611 
144360000    289.02849    388.68496    364.71223   -71777.528    71784.148    23.972728    29.836905 
144364000    274.85484    280.33191    235.55948   -71821.911    71834.853    44.772428    29.821532 
144368000    299.29912    463.65931    291.65832   -71853.162    71848.356      172.001    29.822237 
144372000    307.76657    207.37963    243.45874   -71871.264    71887.769   -36.079113    29.832991 
144376000    291.37267    206.58564    255.52609   -71890.901    71903.648   -48.940453    29.839212 
144380000    254.47683    182.51942    197.27472   -71929.712    71969.101   -14.755305      29.8384 
144384000    303.21236    335.35032    223.85735   -71993.959    71998.263    111.49296     29.82879 
144388000    278.30947    282.03982    267.76063   -72044.928    72063.064    14.279181    29.831194 
144392000    292.17076    466.25665    535.57849   -72080.286    72092.339   -69.321841    29.834379 
144396000    297.80392    341.79085    411.76033   -72109.458    72126.987   -69.969482    29.827029 
144400000    275.58658    409.18291    387.55096   -72126.323    72159.354    21.631946    29.817228 
144404000    256.19253    449.37673    500.60013   -72138.099    72191.941   -51.223406    29.815327 
144408000    262.17938    272.28909    294.40047   -72156.506     72188.65   -22.111382    29.811465 
144412000    275.42761    275.74692    297.51504   -72203.139    72228.352   -21.768116    29.809082 
144416000    271.83109    576.91762    273.52975   -72222.151    72260.741    303.38787    29.822565 
144420000    256.51755    405.21046    348.77232   -72260.848    72286.383    56.438137    29.798862 
144424000    273.20822    368.28615    414.53818   -72297.021    72324.475   -46.252033     29.79387 
144428000    274.08094    526.26113    407.97276   -72324.424    72347.205    118.28837    29.778651 
144432000     269.1703    315.31363    361.32363   -72338.844    72375.147   -46.010008    29.787832 
144436000    298.60367    327.56491    343.24868   -72387.185    72411.107    -15.68377    29.775428 
144440000    291.69056    339.27646    507.66434   -72430.551    72457.894   -168.38788     29.77695 
144444000    276.24342    207.56797    280.23579   -72430.115    72446.356   -72.667822     29.78897 
144448000    273.47117    287.85097    317.27931   -72455.923    72502.336   -29.428343    29.767587 
144452000    280.46861    253.73051    362.65038   -72500.862    72535.114   -108.91987    29.762645 
144456000    285.38223    306.34374    342.59566   -72515.858    72535.176   -36.251922    29.770784 
144460000    277.89102    391.43523    300.81735   -72550.608    72573.531    90.617883    29.756692 
144464000    265.71911    309.03081    322.19564   -72595.184    72624.234   -13.164826     29.77516 
144468000    286.39823    368.84678    375.92758   -72642.573    72665.556   -7.0807991    29.759141 
144472000    299.91602    395.64723    342.45687   -72685.522    72695.298    53.190367    29.757043 
144476000    290.83189    337.97371    422.91788   -72712.676    72717.945   -84.944169    29.739963 
144480000     248.7527    422.22842    234.50156   -72715.478    72757.906    187.72686     29.75221 
144484000    268.39878    304.46644    217.35307   -72740.046    72773.164    87.113363    29.750002 
144488000    287.11758    396.73175    323.54183   -72787.241    72808.326    73.189927    29.757447 
144492000    242.44357    162.57689    298.65793   -72828.981    72862.985   -136.08104    29.741606 
144496000    284.54064    314.32513    219.26599     -72899.1    72911.003    95.059144    29.740807 
144500000    292.96431    237.23505    332.38609   -72893.017    72905.396   -95.151035    29.726627 
144504000    311.12409     487.9994     260.0829   -72932.549    72940.291    227.91651    29.720897 
144508000    318.86946    387.39513    467.53348   -72930.572    72942.217   -80.138348     29.70701 
144512000    284.90202    403.26981    359.87435   -72926.294    72933.393    43.395461    29.698056 
144516000    296.92505    346.99076     351.6635   -73000.305    73002.456   -4.6727387    29.679658 
144520000    274.53158    358.18223    187.67228   -73016.291        73027    170.50995    29.693453 
144524000     292.5431    367.43329       319.21   -73073.214    73109.768    48.223296    29.699665 
144528000    270.05865    624.38769    258.59983   -73114.678    73146.266    365.78786    29.718003 
144532000    297.98939    485.75859     434.4395    -73134.89    73144.906    51.319094    29.710904 
144536000    280.02376    221.09878    274.51307   -73150.796    73188.248   -53.414288    29.700537 
144540000    267.88442    629.84647    234.64714   -73185.363    73232.528    395.19933    29.683396 
144544000    270.78238    229.97321    387.08479   -73226.413    73273.828   -157.11157    29.673249 
144548000    274.70755    305.21021    344.63983   -73241.728    73249.325   -39.429612    29.671338 
144552000     309.1067    389.45483    206.84298   -73284.374        73297    182.61185     29.67315 
144556000    281.85405    299.76004    344.13934   -73343.287    73358.338   -44.379296    29.690219 
144560000    261.02204    215.79851    429.39345   -73387.978    73426.895   -213.59494    29.716412 
144564000    274.52458    208.38706    447.73854   -73441.816    73469.563   -239.35148    29.719573 
144568000    298.01857    328.83214    291.23076   -73515.402    73528.258    37.601379    29.719371 
144572000    283.48963    372.91531    305.63847   -73539.675     73556.04    67.276835    29.726952 
144576000     280.9714    351.61405    213.64362   -73566.423    73588.092    137.97044    29.725465 
144580000    318.37336    477.10965    427.26491   -73578.899    73585.718    49.844731    29.734384 
144584000    265.13442    404.79301    166.73153   -73601.458    73647.156    238.06148    29.737091 
144588000    258.51371    460.85173    237.16525   -73628.272    73675.051    223.68648    29.736142 
144592000    291.18764    341.16186    170.13297   -73668.998    73676.339    171.02889    29.726505 
144596000    303.93139    427.75815    450.85369   -73694.346    73709.113   -23.095541    29.729136 
144600000    303.23896     421.9226    458.68941   -73731.032    73739.527   -36.766806    29.726225 
144604000    311.77406     368.0937    374.39488    -73781.98    73776.618   -6.3011766    29.723079 
144608000    265.94837    479.68155    226.39166   -73815.233    73840.064    253.28989    29.733487 
144612000    281.72615    449.91272    208.12725   -73875.032    73885.677    241.78548    29.753782 
144616000    298.33574    209.01307    340.51209   -73892.514    73891.889   -131.49902    29.758449 
144620000     258.0417    369.23087    228.70155   -73876.561    73896.409    140.52932    29.761029 
144624000    260.12532    368.40703    296.13388   -73876.447    73918.039    72.273149    29.758348 
144628000    294.71912     394.1715    322.41191   -73917.096    73925.487    71.759591     29.73802 
144632000    256.05591    429.63171    219.19516   -73919.665    73935.654    210.43655    29.704412 
144636000    275.42807    173.17387    323.02222   -73936.829    73952.769   -149.84835    29.687826 
144640000    289.43756    502.36071    359.10897   -73983.712     74002.99    143.25174      29.6969 
144644000    276.19357    385.69022    317.97359   -74011.574    74035.355    67.716636    29.713942 
144648000    262.25142    400.98127    243.66031   -74031.455    74058.261    157.32096    29.725687 
144652000    274.80935    259.61912    250.51433   -74033.243    74051.779    9.1047902    29.739795 
144656000    281.79642    421.88787    332.01933   -74057.099     74079.11    89.868548    29.731214 
144660000    307.36108    369.35719    272.71133   -74085.704    74080.597    96.645862    29.741442 
144664000    271.91596    269.79504    389.81215   -74111.206    74133.837    -120.0171    29.742456 
144668000     317.6528    368.21952    362.31109   -74175.366    74178.872    5.9084284    29.746043 
144672000    279.20263    400.41676    350.59937   -74223.262    74235.781    49.817392     29.75736 
144676000    280.96147    178.45021    174.36871   -74241.647    74266.239    4.0815022    29.748186 
144680000    303.09163     498.4552    361.01795    -74263.92    74283.725    137.43725    29.749188 
144684000    258.53838    450.82575     147.8492   -74261.667     74295.71    302.97654    29.746192 
144688000    262.88601    336.12426    220.95073   -74286.527    74311.187    115.17354    29.745102 
144692000    260.80728    215.74224    255.68313   -74313.461      74334.5   -39.940881     29.74787 
144696000    285.48717    423.29039    380.00942   -74359.864    74366.584    43.280962    29.752957 
144700000    271.58354    293.35536    339.04673   -74357.796    74394.265   -45.691372    29.734435 
144704000    299.82626    376.78078    309.40492   -74439.528    74443.095    67.375863    29.728205 
144708000    277.60692    502.16993     378.5883   -74425.273    74447.364    123.58163    29.734854 
144712000    307.16162    501.17843    458.35585   -74437.251    74453.262    42.822582    29.744381 
144716000    249.28052    247.34134      210.592   -74452.978    74495.129    36.749334    29.733518 
144720000    278.64307    225.63514    287.72172   -74497.959     74506.64   -62.086577    29.738099 
144724000    287.88402     368.9789    366.04244   -74518.729    74548.288    2.9364679    29.737443 
144728000    251.64125    322.34977    238.27972   -74554.643    74597.468     84.07005    29.732356 
144732000    296.21593    449.62878     419.3787   -74584.331    74607.384    30.250081    29.734216 
144736000    290.69318    391.65284    379.67407   -74636.061    74653.072    11.978773    29.751688 
144740000    292.28153    265.26675     455.5354    -74668.83    74671.697   -190.26865    29.741766 
144744000    275.12152    373.48068    284.80471   -74698.906    74718.481    88.675968    29.738371 
144748000    265.50513    411.67111    307.85927   -74732.566    74755.814    103.81184    29.725214 
144752000    253.53452    314.41809    250.71931   -74778.596    74820.286    63.698785    29.725694 
144756000    260.78661    465.44283    277.19795   -74824.261    74864.909    188.24488    29.722814 
144760000    251.62962    214.70533    227.44941   -74886.071    74937.048   -12.744081    29.721265 
144764000    266.91583    346.82854    376.21883   -74958.964    74979.867   -29.390295    29.734809 
144768000    278.30594    328.09529    318.38366   -74973.564    74999.553    9.7116307    29.748795 
144772000    306.20532    493.26078    485.62823   -75014.952    75016.308    7.6325512    29.752086 
144776000    283.33462    510.54052    379.74824   -75018.833    75032.535    130.79227    29.758707 
144780000    270.54006    314.38965    349.59845    -75056.54     75079.55   -35.208798    29.765778 
144784000    272.24709    375.21031    266.16217   -75072.526    75094.091    109.04814    29.773798 
144788000    303.66997    537.31636    359.04435   -75087.666    75110.432    178.27201    29.777373 
144792000    296.15511    510.27867    373.42856   -75135.269    75146.517    136.85011    29.772142 
144796000    243.66306    420.14988    180.75069   -75155.882    75205.304    239.39919    29.777112 
144800000     299.3037    362.94714    533.59428   -75214.226    75220.454   -170.64714    29.767353 
144804000    273.33195    466.12816    440.07112   -75248.628    75266.851    26.057045     29.77113 
144808000    280.16546    447.58889    282.55921   -75254.575    75284.039    165.02967    29.783645 
144812000    290.77082    208.19148    250.97505    -75333.74    75339.905    -42.78357    29.782666 
144816000    308.69351    410.16863    220.88157   -75364.278      75367.2    189.28707    29.782629 
144820000    296.01658    299.67463    254.72396   -75359.459    75372.124    44.950671    29.779061 
144824000    290.19193    224.09687    270.67906   -75390.273    75410.003   -46.582189    29.771828 
144828000    299.61249    222.01055    444.77509   -75469.354    75466.685   -222.76454    29.753077 
144832000    285.94663    535.97824    285.38849   -75472.861    75492.352    250.58975    29.759403 
144836000    280.63498     251.1547    278.74091   -75503.343    75499.246   -27.586211    29.771616 
144840000    285.27645    283.61448    447.40217    -75525.98    75533.704    -163.7877    29.757196 
144844000    272.44873     473.4287      253.703   -75595.502    75591.361     219.7257     29.76379 
144848000    260.69331    268.03886    336.57665   -75618.021    75662.324   -68.537787    29.765197 
144852000    287.27315    266.75651    417.50813    -75636.74    75653.556   -150.75161    29.752759 
144856000    276.23961     291.8691    297.47829   -75641.047     75665.93   -5.6091855    29.731444 
144860000    278.45522    239.72859     304.6422   -75723.555    75734.617   -64.913611    29.723052 
144864000     281.4662    367.13998     231.2312    -75769.27    75780.329    135.90877    29.712978 
144868000    268.37916    516.45425    405.07175   -75803.684    75821.149     111.3825    29.695209 
144872000    292.96621    558.66945    393.39547     -75865.8    75877.757    165.27398    29.678368 
144876000    333.89674    285.01026    435.01638   -75931.363    75907.936   -150.00612    29.675569 
144880000    272.17384    341.54495    339.02563   -75950.848    75979.596    2.5193168    29.685547 
144884000    298.86115    368.26083    341.63273   -75989.256    76004.434    26.628097     29.68859 
144888000    261.51474    357.21725    364.55137   -76034.888    76061.134   -7.3341243    29.709825 
144892000    250.70086     173.0966    266.45261   -76046.486    76096.594   -93.356015    29.698904 
144896000    258.93794    489.12301    346.83985   -76086.996    76131.937    142.28316    29.673639 
144900000     283.0836    358.53391    383.34718   -76143.707    76165.133   -24.813273    29.674317 
144904000    265.28645    402.47433    348.28257   -76177.027    76185.857    54.191762    29.657611 
144908000    268.65381    356.89033    248.70871   -76218.639    76240.194    108.18163    29.646012 
144912000    297.38077    396.85444    269.70484    -76248.92    76272.223     127.1496    29.645979 
144916000    300.17199    432.17667    271.70377   -76275.531    76290.428     160.4729    29.642749 
144920000    291.36663    466.84838    349.31223   -76306.245    76334.006    117.53616    29.635143 
144924000    273.54213    421.61497    334.20023   -76355.494    76365.215    87.414742    29.646875 
144928000    283.54695    213.48236    177.75058   -76383.583    76394.651    35.731779    29.649514 
144932000    274.89716    459.84978    606.27005   -76388.457    76429.133   -146.42028    29.631389 
144936000    300.41856    261.10214    440.44603   -76437.776    76455.947    -179.3439    29.632941 
144940000     274.5041    258.95815    363.25952   -76467.347     76488.81   -104.30137     29.64081 
144944000    287.69752    250.15204    614.72846   -76518.643     76547.02   -364.57641    29.656954 
144948000    286.40684    518.27803    453.55668   -76565.358    76578.268    64.721346    29.677684 
144952000    259.74315     248.8859    352.83885   -76615.088    76654.304   -103.95296    29.682169 
144956000     265.1637    398.08375    250.10365   -76632.979    76674.193     147.9801    29.698377 
144960000    301.99097    458.81944     465.5693   -76673.678    76693.626   -6.7498654    29.701634 
144964000    258.00062    190.98696    371.08546   -76704.873    76722.963    -180.0985    29.699446 
144968000    282.00626    198.15097    367.99813   -76725.191    76734.741   -169.84716    29.706804 
144972000    278.87133    219.49202    378.21764   -76768.059    76785.096   -158.72562    29.691433 
144976000    259.62111    361.20557    302.64561   -76782.859    76812.229     58.55996    29.709325 
144980000    264.13267    262.49665    256.79745   -76803.949    76826.263    5.6992037    29.688223 
144984000    287.15458     605.7408    306.06044    -76829.91    76843.953    299.68037    29.702783 
144988000    279.43046    602.24634    525.11749   -76863.656    76893.613    77.128856    29.722205 
144992000    286.51999    435.83805    493.37801   -76874.497    76902.079   -57.539955    29.728749 
144996000    277.81747    290.12779    270.78802    -76912.49    76956.499    19.339775     29.74014 
145000000    268.72031    421.25974    353.62556     -76972.1    77007.399    67.634187    29.740409 
145004000    268.46296    329.82283    361.43004   -77009.675    77051.018   -31.607213    29.727505 
145008000    297.65778    242.54755    301.32458   -77058.951    77053.958   -58.777029    29.729355 
145012000    262.19913     252.9496    287.16884   -77084.923    77124.719   -34.219239    29.731282 
145016000    289.79417    415.29305    527.84755   -77135.194    77149.139    -112.5545    29.729745 
145020000    267.99207    424.25044    155.28614   -77152.065    77165.781    268.96429     29.73253 
145024000    282.91293    286.79358     250.3573   -77176.359    77192.249    36.436279     29.73939 
145028000    263.58666    447.76477    206.43126   -77181.014    77208.258    241.33351    29.748349 
145032000    287.03866    281.18293    248.52817   -77189.186    77219.335    32.654763    29.752048 
145036000     293.3372    467.20354    230.76317   -77245.086    77265.653    236.44038    29.757355 
145040000    236.53497    116.76063    243.64314   -77233.976    77287.365   -126.88251    29.745388 
145044000     320.5843    539.53596    441.94074   -77314.006    77296.039     97.59522    29.748832 
145048000    274.18237     243.7787    253.14813   -77330.832    77364.593   -9.3694265    29.748564 
145052000    298.69537    436.42597    405.56567   -77390.047    77391.824    30.860299    29.737313 
145056000    264.12806    391.53617    283.80333   -77403.776    77449.907    107.73284    29.733164 
145060000    258.82494    362.41954    426.39411    -77474.38    77496.414   -63.974568    29.746918 
145064000    249.21276    304.73893    332.92985   -77515.119    77546.139   -28.190918    29.726516 
145068000    255.81725    311.51635    298.47064   -77560.678    77595.682    13.045707    29.726097 
145072000    273.50948    281.14187    361.00011   -77551.222     77573.84   -79.858239    29.716039 
145076000    280.82916    531.74585    452.74818   -77615.911    77616.488    78.997674     29.71047 
145080000    285.30244    392.43207    325.48661   -77640.469    77657.559    66.945458    29.720639 
145084000    283.54363    349.16994    284.06951   -77662.436    77681.038    65.100423     29.71196 
145088000    301.75028    389.21053    217.12151   -77689.052    77703.831    172.08901    29.710549 
145092000    280.31828    301.70459    355.84166   -77706.023    77737.979   -54.137064    29.700662 
145096000    285.91098    359.31993    200.10731   -77741.247    77776.833    159.21262    29.686831 
145100000    281.03092    275.17953    116.99217   -77784.827    77808.102    158.18736    29.686819 
145104000     301.6239    342.72473    459.93956   -77828.397    77836.614   -117.21483    29.678054 
145108000    306.18584    366.18275    279.77717    -77878.41    77904.068    86.405583    29.684256 
145112000     276.4887     233.8921    312.33227   -77926.999    77951.337   -78.440172    29.686316 
145116000    280.87336    418.21229     213.7737   -77938.844    77964.507    204.43858    29.697959 
145120000    274.47238    309.62778    491.36204   -77955.734    77984.305   -181.73427    29.695817 
145124000    288.13358    260.17267    417.04835   -77994.865    78013.675   -156.87568    29.687536 
145128000    269.07253    426.91615    394.17666   -78039.067    78068.578    32.739497    29.684248 
145132000    258.87501     412.4636    293.57645   -78051.241    78082.552    118.88715     29.69061 
145136000     293.9083    339.99986    358.49327   -78083.225    78097.199   -18.493402    29.679354 
145140000    286.78628     515.9586    207.00244   -78087.671    78112.342    308.95616    29.672663 
145144000    273.71132    319.74042    318.39288   -78089.096    78119.027    1.3475476    29.678016 
145148000    264.01405    318.05159     300.2193   -78111.271    78134.782    17.832289    29.684496 
145152000     260.6529     365.7622     563.2193   -78166.595     78191.73    -197.4571    29.668295 
145156000    307.79587     481.8071    563.78369    -78249.99    78256.501   -81.976594    29.665888 
145160000    297.27911    264.41644    229.63108    -78295.59    78315.317    34.785354    29.672344 
145164000    280.29045    375.69173    226.98366   -78314.373    78346.183    148.70807    29.652184 
145168000    303.11907    277.97299    362.21625   -78345.944    78350.882   -84.243264    29.646078 
145172000    322.15695    340.79037     544.6355   -78381.813    78365.617   -203.84513    29.643648 
145176000    287.08002     457.5608     326.4507   -78405.459    78429.875     131.1101    29.643356 
145180000    258.08015    272.87397    272.53309   -78402.997    78442.989   0.34087854    29.653387 
145184000    291.27142    461.65598    195.17014   -78458.288    78465.124    266.48584    29.635921 
145188000    268.12696    253.83074    280.26915   -78490.038    78520.479    -26.43841     29.62851 
145192000     275.6073    326.69038    267.57134   -78545.539    78561.783    59.119042    29.642814 
145196000    287.14614    363.35328     375.2929   -78578.879    78589.595    -11.93962    29.643308 
145200000    281.20501    495.43855    505.60422   -78611.601    78638.698   -10.165675    29.647297 
145204000    242.66571    256.12996    352.32166   -78602.552    78653.621   -96.191701     29.66089 
145208000    253.62225    276.30222     340.9624    -78632.37    78681.972   -64.660178    29.684368 
145212000    252.26934    248.46857    191.71145   -78663.722    78715.709     56.75712    29.687119 
145216000    265.82003     353.6273     288.3944     -78703.8    78739.179    65.232902    29.683283 
145220000    288.32275    464.39284    399.71609   -78714.975    78741.863     64.67675    29.670864 
145224000    292.01577    346.21846    254.72196   -78757.421    78768.918    91.496498     29.65989 
145228000    298.61075    420.49029    322.54973   -78775.321    78779.829    97.940557    29.661488 
145232000    312.15282     314.9745    570.51184   -78788.348    78787.168   -255.53734    29.669965 
145236000    297.09503    356.74415    206.79486   -78805.084    78815.555    149.94928    29.677754 
145240000    283.05624    279.04833    189.51318   -78830.229    78842.114    89.535157    29.696283 
145244000    284.16932    286.04371    354.03259   -78863.064    78875.078   -67.988879    29.694892 
145248000    265.31698    349.21326    231.72654   -78883.602    78904.009    117.48672    29.695758 
145252000    305.11603    408.07642     410.9628   -78926.526    78936.264   -2.8863783    29.720666 
145256000    303.05902    422.62668     273.3032   -78945.477    78960.931    149.32348    29.706246 
145260000    267.67471    383.59794    416.01883   -78966.232    78997.023   -32.420889    29.714814 
145264000    288.33088    223.97363    572.75268   -79035.243    79038.033   -348.77905    29.707413 
145268000    298.48213    364.96262    598.23195   -79027.015    79035.352   -233.26933     29.71503 
145272000     278.7774    388.01571    331.82423    -79020.75    79053.873    56.191475    29.715417 
145276000    312.17253    367.03067    382.44928   -79036.304    79049.214   -15.418614    29.710156 
145280000    324.98611    570.86853    466.19601   -79104.859    79090.581    104.67252    29.700525 
145284000    309.00739    328.31288    319.46846    -79126.32    79126.583    8.8444206    29.698384 
145288000    343.62144    393.59299    458.41339   -79145.955    79147.484   -64.820402    29.699293 
145292000    278.60712    523.84257     345.9083   -79183.213    79208.802    177.93426    29.689804 
145296000     316.7872    442.69724    361.91011   -79241.581    79256.052    80.787132     29.70155 
145300000    290.01782    398.62227    293.26124   -79280.052    79306.576    105.36103    29.701491 
145304000    280.94783    219.60653    250.43857   -79315.495    79336.062   -30.832043    29.695949 
145308000    289.92576    269.93504     284.1353   -79371.849    79375.077   -14.200256    29.700534 
145312000    289.78972     366.0288    448.31679   -79412.314    79442.623   -82.287995    29.697242 
145316000    270.49281    336.87567    384.58528   -79424.971    79466.809   -47.709608    29.699557 
145320000    314.12938    430.42177    157.27893   -79496.232    79517.224    273.14284    29.699664 
145324000     273.4156     340.5503    308.54195   -79512.577    79548.327    32.008356    29.702906 
145328000    296.87389    338.60451     317.0128   -79545.682    79575.088    21.591718    29.727448 
145332000    291.58953    427.54259    352.47167   -79574.907    79599.327    75.070918    29.733993 
145336000    286.59223    379.18826    239.63483   -79614.854    79661.907    139.55343    29.745188 
145340000    263.46236    253.36756    320.63333   -79654.284    79694.015   -67.265765    29.738692 
145344000    264.20887    310.41828    294.16747   -79670.677    79692.321    16.250808    29.745115 
145348000    279.28104    586.06179    296.11484    -79764.49    79774.824    289.94695    29.744449 
145352000    278.02057    447.02904    258.48111   -79769.839    79815.901    188.54793    29.751559 
145356000    286.26452    310.00395    322.23026   -79824.948    79844.751   -12.226318    29.739755 
145360000    288.57561    267.95206    258.84906   -79886.968    79903.404    9.1029999    29.745139 
145364000    256.01028    202.38355    275.44096   -79907.217    79941.581   -73.057405    29.756627 
145368000    252.82778    267.42025    196.38493   -79920.079    79973.552    71.035323    29.774611 
145372000    244.58529    216.75584    195.62632   -79983.898    80022.681    21.129523    29.787604 
145376000    281.33043    318.23779    192.81195   -80023.276    80039.503    125.42584    29.790032 
145380000    305.44948    327.94321    512.75302   -80049.094    80064.735   -184.80981    29.791458 
145384000    285.17178    333.12627    380.16181   -80067.593    80095.967   -47.035538    29.808769 
145388000    288.29132    163.17698    307.89443   -80100.906    80129.364   -144.71745    29.790421 
145392000    278.29283     411.9919    316.36795   -80142.013    80162.749    95.623946    29.800019 
145396000    296.11769    370.38704    396.10396   -80176.896    80183.762   -25.716921    29.795985 
145400000    264.85922    349.14132    513.22166    -80194.68     80220.24   -164.08034    29.790056 
145404000     286.5613    514.77574    287.18711   -80230.774    80251.929    227.58862    29.788429 
145408000    274.79365    321.36138    558.35093    -80262.08    80284.582   -236.98955    29.769496 
145412000     307.3819     322.3069    376.98804    -80301.27    80313.954   -54.681146    29.767713 
145416000    283.24468    163.12992    303.51251   -80330.743     80354.47    -140.3826    29.772967 
145420000    298.64696    337.85759    333.90513   -80329.981    80341.174    3.9524559    29.791144 
145424000    241.93844    372.18082    286.85901   -80343.552    80382.282    85.321818    29.792429 
145428000    286.87713     305.1303    302.12109   -80375.534    80396.638    3.0092079    29.796616 
145432000    262.33196     522.0598    381.03415   -80388.012    80420.224    141.02565    29.774967 
145436000    266.35854    405.99154    211.60994   -80386.695    80420.886     194.3816    29.763628 
145440000    258.90106    413.75445    166.07292   -80425.069    80470.374    247.68153    29.764106 
145444000    284.34673    413.82037    260.34879   -80475.722    80500.409    153.47157    29.768453 
145448000    291.24296    364.85077     440.8224   -80542.498    80571.464   -75.971632    29.771351 
145452000    303.32564    406.30564    305.02013   -80612.222    80629.081    101.28551    29.766296 
145456000    291.38384     307.8312    577.62652   -80652.941    80684.026   -269.79532    29.754933 
145460000    263.38173    286.26249    222.58848   -80691.303     80737.51    63.674007    29.752058 
145464000    291.27151     394.8906    299.06391   -80758.124    80791.538    95.826691    29.739322 
145468000    277.20905    385.88341    271.17021   -80814.755    80828.969     114.7132    29.748959 
145472000    293.18556    563.90518    205.78978   -80852.485    80878.397     358.1154    29.760357 
145476000    248.62028     434.5541    312.61303   -80875.765    80908.086    121.94107    29.761097 
145480000    301.33023    393.63883    430.54265   -80903.932    80917.698   -36.903817    29.766593 
145484000    266.46028    247.98804     421.1241   -80921.038    80946.714   -173.13605    29.765462 
145488000    285.27473    263.40745    178.27314   -80936.336    80950.394    85.134305     29.77613 
145492000    274.69306    492.60582    375.86882   -80962.421    80996.085      116.737    29.788081 
145496000    252.13468    391.89211    240.55217    -81022.27     81063.97    151.33994    29.779277 
145500000    270.86978    270.85649    468.77067    -81040.54    81086.705   -197.91418     29.76555 
145504000    281.67003    363.71139    303.79602    -81045.38    81079.826    59.915373    29.768976 
145508000    239.95036    347.50297    193.96061   -81045.256    81099.963    153.54237    29.760782 
145512000    299.23349    374.80041    369.67588   -81084.313    81095.729    5.1245284    29.744826 
145516000    264.83044    291.71487    329.08304   -81101.403    81150.413   -37.368165    29.752625 
145520000    260.75176    377.67049    321.25498   -81170.108     81198.52    56.415509    29.760208 
145524000    291.54559    353.80927    255.24638   -81211.079    81236.778    98.562887    29.755908 
145528000    304.61205    274.00726    660.02151   -81245.904    81250.888   -386.01425    29.750526 
145532000    287.90531    595.70524    379.79495   -81292.786    81318.906    215.91029    29.753544 
145536000      280.525    295.97021    337.75638    -81315.24    81354.474   -41.786169    29.755447 
145540000    271.00314    546.21288    261.32844    -81345.64    81365.869    284.88444     29.75472 
145544000    258.86196    349.19708    581.73674   -81350.955    81383.209   -232.53966    29.760542 
145548000    295.87063    348.01069     159.9179   -81410.345     81432.13    188.09279    29.758327 
145552000    254.85617    335.92012    319.41001   -81428.597    81468.664    16.510113    29.758299 
145556000    277.40499     301.4611    400.23709   -81467.983    81502.786   -98.775992    29.746795 
145560000    244.61875    353.63691    243.99808   -81494.086    81543.831    109.63883    29.736122 
145564000    308.24999    319.48447    499.62416    -81518.02    81531.204   -180.13969    29.718321 
145568000    288.55476    273.33224    352.05357   -81579.535    81611.767   -78.721334     29.72108 
145572000    285.11349     423.1614      294.063   -81628.743    81655.975     129.0984    29.719106 
145576000      263.918    292.19765     286.2119   -81657.064    81687.395    5.9857498    29.706082 
145580000    280.09553    344.89639    371.20312    -81665.26    81700.941   -26.306725    29.687847 
145584000    284.05792    258.53567    190.09041   -81702.205    81723.451     68.44526    29.675484 
145588000     315.3245    548.89939      442.711    -81764.69    81764.697    106.18839    29.674385 
145592000    283.84791    241.90757    209.68351   -81808.974     81819.05    32.224066    29.667847 
145596000    294.33656    361.83537    442.09425   -81837.527    81857.354   -80.258874    29.658607 
145600000     291.0232    334.09825      394.247   -81855.858    81880.163   -60.148752    29.694623 
145604000    282.72995    268.07472    304.44897   -81886.694    81912.917   -36.374249    29.702941 
145608000    258.71376    315.79204    316.93599   -81928.818    81970.585   -1.1439548    29.707544 
145612000    283.73968    250.47552    269.98192   -81978.039    82008.278   -19.506404    29.697074 
145616000     281.1523    303.24557    152.74574   -81995.306    82030.149    150.49983    29.688427 
145620000    267.97621    293.28345    415.86103   -82001.799    82037.316   -122.57758    29.689136 
145624000     261.3977    404.49361    388.74533   -82060.415    82095.435    15.748284    29.701138 
145628000    274.80091    415.09617    312.67457   -82119.051    82144.689     102.4216    29.694412 
145632000    274.13955    248.95985    246.10581   -82159.241    82190.863     2.854035    29.687342 
145636000    273.90379    362.66867    227.62907    -82186.86     82211.72     135.0396    29.690981 
145640000    275.63608    467.97311    375.49131   -82216.255    82249.112    92.481797    29.700575 
145644000     284.4612    384.10835    234.02429   -82247.242    82283.227    150.08405    29.692647 
145648000    278.24759     369.8783    165.64751   -82291.622    82322.567    204.23079    29.695919 
145652000    235.14337    211.01308    413.10496   -82291.237    82347.107   -202.09188    29.695556 
145656000    271.21639    366.62185    356.81642   -82328.751    82367.815    9.8054315     29.68576 
145660000    298.01575    428.22047    336.30868   -82360.219    82385.344    91.911793    29.684514 
145664000    261.88917    119.44653    258.27685   -82395.415    82440.279   -138.83032    29.678121 
145668000    300.13391    384.05601    418.28989   -82436.461    82449.924    -34.23388      29.6729 
145672000    278.47154    303.70384    230.17482   -82479.368    82498.955    73.529021    29.681933 
145676000    260.78174    404.66053    255.73279   -82500.509    82551.033    148.92775    29.694426 
145680000    264.85862    326.97633    325.10714   -82540.826    82574.948    1.8691908    29.708028 
145684000    275.79373     303.7188    320.26756     -82588.6    82612.072   -16.548762    29.702959 
145688000    283.03405    242.05224    322.41955   -82640.794    82664.162    -80.36731    29.693057 
145692000    270.32236    414.90976    286.85918   -82692.502     82729.34    128.05058    29.703368 
145696000    270.08182     328.7476    274.83791   -82735.581    82767.164    53.909691    29.703654 
145700000    288.93256    424.05281    253.57304   -82772.481    82787.749    170.47977    29.713079 
145704000    304.06104    402.53254    175.89933   -82818.585    82845.047    226.63321    29.725201 
145708000    313.88958    274.16817    497.29653    -82875.88    82897.097   -223.12836    29.728072 
145712000    269.56361    376.75278    294.21922   -82885.774    82914.828    82.533559     29.71967 
145716000    309.13879    204.67191    352.45421   -82948.615    82966.446   -147.78231    29.723076 
145720000     279.8974    332.58275    477.36854   -83005.298    83043.758   -144.78579    29.733489 
145724000     276.2219    506.54217    288.84395   -83030.071    83056.541    217.69822    29.735059 
145728000    267.03157    293.35549    305.74916   -83036.538     83068.72   -12.393664    29.722594 
145732000    272.78387    535.44888    273.97059   -83073.707    83104.709    261.47829    29.715511 
145736000     288.8522    514.83643    315.16405   -83093.671    83119.415    199.67238      29.7115 
145740000    269.73673    592.59395    518.40401   -83129.981      83158.1    74.189939     29.70773 
145744000    290.95785     199.4584    222.35957    -83153.46    83166.613   -22.901166    29.712784 
145748000    282.09396    333.01814     166.1353   -83172.442    83208.138    166.88284     29.71642 
145752000    289.32798     333.3702     322.7423    -83199.35    83218.282    10.627901    29.723651 
145756000    301.29775    278.54102     270.3816   -83231.654    83231.329     8.159423    29.729862 
145760000    290.99682    250.23233    201.79171   -83270.566    83277.653    48.440618    29.734059 
145764000    278.61239    259.15482    299.61582   -83319.985    83352.724   -40.461004    29.733764 
145768000    296.05361    287.53343    270.06145   -83390.681    83387.165    17.471977    29.728477 
145772000    291.49867    339.32392    430.46197   -83386.594    83411.608   -91.138056    29.729851 
145776000    277.23255    391.08777    362.62735   -83420.589    83437.967    28.460424    29.736891 
145780000      260.429    169.67876    305.30812   -83451.522    83479.888   -135.62936    29.751456 
145784000    287.05697    360.09651     340.1902   -83497.566    83539.226    19.906304    29.757614 
145788000    303.13812    391.25441    484.25071   -83516.983    83543.874   -92.996307    29.759569 
145792000    267.33857    259.76522    279.30772   -83529.885    83565.488   -19.542503    29.766228 
145796000    265.02909    407.82801    377.21154    -83553.19    83594.072    30.616468    29.767805 
145800000    267.99322    419.91569    392.92004   -83613.767    83641.145    26.995644     29.75564 
145804000    274.46936     241.1967    326.05339   -83670.792    83699.984   -84.856692    29.762906 
145808000    307.18638     199.4241    667.78715   -83711.973     83737.17   -468.36305    29.767695 
145812000     283.1933    395.09429    270.73658   -83714.412    83719.365    124.35772    29.755686 
145816000    298.35337    328.94628    309.45448   -83754.889    83774.695    19.491805    29.760974 
145820000    282.62587    322.80127    277.93742   -83776.359     83807.94    44.863855    29.754841 
145824000    277.89206     138.0284    238.44096   -83810.394    83840.867   -100.41256    29.754467 
145828000     290.5177    223.32591    166.29866   -83859.164    83880.061    57.027252    29.747019 
145832000    302.09395    289.93588    414.34171   -83878.308    83907.364   -124.40583    29.736229 
145836000    303.64997    451.46413    385.30772   -83919.855    83927.416    66.156405    29.742822 
145840000    268.22368     192.9583    414.82971   -83914.517    83955.042   -221.87141    29.718595 
145844000    295.35596    473.97875    301.61279    -83955.55    83987.506    172.36596    29.715958 
145848000    295.52557    300.12912    281.14946   -84001.759    84002.064    18.979664    29.715071 
145852000    308.42759    239.60624     233.7408   -84025.165    84045.021    5.8654426     29.71711 
145856000    262.63412    373.68335    331.91803   -84029.181    84060.806     41.76532    29.712387 
145860000    270.08469    243.52415      339.976   -84054.065    84087.933   -96.451854    29.702249 
145864000    287.01491    420.28405    195.86002   -84110.308    84119.403    224.42403    29.710964 
145868000    273.19117    326.22709    315.79767   -84148.003    84187.117    10.429425    29.710533 
145872000    290.81049    273.70503    361.51786    -84200.85    84225.456   -87.812836    29.718064 
145876000    272.84945      276.207    287.72798   -84225.476    84257.349   -11.520981    29.720545 
145880000    304.70741    394.89882    315.83559   -84271.231    84286.133    79.063226    29.727874 
145884000     271.3933    342.03438    294.81958   -84301.626    84334.354    47.214796    29.738328 
145888000    271.93357    226.33749    306.40572   -84341.969     84383.02   -80.068227    29.752785 
145892000    301.66779    357.11733    276.50793   -84407.503    84438.596    80.609394    29.752873 
145896000    245.94435    463.94097    166.37284   -84442.129    84489.753    297.56813     29.75961 
145900000    301.66866      303.448    238.12384   -84476.853    84516.794    65.324159    29.766082 
145904000    275.29464    370.00213    175.81305   -84493.927    84542.725    194.18908    29.757819 
145908000    296.20541    253.56819     384.9747   -84538.958    84550.336   -131.40651    29.747869 
145912000    267.03525    147.03016     294.0467   -84543.179    84587.294   -147.01653    29.743154 
145916000    264.89901    373.76556    266.07917   -84601.914    84629.616    107.68639    29.756502 
145920000    293.82185    528.92266    281.49282   -84642.186    84667.809    247.42984    29.770287 
145924000     270.3293    231.24395    312.62786   -84669.719    84690.073   -81.383912    29.776109 
145928000    261.14955     299.1237    188.89363   -84688.572    84717.674    110.23007    29.762051 
145932000    328.69161    401.54398    620.79901   -84716.981    84723.167   -219.25503    29.758529 
145936000    257.91317    315.29878    347.47984   -84737.322    84746.024   -32.181058    29.767246 
145940000    248.11759    367.92223    165.52758   -84745.884    84773.868    202.39464    29.774187 
145944000    254.62191    326.88458    252.09457   -84759.208    84815.955    74.790006     29.77702 
145948000    255.34641     325.2308      473.878   -84818.491    84861.604    -148.6472    29.787304 
145952000    306.27675    466.07269    525.01541   -84873.846    84880.606   -58.942717    29.794482 
145956000    261.56052     155.4363    273.81714   -84839.315    84904.802   -118.38084    29.803931 
145960000    265.65017    382.04606    482.64636   -84872.488    84924.717   -100.60029    29.800737 
145964000    288.63093    281.20844    251.18193   -84872.181    84901.606    30.026516    29.804578 
145968000    307.89377    459.61715    403.85568   -84909.594     84925.73     55.76147    29.817817 
145972000    278.37912    315.21167    376.30269    -84930.77    84964.783   -61.091013    29.824932 
145976000     307.2253    443.06416    233.69016   -85001.491    85014.307      209.374    29.835181 
145980000    275.83511    262.23199    408.65727    -85033.53    85066.006   -146.42528    29.833919 
145984000    300.02901    342.32336    557.45004   -85066.154    85084.387   -215.12668    29.829849 
145988000    294.77413     480.7914    446.90512   -85126.049    85142.336    33.886272    29.814476 
145992000    299.68616    301.66387    390.88765   -85162.449    85187.742   -89.223785    29.811129 
145996000    268.43861    322.73022    226.45988   -85209.402    85219.223    96.270344    29.809685 
146000000    284.57926    451.47291    265.14422   -85275.068    85280.072    186.32868    29.798613 
146004000    275.79051    347.82649    237.80102   -85302.712    85344.415    110.02546    29.805837 
146008000    270.65776    245.54341    412.80178   -85347.244    85400.107   -167.25837    29.805528 
146012000    283.20947    385.48162    180.99735   -85396.354    85438.314    204.48426    29.809015 
146016000    271.16709    306.07104    319.29904   -85410.397    85448.809   -13.227994    29.812058 
146020000    306.04942     397.4813    362.09017   -85445.338    85452.768    35.391136    29.818824 
146024000    291.23578    214.38378    293.14976   -85483.255    85503.395   -78.765986    29.800076 
146028000    286.53563    408.79642     570.9393   -85506.323    85531.772   -162.14289    29.797351 
146032000    265.24917    259.93296    456.95471   -85531.988    85583.052   -197.02175    29.794234 
146036000     284.3039    478.55495    388.31805   -85608.607    85619.676    90.236905    29.801306 
146040000    273.04605     361.3621    300.52107   -85659.629    85698.357    60.841036    29.792648 
146044000    291.51631    249.67351    406.54064   -85697.142    85701.992   -156.86713     29.79443 
146048000    267.60068    255.24481    428.68568   -85723.668     85751.43   -173.44087    29.790469 
146052000    283.05496    324.26275    444.30509   -85756.136    85781.806   -120.04234    29.783555 
146056000    293.35459     317.5058    344.33538   -85775.393    85811.864   -26.829584    29.785792 
146060000    267.51601    295.85669    241.44059   -85800.079    85856.532    54.416109    29.790712 
146064000    247.67949    370.25488     257.5545   -85838.059    85899.656    112.70038    29.792359 
146068000      277.249    353.02832    385.46837   -85902.046    85935.455   -32.440052    29.787866 
146072000    271.11172    238.94454    266.79128   -85955.106    85991.156   -27.846741    29.794056 
146076000    280.97321    269.57558    359.65344   -85979.693     86003.07   -90.077858    29.804365 
146080000    284.16215    360.51105    191.91783    -85994.32    86027.187    168.59323    29.797766 
146084000    271.16015    223.69275     350.0136    -86043.08    86087.205   -126.32086    29.802283 
146088000    282.68419    298.24671    318.71526   -86075.341    86120.916    -20.46855     29.81277 
146092000    239.23546    351.65974    118.52587   -86106.292    86163.034    233.13386      29.8289 
146096000    302.44973     457.8505    419.23993   -86150.008    86178.592    38.610571    29.820502 
146100000    294.31783    263.15685    435.80305   -86175.964      86216.6    -172.6462    29.826572 
146104000    270.33018     359.4897    441.97139   -86199.995    86240.051   -82.481692    29.826949 
146108000     288.3631    261.70841    332.31505   -86241.085    86269.928   -70.606639    29.823541 
146112000    297.87692    408.33607     360.9882    -86285.46    86318.504    47.347865     29.82313 
146116000    284.93174    262.52452    328.57263   -86327.498    86361.931   -66.048104      29.8284 
146120000    292.99474    406.05219    224.43704   -86330.919    86344.482    181.61515    29.828391 
146124000    275.01651     238.9385    214.54363    -86358.98    86405.104    24.394873    29.836339 
146128000    271.60743    205.54952    342.96548   -86422.878    86458.863   -137.41596    29.836565 
146132000    273.41185    429.47015    196.93691   -86476.575     86506.14    232.53323    29.852328 
146136000    286.63222    281.44438    284.23421   -86534.583    86534.832   -2.7898339    29.857481 
146140000    274.47587    455.47777    402.82593   -86575.508    86613.377    52.651846    29.870309 
146144000    301.42616    256.18133    626.96492   -86604.367    86630.029   -370.78359    29.854159 
146148000    270.13716    310.15405    435.84011   -86618.688    86661.659   -125.68606    29.851083 
146152000    263.23017    488.14855    242.50233   -86646.427    86692.459    245.64621    29.863235 
146156000    297.89692    506.35913    512.38155    -86683.77    86712.877   -6.0224236    29.865438 
146160000    286.77593     353.2709    466.74932   -86702.152    86750.263   -113.47841    29.861121 
146164000    275.06549    497.76743    357.13388   -86739.846     86783.64    140.63355    29.867864 
146168000    259.34212    382.04249    367.08576   -86754.604    86801.732    14.956734    29.871816 
146172000     281.6148    369.73521    350.90863    -86802.52    86824.677    18.826573    29.862681 
146176000    265.90245    259.39267    281.16406   -86828.734    86873.128   -21.771396     29.85845 
146180000    262.31632    255.94372    218.54165   -86852.289    86887.421    37.402073     29.84786 
146184000    281.51095    305.13584    324.48222   -86875.849    86919.797   -19.346378    29.838946 
146188000    282.56765     400.3121    500.39794   -86920.693    86949.784   -100.08585    29.840362 
146192000    262.49558    306.11276    280.24804   -86946.838    86991.649    25.864719    29.846746 
146196000    293.91606    218.49724    342.36875   -87011.623    87034.523   -123.87151    29.839706 
146200000    280.24142    322.58965    298.86689    -87038.61    87079.577    23.722759       29.838 
146204000    293.06319    470.48394    378.06692   -87053.567    87085.845    92.417018    29.846774 
146208000    258.58628    355.21907    169.23584   -87076.159    87121.057    185.98323    29.855382 
146212000    299.80201    452.92197    303.96223    -87130.15    87156.287    148.95974    29.860719 
146216000    285.42711    421.32059    435.41595   -87191.141    87215.813   -14.095358    29.862608 
146220000    284.72018     385.7677    342.83295   -87264.808    87288.428    42.934757    29.854602 
146224000    264.20302    279.72504    329.87462   -87290.132    87321.616    -50.14958    29.852747 
146228000    298.89418     251.6198    234.72494   -87311.722    87342.909    16.894861    29.841374 
146232000    277.66548    443.54095    298.08408   -87331.267    87362.855    145.45687    29.831952 
146236000    290.48725    528.32803    183.29061   -87357.092    87389.048    345.03742    29.840685 
146240000    284.89308    502.48117    264.90466   -87399.124    87431.384    237.57651    29.835706 
146244000    264.13088    272.42785    375.81724   -87431.256    87471.448    -103.3894    29.836898 
146248000    276.89377    521.90557    264.58535    -87429.16    87469.778    257.32023    29.833347 
146252000    266.88194    494.96835    358.54922   -87471.198    87518.678    136.41913    29.843764 
146256000    269.52457    237.74418    409.43614   -87513.007     87548.84   -171.69196    29.817978 
146260000     299.7433    206.40074    468.48771   -87573.998    87594.066   -262.08697    29.810516 
146264000    273.57432    432.52817    300.02837   -87617.514    87661.873    132.49981    29.807633 
146268000    327.93128    385.15913    532.18787   -87687.195     87697.68   -147.02874    29.802064 
146272000    254.98129    360.19685    258.37154   -87705.769    87754.926    101.82531    29.793059 
146276000    307.60695    377.17342    422.10212    -87779.77    87794.839   -44.928697    29.800933 
146280000    290.98364    377.58542    387.46136   -87841.233    87849.598   -9.8759316    29.785768 
146284000    290.71955    197.63808    235.48581   -87864.452    87885.722   -37.847731    29.793745 
146288000    269.58551    302.10708    184.97776   -87886.429    87925.559    117.12931    29.798073 
146292000    285.98929    453.40039     282.3186   -87929.908    87954.623    171.08179    29.802693 
146296000    277.60591    233.53161    398.62955   -87967.055    88002.771   -165.09794    29.800465 
146300000    265.78957    282.87496    200.00406   -87970.307    88022.816    82.870902    29.809295 
146304000    289.60091    229.50412    315.39708   -88038.514    88064.733   -85.892958    29.800922 
146308000    294.18663    419.34862    493.78649   -88073.181    88092.265   -74.437875    29.805967 
146312000    292.17503    303.05353    324.85773   -88078.995    88120.771   -21.804203    29.798021 
146316000    294.02283    268.12783    425.71987   -88114.447    88135.234   -157.59204    29.802337 
146320000    302.20917    328.87252    428.03784   -88196.475    88203.736   -99.165323    29.800144 
146324000    262.09591    253.62716     422.4445   -88194.096     88230.67   -168.81733    29.805355 
146328000     260.3736    355.79775    352.06224   -88244.049    88283.213    3.7355143    29.808748 
146332000    261.68641    236.99387    334.64802   -88272.212    88316.504   -97.654152    29.805947 
146336000    300.41188    613.41059    243.39059    -88342.22    88368.102       370.02    29.822595 
146340000    290.07936    588.55307    205.08311   -88397.884    88409.641    383.46996    29.837615 
146344000    290.44621    226.21295     205.4475   -88414.801    88448.264    20.765449    29.842814 
146348000    322.27158    258.95228    256.86802   -88482.918    88496.333    2.0842658    29.848948 
146352000    301.02868    311.74446    350.45417   -88509.668    88530.638   -38.709709    29.853983 
146356000    295.73684    331.91689    241.82026   -88564.167    88588.107    90.096631    29.859133 
146360000    296.52294    322.26703    223.82222   -88596.589    88620.397    98.444803    29.856016 
146364000     306.6304    522.66136    303.84103   -88655.161    88673.079    218.82033    29.865214 
146368000    282.84638    251.59254    419.51154     -88660.4    88711.013     -167.919    29.859183 
146372000    264.70921    268.78014     256.2176   -88662.992    88724.628    12.562542    29.868832 
146376000    281.58917    412.37746    283.72814   -88704.383    88759.235    128.64932    29.882277 
146380000    276.10543    330.98585    276.24766   -88728.217      88763.4    54.738193    29.901387 
146384000    301.11795    303.94223    322.05027   -88781.962    88788.396   -18.108031    29.904896 
146388000    266.91709    312.49832     303.0833   -88779.297    88832.647    9.4150267    29.911108 
146392000     260.2178    270.62435     426.1739   -88797.148      88840.7   -155.54955    29.912587 
146396000     261.5151     212.2394    363.38164   -88843.038    88882.636   -151.14223    29.919401 
146400000    278.98702     226.8258    394.98037    -88891.13    88934.556   -168.15458    29.928925 
146404000    277.96885     290.2159    287.66573   -88912.722    88941.849    2.5501701    29.926713 
146408000    297.23504    490.70996     385.2486   -88961.465    88980.989    105.46136    29.919725 
146412000    266.90733    382.73982    443.70703   -88985.767    89025.856   -60.967211     29.90458 
146416000    260.32072    272.05922    259.05602   -89012.459     89061.57    13.003196    29.914486 
146420000    273.37276    341.43412    249.18452   -89019.879    89068.418    92.249594    29.919149 
146424000    259.27171    332.80636    289.58228   -89082.893    89133.518    43.224081    29.924718 
146428000    260.26982    400.98966    158.11855   -89104.551    89158.916    242.87111    29.928962 
146432000    293.41752    274.80599    264.51101   -89157.856     89188.12    10.294984    29.927339 
146436000    275.73639    293.98851    207.61657   -89211.946    89229.323     86.37194    29.945315 
146440000    258.08573    357.31595    294.46611   -89226.786    89285.878    62.849838     29.94913 
146444000    273.53474    404.43214    275.78415   -89276.276    89333.036    128.64798    29.964644 
146448000    305.95339     258.5121    346.68345   -89339.287    89363.484   -88.171341    29.960245 
146452000    288.93726    344.30437    534.14422   -89387.352    89403.738   -189.83984    29.943741 
146456000    296.45671    399.49372    193.87666    -89445.47    89459.812    205.61706     29.93646 
146460000     270.3365    523.34612    243.90636   -89461.089    89501.278    279.43977    29.961098 
146464000    289.07191    614.04458     445.7884    -89499.66    89529.022    168.25619    29.955651 
146468000    260.14291    347.59994    355.01716   -89500.046    89544.486   -7.4172182    29.957508 
146472000     292.6405      343.005    352.33938   -89534.671    89567.001   -9.3343792    29.959843 
146476000    236.70662    268.28694    261.25844   -89528.725    89596.776    7.0284905    29.952153 
146480000    288.95268    356.18858     379.8592   -89576.751    89607.878   -23.670623    29.936027 
146484000    259.98629     433.5382    244.54189   -89571.636    89633.942    188.99631    29.929484 
146488000    273.56848    328.33919    491.71826   -89627.882    89678.735   -163.37907    29.919405 
146492000    311.20546    474.75085    286.75831   -89672.736    89693.242    187.99254    29.915948 
146496000    278.14014    403.28035    466.05046    -89679.75    89723.358   -62.770108    29.928442 
146500000    276.05517    397.39726    376.00877   -89741.138    89775.168    21.388488    29.935603 
146504000    275.59129    285.95988    203.61992   -89771.659    89812.019    82.339955     29.92984 
146508000    284.40576    491.29516    411.24302   -89769.745    89798.534    80.052139    29.926582 
146512000    288.59421    379.87891    337.28623    -89785.83    89818.415     42.59268    29.920614 
146516000    264.40773    255.11509    394.86368   -89815.113    89852.299   -139.74859    29.927289 
146520000    274.69399    270.87203    342.37446   -89831.754    89869.821   -71.502432    29.940235 
146524000    259.00638     372.8418    414.49687   -89859.154    89904.907    -41.65507    29.944195 
146528000    276.96918    461.90534    290.27939   -89921.988    89946.906    171.62594    29.930773 
146532000    278.39902    448.53214     306.9144   -89948.054    89982.727    141.61774    29.924469 
146536000    302.65311    254.16765    412.26357   -90015.462    90029.418   -158.09592    29.908986 
146540000    278.87573    322.92757    387.27166   -90050.914    90063.893   -64.344087    29.913177 
146544000    265.94995    267.54621    568.23879   -90086.873    90140.189   -300.69258    29.921045 
146548000    259.75313    354.89563    277.23631   -90131.842    90186.784    77.659321    29.933505 
146552000    247.07765    411.84441    367.04738   -90142.125    90208.685     44.79703    29.923747 
146556000    296.11693     493.8258     412.5534   -90209.025    90221.988    81.272392    29.936117 
146560000    302.77736    431.30392    248.24022   -90235.489    90253.601     183.0637    29.929398 
146564000    275.36656    220.61741    187.62107   -90278.802    90325.317    32.996339      29.9225 
146568000    294.24391     307.8201     427.5319     -90333.7    90375.477    -119.7118    29.918446 
146572000    281.60455    274.27391    334.45125   -90340.536    90393.627   -60.177337    29.915514 
146576000    286.86169    227.49038    362.43035   -90399.284    90448.359   -134.93997    29.915018 
146580000    259.31354    489.82545    508.63192   -90435.893    90477.623   -18.806466    29.905914 
146584000    297.53518    311.28041    349.53745   -90496.948    90527.688   -38.257034     29.90167 
146588000    291.31818    420.43383    370.78453   -90517.589    90547.548    49.649298    29.901443 
146592000    288.75987    477.02897    317.35319   -90552.585    90582.233    159.67578    29.905926 
146596000    268.67527    180.68749    196.04776    -90589.85    90629.641   -15.360268    29.895617 
146600000    283.00843    337.04413    592.16514   -90623.027    90659.618   -255.12101     29.88464 
146604000    309.29426     366.3581    386.59516   -90639.127    90654.151   -20.237064    29.890326 
146608000    259.84534    268.36316    358.31391   -90653.632    90707.356   -89.950745    29.881872 
146612000    283.01792     351.2479    325.31034    -90699.35    90733.809    25.937563    29.883002 
146616000    258.55557    290.61159    221.77441   -90767.879    90799.471    68.837177    29.883751 
146620000    301.80277    389.32293     280.8075   -90800.511    90834.815    108.51543    29.893875 
146624000    267.42598    378.24075     400.5977   -90839.901    90886.971   -22.356956    29.890259 
146628000    275.49236    523.19056     304.1587   -90897.113    90947.523    219.03186    29.899705 
146632000    334.80027    261.83999    598.48239   -90984.807     90998.01    -336.6424    29.877071 
146636000    263.73223    201.37928    315.33451   -90977.551    91019.917   -113.95523    29.876132 
146640000     272.4977    190.95236    286.93282   -91035.993    91052.271   -95.980465    29.874363 
146644000    292.29992    510.74924    201.07367   -91066.704    91086.226    309.67557    29.868139 
146648000     287.6069    466.68002    269.42832   -91076.608    91122.432     197.2517    29.854973 
146652000    277.77089     498.5175    572.69353   -91138.792    91182.622   -74.176026    29.865932 
146656000    281.08238    288.12019     409.8246   -91185.594     91221.36   -121.70441    29.863577 
146660000    278.18674    301.55939    336.52245   -91213.478    91261.122   -34.963064    29.872858 
146664000    244.93851    417.52358    296.71574   -91255.349    91310.805    120.80784    29.872733 
146668000    287.51095    245.22422    210.97771   -91287.572    91326.389    34.246509    29.862222 
146672000    268.53664    263.23626    222.38507   -91328.798    91380.508    40.851185    29.862451 
146676000    257.83838    188.16026    218.10139   -91363.919    91410.287   -29.941132    29.865085 
146680000    255.49924    262.50984    241.29203   -91385.643    91448.985    21.217807    29.874591 
146684000    257.63442    424.14891    380.13384   -91440.637    91495.962    44.015069    29.875772 
146688000    269.86344    415.07611    201.04876   -91490.268    91541.659    214.02735    29.882418 
146692000    282.30844     388.8796    480.79704   -91514.759    91558.277   -91.917443     29.88197 
146696000    279.59765    308.50561     404.9906    -91528.94    91569.898   -96.484992    29.885086 
146700000    330.76761    567.74318    228.03308   -91594.209    91606.442    339.71009    29.895802 
146704000    284.74147     392.7156     275.8525   -91598.877    91634.395    116.86309    29.890124 
146708000    282.17111     447.5539    188.96842   -91654.005    91687.627    258.58547    29.889399 
146712000    260.63745    293.19188    239.29627   -91675.192    91719.253    53.895612    29.886855 
146716000    284.64206     358.3418    573.90251   -91709.029    91743.421   -215.56071    29.878913 
146720000    288.47306    263.02861    218.43806   -91759.335    91785.219    44.590554    29.895094 
146724000    287.30428    338.89521    331.29355   -91789.172    91800.449    7.6016633    29.890123 
146728000     283.2066    616.88365    283.02147   -91822.037    91831.205    333.86219    29.910887 
146732000     252.9574    299.86475    220.48139   -91833.592    91878.625    79.383361    29.924085 
146736000    300.70809    366.50424    274.27477   -91881.425    91910.448    92.229464    29.932641 
146740000    277.86675    604.70436    241.13852   -91891.452    91928.317    363.56584    29.931786 
146744000    278.94589    307.89534    245.86267   -91905.435    91939.897     62.03267     29.93625 
146748000     310.8408    293.32384     534.5024   -91937.464     91961.13   -241.17856    29.931725 
146752000    289.42702    395.31858    387.99307   -91979.071    92003.089    7.3255048    29.923285 
146756000     289.8797    343.12137    196.13215   -91990.982    92027.778    146.98922     29.93141 
146760000    261.97534    398.11024    233.36474   -92018.107    92062.099     164.7455    29.931724 
146764000    303.26164    395.48906    234.92905   -92056.305    92076.063    160.56001    29.930627 
146768000    317.94114    370.09762    501.62398   -92083.292    92089.715   -131.52636    29.929246 
146772000    266.82717    340.11359    310.55492   -92095.291    92124.172    29.558669    29.934665 
146776000    287.15013    363.42437    233.79481   -92143.985    92181.269    129.62956    29.931255 
146780000     304.2619    357.53941    202.19478   -92217.549    92245.342    155.34463    29.927069 
146784000    273.85653    335.34582    164.07977   -92255.068    92287.197    171.26604    29.925024 
146788000    284.12465    512.70621    311.69821   -92284.148     92306.92      201.008    29.932164 
146792000    274.16956    168.09848    256.07018    -92307.47    92341.272   -87.971698    29.933736 
146796000    287.13528    336.01622    604.94614   -92346.385    92364.339   -268.92991    29.934435 
146800000    298.76179    352.93142    199.77518   -92396.301    92415.334    153.15624    29.944204 
146804000     274.6154    368.99446    340.59864   -92400.312    92418.201    28.395821    29.944404 
146808000    295.30375    727.98441    224.83635   -92450.205    92460.268    503.14807     29.94969 
146812000    285.25788    504.73664    296.44556   -92469.478    92513.123    208.29108    29.952145 
146816000    273.45265     220.3401    359.91225   -92509.541    92552.496   -139.57215    29.956806 
146820000     266.4765    303.64604     228.0743   -92540.125    92576.151    75.571736    29.965585 
146824000    290.15802    454.90925     278.8921    -92573.68    92606.297    176.01715    29.967272 
146828000    273.39659    312.09292    273.22999   -92586.014    92640.732    38.862927    29.951642 
146832000    302.26937    538.01691    339.27231   -92633.723    92660.992    198.74459    29.953779 
146836000    277.75835    289.38456    362.57175   -92654.896    92683.787   -73.187196    29.969689 
146840000    252.61983    492.85315    218.58753   -92723.884    92769.071    274.26562    29.966136 
146844000    277.41899      307.847    292.73509   -92720.192    92762.705    15.111903    29.969062 
146848000    293.12961    268.19937    370.58965   -92719.041    92755.673   -102.39029     29.96857 
146852000    262.22697    319.39758    366.07595   -92763.205    92814.473   -46.678366     29.97225 
146856000    290.43999    389.12145    392.60858   -92770.612    92808.818   -3.4871345    29.978379 
146860000    281.76067    296.88324    203.61275   -92807.883    92858.651    93.270489     29.98742 
146864000    283.90343    462.10044    400.64857   -92866.758    92897.656    61.451871     29.98418 
146868000    279.62967    367.87673    349.51286   -92884.875     92920.41    18.363869    29.985058 
146872000     303.5941    384.05009    361.09189   -92909.407    92915.753    22.958202    29.983715 
146876000    294.03701    401.04801    218.87422   -92918.778    92945.065    182.17378    29.990678 
146880000    247.38435    345.65964    255.74297   -92949.643    92989.848    89.916676    30.001525 
146884000    301.36895    340.98849    324.77585   -93012.027    93018.917    16.212632     29.99684 
146888000    294.07444    285.91696    315.65705   -93030.976    93053.981   -29.740099     29.99622 
146892000    293.64587    276.54451    486.71601   -93079.089    93088.965   -210.17149    29.989365 
146896000    272.66868    217.35233    285.21261   -93100.234    93122.229   -67.860286    29.986405 
146900000    287.08394    356.72621    238.94765   -93116.416    93156.692    117.77856    29.987147 
146904000    276.08086    319.62378     364.1254   -93143.695    93176.803    -44.50162    29.988869 
146908000    275.10755     312.3369    456.89064    -93180.23    93214.414   -144.55375    29.994394 
146912000    294.36042    430.34802    376.84193   -93209.008    93240.098    53.506087    29.989969 
146916000    298.67821    285.14834    437.45984   -93239.577    93282.574    -152.3115    29.992293 
146920000    261.27814    301.07286    492.65549    -93281.72    93338.442   -191.58262    29.983822 
146924000    288.45801    512.70664    260.95067   -93342.326    93362.562    251.75597     29.97738 
146928000    278.43042    367.77029    380.43353   -93381.067      93410.3   -12.663238    29.984023 
146932000    275.52977    418.87605      335.101   -93418.857    93439.861    83.775047    29.988245 
146936000    277.36625    304.02652    241.40578   -93444.742    93472.074    62.620739    29.997372 
146940000    334.02906     663.3273    389.21961   -93504.529    93530.229    274.10769    29.999342 
146944000    256.48705    312.34005    350.81257   -93530.808     93573.03   -38.472523    30.008072 
146948000    286.53537    641.63437    276.20844   -93557.363    93605.113    365.42593    30.004774 
146952000    281.86317     524.9818    231.01149   -93585.596    93621.896    293.97031    30.007855 
146956000    291.85214    415.25764    427.08882   -93609.827    93661.943   -11.831183     30.01278 
146960000    255.95625    273.51168    458.43091   -93644.899     93679.91   -184.91924    30.015359 
146964000    280.59759    438.06498    294.07303   -93679.072    93712.238    143.99195    30.024763 
146968000    278.16557    554.84605    422.30716   -93706.801    93747.653     132.5389    30.029875 
146972000    256.01576    308.53828    463.86944   -93721.858    93778.646   -155.33116    30.018154 
146976000    292.94974    402.27681    650.20652   -93772.272    93810.491   -247.92971    30.030863 
146980000    297.43872    367.73564    424.18218   -93818.043    93860.936   -56.446549    30.036843 
146984000    295.07798     157.4844    281.61898   -93863.689    93907.639   -124.13458    30.043271 
146988000    262.05903    253.85932    254.40943   -93884.518    93940.897  -0.55011712    30.055828 
146992000    316.77345    261.53376    431.26904   -93930.525    93951.824   -169.73528    30.061785 
146996000    313.18028    377.69246    292.78126   -93999.088    93992.588    84.911201    30.069739 
147000000    303.87597    352.52009    320.71131   -94050.068    94060.365     31.80878    30.057836 
147004000    274.33118     303.8079    379.15605   -94082.834    94129.996   -75.348155    30.058365 
147008000    259.20193    594.76394    382.42958   -94121.419    94169.785    212.33435    30.038579 
147012000    269.42822     216.8756    195.43099   -94128.266    94181.634    21.444608    30.037588 
147016000    286.03943    589.81622    384.64453   -94163.101    94212.203    205.17169    30.046587 
147020000    269.85635     545.2704    296.34684   -94216.344    94236.294    248.92356    30.030774 
147024000    283.81369    315.42474     466.6967   -94256.295    94279.293   -151.27196    30.014507 
147028000    271.53005    227.79847    384.55093   -94289.454    94328.516   -156.75246    30.011378 
147032000    264.88229    214.51961    269.91983   -94326.471    94370.078    -55.40022    30.013766 
147036000    296.58054    266.97391    377.80261   -94352.893    94394.553   -110.82869    30.030018 
147040000    302.27305     383.7922    334.39584   -94406.716    94449.703    49.396367     30.03677 
147044000    284.24594     392.8635    394.61128   -94453.554    94503.898   -1.7477785     30.02972 
147048000    283.36971    417.16708    422.15261   -94490.633    94520.691   -4.9855339    30.039076 
147052000    301.35125    255.70419     403.2162   -94529.984    94561.267     -147.512    30.051724 
147056000    287.06301    451.45579    310.61918   -94558.925    94596.842    140.83661    30.054574 
147060000    313.66003    346.84889     278.5997   -94602.196    94633.847    68.249183    30.049328 
147064000    274.72806    403.92629    258.68861   -94647.361    94675.453    145.23768    30.045149 
147068000    251.43778    250.95126    249.32109    -94688.66    94727.932    1.6301666    30.036875 
147072000    289.80644    439.36115    205.39519   -94720.449    94752.376    233.96596    30.037275 
147076000    281.47714    241.44676    256.47218   -94772.804    94808.185   -15.025417      30.0293 
147080000    289.42005    314.18563    235.56714   -94803.939    94832.539    78.618498    30.025379 
147084000    268.81391    312.59438    325.23993   -94847.382    94875.677   -12.645557    30.015874 
147088000    288.63668    287.58642    218.36172   -94908.146    94942.422    69.224698    30.018297 
147092000    296.42157    363.15887    205.62702   -94941.076    94979.087    157.53184    30.008461 
147096000    295.36799    432.99082     186.0356   -94958.204    94986.443    246.95523    30.004049 
147100000    292.21142    415.32628    260.01397   -94992.712    95013.603    155.31231    30.016422 
147104000    294.01189    281.48029    250.73445   -95035.359    95058.974    30.745843    30.005167 
147108000    331.59314    409.24435    397.71964    -95101.73     95105.48    11.524707    30.013529 
147112000    330.25089    447.67584    305.04235   -95116.074     95126.81    142.63349    30.014935 
147116000    278.31349     398.3875    310.44724   -95124.632    95160.012    87.940265    30.015164 
147120000    283.42585    376.66859    475.18448   -95144.674    95179.875   -98.515887    30.019135 
147124000     271.7443    185.36724    271.74098   -95168.943    95216.789   -86.373737    30.024489 
147128000    269.23408    339.11095    458.07737   -95198.233    95267.281   -118.96642    30.023097 
147132000    311.84204    370.62074    485.61676   -95273.742     95291.26   -114.99602    30.018577 
147136000    297.86567    590.33332    285.35985   -95294.046    95320.171    304.97347    30.012975 
147140000      271.863    317.97194    206.02391   -95299.382     95350.77    111.94803    30.018652 
147144000    305.26275    292.58512    390.33733   -95356.974    95378.133   -97.752211    30.014324 
147148000    296.28864    374.41389    243.98838   -95378.151     95408.78    130.42551    30.023162 
147152000    304.56008    437.77792    271.96895   -95405.635    95414.882    165.80897    30.038322 
147156000    291.36191    541.57931    331.61439   -95417.759    95452.382    209.96492    30.041966 
147160000    269.21557    359.74544    483.44571   -95406.502    95460.722   -123.70028    30.034373 
147164000    267.11743    368.70404     240.9048   -95446.815    95510.057    127.79924    30.026316 
147168000    268.97048    398.53571     212.2298   -95501.824    95550.942    186.30591    30.024756 
147172000    294.92208    451.08092    249.67802   -95548.852    95587.577     201.4029     30.02079 
147176000    297.29043    377.38056    404.20538   -95561.314    95593.003   -26.824822    30.019627 
147180000    264.29186    356.08232    277.72475       -95590    95640.406    78.357569    30.024872 
147184000    305.21349    505.26647    279.47864   -95632.369    95650.072    225.78783    30.026587 
147188000    304.68502     489.7301    343.74207   -95677.911    95708.957    145.98803    30.033969 
147192000    314.94462    291.71408    298.26882   -95705.962    95741.561   -6.5547385    30.041339 
147196000    290.37981    272.24669    299.96201   -95748.367    95773.196    -27.71532    30.034163 
147200000    295.71036    390.27403    391.20558   -95760.269    95793.671  -0.93155118    30.044769 
147204000    273.50981    218.19792     285.9512   -95801.928    95833.107   -67.753283    30.033973 
147208000    289.31552    411.52234    215.53615   -95848.964    95888.913    195.98619    30.038162 
147212000     280.8542    241.79844    276.39199    -95890.06     95927.71   -34.593553    30.027698 
147216000    277.22568    273.73574    424.93051   -95927.452    95962.707   -151.19478    30.016961 
147220000    262.61657     445.9853    268.04439   -95986.969     96034.55    177.94091    30.014182 
147224000    265.83555    496.39456    343.33433   -96007.765    96065.763    153.06023    30.009989 
147228000    271.56249    387.34145    363.42456   -96066.414    96116.813    23.916897      30.0002 
147232000    293.66572    348.25332    179.32034    -96100.62    96119.529    168.93298     30.00208 
147236000    313.88813    407.92843    343.67869   -96147.538    96167.137    64.249738     30.00648 
147240000    282.90971    516.60887    313.29379   -96163.832    96190.199    203.31509    30.007539 
147244000    267.91836    261.02633    227.93242   -96169.497    96226.358    33.093911    30.008098 
147248000    259.64324    333.80189    338.08075   -96201.918    96254.191   -4.2788628     30.00918 
147252000    312.51743    430.47515    729.53414     -96223.6     96251.17   -299.05899    30.001008 
147256000    300.35012    481.85166    216.57009    -96222.85     96271.31    265.28157     30.02029 
147260000    265.92762    487.69112    208.51413    -96247.81    96317.367    279.17698    30.010955 
147264000    275.99979    425.74036    364.05807   -96302.999    96342.361    61.682294    29.992338 
147268000    317.09488    423.19279    395.03953   -96369.344    96373.224    28.153251    29.989237 
147272000     279.6996    388.40392    352.75445   -96387.218    96427.401    35.649472    29.985265 
147276000    278.08207    445.94754    243.65759   -96408.757    96453.726    202.28996    29.995989 
147280000      267.003    275.98378    357.97006   -96421.051    96480.264   -81.986283    29.976169 
147284000    296.05015    314.03856    514.39165   -96490.712    96523.105   -200.35308    29.983273 
147288000    269.21041    320.92127    340.52245   -96534.336    96568.994   -19.601181    29.976949 
147292000    299.86949    235.66189    283.41139   -96575.439    96605.931   -47.749499    29.965244 
147296000     302.3998    477.79972    428.48535   -96612.925    96647.581    49.314365    29.970362 
147300000    293.37449    272.26576    280.37171   -96658.404    96687.001   -8.1059487    29.969912 
147304000    282.11036    735.48833    188.05723   -96666.951    96722.648     547.4311    29.976379 
147308000    261.33739    295.09941    257.06786   -96675.255    96717.694    38.031546    29.970484 
147312000    283.02016    239.38311    287.16955   -96663.465    96712.175   -47.786441    29.958069 
147316000    287.02305    407.21142    196.74335   -96696.687    96732.381    210.46807    29.968327 
147320000    290.70608    340.23897    306.52104   -96728.103    96763.999    33.717927    29.971561 
147324000    267.39984    427.42781    327.88122   -96756.354    96803.458    99.546589    29.960254 
147328000    261.22804    384.13296    314.60319   -96773.689    96818.534     69.52977    29.965171 
147332000    270.21455      353.924    325.24561   -96818.755    96877.827    28.678389     29.96727 
147336000    293.81535    131.31424    483.29022   -96860.303    96915.058   -351.97599    29.970461 
147340000    267.03607    293.66155    462.78712   -96928.015    96959.766   -169.12557     29.96824 
147344000    251.84795    220.03744     265.0692   -96959.521    97020.393   -45.031752    29.971866 
147348000    244.96452     359.3736    280.72384   -97002.587    97080.193    78.649753    29.984335 
147352000    299.80518    403.77182    419.69064   -97067.606    97107.379   -15.918818    29.988095 
147356000    245.09051    181.73217    319.07571   -97078.985    97140.319   -137.34354    29.970629 
147360000    284.14568    215.63562    576.77352   -97114.325    97161.536    -361.1379    29.971809 
147364000    265.50539    413.97533    318.21173   -97182.866    97227.559    95.763601    29.961236 
147368000    282.00303    346.52196    290.58481   -97215.623    97250.604    55.937147    29.973652 
147372000    288.53904    513.26526    371.37368   -97289.095    97319.032    141.89158    29.970395 
147376000    294.26652    549.00695    319.94339   -97310.937    97341.062    229.06356    29.973869 
147380000    275.95802    265.20897    173.32546   -97356.336    97395.735    91.883505    29.983159 
147384000    278.67502    344.12851    289.67243   -97338.628    97394.747    54.456078     29.98875 
147388000    279.47103    466.25229    260.00161   -97370.335    97423.351    206.25068    29.996332 
147392000    287.22762    366.17201    402.22009   -97384.094    97435.192   -36.048077    29.999479 
147396000    270.11305     305.9117    307.27797   -97419.906    97467.284    -1.366268    30.002587 
147400000    291.28212    458.46003    316.27659   -97451.094    97495.483    142.18344    29.997973 
147404000    305.80852    298.59765    320.88447   -97522.038    97561.202   -22.286823    29.991566 
147408000    288.46175    398.23764    389.44904    -97570.54    97613.346    8.7885924    29.995341 
147412000    265.50688    166.45607    317.95383   -97597.306    97660.416   -151.49776    29.990934 
147416000    279.87834    387.80747    337.20522   -97662.966    97702.919    50.602255    29.988873 
147420000    281.61042    204.95965     435.1597   -97685.951     97726.39   -230.20005    29.987894 
147424000    269.49149    222.13819    288.57436     -97693.9    97757.368   -66.436175    29.983108 
147428000    272.33525    346.08107    255.43811   -97755.549    97806.804    90.642954    29.988612 
147432000    252.62454    408.87679    349.38828    -97813.01    97856.627    59.488505     29.98131 
147436000    318.46295    439.67833    650.45846   -97871.705    97898.542   -210.78013      29.9706 
147440000    279.88145    241.63757    298.35426   -97912.748    97946.473    -56.71669    29.966203 
147444000    289.47914    185.56217    309.97055   -97954.039    97976.313   -124.40838    29.963456 
147448000    297.13524    516.10235    290.16403   -97970.176    98006.596    225.93832    29.970456 
147452000    292.44785    228.39551    330.31801    -97990.71    98027.343    -101.9225    29.971537 
147456000    318.63504    411.54574    276.08419   -98035.123    98060.816    135.46155    29.966391 
147460000    265.05804    250.00224    180.37934   -98079.018    98124.819      69.6229    29.975414 
147464000    307.47314    433.45104    287.87743   -98134.885     98161.08     145.5736    29.978201 
147468000    302.38711    353.15622    413.91632   -98181.576    98206.427   -60.760105    29.963486 
147472000    255.08853    262.58481    351.31679   -98190.488    98259.576   -88.731988    29.969253 
147476000    295.14955    441.66032    428.22425   -98248.108    98269.034    13.436072    29.982181 
147480000    304.73078    347.43776     306.2596   -98292.243    98303.819    41.178156     29.97853 
147484000    305.48679      372.953    463.00045   -98315.441    98354.041   -90.047444    29.975174 
147488000    272.31353    246.52682    201.23465   -98369.657    98427.953    45.292172    29.983017 
147492000    290.62341    305.67754    390.73595   -98422.923    98454.307   -85.058409     29.97439 
147496000     308.9332    323.63607    534.41198   -98434.378    98465.989   -210.77591    29.968844 
147500000    278.14568    366.89283    251.15125     -98457.8    98497.789    115.74157     29.96737 
147504000    287.55266    427.76158    317.46608   -98488.218    98523.055    110.29551    29.959944 
147508000    282.47249     377.6274    221.39777   -98519.774     98552.01    156.22963    29.968129 
147512000    314.06538    213.52396    378.60469    -98563.09    98580.668   -165.08073    29.968701 
147516000    273.48974    381.84746     433.5015   -98579.539    98618.997   -51.654046    29.981666 
147520000    268.54119     243.6744    348.40093   -98603.512    98655.103   -104.72653    29.983614 
147524000    293.40561    354.57514    388.21197   -98595.825    98641.303   -33.636834    29.988395 
147528000    305.06107     445.7562    310.71524   -98646.885    98675.421    135.04096    29.999749 
147532000    273.20667     494.1079     362.5371   -98687.386    98735.008    131.57081    29.999239 
147536000     278.9286    326.69461    280.83649   -98705.446    98758.609    45.858125    29.995418 
147540000    257.48053     219.3961    284.09847   -98747.467    98815.122   -64.702362    29.991012 
147544000    289.66382    382.37147    269.29462   -98777.892    98817.786    113.07685    29.990403 
147548000    283.11442    325.13564    281.10299   -98798.186    98839.827    44.032646    29.991232 
147552000    263.05278    367.37073    374.28943   -98840.577    98907.744   -6.9187003    29.993571 
147556000    274.24767    282.64885    627.23458   -98862.161    98900.459   -344.58573    30.001502 
147560000     287.5265    554.45194    366.35963   -98894.197    98937.458    188.09231    29.992405 
147564000     256.5903    389.79839    214.12152   -98922.114    98962.952    175.67687     30.00339 
147568000    289.03182    444.15772    499.46028   -98975.086     99012.81   -55.302568     30.00706 
147572000    283.07943    531.85844    360.13186   -99028.696     99074.19    171.72658    30.020356 
147576000    287.26322    251.75723    269.14921   -99074.729    99120.372   -17.391979    30.002531 
147580000    310.65501    321.58711    454.94419   -99144.114    99164.899   -133.35708    30.004088 
147584000    289.28631    180.65986    317.03633   -99169.778    99226.729   -136.37647      30.0126 
147588000    240.88623    203.45309    334.03288   -99170.743     99243.17   -130.57979    30.010211 
147592000    278.13249    232.03434    285.18349   -99222.135    99277.797   -53.149148    30.024485 
147596000    270.80197    210.83551    316.61013   -99263.678    99312.633   -105.77461    30.009809 
147600000    277.03802    312.70444    243.28795   -99308.226    99357.131    69.416488      30.0144 
147604000     287.3313    238.34824    325.87372    -99370.76    99413.121   -87.525483    30.005719 
147608000    279.88374    205.64591    225.65758   -99394.451    99434.135   -20.011664    30.002027 
147612000    293.68903    407.76283    358.90971   -99413.293    99458.767    48.853118    29.995664 
147616000    276.05141    431.49502    441.36464   -99430.281    99466.823   -9.8696199    29.991939 
147620000    274.24546    407.80854    557.92581   -99499.523    99559.398   -150.11727     30.00096 
147624000     276.7817    306.84538    264.42108    -99545.26    99590.914    42.424299    29.997299 
147628000    292.06233    413.00339    411.93087   -99600.348    99627.617    1.0725174    29.984512 
147632000    293.25671    421.44883    289.92012   -99645.934    99674.789    131.52871    29.984632 
147636000    266.42054    424.74534    370.45848   -99658.504    99709.107    54.286867    29.969698 
147640000    281.49288    320.76187    295.56928   -99666.764    99727.252    25.192585    29.966704 
147644000    288.03089    311.85102    543.07803   -99704.625     99749.99   -231.22702    29.965197 
147648000    292.99892    413.74151    483.59136   -99762.101    99789.252   -69.849858    29.966216 
147652000    278.89303    209.21335    639.36809   -99784.543    99841.798   -430.15474    29.952892 
147656000    317.74714    604.31393    361.73158    -99831.49    99862.819    242.58235    29.955909 
147660000    287.89102    390.67276    353.01043    -99873.77    99902.094    37.662329    29.951549 
147664000    285.92239    484.01728    372.27451   -99910.406    99942.736    111.74277     29.95504 
147668000    265.20185    300.47554    374.01852   -99912.414    99975.729   -73.542986    29.956169 
147672000    281.84157    339.90502    229.30693   -99945.394    99999.347    110.59809    29.958348 
147676000    286.66526    189.95871    429.94679   -99980.845    100017.98   -239.98808    29.971934 
147680000    286.45011    366.05769    354.72417   -100062.27    100082.59    11.333514    29.968144 
147684000    283.09314    292.42784    276.13211   -100099.85    100150.09    16.295724    29.956988 
147688000    290.92991    418.94153    464.10403   -100116.79    100172.67   -45.162505    29.956606 
147692000    287.86382     333.2236     207.4457   -100141.68    100167.76    125.77791     29.95714 
147696000    272.67899    417.99051    405.30243   -100130.04    100185.52    12.688082    29.966231 
147700000    288.30604    403.17163     421.7833   -100185.46    100218.51   -18.611665    29.965683 
147704000    282.24047    276.64754    318.17816   -100224.39    100273.14   -41.530626     29.96027 
147708000    311.60127    412.30474    375.76281   -100273.58    100300.38     36.54193    29.966148 
147712000    260.45121     386.5763    296.84052   -100283.33    100331.28     89.73578    29.972692 
147716000    271.09493     426.4622    280.09089   -100308.47    100376.74    146.37132    29.970567 
147720000    288.98716    393.60693    213.98471   -100347.35    100366.39    179.62223    29.959165 
147724000    266.93121    281.49408    371.64793   -100346.39    100399.68   -90.153854    29.951604 
147728000    272.88521    396.25949    313.94941   -100397.52    100420.37    82.310084    29.956064 
147732000    277.09199    427.14943    325.78749   -100431.33    100478.95    101.36194    29.950255 
147736000    279.29197    453.98269    378.77619   -100456.36    100512.71    75.206496    29.944214 
147740000    275.71784    286.71672    294.82542   -100516.07    100562.78   -8.1086987    29.941311 
147744000    269.51905    450.40042    340.30072   -100553.43    100599.01     110.0997    29.939108 
147748000    282.30529    262.41913    345.69175   -100594.99    100642.42   -83.272618    29.937412 
147752000    287.66003    346.99807    385.57989   -100647.92    100701.01   -38.581816    29.931162 
147756000    295.02194    386.88042    186.36162   -100680.75    100723.59    200.51879    29.939754 
147760000    280.23998    495.22728    353.65999   -100685.02    100732.59    141.56728    29.951563 
147764000    289.08307     278.9989    260.24434   -100729.54    100771.47    18.754568    29.945669 
147768000    300.77648    350.04419    418.02847   -100784.61    100816.44   -67.984279    29.957985 
147772000    250.44889    334.61622    337.79358   -100819.99     100882.2   -3.1773563    29.959595 
147776000    279.62847    310.90316    351.61819   -100863.61    100918.65   -40.715028    29.967379 
147780000    275.59043    309.97931    328.28929   -100909.82    100946.98   -18.309976    29.959744 
147784000     276.5761    407.39613    430.11177   -100907.93    100949.27   -22.715638    29.942821 
147788000    285.43904    320.25723     522.1477   -100949.47    100986.84   -201.89047    29.933306 
147792000    277.80095    422.90275    243.14584   -100971.29    101022.67    179.75691    29.928129 
147796000    292.82624    366.34906    445.00568   -100978.87     101018.2   -78.656624    29.921937 
147800000    267.64509    313.32683    286.21733   -101011.84    101063.79    27.109495    29.921508 
147804000    271.41966    343.75919    178.22805   -101038.41    101088.38    165.53114    29.930696 
147808000    267.76465    361.65869    263.82776   -101054.63     101108.9    97.830928    29.928121 
147812000    250.74695    287.26603     138.4121    -101097.6    101155.03    148.85393    29.920194 
147816000    290.77943    192.21494    347.24591   -101160.69    101202.11   -155.03096    29.907747 
147820000    299.59956    291.28799     317.2933   -101192.78    101230.42   -26.005307     29.91535 
147824000     264.6841     505.4239    250.72287   -101195.29    101251.99    254.70103    29.922655 
147828000    272.61387    369.68262    294.86051    -101235.9    101291.52    74.822113    29.942311 
147832000    287.76296    275.50371    161.47842   -101250.27    101296.48    114.02529    29.941827 
147836000    268.69999    252.74525    270.51672   -101275.92    101326.53   -17.771473    29.941206 
147840000    247.77506    389.60657    301.98705   -101293.34    101362.77    87.619527    29.953502 
147844000    274.39442    318.88715     209.9998   -101345.23    101395.93    108.88735    29.948694 
147848000    263.87435    262.26545    344.43956   -101397.04    101453.46   -82.174111    29.946033 
147852000    264.09922    366.98052    244.63572   -101452.01    101493.09    122.34481    29.946085 
147856000    302.70763    568.97911    351.55674   -101480.89    101513.59    217.42237    29.951468 
147860000    288.12986    423.28551    297.17164    -101491.8    101541.27    126.11387     29.94403 
147864000    302.23911    492.50821    334.84255   -101503.58    101538.94    157.66567    29.938704 
147868000    266.34607    287.72885    200.02234   -101518.41    101563.11    87.706508    29.938146 
147872000    254.99093    471.05674    374.32012   -101533.49    101595.69    96.736625    29.935005 
147876000    292.54891    262.38837    355.75599    -101608.8    101654.31   -93.367617    29.942399 
147880000     312.4193    288.46772    341.26223   -101666.36    101687.97   -52.794508     29.93837 
147884000    305.21623    390.00292    585.20875   -101688.25    101712.45   -195.20583    29.952243 
147888000     276.8291    403.63344    282.33975   -101715.37    101759.79    121.29369    29.949046 
147892000    282.50515    395.03081    525.77741   -101758.96    101798.85    -130.7466    29.934808 
147896000    284.33195    371.00599    434.96978   -101793.82    101813.62   -63.963786    29.937759 
147900000    309.80057    438.25489    497.06018    -101817.2    101837.34   -58.805285    29.938207 
147904000    273.11499    381.07077    317.02368   -101831.71    101879.16    64.047084    29.941221 
147908000    258.29169    368.88498    300.47459   -101885.42    101948.01    68.410393    29.958085 
147912000    250.19865     303.5682    158.00169   -101933.41    102004.17    145.56651    29.960824 
147916000    311.03915    238.72965    587.88081   -101996.63    102013.41   -349.15116    29.953301 
147920000     311.1441    196.58616    310.48179    -102037.2    102056.93   -113.89563    29.946529 
147924000     261.8472    293.78822     410.3883   -102038.87    102081.69   -116.60008    29.941119 
147928000    282.29076    364.34091    231.27859   -102073.85    102114.73    133.06231     29.94715 
147932000    265.00353    323.64806    395.98216   -102095.11    102144.16   -72.334093    29.946079 
147936000    270.76934    270.55812    231.53706   -102139.62    102173.54    39.021063    29.953276 
147940000    321.52426    528.46818    607.30959   -102176.36    102192.65   -78.841412    29.956433 
147944000    320.00131    519.76161    322.36599    -102215.6    102227.37    197.39562    29.953077 
147948000    278.58097    217.25455     240.0451   -102242.02    102285.26   -22.790552    29.957233 
147952000    278.11937    379.31516    339.81125   -102262.19    102306.07    39.503914    29.956715 
147956000    295.33274    329.91218    357.62153   -102311.45    102351.79   -27.709354    29.960366 
147960000    258.92591    400.74591    293.38216   -102311.83    102375.01    107.36376    29.945734 
147964000    252.83542    267.29487    442.00618   -102336.89    102391.89    -174.7113    29.942046 
147968000    285.40814    400.22613    375.77683   -102391.51    102417.33      24.4493    29.949635 
147972000    282.87613    362.74004    339.77624   -102416.31    102456.05    22.963799    29.945029 
147976000    325.20212    422.25742    470.18285   -102428.61    102459.02   -47.925431    29.927363 
147980000    305.17084    262.54277     447.9378   -102445.08    102475.39   -185.39503    29.929352 
147984000    282.59234    565.54781    181.40266   -102466.74    102489.84    384.14516    29.933261 
147988000    255.94491    190.94793    346.99872   -102440.91    102495.35   -156.05079    29.925396 
147992000    296.41629    228.72892     561.1251   -102469.62    102508.02   -332.39618    29.926458 
147996000    250.53126    311.59645    154.39568   -102511.57    102574.69    157.20077    29.916454 
148000000    280.20234    268.99167    408.37136   -102543.38    102590.88    -139.3797    29.929296 
148004000    287.89545    339.34627    253.92498   -102597.14    102628.42    85.421286    29.952082 
148008000    296.49628    382.90899    345.28501      -102641    102657.52    37.623983    29.959068 
148012000    295.56798    314.70878    474.25106   -102670.72    102709.48   -159.54228    29.947754 
148016000    256.05623    507.25992    347.72487   -102675.71    102727.51    159.53505    29.946596 
148020000    278.71667    343.92963    491.55305   -102702.98    102746.02   -147.62342    29.941818 
148024000    273.15789    378.22906    278.76489   -102741.39    102792.39    99.464167    29.946759 
148028000    283.57845    350.23464    429.70936   -102787.12    102816.75   -79.474718    29.943996 
148032000    269.29216    283.51345     344.4742   -102826.39     102879.5   -60.960746    29.935853 
148036000    248.41205     246.2971    299.42553   -102852.51    102905.38   -53.128429    29.930876 
148040000    274.20132    240.61285    405.88748   -102890.18    102925.58   -165.27462    29.939744 
148044000    277.64001    393.20763    199.60285   -102912.66    102959.07    193.60478    29.944599 
148048000    304.79348    370.06683    243.03505   -102960.85     102987.8    127.03178    29.961782 
148052000    288.92263    378.79995    389.06471   -102989.71     103024.9   -10.264763    29.958936 
148056000    259.16144    315.05408    405.86999   -103031.23    103090.25   -90.815906    29.951459 
148060000    285.03175    400.40462    225.70066   -103065.26    103101.48    174.70397    29.958807 
148064000    264.66362    377.72289    382.80941   -103096.53    103127.09   -5.0865261    29.957533 
148068000    335.05327    383.31369    351.68611   -103117.32    103137.88    31.627581    29.970183 
148072000    286.80362    352.61186    332.25368   -103137.46    103183.57    20.358172    29.977326 
148076000    268.45227    312.49995    263.72507   -103173.19    103207.11    48.774881    29.981357 
148080000    279.48479    230.16786    183.48314   -103191.23    103229.13    46.684722    29.979343 
148084000    302.87674    311.99151    197.42457    -103239.9    103249.75    114.56695    29.979917 
148088000    317.19266    393.60804    321.37294   -103270.43    103287.59    72.235106    29.990892 
148092000    309.15672    494.40073    417.59158   -103296.65    103339.32    76.809145    29.984783 
148096000    303.80919    335.37478    287.76648   -103350.58    103368.31    47.608301    29.983749 
148100000    265.34638    285.93243    229.75202    -103322.2    103367.76    56.180411    29.982222 
148104000    275.84215    372.38597    325.69251   -103376.31    103413.27    46.693456    29.981727 
148108000    259.53759    285.35046    202.33355   -103380.33    103424.09    83.016915    29.992312 
148112000    308.25345    337.52587    307.77126   -103426.13    103444.07     29.75461    29.983216 
148116000    296.30089    361.80841    294.19803   -103443.15    103487.28    67.610381    29.984604 
148120000    306.68129    379.85153    311.14607   -103493.67    103511.62    68.705455    29.993263 
148124000    298.80872    546.15398    450.12081   -103491.16    103530.51    96.033171    29.990486 
148128000    300.70271    597.58506    280.10969   -103536.91    103557.04    317.47537    29.988132 
148132000    292.81318     416.4048    320.16784    -103576.1    103605.46     96.23696     29.98585 
148136000    285.50231    169.22042    304.75529   -103598.83    103653.36   -135.53486    29.973414 
148140000    272.00675    253.80746    327.02077   -103647.06    103673.46   -73.213308    29.977661 
148144000    291.20894    315.08799    279.32261    -103664.1    103695.65    35.765383    29.969932 
148148000    299.47844    196.09672    246.83885   -103697.77    103734.63   -50.742135    29.968019 
148152000    287.02228    240.63514    360.59982    -103730.7    103768.91   -119.96468     29.97634 
148156000    268.40433     558.2116    305.96361   -103780.41    103818.54    252.24799    29.974024 
148160000    273.49187    273.72971    237.49683   -103791.41    103837.22     36.23288    29.967495 
148164000    301.54035     392.8884      267.029   -103850.65    103874.34    125.85939    29.961899 
148168000    303.40123    320.98702    167.11581    -103865.3    103910.93     153.8712    29.957612 
148172000    303.36253    614.61667    260.83774   -103876.01    103906.37    353.77893    29.961888 
148176000    295.32507    534.44878    307.53957    -103929.2    103976.13    226.90921    29.952988 
148180000    297.74692    225.81826    417.15211   -103979.54     104029.4   -191.33385    29.952974 
148184000    279.02449    339.58036    269.51258    -104036.3    104065.25    70.067782      29.9413 
148188000    284.86261    256.26015    588.88446   -104084.49    104114.16   -332.62431    29.926481 
148192000    289.15336    386.95914    230.41478   -104134.24    104175.58    156.54436    29.922111 
148196000    318.78868    616.26705    303.40875    -104156.5     104151.1     312.8583    29.925638 
148200000    298.82947    402.25031     314.4375   -104136.56    104170.36    87.812812    29.938812 
148204000    305.98426     274.5741    304.17842   -104186.51    104197.28   -29.604319    29.940742 
148208000    319.87814    408.39904    495.84148   -104192.38    104222.16   -87.442442    29.942679 
148212000    280.88447    562.80427    331.74744   -104211.42    104232.41    231.05684    29.945107 
148216000    291.05464    282.52372    306.30349   -104261.06    104294.06   -23.779769    29.944471 
148220000    294.03864    492.93135     209.5824   -104277.54    104297.79    283.34895    29.948595 
148224000    274.52758    296.00808    278.63637   -104304.52    104336.87    17.371706    29.945399 
148228000    268.73559    268.56705    410.69039   -104317.98     104373.8   -142.12334    29.944878 
148232000    278.83718    353.50429     323.3922   -104363.26     104404.2     30.11209    29.939956 
148236000     293.1637    476.32268    313.39953   -104431.76    104463.03    162.92315    29.948987 
148240000    282.54836    337.27991    359.23601   -104470.18    104505.03   -21.956097    29.941002 
148244000    297.61654    355.66003    213.44272   -104492.66    104529.22    142.21731    29.941285 
148248000    283.04755    411.73258    243.44472   -104520.49    104570.15    168.28786    29.941637 
148252000    299.93853    533.04389    338.68926   -104570.62    104602.12    194.35464    29.937061 
148256000    263.98394    292.84398    286.38189   -104592.78    104627.19    6.4620861    29.936533 
148260000    286.95235    324.31813    371.63809   -104596.37    104641.23   -47.319969    29.925467 
148264000    288.65012    526.52992    357.14445   -104626.71    104668.36    169.38547    29.912352 
148268000    269.45984    250.75733    386.69714   -104638.46    104691.57   -135.93981    29.912879 
148272000    271.75195     588.7546    261.48321   -104694.21    104745.43    327.27139    29.913329 
148276000    312.83435     258.4516    555.21673   -104733.03    104757.11   -296.76513    29.899056 
148280000    269.79644    509.56675    383.51412   -104780.78    104819.33    126.05264    29.909168 
148284000    292.63821    204.61925    424.91786   -104795.28    104843.66    -220.2986    29.904687 
148288000    270.29926    365.16207    357.76206   -104811.94    104878.86    7.4000097    29.915371 
148292000    279.13695    237.57497    300.21597    -104869.1    104918.81      -62.641    29.901585 
148296000    293.51888    373.26053    408.47584   -104885.78    104919.78    -35.21531    29.906017 
148300000    292.36132    372.64123    380.59589   -104907.96    104949.16   -7.9546545    29.905051 
148304000    305.17132    395.00745    605.42287   -104940.26    104971.61   -210.41542    29.899045 
148308000    287.99589    408.22261    264.04245   -104931.04    104964.32    144.18016    29.895491 
148312000    323.28268    324.60389    290.03369    -104997.9    105019.62    34.570205    29.896525 
148316000    295.39544    428.07063    349.38422   -105012.18    105040.42    78.686413    29.886292 
148320000    286.84489    428.06751    335.10729   -105044.57     105086.7    92.960225    29.887882 
148324000    294.01097    397.65808    323.01576   -105069.76    105099.77    74.642328    29.892864 
148328000    263.65475    332.02445    487.23373   -105077.98    105141.53   -155.20928    29.896332 
148332000    288.39467    469.10683    278.72074   -105092.45    105132.29    190.38609    29.899798 
148336000    259.29462    275.72343    370.24475   -105138.44    105215.91   -94.521318     29.89881 
148340000    293.38805    157.86354    495.01079   -105194.55    105220.67   -337.14725    29.903247 
148344000     288.7313    617.60028    269.04626   -105204.12    105246.91    348.55402    29.907291 
148348000     266.6974    270.39505    461.13251   -105235.44    105284.14   -190.73746    29.898957 
148352000    264.33343     283.7446    225.02737    -105242.6    105313.27    58.717225     29.90122 
148356000    275.03065    439.46387    443.72742   -105292.07    105352.52   -4.2635475    29.904887 
148360000    300.91506    311.89123    323.61344    -105355.7    105399.42   -11.722207    29.894678 
148364000    286.57264    234.65199    381.36106   -105398.38    105429.67   -146.70907    29.902997 
148368000    255.56475    305.17672    288.72661   -105429.23    105484.19    16.450108      29.8964 
148372000     242.5098    291.65535    307.39947    -105441.9    105498.93   -15.744117    29.899789 
148376000    245.02178    344.04155    307.11045   -105480.47    105536.63    36.931102    29.894639 
148380000    293.70307    322.52372    431.94682   -105521.91    105560.62    -109.4231    29.897684 
148384000    275.40786    171.98016    253.47218   -105536.66    105581.97   -81.492022    29.902602 
148388000     283.6829    375.78569    351.85875   -105590.05    105641.47    23.926941    29.901863 
148392000    245.50273    343.74923    316.00924   -105618.87    105707.98    27.739987    29.899672 
148396000     305.2078    399.99641    533.65362   -105680.85    105707.18   -133.65721    29.900302 
148400000    281.05224    180.36259    478.03046   -105689.38     105740.3   -297.66787    29.889731 
148404000    288.55028    291.41333    406.37871   -105705.87    105759.91   -114.96537    29.903802 
148408000     272.9728    504.99883    463.74098   -105734.89    105772.05     41.25785    29.910677 
148412000    296.10678    338.23491    144.84426   -105759.16    105811.18    193.39066        29.91 
148416000    266.54101    333.93487    295.21021   -105802.38    105848.51    38.724662    29.900967 
148420000    244.69235    265.90346    266.48601   -105792.38    105864.27  -0.58255062    29.897905 
148424000    298.06055    241.82282    418.41455   -105831.32    105865.19   -176.59173    29.898328 
148428000    283.75282    287.74545    300.62225   -105900.95    105928.46   -12.876803    29.886113 
148432000    317.08498    496.68787    352.54897   -105957.11    105955.81     144.1389    29.895113 
148436000    297.80589    572.33957    227.43227   -105988.87    106024.64     344.9073    29.889103 
148440000    265.60159    521.35654    286.44018   -106028.43    106077.94    234.91636    29.890775 
148444000    286.60815    484.60828    209.77248   -106051.79     106096.8     274.8358    29.884355 
148448000    284.57148    393.59776    463.73218   -106068.76    106106.61   -70.134427    29.885215 
148452000    302.90159    259.15997    241.17328   -106083.95    106122.92    17.986692    29.872117 
148456000    307.88996    571.47518    326.42621   -106120.34     106146.4    245.04897    29.867553 
148460000    277.52147    319.34733     285.6717   -106143.55    106185.09    33.675633     29.86213 
148464000    261.84236    283.58096    210.55562    -106145.7    106210.01    73.025344    29.858652 
148468000    293.58722    453.56502    447.98944   -106207.04    106231.55    5.5755763    29.860048 
148472000    270.89957      246.559    192.96415    -106201.1    106258.91    53.594854    29.860031 
148476000     282.2141    235.39436    355.90694   -106206.08    106259.36   -120.51258    29.857304 
148480000    253.26587    289.92674    337.47404   -106255.98    106319.02   -47.547296    29.851853 
148484000    262.58848    253.45605    559.00167   -106284.55    106349.47   -305.54563    29.848257 
148488000    279.90471    368.68221    363.76809   -106333.22    106383.02    4.9141216    29.855546 
148492000    260.76466    292.63864    350.61441    -106368.3    106414.43   -57.975767    29.856562 
148496000    302.15674     447.3053    361.45262    -106414.2    106445.17    85.852679    29.858676 
148500000    277.43938    263.75879    268.61806   -106447.84     106485.1    -4.859276    29.864933 
148504000    286.95145      386.834    400.59161    -106464.8    106502.19   -13.757612    29.872025 
148508000    271.65016    243.36418    453.79282    -106484.7    106526.34   -210.42864    29.871139 
148512000    276.17411    432.48721    294.51903   -106522.45    106561.21    137.96818    29.875041 
148516000    289.59598    535.30426    378.61085   -106554.69     106590.2     156.6934    29.884935 
148520000    306.52431    254.86093     375.2019   -106607.61    106637.68   -120.34097    29.883761 
148524000    281.83273    344.56382     219.6851   -106631.48    106679.57    124.87872    29.879717 
148528000    282.68826    387.43188    270.65615   -106642.46    106684.21    116.77573    29.891155 
148532000    261.77829    292.53682    257.68493   -106652.66    106707.37    34.851887    29.894828 
148536000     292.0837    349.50161    351.41539   -106688.07    106727.15   -1.9137775    29.884252 
148540000    287.61385    397.01108    524.40226   -106739.34    106781.93   -127.39118    29.880914 
148544000    291.32921    380.05741    379.19019   -106768.74    106826.43   0.86722106    29.887086 
148548000    294.66287     344.0472    312.97403   -106826.01    106861.49    31.073174    29.891539 
148552000    288.94208    388.13812    197.00063   -106849.66     106903.1    191.13749    29.902941 
148556000    269.18561    367.56383    244.42063      -106912    106963.74    123.14319    29.907853 
148560000    274.66963    456.22827    239.07285   -106999.37    107039.69    217.15542    29.902314 
148564000    272.74266    316.42443    479.63131   -107010.78    107063.63   -163.20688    29.914982 
148568000    271.35572    418.33439    203.88738   -107048.16    107104.02    214.44701     29.92087 
148572000    294.19058     268.4019    291.80181   -107082.86    107131.69   -23.399908    29.924918 
148576000     272.1909    375.11416    460.66326   -107103.74    107146.53   -85.549105    29.930756 
148580000    269.37985     285.5493    272.93081   -107137.54    107188.68     12.61849    29.943948 
148584000    278.51987    485.09569    225.32773   -107178.38     107215.5    259.76797    29.946742 
148588000    288.93088    314.34462    386.39244    -107206.9    107227.36   -72.047819     29.93852 
148592000    283.89016    423.28753    614.07455   -107239.74    107287.31   -190.78702    29.937282 
148596000    254.88717    232.68899    224.78206   -107298.42     107342.9    7.9069311    29.935025 
148600000     269.3143    249.90727    464.85754   -107341.84    107399.15   -214.95027    29.928859 
148604000    267.89624    346.10445    418.75771   -107359.44     107398.1   -72.653262    29.935895 
148608000    268.70296    298.73483    258.66478   -107371.28    107430.59    40.070047    29.932026 
148612000    279.02207    448.75551    300.27986   -107388.61    107433.96    148.47565    29.920318 
148616000    252.15975    306.69208    372.86241   -107381.35    107449.58   -66.170323    29.921091 
148620000     298.1849    339.90725    338.16686   -107423.37    107457.71    1.7403978    29.932336 
148624000    258.41507     361.1896    651.73105   -107432.86    107496.13   -290.54145    29.940798 
148628000     262.2205    269.45364    316.69431   -107477.17    107542.42   -47.240671    29.933365 
148632000    296.93419    556.24313    308.73125   -107529.21    107577.02    247.51188    29.931875 
148636000    251.38027    350.45766    276.86633   -107539.62    107590.61    73.591325    29.938783 
148640000    280.17967    320.05196    201.38336   -107594.01    107624.26    118.66859    29.940113 
148644000    279.06669    343.56646    214.48182   -107620.06    107667.32    129.08464    29.942132 
148648000    281.30282    279.35473    496.86898   -107677.77    107719.12   -217.51424    29.944153 
148652000    265.93368    345.67739    341.08011   -107715.64    107770.99    4.5972887    29.939948 
148656000    262.29382    335.40234    178.06988   -107735.78    107794.44    157.33246    29.946753 
148660000    295.43232    320.32953    359.32599   -107791.31    107822.19   -38.996461    29.947671 
148664000     293.9682    342.19752    468.99015   -107838.81    107883.17   -126.79263    29.951319 
148668000    265.09907    331.76671    188.53284   -107866.93     107911.6    143.23387     29.95437 
148672000    278.14042    298.01677    168.93996   -107875.45    107931.38    129.07681    29.967409 
148676000    272.42595    370.63638    320.33518   -107928.75    107980.99    50.301203    29.969384 
148680000    239.42695    166.86304    178.96533   -107960.36    108039.01   -12.102295    29.969947 
148684000    260.53722    358.12466    343.13729   -107973.06    108039.01     14.98737     29.96385 
148688000    282.31512    274.34581    249.87036   -108003.43    108056.66    24.475453    29.970584 
148692000    294.96128    324.01558    342.78382   -108034.48    108078.49   -18.768238    29.972937 
148696000    261.96823    320.84023    270.72015   -108073.47    108145.84    50.120075    29.984629 
148700000    261.84428    392.04044    164.65678   -108104.95    108164.46    227.38366    29.990623 
148704000    284.62826    438.64629    512.22831   -108136.34    108163.51   -73.582027    29.981253 
148708000    278.08641    256.48139     343.9404   -108167.22    108195.92   -87.459015    29.977208 
148712000    300.86336    527.60446    197.22953   -108192.88    108228.44    330.37492     29.98611 
148716000    296.23691    328.07842    370.35719   -108233.71    108261.21   -42.278773    29.992168 
148720000    306.09525     288.2775    630.71338   -108257.52    108289.46   -342.43588    29.996116 
148724000    287.10131    448.97374    279.38341   -108292.34    108317.03    169.59033    30.003737 
148728000     272.7661    374.97232    468.03236   -108286.36    108342.81   -93.060041     30.00826 
148732000    271.18455    371.85053    411.97853   -108323.25    108375.99      -40.128     30.01148 
148736000    259.31469    189.93322    251.35342   -108382.16    108432.08     -61.4202     30.00996 
148740000    274.55346    360.87393    376.32181   -108430.32    108486.14   -15.447881    30.010096 
148744000    314.70786    479.68131    259.68191   -108515.89    108535.72     219.9994    30.016288 
148748000    300.85768    357.26297    461.30665   -108587.56    108603.18   -104.04368     30.01848 
148752000    294.93902    272.81929      344.945   -108641.84     108676.3    -72.12571    30.010847 
148756000    270.24081    381.12805    157.55461   -108682.94    108736.78    223.57344    30.010344 
148760000    276.00573    297.03594    292.08226   -108722.09    108768.75    4.9536837    30.004706 
148764000    257.67458    364.33719     401.8596   -108740.93    108805.27   -37.522412     29.99246 
148768000    289.28992    329.32903    408.81333   -108767.59    108825.39     -79.4843    29.985989 
148772000    295.27986     333.8542    345.81591   -108812.17    108845.81   -11.961711     29.98929 
148776000    289.40048    342.83494     235.3132   -108853.24    108907.41    107.52175     29.98734 
148780000    238.79974    212.45077    437.58368      -108842    108903.59   -225.13291    29.980116 
148784000    279.76925    496.04406    263.85293   -108881.41    108933.04    232.19113    29.983306 
148788000    288.81817    577.14203    235.13408   -108940.81    108985.52    342.00794    29.978754 
148792000     260.5796    378.68302    317.85607   -108949.44    109001.94    60.826953    29.973961 
148796000    267.48608     329.5402     411.4052   -108972.72    109024.21   -81.864993    29.980143 
148800000    282.83118    421.89401    330.92945    -108998.3    109046.27    90.964559    29.973934 
148804000    300.72476    375.42004    195.33199   -109057.02    109089.24    180.08804    29.973065 
148808000    310.75251     572.8191    358.87967    -109089.2    109099.39    213.93944    29.970098 
148812000     289.9354    295.38465    615.58012   -109129.96     109170.9   -320.19548    29.953287 
148816000    290.45715    307.92939    370.54725    -109172.6    109214.84   -62.617859    29.956644 
148820000    288.08653    560.50719    201.59039   -109221.84    109263.63     358.9168    29.965649 
148824000    296.81584     380.8466     507.7395   -109226.96    109273.85    -126.8929    29.959757 
148828000    297.53434    385.24357    243.01005   -109284.96    109312.32    142.23353    29.960357 
148832000    299.02583    469.95722    224.98025   -109290.18    109330.79    244.97697    29.973549 
148836000    276.24082    251.59713    385.94639   -109308.24     109350.4   -134.34926    29.975567 
148840000    276.43557    448.53672    252.96076   -109311.18    109360.97    195.57596    29.980224 
148844000    277.27618    322.54434    236.19497   -109340.34    109387.02    86.349369    29.967844 
148848000    294.27692     468.4374    232.11687   -109384.22    109419.52    236.32053    29.970719 
148852000    272.10967    357.36343    274.15795   -109421.39    109454.94    83.205475      29.9579 
148856000    273.36243    416.90743     223.0023   -109445.23    109491.95    193.90513     29.96381 
148860000    265.07925    172.57796    268.20413   -109464.33    109515.96   -95.626169    29.959838 
148864000     264.6203    339.01652    484.08391   -109482.59    109539.93   -145.06739    29.961298 
148868000    296.24802    411.26939    180.35916   -109545.14    109588.83    230.91023     29.97083 
148872000    322.43165    394.26285    448.00605   -109606.76    109618.09     -53.7432    29.965207 
148876000    290.33674    226.03303    336.38461   -109643.57     109700.7   -110.35157    29.965909 
148880000    283.83166    333.71853    339.52052   -109717.53    109753.25   -5.8019936    29.967974 
148884000    298.49994    355.65019    447.51346   -109766.73    109794.08   -91.863263    29.967301 
148888000     342.2088     542.4129    239.92046   -109807.65    109810.92    302.49244    29.972878 
148892000    298.46395    380.64022    393.91518   -109838.05    109866.65   -13.274964    29.968372 
148896000     282.5835    489.29621    494.99858    -109851.8    109892.61    -5.702375    29.968192 
148900000    248.29582    436.69818    278.23957   -109875.74    109931.51    158.45861    29.968193 
148904000    319.09829    374.34812    464.14011   -109936.37     109958.8   -89.791987    29.977862 
148908000    280.07487    467.01302     248.9198   -109993.21    110036.15    218.09322     29.97111 
148912000    289.47419    367.49285    248.15473   -110043.85    110075.07    119.33812    29.974449 
148916000    281.23633     331.7225    310.70548   -110085.46    110122.64    21.017014    29.964596 
148920000    285.54909    381.89493    214.78002   -110104.16    110136.64    167.11491    29.967541 
148924000     279.5544    451.14847     315.3398   -110108.96    110169.04    135.80867    29.961297 
148928000    272.27211    401.50301    390.84415   -110181.71    110227.14    10.658858    29.961708 
148932000    268.61912     276.9998    357.44987    -110181.8    110231.26   -80.450073    29.947778 
148936000     290.3329     379.3887    212.87149   -110218.11    110262.93    166.51722    29.953455 
148940000    275.69107    220.33702    460.53301   -110223.76    110299.98   -240.19599     29.94711 
148944000    286.06258     451.8903    165.85339   -110258.68     110313.6    286.03691    29.946767 
148948000    304.37238    467.91177    552.63873   -110296.94    110337.25   -84.726963    29.939277 
148952000     287.8393     293.3675    243.90308   -110326.38    110378.21    49.464415    29.946487 
148956000    290.71559    413.79339    384.05623   -110364.18    110399.24    29.737152    29.946097 
148960000    287.52277    362.28475    282.79584   -110411.48    110430.34    79.488908    29.953086 
148964000    299.63561    292.70997    379.89977      -110452    110486.69   -87.189799    29.952256 
148968000    270.21941    368.68206    272.07882   -110451.74    110491.55    96.603241    29.962108 
148972000     306.0116    268.65488    273.10428   -110497.81    110524.55    -4.449396    29.968709 
148976000    307.48496    362.39098    504.66095   -110533.42    110558.73   -142.26997    29.955077 
148980000    320.13427    273.51594    388.06797   -110589.39    110623.12   -114.55203      29.9642 
148984000    284.27573    302.00825     360.6731   -110633.57    110667.97   -58.664847     29.96574 
148988000    293.70469    406.36699    369.96753   -110658.95    110681.69    36.399461     29.96691 
148992000    269.43866    269.17091    197.95201   -110683.42    110740.93    71.218896    29.971477 
148996000    264.79881    382.09832    200.90339   -110717.83    110773.15    181.19494    29.975848 
149000000    302.81187    338.42335    333.05515   -110769.66    110805.93    5.3681949    29.967505 
149004000    282.15419       313.85     326.8177    -110788.8    110829.53   -12.967698    29.965201 
149008000    270.01651    281.25965    225.46864   -110818.74    110871.53    55.791006    29.969722 
149012000    261.52828    325.48207    370.49742   -110887.52    110940.83   -45.015345    29.970803 
149016000     279.0918    292.58005    376.40162   -110926.28     110988.1   -83.821567     29.95784 
149020000    286.70985    367.74444    405.39502   -110974.35    111019.77   -37.650585    29.955694 
149024000    271.80356    317.11751    205.89428   -111004.54       111059    111.22323    29.969926 
149028000    280.46894    669.09612    383.26581   -111057.03    111104.26    285.83031    29.975749 
149032000    296.62006    376.14853    259.36582   -111086.81    111133.95    116.78271     29.96698 
149036000    299.86655    267.25699    406.40785   -111078.54    111131.93   -139.15086    29.957586 
149040000    282.68373    376.92952    176.90546   -111099.03     111141.5    200.02406    29.957615 
149044000    280.63584    469.08241    308.93389   -111117.64    111171.98    160.14852    29.956886 
149048000    283.83765    270.01338    447.24604   -111159.56    111202.64   -177.23266    29.960624 
149052000    299.09343    342.35659    380.36924    -111193.8    111235.62   -38.012648    29.950107 
149056000    286.27542    581.72275    539.99171   -111229.76     111263.1    41.731039    29.955074 
149060000    267.17854     324.5343    454.46521    -111224.3    111268.06   -129.93091    29.958414 
149064000    259.24547    328.23047    249.99117   -111234.41    111312.56    78.239295    29.958046 
149068000    256.06948    231.97744    89.009259   -111277.66    111333.27    142.96818     29.97144 
149072000    292.14445    291.95469    287.63123   -111338.51    111383.54    4.3234509    29.963884 
149076000    280.54949    365.79489    217.99794   -111369.78    111430.71    147.79695     29.95902 
149080000    282.67692    391.44392    297.42311   -111419.98    111474.44    94.020803    29.962129 
149084000    280.58512    266.20988    198.90189    -111439.1    111491.39    67.307995    29.963411 
149088000     271.2061    268.14482    370.23182   -111471.66    111531.99   -102.08699     29.95831 
149092000    295.95723    397.03722    345.28572   -111529.87    111565.61    51.751501    29.956263 
149096000    306.03307    293.69492    312.26011   -111552.34    111563.45   -18.565188    29.950083 
149100000    307.36289    528.36003    453.47517   -111567.33    111596.93    74.884857     29.94871 
149104000    286.62712    461.12885    286.31675   -111571.68    111619.13     174.8121    29.950532 
149108000    287.98045    416.05607    254.49702   -111626.16       111662    161.55905    29.962606 
149112000    291.04359    199.43453    268.73839   -111680.41    111715.24   -69.303864    29.958517 
149116000    276.39664    355.10039    335.81558   -111677.43    111731.41    19.284808    29.949067 
149120000    305.26261    241.13787    331.51514   -111715.91    111749.03   -90.377268    29.948897 
149124000    289.61908    504.43829    450.25112   -111733.35    111771.52    54.187171    29.948302 
149128000     291.2142    573.24546    374.87326    -111774.5    111815.44     198.3722    29.940266 
149132000    295.60816    285.78218    262.41796   -111786.32    111817.67    23.364222    29.940466 
149136000    283.75038    326.91899    296.38233   -111795.49    111846.78    30.536653    29.942209 
149140000    254.24178    311.38524    302.11974   -111786.25    111852.19    9.2655005     29.94117 
149144000    281.73989    298.45207    294.53089   -111837.93    111894.28    3.9211782    29.941641 
149148000    283.00412    279.08316    283.28189   -111874.86    111922.28   -4.1987323    29.921526 
149152000    263.07358    524.36466    366.65361   -111891.69    111947.87    157.71105    29.922361 
149156000    262.96228    366.49719    252.82123    -111934.9    111988.01    113.67596    29.918867 
149160000    249.53194    331.63623    282.05701   -111962.92     112047.9    49.579218    29.915353 
149164000    255.37859    488.10341    254.60986   -111995.86    112072.97    233.49355     29.90263 
149168000    243.99648     422.4982    247.12712   -112045.32    112102.66    175.37108     29.91055 
149172000    278.63668    369.12635    291.50875   -112086.25    112137.42    77.617602     29.90557 
149176000    248.36514    212.52039    303.88086   -112111.02    112165.64   -91.360475    29.902941 
149180000    289.03611    428.39941    445.07019   -112153.46    112197.24   -16.670782    29.898643 
149184000    300.27177    431.03357    512.66911   -112162.45    112206.02   -81.635541     29.90343 
149188000     255.0234     273.0647    282.19689    -112171.2    112248.94   -9.1321872    29.903411 
149192000    265.75168    343.08824     317.0265   -112192.42    112267.44    26.061738    29.883722 
149196000    256.43181    393.77945    363.89292   -112248.73    112310.01     29.88653    29.879966 
149200000    269.11063    317.32349    441.84652   -112257.08    112300.65   -124.52303    29.877692 
149204000    268.51174    334.51506    273.52821   -112273.87    112322.18    60.986855     29.87225 
149208000    268.65027    340.24737    284.34493   -112331.74     112381.3    55.902441    29.867509 
149212000    287.06835    152.75356     186.0768   -112395.54     112429.6   -33.323239    29.864524 
149216000    274.11925    406.10264    250.99115   -112423.61    112465.96    155.11149    29.865726 
149220000    275.83451    510.10182    386.31176   -112468.61    112506.94    123.79007    29.865597 
149224000    289.83364    262.77679    290.11529   -112480.78    112524.35   -27.338497    29.865435 
149228000    279.21968    251.91474    203.89548   -112499.36     112553.2    48.019259    29.864005 
149232000    276.49835    222.24017    463.56855   -112543.15     112592.6   -241.32838    29.859316 
149236000    298.29968    296.58604    316.04661   -112618.83    112662.75   -19.460566    29.876264 
149240000    297.58679    518.54959    415.98269   -112679.75    112725.99    102.56689     29.88469 
149244000    272.12209    491.21388    317.27378   -112694.51    112745.22     173.9401    29.886499 
149248000     301.9407    306.90739    426.82006   -112723.92    112757.48   -119.91268    29.893806 
149252000    248.16992    358.64583    287.08606   -112762.15     112833.3    71.559769    29.908242 
149256000    252.32667    182.05813    377.97803   -112776.98    112842.01   -195.91989    29.906518 
149260000    273.13413    311.21466    178.06019   -112825.31    112885.02    133.15447    29.904217 
149264000    257.80255    322.71998    339.45227   -112871.45    112962.74    -16.73229    29.905702 
149268000    285.07924    428.25523    433.45422   -112932.24     112988.8   -5.1989903    29.905007 
149272000    297.34883    343.89338    341.63413   -112948.42    112993.01    2.2592452    29.903329 
149276000    275.58933    286.35697    156.69678   -112980.99    113037.27    129.66018    29.902264 
149280000    321.27317    607.43414    352.59587   -113029.49    113042.99    254.83828    29.897166 
149284000    321.74429    293.50184    461.47698   -113051.91    113081.89   -167.97514    29.904572 
149288000    245.92117    486.30431    224.65682   -113079.36    113139.62    261.64749    29.904627 
149292000    281.09318    502.74202    251.47486   -113130.48    113193.67    251.26715    29.903296 
149296000    282.52829     197.8882    164.93374   -113154.11    113198.97    32.954466    29.908354 
149300000    291.66226    355.39327    241.53914   -113161.37    113205.98    113.85414    29.906692 
149304000    277.06518    370.96051    318.69628   -113189.82    113252.13    52.264228    29.904698 
149308000    283.02502    343.90094    403.91434   -113257.17    113298.94   -60.013399    29.902686 
149312000    273.40411    278.46449    301.88352   -113263.03    113329.82   -23.419035    29.911267 
149316000     274.6446    431.60642    377.80944   -113297.56    113342.19     53.79698    29.900348 
149320000    295.98994    396.52721    344.85776   -113330.14    113375.18    51.669454    29.908866 
149324000    304.28077    536.46348    256.35208   -113345.78    113401.25     280.1114    29.918981 
149328000    287.50312    334.38007    282.60613   -113402.43    113456.76    51.773934    29.916847 
149332000    278.14108    330.55649    312.38672   -113401.42    113458.78    18.169765    29.927819 
149336000    295.09059    402.85325    300.72967   -113442.38    113490.61    102.12358    29.936669 
149340000    287.31451    424.62591    247.34983   -113498.99    113546.13    177.27608    29.937587 
149344000     262.8224    321.04049    305.27056   -113547.44    113602.77    15.769928    29.941488 
149348000    276.03433    548.23173    190.81576   -113583.18    113638.51    357.41597    29.951074 
149352000    286.46494    364.55132    225.69944   -113650.19    113692.14    138.85188    29.951425 
149356000    263.63013    275.53698    295.56045   -113669.72    113723.19   -20.023469    29.949103 
149360000    284.99344    274.01336    250.29145    -113706.5    113739.71    23.721912    29.953991 
149364000    269.17599    435.29797    219.39299   -113725.29    113782.15    215.90498    29.948447 
149368000    277.83042    360.98602    241.22958   -113766.16       113799    119.75645    29.945328 
149372000    281.50057     295.5935    273.86903   -113783.21    113828.28     21.72447    29.949943 
149376000    318.41734    247.30989    403.97357   -113829.18    113862.48   -156.66368    29.955616 
149380000    289.77958    237.37377    201.35835   -113868.03    113913.21    36.015423    29.955689 
149384000    274.17155    270.07475    242.63421   -113913.58    113970.42    27.440533    29.946613 
149388000    251.15275    402.39383    149.56863   -113958.47    113999.13    252.82521    29.935096 
149392000    284.89542    317.39867    322.84966   -113999.12    114052.66    -5.450994    29.936941 
149396000    231.12423     251.4298    246.98119    -114011.6    114085.82    4.4486132     29.93123 
149400000    293.64225    235.23487     387.8455   -114066.56    114107.57   -152.61064    29.934528 
149404000    268.53213    423.73195    394.73384   -114091.03    114158.54    28.998109      29.9308 
149408000    277.73439    394.12293    344.78171   -114149.27    114189.68     49.34122    29.938503 
149412000    287.14671    405.58228    356.34111   -114165.37    114196.86    49.241165    29.928875 
149416000    302.06517    472.90717    405.72677   -114196.58     114242.6    67.180397    29.932236 
149420000    268.20138    353.22565     344.2039   -114233.82    114283.22    9.0217517    29.930901 
149424000    268.17928    272.21381    519.91971   -114247.75    114301.51    -247.7059    29.937882 
149428000    327.72626    395.62059    669.04723   -114257.69    114291.71   -273.42664    29.947946 
149432000    306.15911    248.81444    408.20955   -114270.52    114291.56    -159.3951    29.952366 
149436000    315.90643    389.42912    284.96315   -114300.23    114326.67    104.46597    29.955421 
149440000     304.2409    406.55823    343.45356   -114341.41    114369.84    63.104669    29.962965 
149444000    272.34775    289.07558    176.02414   -114389.03     114421.7    113.05143    29.962201 
149448000    305.24765    497.40716    192.86895   -114390.05    114437.82    304.53822     29.96627 
149452000    289.39445      440.179    291.31548   -114415.24    114458.77    148.86353    29.960548 
149456000     264.4194    387.41502    272.23222   -114449.76    114504.77    115.18279    29.961089 
149460000    278.36147    516.31165    267.52398    -114503.9    114551.96    248.78767    29.957109 
149464000    287.85061    412.30701    458.15562   -114545.49    114581.23   -45.848611    29.957588 
149468000    267.36011    267.46958    405.75511   -114568.99    114607.73   -138.28553    29.954712 
149472000    284.01952    282.89866     454.2011    -114599.3    114650.68   -171.30244    29.959844 
149476000    243.40856     457.3739    212.82754   -114642.53    114686.15    244.54636    29.972252 
149480000    288.92855    424.66249    302.27296   -114694.58    114740.88    122.38953    29.971342 
149484000     295.5932     228.0942    308.97861   -114740.58    114786.58   -80.884413    29.984067 
149488000     282.4034    346.21341    374.63714   -114746.66    114779.92   -28.423733    29.980506 
149492000    277.54412    290.98659    322.44582   -114809.01    114866.95   -31.459235    29.976573 
149496000    291.13105    482.77085    228.45041   -114840.46    114879.45    254.32044    29.977711 
149500000    287.86811    200.02508    323.31543   -114897.02    114933.64   -123.29035     29.98004 
149504000    291.16216    261.58502    437.52844   -114948.78    114967.11   -175.94342    29.986619 
149508000    306.68294     432.0265    440.65408   -114973.67    115005.38   -8.6275861    29.976967 
149512000    267.70097    411.04992    190.88021   -114995.91    115033.59    220.16971     29.97496 
149516000    273.49561    433.19203    266.17824    -115011.5    115068.54    167.01379    29.970197 
149520000    271.09234     187.6553    349.29706   -115046.71    115108.09   -161.64176    29.966715 
149524000    278.35611    317.14404    274.19494   -115118.73    115154.62    42.949103    29.974835 
149528000    284.64662     378.8209    275.01966   -115142.97    115181.91    103.80123    29.972742 
149532000    286.05078    356.13907    251.51874   -115138.15    115196.33    104.62033    29.974054 
149536000    278.54529    315.30456    425.42534   -115167.74    115216.63   -110.12078    29.968953 
149540000    269.81043    336.22344    307.36908   -115220.99    115283.48    28.854358    29.969321 
149544000    260.80484    292.90761     286.7716   -115252.53    115318.32    6.1360097    29.977453 
149548000    277.41569    354.56583    342.39545   -115300.17     115339.8    12.170382    29.968374 
149552000    286.74225    361.06297    303.02595   -115329.83    115387.72    58.037018    29.975331 
149556000    268.19915    260.50414    404.76005   -115382.94    115427.29   -144.25591    29.973842 
149560000     281.9614    253.83836    336.25288   -115427.01    115464.38   -82.414513    29.977086 
149564000    262.30544    356.79161    392.11971    -115458.4    115510.06   -35.328098    29.982035 
149568000    265.18306     414.6081    240.14855   -115525.57    115580.77    174.45955    29.985237 
149572000    272.74245    341.38155    446.48692   -115541.04    115600.16   -105.10537    29.969245 
149576000    254.82055    301.78927    261.63441   -115575.31    115633.43     40.15486    29.970263 
149580000    277.87247    410.13234    314.25935   -115622.42    115671.77    95.872985     29.97458 
149584000     265.6334    274.44015    329.89904   -115671.32    115714.87   -55.458886     29.97342 
149588000      291.815    362.50877    477.83063   -115699.57    115737.83   -115.32186    29.969777 
149592000    256.07617    330.42728    122.80893   -115727.83    115786.62    207.61835    29.966447 
149596000    262.67134    308.74774    430.68313   -115740.39    115819.17   -121.93539     29.95747 
149600000     269.2855     363.8233    315.13307   -115782.92    115838.36    48.690234    29.950326 
149604000    286.69907    385.29431    263.92805   -115810.11    115863.17    121.36625    29.950535 
149608000    274.78254    274.12827    379.12638   -115858.79    115913.57   -104.99811    29.950594 
149612000    320.57912    302.94659     225.6717   -115915.36    115950.46    77.274885     29.95022 
149616000    263.19046    426.64997    501.66301   -115948.55    116005.62   -75.013043    29.938545 
149620000    291.83095    337.33713    398.58585   -116020.37    116042.78   -61.248727     29.94026 
149624000     289.9203     278.0623    311.51519   -116050.35    116087.13   -33.452885    29.937484 
149628000    293.42121    559.03159    284.71746   -116079.96    116124.84    274.31413    29.938408 
149632000    277.54271    315.93152    175.51636   -116122.74    116178.71    140.41516    29.931224 
149636000    297.55999    370.32817    229.97762   -116174.12    116222.48    140.35055    29.935625 
149640000    258.89431     333.4884    153.79676   -116187.81    116253.84    179.69164    29.922818 
149644000    273.29883    361.11753    244.16096   -116222.67    116273.73    116.95657    29.924663 
149648000    267.08288    303.46335    338.38322   -116232.78     116280.7   -34.919876    29.928834 
149652000    285.28206    386.87842    363.89709   -116263.16    116302.96    22.981339    29.938517 
149656000    313.33113    434.07627    280.85556   -116322.39    116350.72    153.22071     29.94471 
149660000    258.34465    291.98688     307.9953   -116340.35    116411.35   -16.008415    29.942191 
149664000    286.98897    261.41229    168.80311   -116397.99    116439.26    92.609188    29.939934 
149668000    274.60363    239.84444    305.64729   -116428.31    116464.29   -65.802851    29.931692 
149672000    291.76301    415.63095    294.14229   -116462.76    116512.45    121.48866    29.924897 
149676000    275.03875    276.34021    305.89142   -116479.73    116546.16   -29.551203    29.932869 
149680000    271.93954    307.64674    277.27887   -116511.26    116568.44    30.367864    29.936977 
149684000    267.41118    181.77537    414.59797   -116559.77    116600.18    -232.8226    29.935817 
149688000    287.62331    361.85616    467.43318   -116600.48    116643.23   -105.57702    29.944856 
149692000    300.70937     452.9033    451.23439   -116665.14     116694.1    1.6689162    29.943362 
149696000    283.91466    353.22011    469.66963   -116686.39    116720.15   -116.44952    29.947874 
149700000    285.89034    190.03856    271.53784   -116725.66    116768.17   -81.499282    29.955085 
149704000    323.51637    276.85547    488.93863   -116754.79    116776.11   -212.08315    29.959024 
149708000     316.4981    356.52043    307.52491   -116790.01    116826.99    48.995526    29.967068 
149712000    279.50002     205.1722    310.65204   -116799.11    116851.37   -105.47983    29.964139 
149716000    247.69967    559.70053    216.62216   -116805.53    116873.57    343.07837    29.968335 
149720000    302.55872    347.28435    286.39446   -116853.98    116893.08    60.889893    29.969542 
149724000    278.73144    288.89109    336.90843   -116841.48    116886.96   -48.017335    29.965183 
149728000    304.88261     436.2632    261.98356    -116894.7    116920.12    174.27963     29.96091 
149732000    281.85713    410.46546    336.20636   -116931.05    116959.25    74.259102     29.94994 
149736000     269.1753    463.18712    314.16321   -116951.99    116994.37    149.02391    29.953411 
149740000    297.41108    395.69083    318.30677   -116971.86    116999.04    77.384063    29.956325 
149744000    288.12968    211.22206    624.69694   -116991.89     117040.2   -413.47488    29.957114 
149748000    284.09584    418.06445    313.73452   -117022.01    117066.59    104.32993    29.957629 
149752000    271.18293    574.39611    468.08675   -117061.11    117111.51    106.30936    29.953523 
149756000    290.38408     216.1683    315.57677   -117092.87     117143.8    -99.40847    29.956344 
149760000    297.36442    344.27758     299.6577   -117150.01     117186.8    44.619881    29.956227 
149764000    294.08234    218.06567    331.67184   -117187.34     117228.5   -113.60617    29.947742 
149768000    286.54458    355.70061    426.62947   -117220.54    117276.72   -70.928854    29.947838 
149772000      279.669    294.30793    488.46198   -117250.99    117321.69   -194.15405     29.95381 
149776000    309.00982    342.66472     385.2488   -117304.44    117331.75   -42.584079     29.95554 
149780000    313.57684    312.05207    532.37064   -117342.01    117382.15   -220.31857    29.952514 
149784000    302.32651    306.21614    391.21185   -117392.93    117438.07   -84.995709    29.954398 
149788000    292.41136    262.38915    276.62555   -117455.22    117494.57   -14.236402    29.957228 
149792000    273.34954    257.32453     468.2142   -117474.91    117530.77   -210.88967     29.94922 
149796000    281.29544    497.03465    414.92316   -117526.31    117561.84    82.111485    29.953294 
149800000    279.95176    303.84659    335.14423   -117549.96    117601.38   -31.297649    29.941077 
149804000    308.36811     400.7699    208.19715   -117597.02     117623.3    192.57275    29.945976 
149808000    306.80242    330.13845    482.04119   -117637.89    117644.96   -151.90275    29.951841 
149812000    289.06244    222.33137    189.38369   -117653.84    117692.19     32.94768    29.953463 
149816000    274.54508    297.47865    257.89407   -117720.04     117757.9    39.584578    29.961569 
149820000    296.16219    384.83414    384.86821   -117765.08    117799.46  -0.03407669    29.965666 
149824000    294.68727    525.95029    422.89624   -117778.57    117830.94    103.05405    29.964673 
149828000    269.05963    343.66016    292.53414    -117819.9    117873.94    51.126018    29.965152 
149832000    289.63759     196.7631    237.27979    -117878.5    117930.45   -40.516697    29.960739 
149836000    299.62119    402.40571    360.71338   -117923.95    117963.37    41.692331    29.960454 
149840000    267.60145    516.16958     217.9465   -117924.53    117974.96    298.22307    29.960506 
149844000    297.26264    437.30965    331.81494   -117960.05    118002.11    105.49471    29.964753 
149848000    270.97802    296.37958    554.16926   -118004.54    118067.82   -257.78968    29.958312 
149852000    260.78692    169.25027    500.84492   -118027.27    118103.93   -331.59465    29.953556 
149856000    292.98966    245.98303     280.1217   -118090.23    118150.97   -34.138665    29.947719 
149860000    293.46331    421.53891    320.42474   -118128.72    118179.91    101.11417    29.931568 
149864000    270.72965    277.46361    327.92031    -118152.4    118219.88   -50.456697    29.936859 
149868000    283.19419     377.5344    506.46867   -118183.77    118230.52   -128.93427    29.937183 
149872000    266.46824    535.95343    357.08695   -118211.72    118266.57    178.86648    29.937312 
149876000    313.17199    405.02899    328.19809   -118254.99    118291.65    76.830906    29.955231 
149880000    316.03987    326.67416    381.70621   -118334.68    118369.83   -55.032042    29.959878 
149884000    275.29336    313.57339    315.85637   -118388.24     118435.2    -2.282976    29.946895 
149888000    278.75013     351.3201    355.15597   -118410.23    118468.51   -3.8358751    29.954233 
149892000    308.74378    366.43101    159.04527   -118478.13    118526.86    207.38574    29.959771 
149896000    258.41103    407.40883    324.76412   -118528.78    118581.88    82.644717    29.952443 
149900000    249.14813     147.7946    210.53608   -118574.88    118624.93   -62.741485    29.953636 
149904000       322.89    496.86429    255.40235   -118631.59    118679.96    241.46194    29.963575 
149908000    303.95951    318.53768    111.00314   -118650.62    118696.23    207.53454    29.957818 
149912000    274.75214    520.12386    319.37415   -118696.77    118749.92    200.74971    29.949649 
149916000    265.28554    272.43133    280.39906   -118706.56    118770.29   -7.9677353    29.944163 
149920000    310.18181    455.42017    439.76819   -118764.52    118770.88    15.651975    29.939297 
149924000    288.43402    343.87489    333.73193   -118767.42    118802.58     10.14296    29.936072 
149928000     274.3951    504.93468    214.33609   -118797.39    118860.01    290.59859    29.931586 
149932000    331.39896    411.60798    469.81265   -118889.46    118906.76    -58.20467    29.925323 
149936000    282.22973    349.13984    391.49382   -118947.96    118975.71   -42.353984    29.939491 
149940000     263.1975    427.39474    223.69506   -118927.12    118994.05    203.69968    29.937346 
149944000    268.18597    427.92891    213.06049   -118975.28    119024.71    214.86842    29.945399 
149948000    250.34439    269.30066    411.99106   -118989.22    119068.99    -142.6904    29.944544 
149952000    292.05013    314.59113    406.39171    -119038.6    119091.62   -91.800587    29.945083 
149956000    276.38473    271.70526    220.15365   -119042.46    119109.56    51.551612    29.942128 
149960000    291.83829    325.12766    411.93607   -119084.16    119127.53   -86.808408    29.939198 
149964000    275.12013    354.86124    373.35796   -119098.45    119135.61   -18.496725    29.935736 
149968000    311.86052    532.54128    405.74917   -119129.23    119172.51    126.79211    29.923108 
149972000     280.1722    170.54529    142.80378   -119120.72    119151.18      27.7415    29.933975 
149976000    284.60471    388.54563    340.37795   -119153.73    119207.57    48.167688    29.923318 
149980000     284.0366    369.77711     447.9973   -119178.32    119221.77   -78.220189     29.91743 
149984000    289.63835    150.24067    265.39114   -119244.39    119291.04   -115.15046    29.921652 
149988000    273.89759     368.5483    314.94154   -119291.05    119332.84    53.606764    29.937396 
149992000     306.2407    528.14708    325.74945   -119376.11     119389.3    202.39763    29.936776 
149996000    278.69046    327.59808    352.86549   -119401.31    119441.03    -25.26741    29.933038 
150000000    312.47851    300.32227    383.77611   -119418.23    119455.84   -83.453843    29.938134 
150004000    287.89946     548.7318    392.61697   -119452.79     119493.5    156.11483    29.943769 
150008000     291.2027    442.76905    354.87741    -119480.3    119536.41    87.891645    29.946477 
150012000    306.93798    316.30723     187.8722   -119535.57    119581.57    128.43503    29.947655 
150016000    307.20721     360.1896    221.37921   -119576.75    119612.78    138.81039     29.94827 
150020000     274.6696     264.9362    538.31523   -119599.63    119648.27   -273.37902    29.938557 
150024000     266.8963    297.47562    291.03495   -119638.91     119676.8    6.4406705    29.927384 
150028000     296.2764     436.4666    423.36112   -119670.09    119696.05    13.105482    29.924442 
150032000    323.71005    445.38967    244.61608   -119714.16     119740.8     200.7736    29.918964 
150036000    286.37116     351.9506     300.5873   -119745.46    119775.28    51.363295    29.922919 
150040000    292.06952    276.13069    354.08418   -119777.98    119807.51    -77.95349    29.915454 
150044000    312.28421    652.98484    362.52907   -119789.11    119836.03    290.45576    29.925398 
150048000    306.03202    422.45448    280.87235   -119845.35    119883.24    141.58213    29.913492 
150052000    278.16026    379.76974    392.10228   -119856.67    119895.93   -12.332544    29.925286 
150056000    279.12272     204.5541     472.0334   -119878.29    119936.73    -267.4793    29.933237 
150060000    257.75634    605.74536    253.06839      -119927    119972.36    352.67697    29.933347 
150064000    275.00621    281.83356    310.89964   -119957.32    119999.81   -29.066079    29.929521 
150068000     280.0995    496.33504    415.25269   -120000.14    120037.04    81.082354    29.925267 
150072000    302.97736    327.45129    464.62811   -120053.45    120094.71   -137.17682    29.923755 
150076000    275.98898    282.15865    317.05978   -120115.04    120171.61   -34.901126    29.920365 
150080000    305.76901    281.24595    237.98339   -120110.94    120150.17    43.262556    29.914901 
150084000    311.92642    386.16284    222.47311    -120187.7     120215.1    163.68973    29.911667 
150088000    312.69206    602.72081    374.13694   -120198.38    120225.45    228.58388    29.911438 
150092000     268.9281    422.61434    139.82239   -120223.38     120295.5    282.79196    29.908862 
150096000    289.43817     328.4861    336.25634   -120267.75    120313.56   -7.7702424    29.903326 
150100000    267.59479    319.47371    392.99195   -120289.27    120360.98   -73.518239    29.906169 
150104000    259.99991    356.41483    213.85895   -120318.81    120401.86    142.55588    29.902776 
150108000    281.45254    382.98991    348.82743   -120372.71    120417.29     34.16248    29.899267 
150112000    284.36641    316.89044    359.89028   -120398.98    120446.18   -42.999843    29.894931 
150116000     272.3391    356.80145    252.64099   -120427.25    120490.37    104.16047    29.894363 
150120000    283.17643    373.05136    542.64299   -120481.01    120516.45   -169.59163     29.89179 
150124000     283.6243    288.13109    631.67104   -120489.96    120548.78   -343.53994    29.889644 
150128000    247.87866    299.29163       360.65   -120513.17    120586.94   -61.358367    29.884148 
150132000    277.41245    257.93789    330.17636   -120557.64    120615.02   -72.238471    29.874513 
150136000    281.77557    536.47396    262.85356   -120610.82       120678     273.6204     29.87364 
150140000     256.4718    334.75544    266.67775   -120658.14    120709.38    68.077692    29.876248 
150144000    284.08186    288.28559    258.14556   -120702.58    120758.33    30.140033     29.87814 
150148000    281.73676    327.35156    308.66735   -120732.03     120781.6    18.684216    29.877923 
150152000    311.59665    462.45044    546.34907   -120798.04    120837.82   -83.898633    29.877481 
150156000    287.55717    347.60844    462.55691   -120841.25    120878.38   -114.94847    29.886696 
150160000    286.41498    335.19732    268.13896   -120879.59    120916.66    67.058355     29.89403 
150164000    270.45262    276.03973    347.63388   -120905.85    120970.38   -71.594149    29.892804 
150168000    261.59792    168.08267    334.78154   -120962.01    121014.88   -166.69887     29.88859 
150172000    271.00446    284.74968    355.75197   -120987.94    121029.83   -71.002289     29.87418 
150176000    310.38712    516.38989    218.56574   -121018.58    121034.82    297.82415    29.868307 
150180000    256.62668    179.19447    274.15685   -121058.08    121115.14   -94.962382    29.869541 
150184000    269.24471    257.40406    267.43515   -121103.38    121146.34   -10.031089    29.872055 
150188000    267.19181    383.31391    264.38607   -121124.48    121183.26    118.92783     29.87346 
150192000    274.71077    450.47383    238.38584   -121208.14    121252.34    212.08799    29.885858 
150196000    319.69468    304.54693    338.98794   -121249.87    121295.52   -34.441009    29.883311 
150200000    275.50348    490.89928     222.2933   -121284.34    121332.35    268.60598    29.882033 
150204000    308.76048    640.23187    548.03914   -121321.51    121340.04    92.192731    29.871547 
150208000    298.18587    302.20286    338.46905   -121337.17    121380.19   -36.266187    29.882224 
150212000    271.07396    290.15739    375.52082   -121359.65    121423.12   -85.363428    29.881247 
150216000    300.67598    261.18211    321.76977   -121384.27    121426.69   -60.587665    29.880949 
150220000    260.91444     381.0617    331.94441   -121400.25     121449.9    49.117286    29.881752 
150224000    293.10397    204.62424    366.14195   -121422.93    121473.97   -161.51771    29.882169 
150228000     295.2841    317.14771    359.65328   -121464.41    121501.03   -42.505571    29.879849 
150232000    281.10783    346.65498    283.52163   -121501.87     121547.7    63.133353    29.876618 
150236000    269.87545    371.01206     375.5625   -121521.66    121582.33     -4.55044    29.869106 
150240000    288.02779    280.11739    264.74979   -121546.32    121585.36    15.367592    29.860673 
150244000     283.5003    480.27574    453.72633   -121574.15     121613.7    26.549415     29.84664 
150248000    293.86261    367.13049    340.94783   -121567.63    121610.69    26.182664    29.856625 
150252000    260.56808    316.06828    409.86079   -121567.07    121636.16   -93.792508    29.847004 
150256000    272.13008    346.08934    219.02691   -121592.94    121658.05    127.06244    29.849126 
150260000    261.37153    235.27682    301.12612   -121631.98    121694.27   -65.849295    29.853169 
150264000    260.41845    316.79556     217.7399   -121658.32    121729.47     99.05566    29.844113 
150268000     280.2497    203.76738     271.0095   -121694.63    121716.43   -67.242124    29.851799 
150272000    264.88874    552.25201    225.69112   -121727.58    121769.83    326.56089    29.865408 
150276000    288.64276    426.87568    190.20434   -121770.74    121821.99    236.67134    29.859252 
150280000    304.10161    201.35032    246.67811   -121815.45    121855.66   -45.327784    29.853408 
150284000    306.16801     298.5126     411.8969   -121846.98    121884.98   -113.38429    29.843307 
150288000    269.60586    354.27663    213.76713   -121878.61    121943.75     140.5095    29.845564 
150292000       299.51    296.95686    252.96623   -121959.86    121997.82    43.990628    29.846716 
150296000    266.78466    353.42239    319.21256   -122041.58    122086.42    34.209824    29.848812 
150300000    295.56122    449.86058    363.37252   -122098.93    122135.52    86.488063     29.85736 
150304000    284.16002      304.564    443.33236   -122110.23    122161.72   -138.76836    29.863298 
150308000    299.78801    264.09583    338.96901    -122164.5    122200.76   -74.873177    29.871898 
150312000    270.16797    372.37996    248.35463   -122222.76    122268.66    124.02532     29.86629 
150316000    278.61689    608.50297    163.05327   -122283.11       122319     445.4497    29.863472 
150320000    291.08247    346.93756    317.88106   -122332.11    122374.73    29.056495    29.848144 
150324000    287.01183     394.3331    266.29817   -122353.04    122397.38    128.03493    29.854983 
150328000    266.67933     465.4744    499.21802   -122384.35     122438.2   -33.743624    29.855613 
150332000    300.36903    353.16455     409.1656   -122412.34    122455.84   -56.001057    29.860353 
150336000    272.54184    461.43034    270.57211   -122453.79    122517.92    190.85824    29.855075 
150340000    281.94125    420.72764    240.22058   -122537.52    122591.97    180.50707    29.859184 
150344000    262.39196    249.34408    176.68402   -122565.68    122624.78    72.660057     29.85466 
150348000    281.30047    304.09278    466.24274   -122589.95    122652.35   -162.14996    29.850167 
150352000    270.29524    356.71283    393.13186   -122611.36     122677.9   -36.419032    29.848278 
150356000    296.01783    321.41228    276.43645   -122652.75    122705.76     44.97583    29.853194 
150360000    271.62109     319.3687      442.819    -122686.1    122734.52   -123.45031    29.857247 
150364000    283.08829     312.3929    285.18502   -122736.21    122780.14    27.207887    29.851981 
150368000    292.36396    369.52104    270.46859   -122776.67    122829.31    99.052447    29.845687 
150372000    286.62904     303.4425    263.72833   -122815.61    122860.98    39.714165    29.834947 
150376000    300.53144    295.35669    408.90014   -122853.34     122898.6   -113.54345    29.839996 
150380000    281.21804    453.15077    330.92894   -122886.92    122944.32    122.22183    29.831509 
150384000    284.68948    244.42412    488.81436   -122927.32    122966.15   -244.39024    29.831805 
150388000     271.1182    276.69434    261.80629   -122947.55    122994.32    14.888043    29.827566 
150392000    297.70739    404.56588    329.50795   -122989.04     123036.7    75.057929    29.825207 
150396000    279.38863    441.62261    252.66244   -123009.72    123068.59    188.96017    29.841208 
150400000    277.62988    618.13032    302.30349   -123032.33    123090.75    315.82683    29.854523 
150404000    266.00933    237.01256    362.34909   -123075.76    123135.81   -125.33652     29.85104 
150408000    279.99058      304.013    386.22938   -123110.82    123167.72    -82.21638    29.845055 
150412000    274.52729    398.09839    281.89205    -123161.7    123224.09    116.20635    29.843742 
150416000    295.97339    422.89714    310.97068   -123187.03    123239.25    111.92645    29.849436 
150420000    273.68914     209.3887    199.45545    -123203.5    123265.89    9.9332517     29.84813 
150424000    268.51617    360.12903     226.5874   -123215.35    123280.06    133.54163    29.846658 
150428000    255.79443    324.88273    187.88206   -123255.73    123323.96    137.00067    29.846278 
150432000    247.92089    289.49171      335.183   -123284.88    123350.94   -45.691287    29.845741 
150436000    280.47198     303.7388    214.22234   -123346.88    123391.18    89.516462    29.848381 
150440000    311.38687    199.56073     320.7909   -123386.53    123429.66   -121.23017    29.841935 
150444000    311.99615     392.3134    390.64507   -123421.05    123458.65     1.668322    29.847134 
150448000    318.04556    375.72266    490.95237   -123442.55    123482.16   -115.22972    29.850788 
150452000    289.77936    394.50648    406.53732   -123474.62    123502.58   -12.030841    29.852275 
150456000    313.39637    313.04458    393.21607   -123544.96     123571.7   -80.171483    29.840893 
150460000    297.89779      467.921    212.28109   -123588.51    123625.66    255.63991    29.848014 
150464000    244.13037    471.84696    218.35409    -123644.8    123684.59    253.49288    29.838563 
150468000    293.70484    515.37077    314.53292   -123679.64    123707.45    200.83785    29.838185 
150472000    288.84271    548.99374    355.84083   -123703.13    123756.05    193.15291    29.835462 
150476000     276.4207    403.53456    465.86081   -123740.61    123802.45   -62.326249    29.835218 
150480000     267.1703    295.47297      214.846   -123763.41    123816.95    80.626975    29.837567 
150484000    291.06916    298.77277    316.63713   -123806.64    123858.36   -17.864359    29.838497 
150488000    277.91614    330.32015    334.00027   -123849.06    123907.65   -3.6801214    29.844399 
150492000    290.39562    259.73191    202.20868   -123879.87    123915.21     57.52323    29.847219 
150496000     315.7816    351.94957    158.19865   -123936.39    123956.93    193.75092    29.847763 
150500000    294.58618    381.07049    364.22585   -123965.83     123994.6     16.84464    29.856648 
150504000    304.90213    560.57167    449.24456   -123997.92     124039.7     111.3271    29.858175 
150508000     271.1104    373.72914    325.59827   -124051.26    124102.18    48.130875    29.857052 
150512000    294.98817    354.71071    314.28038   -124102.59    124136.23     40.43033    29.862398 
150516000    256.63466    329.78204    488.27742   -124161.73    124241.66   -158.49538    29.867245 
150520000    256.45796    413.78603    312.97847   -124186.45    124262.06    100.80755    29.866781 
150524000      307.718    332.66137    379.82588   -124240.84    124285.08   -47.164505    29.863305 
150528000    260.93187    414.92737    222.73662   -124265.53    124323.43    192.19075    29.874497 
150532000    282.11709     225.2304    393.74946   -124314.01    124358.72   -168.51906    29.878895 
150536000    269.86683    482.80345     231.6338   -124343.22    124417.98    251.16964    29.871975 
150540000    283.66198    420.93493    322.78729   -124378.79    124427.26    98.147641    29.868207 
150544000    277.63124    273.03027    412.70222   -124418.56    124460.31   -139.67195     29.86858 
150548000    296.84375    317.45769     367.8517   -124478.11    124507.57   -50.394009    29.859257 
150552000    278.53639    232.19391    327.90981   -124503.65     124554.5     -95.7159    29.847909 
150556000    271.84056    229.19638    360.46219    -124530.5    124588.73   -131.26581    29.840437 
150560000    253.89715    213.99571    318.84822   -124533.78    124602.96   -104.85251    29.844674 
150564000    258.34252    297.58273    323.58381   -124559.98    124621.04   -26.001074    29.838256 
150568000    293.86038    173.54775    393.05268   -124584.34    124628.83   -219.50494    29.831692 
150572000    279.10523     231.3438    301.84324   -124619.74    124658.41   -70.499436    29.828519 
150576000    302.00776    334.64529    310.21667   -124651.85    124698.36    24.428616    29.839708 
150580000    275.28737    425.17277    279.96498   -124700.11    124757.86    145.20779    29.830683 
150584000    270.01551    361.44351    420.86973   -124735.12    124804.45   -59.426211    29.835082 
150588000    286.52795    142.04784    579.80797   -124798.08    124840.98   -437.76014     29.82451 
150592000     310.7323    442.91595     331.7228   -124855.62    124894.31    111.19314    29.827466 
150596000    292.83224    590.82305    220.61853   -124865.06    124920.39    370.20452    29.833819 
150600000    263.07272    232.22132    217.97399   -124868.24    124936.39    14.247328    29.831234 
150604000    241.84306    140.65935    431.81836   -124884.01    124962.22   -291.15901    29.828387 
150608000    287.28403    477.30845    456.05532   -124943.68     124986.6    21.253127    29.827175 
150612000     309.5065    451.97096    187.92836   -124987.89    125026.05     264.0426     29.82836 
150616000    269.83675    247.12788    202.69029   -125017.96    125075.02    44.437588    29.825445 
150620000     310.9879    428.29686    354.75395   -125086.19    125116.75    73.542916    29.821366 
150624000    280.61102    324.40284    416.98253   -125103.81    125164.22   -92.579687    29.820736 
150628000    280.57124    305.22413    195.18828   -125155.37    125205.44    110.03585      29.8307 
150632000      242.808    228.04963    268.62201   -125172.98    125246.14   -40.572383    29.833725 
150636000    247.54636    409.30622       222.07   -125191.87    125266.77    187.23623    29.828338 
150640000    299.26021    185.07242    411.89296   -125250.42     125282.9   -226.82054    29.826778 
150644000    279.58525    358.76877    398.14589   -125239.83    125310.34   -39.377121    29.823262 
150648000     283.2446    329.26599    403.94745   -125275.32    125345.87   -74.681458    29.824221 
150652000    273.17723    286.89518    437.81345      -125344    125392.53   -150.91827    29.829119 
150656000    302.94614    329.03687    347.02213   -125375.02    125419.32   -17.985253    29.835401 
150660000    295.32827    649.68904     271.8871   -125395.32    125430.45    377.80194    29.829938 
150664000    274.69906     224.6055    420.20072   -125407.45    125465.29   -195.59522    29.830992 
150668000    291.87372    246.59161    209.13691   -125457.46    125495.93    37.454703    29.834488 
150672000    265.23382    272.77292    158.58841   -125501.94    125532.12    114.18451    29.826584 
150676000    253.47814    272.51485    211.12234   -125526.21    125589.66    61.392513    29.827334 
150680000    292.75548    500.38769    190.35194   -125555.57    125613.53    310.03576    29.838668 
150684000    278.58455     615.8301    462.07437   -125565.72    125609.04    153.75573    29.835051 
150688000    277.54062    314.93703     276.9559    -125573.8    125630.62    37.981129     29.82267 
150692000    294.18194    358.51566     345.5584   -125621.25    125653.24    12.957266    29.824001 
150696000     271.9809    439.83185     390.5424   -125656.41    125713.18    49.289457     29.82606 
150700000    283.24757    380.83546    395.72162   -125679.05     125729.7   -14.886153    29.823758 
150704000    257.59231     357.8172    265.11398   -125672.02     125743.1    92.703213    29.831393 
150708000    273.43173    240.74121    461.83512   -125712.98    125770.85   -221.09391    29.826824 
150712000    285.66332    505.28434    276.65991   -125728.61    125795.52    228.62443    29.836665 
150716000    271.96621    296.83922    404.75179   -125774.77    125821.91   -107.91257    29.837218 
150720000    248.19775    365.49097    435.45407    -125802.9    125886.42   -69.963092    29.835805 
150724000    300.55704    409.59379    436.38153   -125836.81    125875.95   -26.787743    29.836243 
150728000    299.42693    289.03867    612.32912   -125859.21    125895.06   -323.29045    29.834262 
150732000    267.66594    283.09278     539.2849   -125871.55    125921.18   -256.19212     29.83136 
150736000    307.13853    463.20385    440.03628    -125937.2    125967.04    23.167573    29.836225 
150740000    270.52835    339.73831    442.43773   -125980.78    126031.77   -102.69941    29.837168 
150744000    271.50253    349.49105    352.74496    -126031.5     126078.2   -3.2539137    29.844273 
150748000     281.5767    353.94309     374.4034    -126066.7    126110.62   -20.460314    29.849242 
150752000    258.02349    418.75551    297.82147   -126082.24    126159.09    120.93404    29.859767 
150756000    295.06997    315.35735    513.80123    -126124.1    126179.67   -198.44388    29.845635 
150760000    284.12399    258.53225    385.45397   -126142.47    126205.16   -126.92172    29.849056 
150764000    262.09257    345.07886    272.00676   -126187.94    126244.48    73.072109    29.851117 
150768000    259.22118    223.58075    422.39581   -126208.78    126271.36   -198.81506    29.837572 
150772000    256.47093    230.13186    257.38607   -126211.58    126293.12   -27.254216    29.841745 
150776000    260.36289    324.47241    259.35355    -126236.4    126303.13    65.118856    29.835528 
150780000    262.55453    395.63421    311.83204   -126292.47    126355.25    83.802163     29.83525 
150784000    284.14032    321.41745    261.13108   -126340.72    126397.51    60.286374    29.840439 
150788000    279.81359     205.7693    225.03971   -126383.67    126435.61   -19.270413    29.838853 
150792000    284.76673    234.78565    243.98232   -126427.92    126484.29    -9.196669     29.83588 
150796000    318.40244     293.8779    323.75298   -126476.24     126496.4   -29.875078    29.825286 
150800000     281.2822    382.57717    380.07665   -126493.38    126546.71    2.5005222    29.819879 
150804000    241.16306    255.30017    235.79016   -126529.11    126606.94    19.510013    29.812878 
150808000    282.06572    460.54369     137.8528   -126563.69    126617.06    322.69089    29.818853 
150812000    267.33451    311.78599    351.77541   -126598.89    126655.23   -39.989423    29.826426 
150816000    277.35045    405.98329    249.42677   -126611.19    126662.78    156.55651     29.81552 
150820000    317.33837    297.47637    357.26292   -126650.84    126684.23   -59.786552    29.817462 
150824000    281.36439    208.15297    321.09474   -126665.69    126704.13   -112.94177    29.822721 
150828000    282.49781    452.79068    190.36347      -126709    126748.84    262.42721    29.821122 
150832000     287.0464    331.19245    373.99056   -126734.35    126779.84   -42.798113    29.823109 
150836000    308.57787    259.25222    189.81497   -126788.28    126826.67    69.437244    29.825408 
150840000    286.33898    471.30395    346.87596   -126858.89    126895.78    124.42799    29.826061 
150844000    327.81711    415.12897    500.58954   -126923.44    126932.64   -85.460568    29.823906 
150848000    268.48702     287.6647    258.19401   -126919.26    126982.86    29.470697    29.822947 
150852000    302.09581    445.12978    325.46606   -126960.81    126994.97    119.66372    29.826659 
150856000    275.57348    259.23516    255.27659    -126996.2     127043.6    3.9585738    29.823538 
150860000    285.76988    182.86084    314.38459   -127026.89    127076.84   -131.52375    29.822894 
150864000    295.30349    380.26016    382.41981   -127060.35    127104.88   -2.1596431    29.811005 
150868000    299.08206    600.98709    200.04705   -127103.75    127113.77    400.94004    29.817325 
150872000    292.03513    275.12028    320.66792   -127114.98    127159.52   -45.547645    29.825536 
150876000    292.00372    628.11568     289.9096    -127152.1    127191.21    338.20608    29.817491 
150880000    261.91616    331.38798    333.70653   -127145.05     127220.1   -2.3185576    29.825833 
150884000    253.63397    475.05529    230.80482   -127190.17    127261.46    244.25047    29.829637 
150888000    288.76503    342.71126    278.61216   -127238.62    127288.12    64.099108    29.836074 
150892000    304.13491    358.13914    332.10377    -127263.8    127293.85    26.035376    29.840909 
150896000    264.68788    395.11368    332.68254   -127278.71     127343.1    62.431139    29.839922 
150900000    296.50039     272.2906    219.13343   -127347.11    127391.68    53.157164    29.835891 
150904000    286.20475     425.2964    383.38704   -127354.55    127401.71    41.909365     29.83697 
150908000    287.26878     289.9261     376.4241   -127404.96    127457.13   -86.497999    29.836119 
150912000    264.20617    132.16488    248.67241   -127425.09    127491.79   -116.50753    29.846296 
150916000    265.43547    427.18151    302.64337   -127474.66    127523.76    124.53814    29.850246 
150920000    314.66842    427.01454    408.90619   -127522.21    127556.69    18.108347    29.850551 
150924000    275.57061     448.9655    232.62735   -127548.38    127613.16    216.33815     29.86658 
150928000    277.81182    427.90748    254.72753   -127589.91    127633.64    173.17996    29.872756 
150932000    298.04048    375.96404     343.0487   -127656.07    127702.37    32.915337    29.876851 
150936000    288.94296     447.8512    195.96721   -127708.83    127765.37    251.88398    29.875424 
150940000     273.3824    417.13749    271.63048   -127740.73    127801.49    145.50701    29.876036 
150944000    293.47473    387.10859    312.22847   -127790.45    127832.78    74.880123    29.870619 
150948000    281.62241    557.49398    504.63153   -127857.72    127906.99    52.862453    29.873699 
150952000    281.28688    458.38763    476.88796   -127881.31    127926.74   -18.500332    29.869681 
150956000    281.65252    266.32009    360.20979   -127913.95    127949.55   -93.889708    29.862241 
150960000    293.03449    385.80362     348.8906   -127919.32    127958.54    36.913019    29.858347 
150964000    291.75995    433.38336    238.21395   -127968.62    128007.24    195.16942    29.852168 
150968000    281.92036    327.52722    296.36751   -127994.04    128047.42    31.159709    29.844666 
150972000    314.99114    541.79872    370.61633   -128010.71    128044.63    171.18239    29.855054 
150976000    294.36361    386.24057    263.86776    -128017.2     128071.3    122.37282    29.857012 
150980000    304.93881    373.13723    414.49324   -128053.51    128091.82    -41.35601    29.857819 
150984000    268.96787    454.67429    318.64665   -128057.73    128125.07    136.02764    29.859399 
150988000    293.06155    556.69978    271.24165   -128122.13    128157.52    285.45813    29.862626 
150992000    277.39865    300.02868    331.86253    -128120.3    128186.59   -31.833848    29.857269 
150996000     280.9734    308.62208     412.3691   -128139.39    128194.45   -103.74702    29.849933 
151000000    266.25419    233.67446    399.52937   -128149.39     128205.6    -165.8549    29.853795 
151004000    280.01721    470.09983    272.98071   -128188.11    128242.36    197.11912    29.861334 
151008000    282.07119    223.62483     364.9575    -128243.4    128293.45   -141.33267     29.86187 
151012000    297.24522     295.1995    424.99161   -128279.32    128338.44   -129.79211    29.857275 
151016000    306.99468    364.94784    372.46804   -128294.24    128331.47   -7.5202057    29.853259 
151020000    298.91647    264.86048    314.40774   -128298.02     128336.1   -49.547259    29.851555 
151024000    292.60812    302.74339    220.73865   -128331.21    128377.93    82.004738    29.855591 
151028000    286.00953    274.48049    135.84292   -128385.23     128424.7    138.63757    29.853768 
151032000    266.42925    340.56921    323.78988   -128415.18    128485.33    16.779328    29.850762 
151036000    300.99736    299.25217    307.85238   -128477.23    128504.58   -8.6002154    29.850203 
151040000    278.68245    365.60228    397.36491   -128477.16    128539.55   -31.762625     29.85565 
151044000    273.30445    351.82608    342.17805   -128483.92    128546.56    9.6480267    29.861502 
151048000    278.33237    495.80402    472.44312   -128513.84    128567.44    23.360903     29.86356 
151052000    263.14964    215.04525    379.58379   -128515.06     128594.8   -164.53854    29.862153 
151056000    265.39986    164.05026    419.52688   -128575.55       128635   -255.47662    29.860554 
151060000    292.94911    305.86005    448.20326   -128609.83     128658.8   -142.34321    29.849594 
151064000    279.27204    470.86609    446.33186   -128623.26    128671.82    24.534239    29.845309 
151068000    312.58858    347.28776    355.35588   -128701.22    128744.19   -8.0681259     29.84287 
151072000     250.4914    404.09568    213.47039   -128724.23    128776.47    190.62529    29.847312 
151076000     336.4685    370.93964    527.18829   -128747.32    128770.93   -156.24865    29.844282 
151080000    293.82516    261.86562    274.53206   -128771.95    128809.27   -12.666442    29.842913 
151084000    276.65786     415.5139    329.20748   -128819.41    128863.28    86.306425    29.845341 
151088000    287.42439    560.91894     286.1952   -128851.67    128914.85    274.72375    29.850636 
151092000    293.07383    627.11054    475.50346   -128899.77    128938.92    151.60708    29.850654 
151096000    262.03088    443.27274    450.89997   -128929.56    128977.52   -7.6272292    29.857266 
151100000    285.25752    398.90443    492.83433   -128933.66    128999.57   -93.929898    29.851973 
151104000     269.7842    290.36102    350.40144   -128970.94    129044.85   -60.040421    29.848259 
151108000    245.82533    205.03551    413.28835      -129014     129084.1   -208.25284    29.851053 
151112000    258.64043    345.11222    258.10247   -129040.97    129132.13    87.009745    29.851269 
151116000    279.77454    448.51437     324.1098   -129114.01    129152.87    124.40457    29.868375 
151120000    274.36858    320.77389    237.97113   -129130.67    129176.77    82.802768     29.86649 
151124000    276.43869    367.90005    297.38521   -129180.21    129241.32    70.514832    29.864728 
151128000    270.54371    251.80583    307.40752   -129222.08    129283.25   -55.601694    29.867365 
151132000    249.11536    360.22653    328.31892   -129259.46    129324.96     31.90761    29.871155 
151136000    296.31028    380.63037    255.45887   -129335.48    129380.06     125.1715    29.872992 
151140000     254.8863    336.68118    258.65501   -129386.58    129453.73    78.026165     29.86496 
151144000    267.20264     278.5306    212.39034    -129422.1    129487.61    66.140255    29.865765 
151148000    274.23027    344.38413    250.24153   -129467.41    129535.46    94.142601    29.859192 
151152000    283.88198    320.46614    350.04596    -129513.2    129563.37    -29.57982    29.860388 
151156000    288.18611    225.34884    260.18324   -129532.68     129578.4   -34.834396    29.860785 
151160000    302.85006    486.75627    376.53684   -129575.26    129621.84    110.21943    29.861033 
151164000    273.05047      349.584    374.65174   -129591.61    129625.73   -25.067735    29.873783 
151168000    287.10375    391.06945    303.01967   -129645.76    129689.88    88.049777    29.864139 
151172000    256.63492    357.64038     385.0563   -129651.35    129721.14   -27.415921    29.864285 
151176000    272.90996    304.79658    374.63202   -129685.59    129750.45   -69.835445    29.867786 
151180000    277.95586    250.19322    265.69979   -129734.31     129803.3   -15.506568      29.8547 
151184000    297.57065     529.5066    505.12502   -129776.54    129827.53    24.381589    29.848722 
151188000    300.64766    472.65497    347.25302   -129816.05    129858.79    125.40195    29.843163 
151192000    311.52627    379.22591    233.49312   -129874.51    129914.78    145.73279    29.839398 
151196000    264.71025    291.40133    190.19531   -129891.24    129958.41    101.20602    29.836901 
151200000    260.86357    310.78763    343.46604   -129933.82    129975.53   -32.678414     29.82628 
151204000    267.58717    237.47026    332.41355   -129967.73    130017.02   -94.943292    29.825808 
151208000    283.95895    512.40307    222.73235   -129990.45    130032.64    289.67072    29.830602 
151212000    341.33324    370.27766    288.50161   -130020.16    130058.71    81.776048    29.822027 
151216000    263.83373    321.62987    312.36482      -130033    130083.11    9.2650547    29.832981 
151220000    266.09223    397.18248    309.40529   -130041.85    130098.16    87.777188    29.822081 
151224000    300.72424    282.32773    304.13823   -130086.96    130136.24   -21.810504    29.826626 
151228000    288.59286    336.17848    201.93572   -130116.21    130157.71    134.24276    29.830922 
151232000    302.71117    262.01976    347.08959   -130156.64    130188.38   -85.069824    29.836488 
151236000    294.75111    343.51707    278.06057   -130205.41    130249.98    65.456493    29.837586 
151240000    287.42531    369.02696    235.14557   -130223.05    130279.54    133.88139    29.833465 
151244000    292.00026    346.99241     447.9115   -130253.78    130287.81   -100.91909    29.836757 
151248000     261.0268    359.30036    454.96928    -130264.6    130334.33   -95.668926    29.833906 
151252000    290.49452    372.57561    200.16246    -130329.4    130359.96    172.41315    29.842952 
151256000    316.18263    237.35176    547.00355   -130352.45    130390.96   -309.65179    29.839718 
151260000    290.40938     291.0448    271.34444   -130361.49    130409.38    19.700358    29.845119 
151264000    281.87692    355.32857    422.11657    -130388.7    130448.06   -66.788001    29.850546 
151268000     281.8353    221.84713    184.02459   -130418.67    130462.36    37.822542    29.844544 
151272000    302.76023    315.50655    285.15168   -130469.21    130503.18    30.354871    29.839438 
151276000    275.39365    228.02793    159.44179   -130512.25    130566.19    68.586133    29.838355 
151280000     298.8873    513.59537    203.48286   -130536.83    130576.94    310.11252    29.842894 
151284000    301.64845    390.21445     452.7065    -130571.8     130623.4   -62.492048    29.836012 
151288000    312.30564    604.03936    243.43863   -130574.89    130609.47    360.60073    29.843657 
151292000    278.49548    291.95817    358.00812   -130595.27    130635.45   -66.049949    29.844312 
151296000    304.44372    438.76692    308.16165    -130613.6    130655.88    130.60527    29.837973 
151300000    278.42334    325.24112    224.62818   -130638.39    130686.71    100.61293    29.827527 
151304000    261.86403    447.89905     190.0558   -130690.16    130742.69    257.84324    29.824782 
151308000    264.50011    256.99501    330.32275   -130706.11    130776.73   -73.327733    29.827175 
151312000    285.21087    290.04619    188.32177   -130711.75    130772.97    101.72442    29.835973 
151316000    276.44463    313.83899    266.37902   -130741.99    130788.44     47.45997    29.846498 
151320000    259.05129    470.31593    196.78398   -130788.93     130837.4    273.53195    29.844661 
151324000     275.9705     277.3667    350.08112   -130824.65    130879.57   -72.714425    29.840769 
151328000    291.11023    376.46238    350.42253   -130861.26    130890.78    26.039849    29.842104 
151332000    254.51073    218.97858    331.96097   -130862.93    130908.72   -112.98239    29.841039 
151336000    282.03306    318.34676    469.36417   -130867.12    130930.06   -151.01741    29.840759 
151340000    326.70891    295.46957    174.61772   -130893.81    130914.88    120.85185    29.841768 
151344000    313.54303    463.38235    151.11631   -130958.94     130992.6    312.26604    29.845874 
151348000    298.33276    247.78762    295.68859    -130978.2    131017.54   -47.900963    29.853587 
151352000    286.02468    226.17314    247.10602   -130986.74    131049.44   -20.932877    29.859233 
151356000     267.3444    532.54256     205.2226   -131024.55    131074.24    327.31995    29.864802 
151360000    326.11418    395.70305    425.27031    -131080.6    131103.89   -29.567268    29.850418 
151364000    298.69649    390.72257     457.9637   -131095.84    131138.36   -67.241131    29.848646 
151368000    280.34726    211.84668    299.27619   -131144.95    131190.59   -87.429511    29.845278 
151372000    272.43734    267.93883     384.9051   -131164.62    131229.32   -116.96628    29.850361 
151376000    281.40271    677.68719    155.15091   -131196.42    131260.35    522.53628    29.848663 
151380000    280.54849    389.79926    411.96779   -131230.83    131284.24   -22.168528    29.854364 
151384000     298.2076    466.49165    161.09666   -131276.45     131308.2    305.39499    29.856373 
151388000    308.87576     321.5302    241.75879   -131304.27    131352.33    79.771413    29.854734 
151392000    272.54648    231.01467    435.46062   -131359.73    131396.46   -204.44595     29.85277 
151396000    289.07259    356.88459    476.51935    -131405.9    131445.66   -119.63476    29.854612 
151400000    298.84123    441.93157    301.81197   -131409.92    131455.18     140.1196    29.851815 
151404000    255.41847     231.4599    253.89709   -131454.11       131510   -22.437192    29.848908 
151408000    278.18328    334.76431    356.71597   -131489.94    131536.68   -21.951656    29.833844 
151412000    293.47759    223.75831    306.00724   -131553.62    131589.78   -82.248935    29.826902 
151416000    270.56837    361.84083    139.35921   -131591.52    131660.44    222.48162    29.826363 
151420000    276.25329    311.05162    209.25248   -131628.67    131676.48    101.79913    29.824852 
151424000    283.05789     278.7069    461.37351   -131693.23    131733.84   -182.66661    29.821158 
151428000    278.07927    383.58034    313.42433   -131736.96     131791.6    70.156018    29.820769 
151432000    291.66876    451.07242    488.96305   -131746.34    131795.38   -37.890629    29.823616 
151436000    251.85446    374.51978    377.24466   -131750.87    131812.18    -2.724881    29.814885 
151440000    281.69492    387.30968    415.44911   -131756.04    131815.58   -28.139431    29.809896 
151444000    275.14306    451.59422    442.48393   -131779.69    131846.14    9.1102887    29.806059 
151448000    257.09056    381.20571    377.56337   -131831.73    131872.55    3.6423391    29.804789 
151452000    261.89597    208.31546    396.75575   -131874.32    131944.37   -188.44029    29.805153 
151456000    299.22199    393.57646    308.67521   -131921.49    131968.15    84.901248    29.801979 
151460000    252.41254    240.73321    242.96311   -131915.93    131991.39    -2.229904    29.802058 
151464000    300.81114    436.83636     264.1415   -131989.14     132042.5    172.69486    29.810978 
151468000    270.70704    377.26072    349.37828   -132017.53    132091.65    27.882447    29.805465 
151472000    284.62465    374.03661    218.23034   -132072.74    132127.67    155.80627    29.802662 
151476000    273.42358    380.14147      147.554    -132107.9    132162.73    232.58748    29.802842 
151480000    290.22279    270.77186    399.33234   -132152.18    132189.98   -128.56048    29.796735 
151484000      291.731    382.67834    484.56196    -132157.8    132219.57   -101.88362    29.790671 
151488000    251.49037    313.70021    267.98356   -132166.85     132246.5    45.716641    29.790244 
151492000    275.63974    321.31699    374.95092    -132231.1     132285.8   -53.633922    29.797593 
151496000    275.83348    262.08998    443.45147   -132244.04    132309.58   -181.36149    29.801025 
151500000    275.21769    424.72181    346.91119   -132303.83    132375.54     77.81062    29.795525 
151504000    277.87278    289.73751    363.74196   -132312.46    132389.88   -74.004446    29.789734 
151508000    263.93004    366.98969    343.98986    -132342.7     132404.5    22.999832    29.800289 
151512000    273.93492    215.86848    166.78688   -132364.47    132449.22    49.081597    29.789034 
151516000    290.68719    743.63026    330.28671   -132434.12    132478.76    413.34355    29.796543 
151520000    280.70283    273.48407    441.79549   -132468.99    132518.27   -168.31142    29.793101 
151524000    257.37613    408.38046     243.4717   -132492.48    132566.37    164.90876     29.78837 
151528000    288.18684    409.97249    196.68813   -132551.58    132604.72    213.28436    29.792895 
151532000    286.94261    525.33689    286.53962   -132549.79    132610.86    238.79727    29.781144 
151536000    269.93579    194.32807    354.67444   -132595.35    132655.67   -160.34636    29.781901 
151540000    267.37951    319.53201    406.58864   -132607.79    132664.68   -87.056631    29.784969 
151544000    302.94884    372.73325    295.80827   -132635.27    132675.28    76.924976    29.791211 
151548000      265.552    621.20394    440.86591   -132662.77    132729.42    180.33803    29.791407 
151552000    306.68308    450.76316    439.26311   -132743.66    132787.32    11.500053    29.792464 
151556000    311.75273    352.74109    406.76892   -132790.25    132829.93   -54.027825    29.792462 
151560000    264.47629    173.51794    178.44267   -132820.42    132867.04   -4.9247304    29.793107 
151564000    244.69676    246.82733    271.05944   -132844.01     132896.9   -24.232104    29.802121 
151568000    266.32286    213.38309    337.56335   -132869.37    132938.83   -124.18026    29.803478 
151572000    285.28906     322.1274    373.86589   -132918.28    132963.32   -51.738492    29.799455 
151576000    271.27904    321.69611    388.87639   -132934.69    132986.53   -67.180283     29.79101 
151580000    284.51448    469.68736    420.95281   -132995.79    133040.91     48.73455    29.793421 
151584000    273.96408    364.39742    379.64736    -133039.5    133087.76   -15.249935    29.786482 
151588000    284.45923    368.90373    358.41044   -133061.42    133119.18    10.493294     29.78749 
151592000    276.72768    375.10274    179.75854   -133109.68    133158.89     195.3442    29.799926 
151596000    309.41827    409.08796    288.26203   -133128.02    133168.63    120.82593    29.802973 
151600000    264.27958    274.88556    410.61798   -133166.92     133236.4   -135.73242    29.804934 
151604000    284.12138    193.88409    467.03778   -133207.31    133249.76   -273.15369     29.80338 
151608000    314.73759    388.05655    427.88459   -133271.33    133304.57   -39.828037    29.809828 
151612000    282.64727    450.19929    260.34839   -133274.93     133337.9     189.8509    29.817013 
151616000    282.54029    418.01978    456.98388   -133303.61    133351.82   -38.964109    29.819681 
151620000    290.31277    296.26534    554.67154   -133343.12     133393.5    -258.4062    29.814118 
151624000    276.18594    254.70019    407.25791   -133385.64    133448.71   -152.55771    29.815293 
151628000    295.45731    399.79946    349.37798   -133394.69    133438.01    50.421474    29.806931 
151632000    257.12257    285.38777    303.96593   -133432.58    133489.36   -18.578155     29.80971 
151636000    303.78781    343.15071    321.05297   -133491.22    133532.27     22.09774    29.811105 
151640000    274.05328    482.23771    225.75899   -133519.42    133577.94    256.47872    29.823426 
151644000    295.93157     380.0924     303.0239   -133545.14    133591.23    77.068498    29.825152 
151648000    273.53082    179.89242     293.2966   -133586.83    133637.48   -113.40418    29.814938 
151652000    276.18964    434.25036    175.23902   -133609.31    133675.76    259.01134    29.824127 
151656000    286.09467    530.64996    268.96732   -133631.01    133681.17    261.68264    29.828937 
151660000    247.64954    512.14424    235.39594   -133629.31    133719.51     276.7483    29.834443 
151664000     260.0574    336.53518     362.2092   -133630.96    133702.66   -25.674022    29.839347 
151668000    311.84375     606.8687    213.85874   -133651.65    133689.97    393.00996    29.849691 
151672000    309.21844     407.4971    313.31353    -133691.5    133716.94    94.183564    29.846968 
151676000    310.04223    344.25571    305.97683    -133723.7    133752.45    38.278877    29.849837 
151680000    282.43716    267.43106    474.91044   -133704.23    133747.72   -207.47937    29.845981 
151684000    322.30485    675.51227    358.19456   -133760.09    133800.87    317.31771    29.845766 
151688000    276.00471    591.32914     262.9632   -133782.09    133842.66    328.36594    29.844905 
151692000    290.12081    201.78344    281.66121   -133830.58    133869.16   -79.877766    29.838854 
151696000    319.77739    285.30981    382.93209   -133878.89    133911.97   -97.622272    29.837769 
151700000    311.00737    571.50538    242.16471   -133947.01    133975.13    329.34067    29.844286 
151704000     276.8973    437.80373    385.05499   -133958.49    134012.62    52.748741    29.850931 
151708000    301.45695    539.89385     491.9947   -134008.26    134055.73    47.899152    29.847951 
151712000    296.88009    339.21609    400.18322   -134019.43    134074.86    -60.96713    29.849805 
151716000    279.78314    472.12169    252.26981   -134056.51    134107.95    219.85188    29.851109 
151720000    288.44265    272.65074    287.22877   -134075.88    134118.55   -14.578034    29.852617 
151724000    281.66258    356.24601    271.90737   -134104.22    134140.95    84.338647    29.851339 
151728000    282.92574    454.40208    372.53277   -134151.51    134203.31    81.869303    29.843786 
151732000    302.22641    426.72386    231.26233   -134191.71    134214.97    195.46153    29.845109 
151736000    285.63044    351.27409    217.37653    -134239.1    134283.51    133.89757    29.841986 
151740000    260.07355     352.3578    215.56573   -134234.54    134318.15    136.79206    29.829056 
151744000       266.64    325.63654    304.54309      -134275    134345.64    21.093446    29.827329 
151748000    287.80964    278.57206    294.62661   -134315.37    134365.82    -16.05455    29.829655 
151752000    250.74763    238.75647    201.63807    -134305.6    134387.74    37.118401    29.831382 
151756000    301.21604    247.87434    349.70076   -134382.71    134427.68   -101.82642    29.837589 
151760000    249.18273    283.59682    322.49346   -134368.26    134441.11   -38.896647     29.84116 
151764000    317.97417    475.64056    276.48747   -134432.37    134453.75    199.15309     29.84865 
151768000    307.15149    288.40535    371.95614   -134460.76    134481.68   -83.550792    29.845821 
151772000    260.60245     302.8867    299.79359   -134467.42    134535.77     3.093116    29.846428 
151776000    279.34483    399.54578    437.98734   -134495.22    134550.75   -38.441563    29.850747 
151780000    256.89383    326.31966    137.90889      -134532    134588.53    188.41077    29.846599 
151784000    269.01149    325.12984     473.2555   -134572.56    134609.96   -148.12566    29.849793 
151788000    289.18639    243.40235    484.30799   -134597.42    134662.06   -240.90564    29.852015 
151792000    306.23437    352.04277    352.97079   -134639.11    134679.55  -0.92801739    29.851575 
151796000    285.20633    291.54062    371.46596    -134686.9    134728.95   -79.925341    29.846235 
151800000    271.57829     242.8425    414.53153    -134713.6    134766.24   -171.68903    29.846687 
151804000    240.18016    337.89438     277.0832   -134733.67    134806.16    60.811179    29.850865 
151808000    263.22409    379.96238    194.30517   -134769.67    134840.39    185.65721    29.854021 
151812000    272.70462     440.5451    269.89475   -134832.93    134878.47    170.65035    29.866894 
151816000    263.35429    314.37486    224.11012   -134851.62    134923.33    90.264744    29.862874 
151820000    297.41776    405.84708     303.4525   -134874.69    134917.77    102.39457     29.86505 
151824000    268.83716    397.26747      357.072   -134907.21     134960.7    40.195467    29.861686 
151828000    316.81416    342.27923    499.39594   -134947.29    134988.68    -157.1167    29.869791 
151832000    285.63027    355.39377    264.27684   -134988.78    135058.45    91.116935    29.848153 
151836000    274.09408    360.73541    341.82094   -135021.48    135077.83    18.914469    29.853719 
151840000    280.87207    439.75637    335.81046   -135062.76    135106.81    103.94591    29.856027 
151844000    292.15079    542.48176    314.76435   -135086.47     135139.1    227.71741    29.865343 
151848000    284.79887    354.09795    427.40148   -135146.25    135200.83   -73.303533    29.857697 
151852000    309.40375    531.57619     499.4125   -135181.05    135214.21    32.163687    29.864616 
151856000    288.05811    519.03245    374.97358   -135209.47    135260.34    144.05887    29.860764 
151860000    249.37963    176.01294    365.85575   -135233.78    135304.71   -189.84281    29.860059 
151864000    290.10235    604.19855    298.25746   -135288.24    135333.02    305.94109    29.863992 
151868000    279.93159    570.76126    294.18436   -135338.18    135384.96    276.57691    29.868967 
151872000    281.38824    292.74436    505.37517   -135353.28     135398.6   -212.63081    29.855565 
151876000    251.84722    254.99696    257.16616   -135352.67    135439.88   -2.1691991    29.846958 
151880000    277.39208    406.76624    392.15736   -135389.12    135443.17    14.608879    29.852205 
151884000    285.58234    418.12086    214.75346   -135425.36    135496.75    203.36739    29.846162 
151888000    283.37661     246.9183    281.20161   -135487.09    135533.76    -34.28331     29.84764 
151892000    285.14888    487.41853    247.96838   -135539.04     135576.6    239.45015    29.853493 
151896000    295.57558    351.22995    190.42326   -135599.66    135643.04    160.80668    29.853216 
151900000    282.79617    322.15122    247.53249   -135657.09    135706.69    74.618731    29.844611 
151904000    261.48031    399.61463    390.10017   -135683.77    135740.89    9.5144601    29.844112 
151908000    276.55421    413.89794    141.53868   -135730.75    135788.22    272.35926    29.836413 
151912000    284.43829    305.33936    533.26314   -135803.37    135843.87   -227.92378    29.836399 
151916000    280.34839    291.87412    402.47127   -135837.19    135868.58   -110.59715    29.845471 
151920000    281.93528    277.40315    237.18784   -135850.92    135916.16    40.215318     29.84123 
151924000    301.37179    347.82976    314.60801    -135884.8    135917.97    33.221752    29.838942 
151928000    266.22611    319.47405    205.13996   -135896.01    135950.83     114.3341    29.836156 
151932000     260.9159    359.87388     210.4226   -135918.37    135985.14    149.45128    29.841193 
151936000    299.56592    300.67606    278.88488   -135971.23    136028.58    21.791172    29.835348 
151940000    270.32196    290.80686    346.45074   -136011.83    136082.06   -55.643886    29.841613 
151944000    283.32966    288.84507    284.55234   -136009.62    136067.76    4.2927343    29.848439 
151948000    268.12483    238.44885    267.73696   -136069.85    136122.36   -29.288107    29.854118 
151952000    310.92813    351.32869    382.47766    -136129.1    136166.85   -31.148975    29.855499 
151956000    302.18968    276.14607    480.63959   -136146.39    136179.73   -204.49353    29.857805 
151960000    304.37069    423.56933     295.3392   -136214.63    136260.99    128.23013    29.861539 
151964000    313.69941    220.65282     449.9619   -136287.48    136314.23   -229.30908    29.863042 
151968000    280.85627    434.13098    312.39263   -136330.59    136371.48    121.73835    29.866307 
151972000    288.70695    220.15817    416.77389    -136373.3    136415.67   -196.61573    29.863754 
151976000    289.80393    391.59893    366.67659   -136410.34    136467.45    24.922341    29.871397 
151980000    307.06498    480.23426    302.13016   -136431.05    136482.75     178.1041    29.881382 
151984000    289.34541    811.16827    251.82224    -136482.1    136534.29    559.34603    29.881066 
151988000    284.96347    357.36575    311.88739   -136532.91    136572.99    45.478362    29.886076 
151992000    292.10616    286.66045    254.48672   -136552.51    136590.96    32.173731    29.882943 
151996000    287.67624    400.84358    302.90397   -136601.91    136641.93    97.939609    29.886582 
152000000    273.40882    366.55841    318.14259   -136623.08    136679.75    48.415823    29.888814 
152004000    286.21532    351.62263    312.28557   -136653.39    136706.38    39.337062    29.894076 
152008000    289.27085    321.82882    286.36911   -136688.74    136729.17    35.459701    29.891425 
152012000    252.00448     227.2262    339.08016   -136702.67    136765.59   -111.85396    29.887181 
152016000    285.23515    354.05148    316.98652   -136732.72    136793.74    37.064966    29.882105 
152020000    255.64319    336.33448    351.36121   -136767.72    136843.29   -15.026729    29.879767 
152024000    293.82586    332.94493    338.35428   -136803.92    136858.52   -5.4093508    29.881562 
152028000    289.32345     537.2523    335.25647   -136853.89    136902.41    201.99583    29.879491 
152032000    284.29172    396.94331    288.41928   -136878.49    136936.62    108.52403    29.878115 
152036000    277.95861    206.03725    330.40783   -136899.55    136922.56   -124.37058    29.883853 
152040000    288.25756    596.75543    311.29823   -136884.17    136955.76     285.4572    29.875102 
152044000    300.51653    242.96376    428.59698   -136937.31    136979.09   -185.63322    29.875099 
152048000    299.08381     442.5251    271.43393   -136970.71     137012.6    171.09117    29.882679 
152052000    265.46804    305.07174    138.01848   -136973.33    137041.58    167.05326      29.8917 
152056000    275.29581    193.12253     314.4106   -137024.65    137067.25   -121.28807    29.892287 
152060000    289.51619    385.47754    217.86947      -137074    137117.08    167.60807    29.895413 
152064000    277.94258    476.48763    493.07893   -137078.67     137153.3   -16.591295    29.894537 
152068000    289.89132    239.29922    276.29644   -137112.34    137161.32   -36.997221    29.898712 
152072000    255.08672    473.58693    263.61328   -137139.86    137217.54    209.97365    29.906941 
152076000    267.18337    280.02868    178.44258   -137209.67    137277.59     101.5861    29.914887 
152080000    268.49813    314.61692    257.08823   -137248.91    137309.75    57.528691    29.918536 
152084000    284.59271    379.14443    571.10177   -137300.21    137345.72   -191.95734    29.914371 
152088000    294.91247    356.14634    312.71328   -137348.38    137384.09    43.433067    29.923561 
152092000    297.02712     383.8024    447.26654   -137380.76    137426.54   -63.464133    29.924772 
152096000    259.78651    446.29962    361.28681   -137415.67    137478.16    85.012804    29.933661 
152100000    266.49538    238.91635    178.04048   -137465.01     137525.3    60.875869    29.943369 
152104000     259.8721    153.34521    330.70838   -137496.59    137563.89   -177.36317    29.935176 
152108000     262.9609    346.53512    215.16755    -137541.1    137588.77    131.36757    29.937894 
152112000    265.95859    484.49357    411.56562   -137558.98    137626.63     72.92795    29.934378 
152116000     297.8485    306.21449    449.31385   -137583.35    137638.37   -143.09936    29.938313 
152120000    295.11374    527.83124    345.02698   -137640.93    137677.29    182.80426    29.943538 
152124000    263.03997    419.96884    438.33241    -137676.5    137732.68   -18.363574    29.954196 
152128000     272.1569    382.82616    240.68454    -137698.5    137755.53    142.14162    29.963179 
152132000     266.9885    336.65956    325.53584    -137724.8    137789.21    11.123725    29.958949 
152136000    268.06692    352.18652    365.49063   -137772.49    137827.97   -13.304119    29.959149 
152140000    283.60087    316.83396    254.56981   -137826.11    137870.78    62.264152    29.964748 
152144000    288.81017    406.15684    234.44135   -137858.07    137903.14    171.71549    29.961434 
152148000     285.0079    313.04184    338.53134   -137865.84    137924.78   -25.489502    29.958516 
152152000     285.3346     413.1524    265.11866   -137883.34    137942.06    148.03374    29.953838 
152156000    294.61604    450.21204    262.27282   -137924.23    137977.87    187.93922    29.961912 
152160000    253.34157    140.63785    361.55584   -137966.84    138043.21   -220.91799    29.962552 
152164000    290.86257    319.47822    455.04225   -138025.31    138077.27   -135.56403    29.966041 
152168000    272.11717    369.55265    379.94852   -138083.74    138138.25   -10.395874    29.977666 
152172000    274.99561    198.12314    412.95235   -138134.78    138198.07   -214.82921    29.968484 
152176000    295.09371    403.67191    364.89646    -138153.2    138218.85    38.775445    29.974675 
152180000    261.80297    164.88213    299.81466   -138176.07     138253.5   -134.93254    29.969639 
152184000    288.91645    515.70773    438.99979   -138234.89    138292.67    76.707937    29.963519 
152188000     276.9135    286.42412    276.08725   -138248.16    138320.78    10.336865    29.968881 
152192000    254.98587    229.92964    251.40445   -138302.98    138379.75   -21.474807      29.9634 
152196000    299.01533    348.28957    563.68227   -138363.01    138418.48    -215.3927    29.957631 
152200000    317.10198    243.31022    262.42153   -138444.92    138480.31   -19.111316    29.955569 
152204000    286.81564    449.05436     321.6299      -138463     138527.4    127.42446    29.961354 
152208000    251.72287    182.99602    453.83392   -138495.03    138561.72    -270.8379    29.966493 
152212000    286.25791    216.46691    397.28477   -138541.61     138601.4   -180.81786    29.961448 
152216000     263.1228    244.68774    302.49197   -138559.95    138625.35   -57.804233    29.958161 
152220000    257.12651     377.9245    296.04207   -138590.53    138655.51    81.882425    29.963505 
152224000    261.28364    279.76761    194.41023   -138616.04    138673.95    85.357379    29.972084 
152228000    291.10638    275.59833    434.68937   -138653.06    138706.48   -159.09103    29.978934 
152232000    289.46851    193.98499    322.81894   -138676.27    138730.05   -128.83395    29.980457 
152236000    277.61039    494.25287    400.56944   -138738.84    138820.83    93.683429    29.976837 
152240000    260.48917    248.00114    378.04061   -138768.49    138852.71   -130.03947    29.984199 
152244000    279.55376    448.55549    342.60798   -138803.75    138871.66    105.94751    29.986853 
152248000    272.73627    538.37116    368.01462   -138804.41     138883.5    170.35654    29.989262 
152252000    290.38834    484.13996    258.41097   -138844.93    138883.67      225.729    29.996176 
152256000    283.46491    351.00024    375.67721   -138853.47    138910.58   -24.676971    29.989904 
152260000    291.57434     464.1489    260.19493   -138870.72    138922.49    203.95397    29.998797 
152264000    280.81289    446.61338      198.614   -138879.55    138944.61    247.99938    29.998143 
152268000    265.03157    325.39884    344.91966   -138927.51    138988.79   -19.520816    29.997554 
152272000    284.58446    251.06418    286.33364   -138961.21     139018.6   -35.269461    30.001549 
152276000    312.69839    638.92413     362.4981   -139006.44    139058.13    276.42603    30.005155 
152280000    262.42868    221.14212    324.77397   -139055.24    139135.16   -103.63185    30.003032 
152284000    282.58087    395.61563    265.98396   -139110.75    139166.22    129.63167    29.995034 
152288000    281.65848    333.11102    337.47977   -139142.99     139199.9   -4.3687557      30.0012 
152292000    238.33013     272.6507    393.51777   -139173.89    139262.36   -120.86707    30.002911 
152296000    289.61704    460.95429    380.23019   -139221.98    139267.84    80.724096    30.010011 
152300000    270.61741    212.33954    257.34333   -139268.81    139320.43   -45.003796    30.000448 
152304000    278.24843    332.67357    216.82266   -139273.11    139330.59    115.85092    30.001247 
152308000    304.66076    333.33212     307.5741    -139316.6    139349.43    25.758017    30.004486 
152312000    301.00021     471.3924    365.77479    -139342.6    139390.92    105.61761    29.996369 
152316000    273.14339    259.43485    276.95285   -139347.28    139408.87   -17.518001    29.993988 
152320000    290.91084    314.58985     411.2128    -139375.2    139426.66   -96.622949    30.001414 
152324000     303.8202    272.88508    436.27612   -139412.69    139431.58   -163.39105    29.993345 
152328000    282.53533    465.18545    143.84531   -139422.44    139455.28    321.34014    30.004307 
152332000    285.55865    304.39244    419.44148   -139412.87    139456.83   -115.04905    30.005027 
152336000      280.783     317.0312    177.74723   -139449.57    139491.97    139.28397    30.007795 
152340000    303.32542    349.98104    430.63141   -139484.06    139531.66   -80.650374     30.01511 
152344000    272.32343    352.68575    135.32602    -139498.9    139561.89    217.35973    30.014627 
152348000    287.35186    389.59812    220.46355   -139521.68       139580    169.13457    30.012899 
152352000     289.8898    495.13454    429.75808   -139583.17    139636.89    65.376456    30.008019 
152356000    298.17056    614.30904    180.19855   -139639.86    139677.58    434.11049    30.008622 
152360000    288.58382    351.17776    329.98005   -139671.58    139728.24    21.197715    30.004879 
152364000     248.0885    235.22384    295.83216   -139641.97    139737.77   -60.608327    30.000378 
152368000     242.9096    331.39369    160.14506   -139682.15    139760.47    171.24862    30.007865 
152372000    267.93109     419.9153    277.35156   -139758.38    139812.03    142.56373    30.015203 
152376000    251.73672    375.23279    239.32829   -139802.51    139860.66    135.90451    30.010631 
152380000    285.77849    204.86607    295.43895   -139851.64    139913.77   -90.572876    30.010758 
152384000    254.86646     194.6086    384.23613   -139886.95    139954.25   -189.62752    30.005796 
152388000    254.58573    234.87382    291.16024   -139931.36    140000.65   -56.286414    30.010766 
152392000    286.02428    348.52256     443.4418   -139975.22    140032.99   -94.919237    30.010456 
152396000    298.38476    278.20526    470.34235   -140019.71    140062.63   -192.13709    30.002792 
152400000    256.94746    228.65143    364.97517   -140015.39    140086.08   -136.32374    30.000332 
152404000    291.69193    417.50543    388.91112   -140061.35    140130.45    28.594306     30.00025 
152408000    271.47553    284.78826     280.3861   -140105.68    140160.61      4.40216    30.004313 
152412000    276.26764    391.26722    344.52798   -140131.59    140184.49    46.739249    30.003839 
152416000    294.51055    311.72838     333.6778   -140153.99    140208.56   -21.949424    30.001201 
152420000     281.4945    309.31758    337.30016   -140177.33    140229.38    -27.98258    29.997443 
152424000     273.7621     293.2268    414.59554   -140215.58    140282.86   -121.36874    29.999778 
152428000    280.30176    462.74911     209.0421   -140259.71       140314    253.70701    30.000863 
152432000    274.90379    465.22663     392.3599   -140283.18     140324.7    72.866735    29.998442 
152436000    273.50409    530.02732    168.75119   -140315.84    140369.81    361.27613    29.990393 
152440000    292.00785    341.41551    375.44653   -140396.02    140434.85   -34.031017    29.990191 
152444000    256.42779    300.35935    280.10202   -140425.96    140491.33    20.257336    29.993241 
152448000    297.07059    394.27461    360.09126   -140433.16    140495.89    34.183348    29.993283 
152452000    299.71434    343.25976     327.9274   -140439.01    140477.23     15.33236    29.984126 
152456000    293.81826    332.05269    254.90129   -140484.18    140525.14    77.151395    29.968389 
152460000    283.24951    354.39812     309.9997   -140503.72     140562.6    44.398418    29.968774 
152464000    319.21681    379.70357     460.8911   -140568.83    140595.54   -81.187536    29.962131 
152468000    325.09167    375.91928    460.41976   -140621.47    140661.19   -84.500482    29.951822 
152472000     269.1522    260.81335    326.52248    -140640.9    140705.26   -65.709128    29.953013 
152476000    266.03798    264.33998    307.69516   -140655.75    140729.23   -43.355183     29.94945 
152480000    279.59007    469.89511    378.43742   -140698.44    140762.25     91.45769     29.95662 
152484000    284.31926    329.24682    313.50059   -140732.69    140797.09    15.746229    29.960149 
152488000    275.32279    350.48515    290.58291   -140782.54    140848.29     59.90224     29.95783 
152492000    272.24179    296.92033    554.69078    -140815.7    140866.05   -257.77045    29.957641 
152496000    292.57196    334.68772    303.32851   -140830.18    140875.76    31.359208    29.954443 
152500000    288.65018    545.28151    269.64989   -140866.99    140913.88    275.63161    29.953563 
152504000    296.70252    431.52149    363.09472   -140928.27    140971.96    68.426776    29.949248 
152508000     268.2477    429.69573    247.79385   -140933.05     141009.7    181.90188    29.960626 
152512000     267.9922    254.36586      334.985    -140996.5     141042.8   -80.619141    29.957128 
152516000    286.96288    242.02143    310.86372   -141014.15    141075.76    -68.84229    29.964408 
152520000    283.34038    297.20926    337.71353   -141053.41    141103.09   -40.504264    29.958996 
152524000    319.30759    424.03089    630.60464    -141096.9    141134.86   -206.57375    29.953581 
152528000    307.23997    398.10522    568.20571   -141184.73     141228.8   -170.10049    29.944095 
152532000    274.10962    178.61757    306.87675   -141216.42     141285.6   -128.25918    29.936697 
152536000    287.89522    162.93545    260.72058   -141260.02    141315.26   -97.785132     29.93498 
152540000    291.44815     190.0936    321.15449   -141309.66    141359.68   -131.06089    29.926731 
152544000    271.31148    405.73395    295.17367   -141356.41    141424.91    110.56028    29.924962 
152548000    270.50467    453.35223    268.03356   -141379.32    141441.99    185.31867    29.916086 
152552000    289.56051    324.94224    382.72442   -141449.32    141505.57   -57.782182    29.905845 
152556000    277.77725    243.28075    240.95219   -141482.81    141542.07    2.3285524    29.914224 
152560000    272.32051    367.76007    475.11762   -141501.91    141573.53   -107.35755    29.906112 
152564000     304.1234    359.01647    311.18839   -141541.25    141596.43    47.828074    29.907651 
152568000    285.64485     558.1962    372.62007   -141566.66    141619.44    185.57613     29.91202 
152572000    274.15479    199.90382    730.24888   -141580.51    141631.48   -530.34506    29.912784 
152576000    279.59895    438.99985    354.28826   -141623.55    141670.28    84.711581     29.91106 
152580000    276.14058    195.65676    283.93232    -141646.7    141705.05   -88.275557     29.90813 
152584000    267.92556    347.52651    253.63617   -141677.56    141719.57     93.89034    29.907805 
152588000     274.0275    387.55452    309.45562   -141671.25    141731.44      78.0989    29.904811 
152592000    334.61997    470.83214     325.2056   -141735.75    141767.25    145.62654    29.910066 
152596000    273.35412    516.67134    239.69269   -141739.99    141810.41    276.97865    29.909086 
152600000    301.42035    403.41458    263.92037   -141773.76    141817.78    139.49422    29.910941 
152604000    295.98274    328.26902    526.20586   -141792.84    141836.28   -197.93684     29.91745 
152608000    287.75108     431.0587    354.57752   -141831.96     141881.1    76.481184    29.920103 
152612000    256.33746    247.80079    300.47248   -141851.85    141930.64   -52.671689    29.920434 
152616000    279.38622    217.85041    407.87179   -141909.75    141962.85   -190.02139    29.915033 
152620000    287.27127    279.29414     417.5182   -141933.71    141999.08   -138.22406    29.912511 
152624000    276.38985    340.50383    200.37145    -141970.1    142021.69    140.13238    29.914885 
152628000    306.19337    292.25861    255.50314   -142019.09    142047.01    36.755474    29.908924 
152632000    305.58086    363.72613    537.49761   -142095.39    142134.14   -173.77148    29.905857 
152636000    277.93903     389.0229    417.13763   -142104.66    142170.73   -28.114732    29.900982 
152640000    271.11305    185.56074    369.84692      -142129    142174.94   -184.28619     29.90469 
152644000    271.93074    326.55162    331.35548   -142168.29    142222.21   -4.8038513    29.898552 
152648000    249.11335    247.67104    422.65078   -142194.01     142277.4   -174.97974    29.897923 
152652000    263.08899    300.71635    304.80799   -142233.26    142305.16   -4.0916391    29.899219 
152656000    264.48367    327.82659    335.10676   -142266.55    142336.44   -7.2801738    29.909078 
152660000    294.97399    340.76309    193.55728    -142349.4    142383.86    147.20581    29.914002 
152664000    285.89874    369.97802    273.48008   -142378.64     142438.7    96.497942    29.914978 
152668000    252.01223    458.54819    487.57236   -142400.98    142464.95    -29.02417    29.903178 
152672000     282.6524    390.02049    319.39248   -142441.12    142511.71    70.628007    29.908254 
152676000    291.26091    394.84453    447.51764   -142468.76    142534.61    -52.67311    29.904235 
152680000    284.09723    391.23708    412.06664    -142519.2    142578.74    -20.82956    29.904511 
152684000    268.63283    239.90948    424.30238   -142526.96    142591.54   -184.39291    29.896328 
152688000    285.77398    243.92984    346.28895   -142570.18    142628.53   -102.35911    29.896598 
152692000    288.83147    180.67576     295.8766   -142591.46    142658.05   -115.20083    29.897735 
152696000      284.478     326.4797    324.35336   -142653.37    142720.32    2.1263409    29.890128 
152700000     273.4901    304.94531    422.85809   -142681.64    142747.22   -117.91278    29.899599 
152704000     291.5841    276.18252    348.07125   -142719.11    142772.61   -71.888732    29.884185 
152708000    264.69209    285.53285    344.75152   -142726.94    142764.26   -59.218665    29.882764 
152712000    294.17047    212.86501    499.26816   -142766.91    142810.08   -286.40316    29.874579 
152716000    285.28169    254.12395    223.55312   -142788.75    142834.19    30.570825    29.866873 
152720000    280.64608    215.75142    461.06335   -142825.21    142876.52   -245.31193    29.865423 
152724000    291.25356    272.67966    281.65445   -142859.81    142911.42   -8.9747873    29.865821 
152728000    316.22874    265.32858    232.96166   -142881.33    142927.48    32.366913    29.865001 
152732000    270.63023    539.70013    325.95336   -142924.87    142975.86    213.74678    29.866278 
152736000    319.60504    460.36961    391.40193   -142981.58     143008.5    68.967674    29.864068 
152740000    291.36198    486.07604    174.25848   -142990.23    143059.78    311.81756     29.85649 
152744000    299.75865    358.98156    339.93079    -143060.9    143110.29    19.050768    29.854428 
152748000    286.22673    327.20481    404.69222    -143099.5    143167.03   -77.487409    29.860503 
152752000     255.9528    267.69877    301.44095   -143123.14    143187.86   -33.742174    29.865347 
152756000    255.83326    408.56789    375.13105   -143145.13    143203.12    33.436837    29.867558 
152760000    258.73934    384.57281    379.11509   -143205.48    143268.45    5.4577182    29.869408 
152764000    318.92659    326.54769      289.477    -143267.7    143303.19    37.070688    29.867101 
152768000    272.77797    385.88848    350.45495   -143300.56    143355.67    35.433529    29.860062 
152772000    272.27905    292.75406     334.6731   -143327.67    143369.17   -41.919035    29.869107 
152776000    281.99898    390.15979    328.74224   -143368.64    143424.88     61.41755    29.868995 
152780000    271.81116    443.79824    307.77863    -143433.4    143483.26    136.01961    29.873875 
152784000    278.19799    396.21292    444.88266   -143451.12    143522.69    -48.66974    29.878026 
152788000    305.95927    480.93835    342.84452   -143513.93    143539.24    138.09384    29.875443 
152792000    293.07138    367.65076    332.99807   -143514.35    143580.33    34.652683    29.873874 
152796000     255.3727    404.61636    172.13032   -143533.93    143601.47    232.48604    29.880858 
152800000    258.42862    238.39553      244.594   -143564.08    143633.05   -6.1984682    29.883203 
152804000    269.41828    598.09578    179.96288   -143614.42    143646.92     418.1329    29.880092 
152808000    255.89192    431.36058    400.29094   -143607.51    143680.03    31.069634    29.878312 
152812000     304.5333    554.33552    252.07721   -143672.13    143695.39    302.25831    29.876764 
152816000    259.63892    537.58858    188.46466   -143684.53    143760.25    349.12392    29.875072 
152820000    275.67389    213.36993    478.15702   -143712.56    143769.46   -264.78709    29.877532 
152824000    254.68279    314.29677    297.33323   -143730.88    143806.71    16.963533    29.878173 
152828000    282.54751    373.80463    369.94234   -143810.84     143848.7    3.8622898    29.887806 
152832000    268.25743    302.50428    217.40273   -143841.42    143895.98    85.101555    29.886367 
152836000    261.44644    410.16955    352.95343   -143859.53    143917.04    57.216116    29.886641 
152840000    284.53374     289.7007     274.6691   -143878.53    143934.11    15.031602    29.881609 
152844000    286.54489    387.51273    235.43572   -143894.06    143945.89    152.07702    29.885836 
152848000    276.05636    371.72654    280.20961   -143920.57    143973.16    91.516936    29.887008 
152852000    278.30705    235.18629    277.34398   -143941.73    144013.89   -42.157687    29.893484 
152856000    289.05639    326.00502    291.12253   -143990.63    144023.19    34.882496    29.882897 
152860000    282.01778    264.89991    273.80155   -144003.47    144054.25   -8.9016346    29.875917 
152864000    272.09467    315.63536    245.56839   -144030.31    144101.62    70.066968    29.867968 
152868000     282.9384    362.76307    367.01296    -144074.2    144114.21   -4.2498848    29.868088 
152872000    273.45952    389.27219    241.94527    -144125.4     144177.1    147.32692    29.865949 
152876000    321.92201     477.7704    477.48191   -144123.03    144171.79    0.2884927    29.871425 
152880000    297.31683    373.32959    346.34086   -144153.57    144209.44    26.988738     29.87584 
152884000     298.8659     477.3347    316.87524   -144172.75    144237.69    160.45946     29.87263 
152888000    302.40679    271.81578    443.21144   -144199.89    144253.32   -171.39565    29.867432 
152892000    270.30183    482.64991    430.12868   -144209.05    144266.26    52.521228    29.870947 
152896000    269.86321    233.96452     201.0682   -144230.02    144296.67     32.89632    29.877332 
152900000    288.49047    239.55627    185.21809   -144285.96    144322.49     54.33818    29.870885 
152904000    328.32254    409.66601    424.09984   -144349.06    144372.58   -14.433825    29.870973 
152908000    261.82867    285.16849    194.49872   -144378.81    144449.29     90.66977      29.8721 
152912000    298.67614      545.826    230.91448   -144463.45    144513.73    314.91151    29.876742 
152916000     270.3247    372.55626    474.27361    -144483.5    144544.96   -101.71734    29.878649 
152920000    305.59255    378.46236    427.94112   -144539.45    144581.94   -49.478759     29.87929 
152924000    289.35392    497.42604     244.8472   -144573.61     144626.1    252.57884    29.889787 
152928000    280.96785    288.43026    286.83431   -144582.87     144647.1    1.5959543    29.894178 
152932000    279.20857    426.46052    345.51619   -144633.14    144693.93    80.944331    29.891536 
152936000    264.75161    305.77326    337.91047   -144672.91    144727.62    -32.13721    29.896402 
152940000    280.94456    466.84612    460.27596   -144690.14    144754.61    6.5701629    29.900597 
152944000    284.33095    467.63336    297.59285   -144725.86    144776.08     170.0405    29.908587 
152948000    269.66614    309.47978    254.41133   -144726.45    144801.12    55.068451    29.918878 
152952000    281.71336    168.86686    341.94491   -144779.82    144840.68   -173.07805    29.918785 
152956000    253.23767    466.40793    218.47211   -144800.17    144866.56    247.93582    29.921623 
152960000    254.09438    278.25509    207.09172   -144829.66    144911.86     71.16337    29.920146 
152964000    255.81909    325.59788    303.68788   -144853.56    144931.75    21.909994    29.923619 
152968000    274.14123    432.09726    378.81987   -144911.18    144988.09    53.277385    29.927532 
152972000    268.77881     512.3439    217.03241   -144959.01    145021.63    295.31149    29.923236 
152976000    321.97541     494.0886    413.37878   -145011.98    145048.38    80.709814    29.932449 
152980000    269.75376    331.19856    203.45236   -145041.29    145085.68     127.7462    29.934739 
152984000    268.28242    320.32756    379.66475   -145072.96    145119.26   -59.337191    29.934316 
152988000     277.2352    226.24487    485.66091   -145072.96    145135.15   -259.41604    29.937328 
152992000    300.10847    531.12687    426.15511   -145125.72    145183.18    104.97177    29.937344 
152996000    274.94806    286.60077    361.67485    -145168.3    145225.51   -75.074076    29.935871 
153000000    250.31398    467.15955    516.35326   -145178.31    145260.14   -49.193716    29.939785 
153004000    282.19647    247.04879    276.87897   -145241.67     145314.7   -29.830171    29.924454 
153008000    280.66669    307.18202    308.88515   -145335.97    145375.65   -1.7031294    29.924675 
153012000    294.02571    452.01481    348.62025   -145383.99    145420.68    103.39456    29.920794 
153016000    288.26593    267.34494    399.82844   -145417.86    145472.62    -132.4835    29.920661 
153020000    296.05182    371.65492    132.89545   -145439.43    145490.91    238.75947    29.917474 
153024000    316.18521    418.73238    575.39975   -145519.54    145546.73   -156.66737    29.916656 
153028000    280.82166    357.97296    175.49732   -145552.64    145598.51    182.47564    29.922688 
153032000    267.61432    432.53935    285.09615   -145565.34       145639     147.4432    29.930576 
153036000    275.41226    227.81708     600.6277   -145596.38    145663.64   -372.81062    29.937312 
153040000     304.9975    334.05897    281.28517   -145633.05    145676.08    52.773793    29.934625 
153044000    267.56008    460.50141    291.79126   -145668.42    145726.12    168.71014    29.938338 
153048000    289.37454    448.91321    255.10282   -145740.95    145784.36    193.81039    29.944594 
153052000    302.60389    250.38173    287.66556   -145821.33    145863.31    -37.28383    29.945509 
153056000     287.1051    381.34356    411.11681   -145840.71     145877.9   -29.773256    29.943349 
153060000    279.22093    614.48401    197.13969   -145857.77    145913.66    417.34431    29.945188 
153064000    265.93919     345.0915    451.88022   -145890.61    145950.09   -106.78872    29.943295 
153068000    274.08768    302.09408    254.74171   -145930.04    145992.42    47.352365     29.94152 
153072000    300.04285    579.91832    351.91109   -145981.56    146016.97    228.00723    29.946363 
153076000    269.16992    330.90065    351.62004   -145998.71    146065.41   -20.719387    29.949489 
153080000      285.679    368.43437    282.01864   -146062.58     146104.1    86.415727    29.958774 
153084000    280.62448    342.36297    439.39304   -146104.55     146146.9   -97.030067    29.961634 
153088000    311.22105     312.4162     406.3005   -146133.76    146177.79   -93.884303    29.964386 
153092000    265.45004    150.05071    284.45382   -146145.35    146211.19   -134.40311    29.970826 
153096000    281.56206    444.25268    360.33126    -146208.2    146268.65    83.921414    29.968396 
153100000    276.95911    283.20111    403.50547   -146237.72    146305.67   -120.30437    29.965567 
153104000    250.58873    259.10148    264.24203   -146242.81    146318.64   -5.1405505    29.964919 
153108000    261.91566    224.82079    356.22623    -146255.6    146317.49   -131.40544    29.958475 
153112000    285.39882    239.12059    281.44332   -146282.48    146355.16   -42.322731    29.963754 
153116000    270.34497    320.11275    464.92911   -146310.66    146365.87   -144.81635    29.960058 
153120000     263.8192    360.26474    209.51596   -146338.29    146422.38    150.74878    29.961502 
153124000    262.87628    217.84105    310.53854   -146381.82       146473   -92.697493    29.964457 
153128000    268.36464    210.02538     447.3135   -146401.34    146473.58   -237.28812    29.961739 
153132000    275.38089    332.77511    311.33366   -146460.75    146534.24    21.441456    29.969685 
153136000    312.17467    489.44931    253.46695   -146475.52    146522.74    235.98236    29.971293 
153140000    284.81698    215.19395    437.87313   -146479.56    146541.36   -222.67918    29.972796 
153144000    282.10867    297.63349    204.45044   -146506.88     146574.9    93.183048    29.963063 
153148000    255.12455    208.01929    329.96664   -146565.23    146628.33   -121.94735    29.960417 
153152000    269.37683     377.0742     494.8924   -146603.03    146671.68   -117.81821     29.95802 
153156000    284.62889    326.30636     222.7714   -146614.45    146666.32    103.53496    29.962553 
153160000    263.52931    394.42889    294.52475   -146630.36    146699.41    99.904138     29.96523 
153164000    287.44255    323.34587     475.0856   -146670.47    146718.51   -151.73973    29.967637 
153168000    276.14712    410.44372    554.44265   -146701.05    146760.33   -143.99893    29.973574 
153172000     292.0443    233.27449    546.41809   -146743.73    146797.08   -313.14359    29.960526 
153176000    283.21729    471.52511    458.38488   -146765.78    146821.01    13.140235    29.954859 
153180000    295.91066    523.97983      342.965    -146786.3    146837.95    181.01483    29.949836 
153184000    292.34782    414.77481    259.14819   -146850.07     146897.4    155.62663    29.947778 
153188000    275.90821    292.16539    348.25151   -146847.93    146894.27   -56.086122    29.944842 
153192000    267.09983    208.51767    355.19298   -146869.43    146935.41   -146.67532    29.947491 
153196000    290.51635    263.48056    320.46679   -146874.91    146925.97   -56.986232    29.949901 
153200000     273.5257    267.43957    322.61718    -146926.1    146963.22   -55.177604    29.952697 
153204000    319.74975    416.27036    231.80416   -146975.42    147018.81     184.4662    29.958867 
153208000    286.61773    308.46918    547.49789   -147031.67    147078.07    -239.0287    29.944805 
153212000    266.64469    464.19122    280.87274   -147058.72    147109.23    183.31848    29.943029 
153216000    258.29822    204.06844    319.49496   -147044.31    147116.36   -115.42653    29.944736 
153220000    268.14402    380.35811    221.15285   -147087.34     147159.9    159.20526     29.94542 
153224000    270.26104    313.71367    229.18258   -147162.07    147220.71    84.531089    29.949672 
153228000    306.35236    277.09238    448.62463   -147200.71     147256.2   -171.53225     29.96098 
153232000     286.4996    164.74441    403.98061   -147240.57    147282.16    -239.2362    29.962161 
153236000    291.54233    498.73345     325.5208   -147264.02    147321.55    173.21265     29.95273 
153240000    292.51956    551.77073    382.04069   -147314.07    147364.37    169.73004    29.951144 
153244000    296.21604    383.40449     250.6946   -147357.31    147425.16    132.70989    29.947983 
153248000    269.08454    303.52156    291.29379   -147415.04    147480.17    12.227775    29.953735 
153252000    271.01578    333.28538    231.56546   -147417.69    147478.38    101.71992    29.958344 
153256000    275.34277     154.7969    370.51619    -147444.1    147509.79   -215.71929     29.96068 
153260000    295.20709    398.63073    374.27294   -147490.22     147547.9    24.357785    29.962668 
153264000    297.51934    425.00549    206.94471   -147525.69    147568.79    218.06078    29.960967 
153268000    296.89182    494.30306    271.60718   -147553.88    147596.15    222.69588    29.958926 
153272000    317.38461    255.73711    271.06616   -147627.25    147653.38   -15.329048    29.951502 
153276000    299.49832    313.47911    270.86525   -147643.38    147691.15    42.613859    29.947005 
153280000    310.01022    273.50677    571.05705   -147681.65    147717.46   -297.55027    29.948554 
153284000    267.31142    331.33084    258.03805   -147738.93    147797.54    73.292795    29.950701 
153288000    291.54565    312.89249    368.29917    -147774.2    147826.07   -55.406686     29.96016 
153292000     329.0415     407.5272    346.55331   -147843.48    147877.49    60.973892    29.961676 
153296000    292.18517    233.53679    251.74822   -147860.55    147923.35   -18.211432    29.968233 
153300000    290.96131    449.73111    317.38198   -147914.08    147972.86    132.34913    29.983104 
153304000    273.23822    321.85466    370.29912   -147955.87    148026.86   -48.444461    29.985357 
153308000    266.47962    212.47618    406.85765   -147973.95    148035.35   -194.38147    29.987627 
153312000     278.0547    405.44651    257.44466   -148027.86    148092.33    148.00186    29.994565 
153316000    276.58665     249.9113    447.92129   -148069.02    148120.34   -198.00999    29.993597 
153320000    277.77583    263.23815    419.74984   -148086.73    148143.49   -156.51169    29.997056 
153324000    251.15837    355.21062    298.34067   -148099.26    148179.68    56.869945    29.999966 
153328000     282.9457    163.17963    413.73868   -148152.51    148208.86   -250.55905    30.000514 
153332000    276.35392    509.32649    328.03209   -148185.47    148254.33     181.2944    30.001433 
153336000     284.2454     481.1458    235.28838   -148235.13    148284.87    245.85741    30.005794 
153340000    307.72963    335.26259    426.24113    -148311.5    148357.14   -90.978547    29.999052 
153344000    280.34302    333.87397    184.37415   -148314.02    148363.71    149.49982    30.004863 
153348000    294.15652    402.96991    352.76544   -148339.56    148393.21    50.204467    30.006762 
153352000    285.35322    379.50935    405.63824   -148346.68    148381.03   -26.128895     29.99731 
153356000    285.11266    408.46439    485.82033   -148366.25    148419.07   -77.355945    29.998701 
153360000    301.90297    476.34438     240.6092   -148406.26    148459.79    235.73517    29.997981 
153364000    284.98241    383.01241     283.3099   -148442.71    148467.61    99.702511    29.996276 
153368000    283.88066    392.26968    211.50151   -148457.19    148521.39    180.76817    29.988751 
153372000    262.64922    319.33206     209.5328   -148476.54    148529.63    109.79925    29.998946 
153376000    293.71477    321.43402    348.13891   -148506.97    148560.99   -26.704888    30.000817 
153380000    302.16106    446.10647     311.0145   -148503.65    148563.18    135.09197    30.009721 
153384000    269.88815    310.10894    280.75931   -148535.52    148578.22    29.349629     30.01116 
153388000    287.14195    406.27158    338.69578   -148582.97    148634.89    67.575801    30.008451 
153392000    305.21426     387.7333    345.23273   -148620.57    148666.11    42.500575    30.004053 
153396000    292.99643    404.58812     203.1971   -148628.32    148692.84    201.39102    30.005934 
153400000    308.98528    624.07715    387.58465   -148654.75    148691.37     236.4925     30.00609 
153404000    278.45597    219.45963    218.69217   -148700.36    148766.93   0.76745483    30.001262 
153408000    272.73968    433.49665    249.45163   -148734.46     148789.4    184.04502    29.995539 
153412000    295.22963    430.26963    311.06117   -148768.31    148806.27    119.20845    29.998504 
153416000    282.37101    264.24164    395.42607   -148816.41    148866.27   -131.18443    29.986276 
153420000    287.48923    219.55465    301.74715   -148880.72    148918.76   -82.192506     29.97929 
153424000    266.90827    140.51812    480.74483    -148887.2    148967.03   -340.22672    29.981541 
153428000    281.89648    241.76294    287.28505   -148923.17    148989.32   -45.522104    29.978164 
153432000    267.58734    256.04207    253.01473   -148951.67    149018.79    3.0273464    29.978335 
153436000    278.96563    464.81401    308.86734   -148983.18    149036.98    155.94668    29.980231 
153440000    275.06467    430.01932    232.17696   -148988.16    149043.37    197.84236    29.986389 
153444000     289.2745    603.63749     589.0966   -149031.87    149085.47    14.540889    29.989695 
153448000    255.59277    229.49637    257.49228    -149083.8     149141.4   -27.995911    29.984537 
153452000    303.28894    380.61581    531.86092   -149147.67    149181.68   -151.24511    29.981236 
153456000     317.1784    289.57761    237.91477    -149189.8    149215.21    51.662834    29.976982 
153460000    277.14335    248.55798    234.54412   -149183.67    149257.27    14.013864    29.982435 
153464000    282.82798    440.30423    307.44303   -149240.75    149295.16     132.8612    29.984653 
153468000    279.04653    305.79522    363.01712   -149298.33    149326.94   -57.221896    29.984863 
153472000    269.71856    398.47752    342.85786   -149322.97    149386.53    55.619664    29.988168 
153476000     319.0053    425.72738    568.33022   -149357.31    149411.42   -142.60283    29.981472 
153480000    287.68288      293.158    204.22664   -149385.47    149450.83    88.931358    29.986572 
153484000    280.61328    352.56891    254.16245   -149455.88    149499.37    98.406456    29.979931 
153488000    263.86364     432.1006    395.94517   -149514.97    149576.61    36.155433    29.988055 
153492000      276.506    403.55532    336.71979   -149545.14    149599.89    66.835534    29.997931 
153496000    298.32175    572.90779    314.58182   -149570.85    149615.96    258.32597    30.010924 
153500000     241.8254    215.65058    217.22222   -149614.14    149692.88   -1.5716337    30.014247 
153504000    265.40147    606.67727    343.21499   -149654.46    149722.53    263.46228    30.022037 
153508000    265.63245    415.18047    367.85497   -149682.13     149751.5    47.325501    30.021074 
153512000    280.63494     279.6249    448.70933   -149740.88    149803.11   -169.08443    30.027869 
153516000     268.4302    330.32076    345.33055   -149756.45    149838.37    -15.00979    30.031493 
153520000    267.41133    341.32738    375.95754    -149792.3    149851.43   -34.630166    30.025838 
153524000    316.52125    198.19452    202.93135   -149831.44    149873.43   -4.7368329    30.034624 
153528000    302.56499    460.72995    433.31711   -149874.82    149914.94    27.412838    30.037706 
153532000    269.97434    344.38706     295.3526   -149880.13    149927.66    49.034456    30.044454 
153536000    289.57245    401.79003    436.35354   -149869.17    149924.64    -34.56351     30.04701 
153540000    302.99679    411.05697    362.72222   -149935.89    149995.72    48.334744    30.045355 
153544000    281.64396     335.0099    362.10799   -149977.09    150039.65    -27.09809     30.03408 
153548000    267.11818    280.12278    274.54463   -150044.32    150116.24    5.5781424    30.040055 
153552000     295.6512    594.82221     334.3394   -150078.07    150137.72     260.4828    30.029062 
153556000    318.17456    423.85287    403.60776   -150117.93    150150.12    20.245106    30.030867 
153560000    304.41615    312.25139    201.25196    -150151.6    150186.77    110.99943    30.031609 
153564000    266.92075    461.25241    385.57779   -150196.66    150261.53    75.674619    30.035623 
153568000    281.16895     393.8377    272.11375   -150239.58     150305.7    121.72395    30.037626 
153572000    253.41399    397.35872    219.56279    -150254.6    150323.06    177.79593     30.03809 
153576000    324.06143    200.46945    439.83059   -150280.03    150302.51   -239.36114    30.040676 
153580000    289.02265    301.66105    288.64433   -150312.06    150363.89    13.016723    30.037467 
153584000    297.38808    306.32577    398.67321   -150384.96    150426.14   -92.347435    30.043938 
153588000    284.98137    350.57168     297.2932   -150403.71    150450.75    53.278478    30.048754 
153592000    291.73908    383.75242    248.24552   -150456.84    150493.64     135.5069    30.048393 
153596000    276.71395    441.04869    506.34828    -150464.5    150523.87   -65.299586    30.052069 
153600000    274.46678    356.22715    417.42678   -150502.22    150562.97   -61.199636    30.050075 
153604000    290.16721    186.25287    415.66117   -150544.79     150578.9   -229.40831    30.045224 
153608000    277.38042    302.44334    264.05329   -150530.78    150593.18    38.390055    30.044891 
153612000    281.39567    314.91491    285.57689   -150551.11    150616.72    29.338014    30.059072 
153616000    306.60983      361.296    349.93856   -150601.94    150666.31    11.357437    30.066814 
153620000    276.73031    373.98612    274.30037   -150625.35    150688.53    99.685749    30.075499 
153624000    298.86147    534.52445    415.00953   -150638.25    150693.26    119.51492    30.070236 
153628000    278.21255    492.91094     287.5516   -150686.54     150744.8    205.35933    30.068654 
153632000     236.4735    272.27691    431.57013   -150698.96    150772.48   -159.29322    30.069247 
153636000    292.89792    344.60774     306.8055   -150736.37    150785.54    37.802246    30.065519 
153640000    290.82141    302.45824    306.96272   -150783.13    150829.62   -4.5044811    30.066818 
153644000    285.85547    380.68846    180.85548   -150814.78    150887.05    199.83298    30.071254 
153648000    281.11259    291.72209    460.22343   -150846.09    150908.12   -168.50135     30.07228 
153652000    293.94383    474.51896    290.26329   -150874.29    150928.11    184.25567    30.067828 
153656000    276.23333     193.0078    333.96678   -150940.71     150978.8   -140.95898    30.057938 
153660000    312.34828    293.94303    453.89144   -150985.65    151021.03   -159.94841    30.056106 
153664000    286.03059    236.88163    300.51116   -151035.61    151072.82   -63.629531    30.059184 
153668000    279.24322    411.92915    290.92398   -151073.66    151113.03    121.00517    30.064994 
153672000    285.36016    256.12351    173.01784   -151095.79    151150.65    83.105669    30.061645 
153676000    288.96918    263.20586    251.80957   -151133.27    151169.03    11.396294    30.057399 
153680000    305.14566    362.31887    301.34616    -151163.8    151209.62    60.972713     30.05722 
153684000    295.60454    337.06095    210.18931   -151193.08    151232.49    126.87164    30.059999 
153688000    292.07573    425.96034    362.25383   -151252.63    151303.83    63.706511    30.056919 
153692000     271.6007    165.57146     313.8742   -151279.27    151335.33   -148.30274    30.065154 
153696000    288.59592    423.01382    376.83503   -151295.65     151346.8    46.178792    30.077187 
153700000    272.17958    204.99205    323.98663   -151345.42     151411.3   -118.99458    30.080723 
153704000    293.00801    358.33914    265.44119   -151427.02    151482.62    92.897952    30.077768 
153708000    299.99746    358.67786    406.82735   -151470.11    151525.44   -48.149493    30.078121 
153712000    287.23037    331.22354    408.16002   -151492.78    151532.44   -76.936478     30.07896 
153716000    280.79388    331.28486     437.8301    -151546.1    151579.68   -106.54523    30.074237 
153720000    275.38528    204.88662    455.51091   -151540.25    151609.22   -250.62429    30.071042 
153724000    301.95445    387.36659     375.8233   -151595.41     151628.6    11.543292    30.090173 
153728000    264.67525    271.34089    263.80942   -151620.45    151670.79    7.5314618    30.088667 
153732000    293.16645     304.9399    422.43316   -151650.87    151687.13   -117.49326    30.089263 
153736000    255.68125     252.8752    358.83182   -151701.33    151744.43   -105.95662    30.087706 
153740000    271.29727    356.28084    468.57426   -151726.24    151771.88   -112.29341    30.095332 
153744000    260.76934     305.4538    324.63432   -151719.87    151789.24   -19.180514    30.093199 
153748000    287.39532    400.03634    277.34538   -151794.46       151842    122.69096    30.093143 
153752000    290.96109    306.92599    279.78565   -151808.48    151862.87    27.140341    30.090254 
153756000    275.42252    323.74582    562.97557   -151828.65    151900.11   -239.22975    30.082048 
153760000     274.4547    190.98599    329.98744   -151853.32    151900.61   -139.00145    30.076936 
153764000    299.03957    361.14595     268.9417   -151887.23    151936.73     92.20426    30.074731 
153768000    282.73233    276.73178    327.81147   -151910.68    151963.95   -51.079694    30.069476 
153772000    289.17828    382.00452    442.84862   -151978.27    152037.64   -60.844096    30.061741 
153776000    305.59003    377.01013    445.32744   -152013.69     152062.6   -68.317312    30.056465 
153780000    308.74073    458.84235    408.55451   -152083.41    152102.36    50.287835    30.050089 
153784000    293.29577     264.7615    280.80678   -152099.73    152146.04   -16.045276    30.045787 
153788000    318.05897    424.67039    163.00471   -152149.99     152191.5    261.66568    30.045512 
153792000    234.84109    262.15646    364.06222   -152184.91    152245.53   -101.90576    30.047562 
153796000    301.10928    372.51939    235.99384   -152231.34    152282.53    136.52555    30.046212 
153800000    281.17415     310.6744    226.04953   -152241.37    152303.73    84.624877    30.043309 
153804000    288.04651    344.97722     236.6191   -152293.24    152342.93    108.35812    30.037034 
153808000    253.74334     229.7461    454.95143   -152279.22    152334.44   -225.20532    30.040576 
153812000     276.6279     422.2266    281.04115   -152300.23    152360.75    141.18545     30.03522 
153816000    271.33064    388.51615    343.83151   -152328.38    152408.86    44.684639    30.033578 
153820000    258.36102    298.54787    266.58338   -152371.86    152436.77     31.96449    30.039871 
153824000    257.89255    204.40576    373.71874   -152385.04    152453.77   -169.31298    30.042479 
153828000    286.81802    399.19066    413.14663   -152447.05    152509.08    -13.95597    30.049202 
153832000    249.01904    289.70812    135.01886   -152465.91    152550.81    154.68926    30.046015 
153836000    273.50014     307.9572    214.97991   -152499.76    152570.04    92.977293    30.046271 
153840000    277.73582    268.90966    367.28972   -152526.31    152589.65   -98.380063    30.042015 
153844000    260.34859    302.92655     377.5266   -152563.33    152618.15   -74.600042    30.037274 
153848000    264.40893     367.3114    312.88717   -152608.18    152657.97    54.424229    30.044152 
153852000    280.76815    440.56774    320.00094   -152642.78     152691.4     120.5668    30.043881 
153856000    274.63652    237.98242    299.02357   -152687.83    152745.53   -61.041143    30.035458 
153860000     259.5981    148.51889    394.02198   -152706.39    152771.92   -245.50309    30.034693 
153864000    267.79408    500.84634    269.63707   -152710.42    152770.25    231.20926    30.042882 
153868000    254.13096     352.2636    256.87735   -152739.04    152803.51    95.386247    30.041606 
153872000    287.24102    454.12461    291.57416   -152785.75     152835.4    162.55045    30.046056 
153876000    255.14325    370.73683    270.15774   -152790.89    152859.23    100.57909    30.044096 
153880000    272.24466    420.37776    302.58542   -152819.01    152895.11    117.79234    30.048185 
153884000    294.50543    189.81634    514.26669   -152857.08    152912.23   -324.45035    30.052233 
153888000    276.20622    245.36045    370.98963   -152845.97    152910.58   -125.62918    30.041081 
153892000    267.00451    377.01631      253.259   -152865.66    152937.22    123.75731    30.046445 
153896000    290.63142    312.46714    335.89942   -152927.03     152978.7   -23.432279    30.049019 
153900000    306.98104    371.12814    213.47401   -152970.74    153001.95    157.65413    30.056964 
153904000    248.71934    431.88733    293.55776   -152998.36    153064.01    138.32957     30.05717 
153908000    265.98426    393.98534    207.20435    -153044.8    153094.66    186.78099     30.05041 
153912000    341.81722    221.66467    370.33702   -153071.52    153110.59   -148.67235    30.047567 
153916000    282.44527    328.98034    269.50216   -153090.28    153148.23     59.47818    30.050695 
153920000    270.33498    495.57404    382.06186   -153119.33    153189.69    113.51218    30.049227 
153924000    289.25377    225.04461    279.02984   -153144.96    153208.79   -53.985226    30.056983 
153928000    269.83796    287.94542    349.55789   -153138.05    153208.39   -61.612468     30.05296 
153932000     269.3644    303.93416    254.84753   -153186.52    153261.65    49.086628    30.052502 
153936000    268.17048    262.32827    311.51015   -153219.93    153299.53   -49.181882    30.053292 
153940000    270.11941    451.37239    264.49246      -153313    153364.47    186.87992    30.061804 
153944000     286.3365    249.05284     252.5855   -153374.69    153428.81   -3.5326612    30.057251 
153948000    286.45552    541.59687    271.87135   -153429.78    153477.37    269.72552    30.053444 
153952000    286.59376    546.00148    439.30361   -153452.12    153518.93    106.69787    30.049839 
153956000    263.53534    274.15246    316.34106   -153498.39    153543.47   -42.188599    30.050949 
153960000    296.75901    471.98187    360.38473   -153542.65    153590.55    111.59714     30.04212 
153964000    318.33735    497.18725    371.76873   -153571.08    153613.64    125.41852    30.046338 
153968000    277.54049     411.4642    287.79051   -153589.21     153657.9    123.67369    30.045801 
153972000    262.15343    351.49372    311.70527   -153603.27     153684.1    39.788446    30.041837 
153976000    279.99674    437.87339    208.41488   -153648.67    153712.04    229.45851    30.033604 
153980000     245.0769    240.19755    298.22205    -153651.4    153738.76   -58.024501    30.038227 
153984000    280.02228    415.22063     234.7725   -153710.24    153781.87    180.44813    30.034883 
153988000    308.12697    558.55463    484.75618   -153770.57    153801.97    73.798447    30.035915 
153992000    289.99361    478.68803    360.16289   -153794.78     153836.6    118.52514    30.035778 
153996000    303.89694    709.01959    250.18476   -153840.98    153881.55    458.83483    30.029789 
154000000    318.63765    243.53239     321.0965   -153832.85    153884.84   -77.564102    30.029279 
154004000    270.05211    218.41616    475.66084   -153895.03    153938.85   -257.24468    30.030075 
154008000    293.20601    359.78133    400.39433   -153929.85    153995.52   -40.612998    30.032543 
154012000    271.40737    267.02895    344.05579   -153953.92    154003.01   -77.026836    30.037685 
154016000    282.74708    320.86563    462.84968   -153964.49    154025.26   -141.98405    30.037485 
154020000    291.72466    405.32592    264.60509   -153984.37    154073.19    140.72083    30.037107 
154024000    276.22513    259.72692    377.31839   -154000.86    154078.25   -117.59147    30.038418 
154028000    278.02448    326.41805    283.97435   -154078.77    154157.52    42.443697    30.028916 
154032000    258.85249    403.43262    498.17968   -154103.98     154194.1   -94.747061    30.030965 
154036000    263.55801    631.49145    198.39276   -154149.83    154245.12    433.09869     30.03633 
154040000    315.76292    301.51009    401.71829   -154207.65    154238.56   -100.20819    30.039107 
154044000    276.35777    137.62802    177.85696   -154218.21    154268.26   -40.228937    30.039998 
154048000    303.48596    553.60172     215.1217   -154255.48    154288.41    338.48001     30.05105 
154052000    300.39272    449.54335    357.45332   -154283.32    154329.44    92.090031    30.042117 
154056000    272.89199    374.56636    351.30763    -154312.4    154378.57    23.258725    30.043078 
154060000    292.61663    530.31997    163.73061   -154378.93    154425.59    366.58936    30.049989 
154064000    286.30119    355.19727    243.76881   -154410.68    154468.24    111.42846    30.056567 
154068000    285.26986    412.55634    313.78423   -154432.02    154480.42    98.772112    30.054788 
154072000    289.16483    213.97171    287.81697   -154465.95     154537.5   -73.845262    30.064155 
154076000    299.67872    473.79099    374.43372   -154514.55    154580.72    99.357261    30.063288 
154080000    286.47596    470.41261    358.48804    -154543.5    154594.92    111.92457    30.056465 
154084000    270.52851    407.96886    311.82824   -154599.67    154638.79    96.140614    30.061561 
154088000    273.08856    220.44441    358.00663   -154630.98    154695.06   -137.56222    30.066119 
154092000    275.84374    373.24698    184.49086   -154698.59    154751.41    188.75611    30.069506 
154096000    293.96707     588.1966     251.0979   -154740.27    154797.06     337.0987    30.075255 
154100000    302.71624    231.81682    302.25296   -154769.35    154811.65   -70.436142    30.077989 
154104000    289.52085     559.2541    322.16144   -154815.56    154875.95    237.09265     30.07302 
154108000     278.5362    399.36487    363.88383   -154843.88    154914.53    35.481047    30.077056 
154112000    293.94687    370.30963     360.9111   -154914.93    154951.88     9.398528    30.068666 
154116000    324.98539     274.8661    525.96017   -154973.25    154986.77   -251.09408    30.074614 
154120000    274.98344    564.90944    348.77569   -155015.43    155066.57    216.13375    30.083352 
154124000    288.26313    556.04527    378.23531   -155052.01    155109.45    177.80995    30.084422 
154128000    264.70696    306.93497    321.13945   -155074.06    155131.55   -14.204475    30.086164 
154132000     295.5119    401.71267    393.73158   -155110.95    155156.72     7.981089    30.086205 
154136000    295.50197    309.18335    207.67541   -155178.41    155223.98    101.50794    30.082534 
154140000    261.21193    198.57691    289.24904   -155197.31    155255.98   -90.672136    30.078745 
154144000    276.37934    403.24651    330.94531   -155272.45    155332.42      72.3012    30.083909 
154148000    272.72899    311.10045    190.86543   -155311.84    155369.07    120.23502    30.082004 
154152000    269.66172    421.84729    286.57337   -155316.31    155367.31    135.27393    30.078136 
154156000    259.16557    366.05988    145.28493   -155340.96    155412.82    220.77495    30.073733 
154160000    254.83726    355.12039    422.29858    -155354.7    155422.67   -67.178191    30.069878 
154164000    303.56007    427.99024    309.62462   -155366.87    155432.33    118.36562    30.064168 
154168000    285.58493     393.3384    435.66674   -155415.03    155469.35   -42.328339    30.067585 
154172000    283.36729    420.57702    306.96639   -155479.99    155530.12    113.61063    30.060791 
154176000    264.66701      335.522    313.68415   -155554.93    155632.45    21.837856    30.054015 
154180000    239.69477    344.71157    218.41773   -155561.46    155636.11    126.29384    30.050702 
154184000    249.30477    384.38905    384.69134   -155618.38    155694.85  -0.30228892    30.045997 
154188000    295.45102    365.57307    375.91451   -155690.68    155747.49    -10.34144    30.048191 
154192000    291.65377    374.99371     456.2695   -155755.33    155795.15   -81.275785     30.05061 
154196000    298.02524    323.86249    269.00915   -155819.38    155851.21    54.853338    30.057188 
154200000    273.23125     346.6842    274.75587    -155866.7     155920.6    71.928335    30.059852 
154204000      269.419     205.4313    328.59879   -155944.47    155998.68   -123.16749    30.054266 
154208000    294.53749    378.98459    202.84837   -155974.03    156043.32    176.13623    30.057903 
154212000     261.1772    445.17266    220.88219   -155996.27     156065.2    224.29048    30.056944 
154216000    296.12434    446.16945    259.37087    -156076.4    156130.68    186.79859    30.051148 
154220000    279.78735    474.85836    387.65517   -156090.54    156146.28    87.203191    30.052297 
154224000    291.59115    172.15635    485.11307   -156132.27    156188.45   -312.95673     30.05225 
154228000    306.57192     374.4987     333.4851   -156180.43     156228.5      41.0136    30.051247 
154232000     241.6374    300.20464    199.76273   -156207.08    156279.93    100.44191    30.050582 
154236000    297.05838    281.90271    354.12334   -156266.65    156327.41   -72.220629    30.045425 
154240000    281.78281    252.59237    359.22078   -156284.79    156343.17   -106.62841    30.044567 
154244000    292.32625    242.80376    256.50937   -156319.05    156374.06    -13.70561    30.043309 
154248000    284.93007     106.7368    352.01863    -156350.7    156415.01   -245.28183    30.037633 
154252000    269.91381    118.78178     362.4822   -156377.62    156452.27   -243.70042    30.035767 
154256000     280.5004    274.74341    393.49289   -156458.36    156508.53   -118.74948    30.037243 
154260000    323.84186     300.0494    257.01638   -156485.62    156514.48    43.033017    30.041518 
154264000    280.88513    341.73806    366.36551   -156507.53    156562.95   -24.627455    30.046929 
154268000    269.10027    230.75543    226.94918   -156524.07    156589.25    3.8062517    30.039343 
154272000    254.03326    427.26468    165.49996   -156542.76    156617.83    261.76473    30.040696 
154276000     274.3663    503.88177    341.04969   -156619.26    156690.75    162.83208    30.035204 
154280000    285.45504    329.98939    311.68968   -156689.01     156732.4    18.299713    30.038122 
154284000    284.67254    280.36366    311.92705   -156737.03    156781.49   -31.563386    30.034133 
154288000    264.13844    449.70039    395.91291   -156756.93    156827.83    53.787481    30.035002 
154292000    285.34905    380.54153    288.33304   -156778.09    156836.01    92.208493    30.033472 
154296000      281.372    492.82091     371.1733   -156810.48    156863.14    121.64761    30.035186 
154300000    281.34627    320.20023    146.75062   -156829.03    156901.11    173.44962    30.035315 
154304000     246.3489    483.81371    284.26759   -156849.78    156954.15    199.54612    30.035991 
154308000    272.67817    163.30527    193.44224   -156890.92    156977.54   -30.136973    30.034996 
154312000    285.81402    265.33812    240.17859   -156938.87    156994.96    25.159532     30.03899 
154316000    284.56077    294.64047    242.14483   -156988.86    157049.56    52.495635    30.040275 
154320000     281.5072    384.10436    260.76369   -157042.49    157099.95    123.34068     30.04002 
154324000    288.97987    272.83445    353.42759   -157119.62    157138.79   -80.593132    30.041551 
154328000    301.56259    367.29651    592.88171   -157118.99    157162.92   -225.58521    30.038105 
154332000     247.5943    393.77117    310.10491   -157116.84    157207.18    83.666258    30.026002 
154336000    276.56761    449.04168    365.53243   -157126.79     157189.4    83.509249    30.024902 
154340000    287.83194    382.58834    251.68633   -157146.57    157214.28    130.90201    30.022891 
154344000    256.70883    601.04989     271.4033   -157184.12    157271.36    329.64658     30.02013 
154348000    264.48512    255.73995    293.14047   -157199.43    157274.79   -37.400522    30.023076 
154352000     291.7843    301.85978    282.29069   -157222.15    157283.26    19.569087    30.022511 
154356000    270.95477    232.17082    292.25253   -157264.08    157346.42   -60.081709    30.022236 
154360000    281.41548    497.79312    182.37971   -157294.97    157369.95    315.41341    30.034174 
154364000    286.03964    379.02871    420.92967   -157324.52    157346.68   -41.900956    30.032663 
154368000    272.85769    376.42648    208.81041   -157357.42    157420.33    167.61607    30.046115 
154372000    283.87342    390.80992    258.48644   -157384.07     157444.3    132.32348    30.049311 
154376000    270.65557      492.079    332.65385   -157434.43    157502.27    159.42515    30.046185 
154380000    280.53261    493.74592    325.30619   -157447.66    157506.02    168.43973     30.05771 
154384000    275.16263    378.59611    239.73643   -157499.06    157566.35    138.85968    30.063601 
154388000    276.08677    509.80076    341.44943   -157515.23    157574.25    168.35133    30.064893 
154392000    256.51644    204.95275    350.62505   -157560.04    157639.89   -145.67229    30.066309 
154396000    309.86677    334.48514    380.15621   -157637.77    157688.63   -45.671066    30.064624 
154400000     263.2222    303.79222    303.51564   -157638.09    157703.78   0.27658777    30.064567 
154404000    285.53352    396.81605     328.1576   -157651.38    157724.31    68.658442    30.075691 
154408000    324.57626    430.42837    381.08207   -157688.93    157718.48    49.346297    30.078781 
154412000    295.53924    432.34472    247.22438   -157726.02    157774.25    185.12034    30.081101 
154416000    279.62244    464.94759    269.98965   -157724.86    157801.29    194.95794    30.082355 
154420000    313.66878    531.10966    316.21082   -157794.51    157836.75    214.89884    30.081183 
154424000     325.1377    494.34624    550.72248   -157857.75    157892.25   -56.376248     30.07626 
154428000    280.08678    350.06894    291.99284   -157895.46    157951.46    58.076099    30.080855 
154432000    258.39863    469.98791    205.30555   -157923.47    157991.44    264.68236    30.083445 
154436000    295.16731    344.98526    155.31053   -157932.16    157983.86    189.67473    30.088433 
154440000    305.11943    465.49229    420.98799   -157976.63    158025.77    44.504299    30.082797 
154444000    272.34351    399.12488    526.43103   -157994.09    158065.61   -127.30615    30.086292 
154448000     265.0015    262.81146    244.29724   -158013.34    158070.27    18.514223    30.076374 
154452000    295.53886    404.00561    380.76911   -158039.98    158084.84    23.236508    30.072188 
154456000    304.15505    345.93722    332.73652   -158073.03     158118.3      13.2007    30.081071 
154460000    315.88865    481.11055    424.30406   -158119.76    158149.87    56.806489     30.07127 
154464000    274.10449    201.53178    346.46281   -158149.65    158217.35   -144.93103    30.068898 
154468000    298.84746    412.18274    459.18774   -158170.66    158238.33   -47.005003    30.071773 
154472000    286.56385    339.59257    405.41254   -158222.66    158251.97   -65.819969    30.068576 
154476000    301.20503    451.49571    221.72238    -158228.6    158286.62    229.77332    30.072972 
154480000    276.87108    331.41753    335.17939   -158269.28    158325.98   -3.7618639     30.06724 
154484000    305.29646    261.10534    497.45187   -158316.08    158349.98   -236.34653    30.073589 
154488000    292.59557    554.95967    220.68958   -158339.88    158407.72    334.27008    30.076569 
154492000     307.9017    443.23069    375.45341   -158369.71    158397.94    67.777278    30.073616 
154496000    273.81196    314.74871    221.74654   -158380.88    158454.42    93.002165    30.071123 
154500000    280.62972    422.43682    246.37454   -158418.33    158473.29    176.06228    30.067863 
154504000    278.89331    386.89866    490.65955   -158433.97    158507.28   -103.76089    30.062536 
154508000    267.31695    306.00089    329.12366   -158465.11    158549.62   -23.122771    30.064049 
154512000    280.49678    289.81665    373.10325   -158526.16    158589.79   -83.286601    30.067548 
154516000    271.46725    384.70905     321.3052   -158584.32    158634.22    63.403857    30.068854 
154520000    293.18426    389.57903     294.3385   -158650.08    158682.84    95.240526    30.080574 
154524000    277.46466    310.69785    384.48485   -158683.19    158731.73   -73.786996    30.077397 
154528000    298.42562     238.7873    372.42218    -158702.3    158759.63   -133.63488    30.070755 
154532000    280.46876    310.35933    354.87252   -158747.12    158807.61   -44.513187    30.075221 
154536000    291.50278    276.74034     394.2652    -158797.5    158853.96   -117.52486    30.070372 
154540000    279.41632    379.97161    335.86983   -158797.49    158869.66    44.101779    30.067451 
154544000    262.10215    311.13007    220.36115   -158822.91    158895.18    90.768921    30.068491 
154548000    291.42602     446.0575    436.49018   -158828.43    158896.56    9.5673188    30.056374 
154552000    271.15227    306.49975     459.4302   -158857.65    158933.12   -152.93045    30.059676 
154556000    285.66496    242.26924    276.42886   -158896.27    158951.22   -34.159621    30.058852 
154560000    270.42992    166.19849    404.71188   -158921.18    158991.54   -238.51339    30.050225 
154564000    269.44321    437.92594    362.17898   -158976.16    159048.97    75.746953    30.043099 
154568000     308.6661    245.13588    511.29369   -158996.68    159057.33   -266.15781    30.040634 
154572000     285.4327    216.54028    297.51516   -159043.47    159111.59   -80.974879    30.037871 
154576000    286.18173    265.48042    314.20421   -159071.89    159138.93   -48.723787    30.038326 
154580000    293.23947     251.9455    214.18864   -159095.54    159159.34    37.756858    30.029099 
154584000    299.46271    415.23363    344.66661   -159120.84    159171.08    70.567025    30.025374 
154588000    301.75061    327.20237     294.6001    -159134.4     159201.9    32.602266    30.025155 
154592000    294.69152    316.08683    279.45233   -159187.42    159248.19    36.634503    30.023702 
154596000    267.61919    292.07535    555.75981    -159223.6    159292.94   -263.68446    30.016311 
154600000    292.30555    378.26775    244.64759   -159284.56    159335.66    133.62016    30.017243 
154604000    282.88844    423.89613    307.08576   -159292.43    159366.81    116.81038    30.020766 
154608000    267.73221    341.57154    226.34571   -159311.23    159379.73    115.22583    30.015724 
154612000    276.01619    376.70079    489.08039   -159330.75    159392.39    -112.3796    30.014531 
154616000    300.41357    399.67377    362.40772   -159378.46    159416.19    37.266046     30.01757 
154620000    294.16754    623.14985    242.53931   -159388.24    159450.56    380.61054    30.016511 
154624000    302.27665    384.52486    303.84911   -159425.73    159479.25    80.675754    30.011463 
154628000    316.09924    448.34238    396.72271   -159457.04    159483.07    51.619672    30.009125 
154632000    324.32706    226.09569    436.00905   -159493.12    159551.56   -209.91336    30.006357 
154636000    275.81682     447.2499     178.9429   -159516.85    159580.65      268.307    30.000713 
154640000    255.34756    206.51872    347.42739   -159514.16    159603.75   -140.90867    30.004345 
154644000    273.33909    269.81574    166.94719   -159569.09    159633.81    102.86856     30.00904 
154648000    273.72816    250.53543    260.58947   -159613.42    159676.13   -10.054035    30.015166 
154652000    257.40991    444.15482    240.32708   -159672.48    159755.03    203.82774    30.020482 
154656000    282.63654    312.83249    251.49864   -159736.19    159796.07     61.33385    30.015914 
154660000    288.55846    216.35633    334.85589    -159764.4    159826.35   -118.49956    30.017379 
154664000    272.11509    389.81722    306.35093   -159817.26     159887.4    83.466296    30.021104 
154668000    278.40139    454.77471    369.38321   -159877.66    159950.51    85.391507    30.023911 
154672000    264.23462    353.80993    335.26747   -159919.01    160007.67    18.542467     30.03718 
154676000    302.16635    557.24391     425.5131   -159973.65    160041.07    131.73081    30.035012 
154680000    250.54809    299.86409    155.83289   -160002.04    160085.47    144.03119    30.045857 
154684000    294.69215    306.84935    256.51473   -160040.86    160119.94     50.33462    30.046581 
154688000    266.88046    167.51747    287.10789   -160100.01    160154.14   -119.59042    30.051489 
154692000     308.5048    543.30674    196.25286   -160138.57    160183.78    347.05387     30.05675 
154696000    255.84274     348.2006    602.88118   -160204.79     160257.6   -254.68058    30.058793 
154700000    310.06932    317.35029    316.60319   -160239.21    160289.46   0.74710325    30.060249 
154704000    298.82962     238.8776    315.88002   -160293.71    160348.98   -77.002427    30.064565 
154708000    295.23908    339.85278    361.66885   -160342.19    160383.61   -21.816067    30.072067 
154712000    283.44114    251.59435    224.05484   -160375.27    160429.78    27.539506    30.069679 
154716000    282.49944    259.70828    392.14884    -160415.2    160485.22   -132.44056    30.070378 
154720000    303.28941    255.65906    257.21647   -160442.64    160474.32   -1.5574011    30.070628 
154724000    293.78408    314.75783    294.48279   -160438.24    160492.88    20.275038    30.074013 
154728000    301.96856    467.79907    260.91082   -160471.33    160528.46    206.88825    30.069484 
154732000    310.41555    302.09109    377.55585   -160490.74     160551.2    -75.46476    30.065946 
154736000    288.30896    371.84946    194.61071   -160518.04    160580.74    177.23875    30.063825 
154740000    317.37586    208.19683    355.14947   -160569.45    160604.25   -146.95263    30.060334 
154744000    281.20317    250.84276    379.00363   -160567.91    160633.57   -128.16087    30.063168 
154748000    295.61793    450.33891    376.15633   -160593.38    160648.27    74.182588    30.060997 
154752000    265.88591    357.53914    403.02422   -160616.18    160695.47   -45.485076    30.064197 
154756000    289.39285    558.98374    256.09683   -160642.06    160710.93    302.88691    30.063609 
154760000    250.58656    356.55961    143.80995   -160653.35    160751.46    212.74967    30.061971 
154764000     305.5035    454.37082    376.23679   -160686.56    160748.86    78.134031    30.068865 
154768000    253.61932    248.39418    244.01769   -160673.47     160762.8    4.3764911    30.063549 
154772000    281.16822    533.87137    528.36257    -160682.8    160752.86    5.5088074    30.059924 
154776000     297.8535    449.99864    419.37806   -160748.26    160777.88    30.620582    30.062614 
154780000     297.4583    422.42302    265.48499   -160763.24    160822.78    156.93803    30.059554 
154784000    306.71299    249.26246    372.13892   -160790.21    160832.29   -122.87646    30.047451 
154788000    291.99716    316.29606    375.05866   -160832.46    160872.74   -58.762605    30.048556 
154792000    286.42388    318.59173    246.91434   -160870.57    160936.83    71.677383    30.050438 
154796000    288.26307    496.22857     193.2805   -160896.98    160953.68    302.94807    30.048309 
154800000    265.02427    238.68968    274.74445   -160950.33    161016.16   -36.054772    30.042271 
154804000    293.11708    219.05042    350.59018   -160982.86    161042.62   -131.53976    30.040942 
154808000    307.20871    431.70047    377.52708    -161008.4    161060.99    54.173391     30.04572 
154812000    274.87534    298.57775    346.16837   -161046.75    161124.58   -47.590624    30.044045 
154816000    252.77287    218.39293    200.06868   -161080.59     161153.2    18.324246    30.045996 
154820000    292.96081    526.29557    330.80325   -161123.08    161173.22    195.49232    30.040896 
154824000    287.55005    243.45922    432.68399   -161155.04    161197.22   -189.22477    30.035908 
154828000    295.13917    316.97226    216.38415   -161139.72    161211.62    100.58811    30.045475 
154832000     293.8992    239.66229    375.97003   -161175.89    161238.93   -136.30774    30.043988 
154836000    275.77942    559.47213    389.32406   -161219.65    161285.94    170.14807    30.034893 
154840000    300.90203    213.96605    263.71277   -161275.05    161334.45   -49.746727    30.034036 
154844000    283.58669     254.9433    283.39847    -161298.2    161366.47    -28.45517    30.037094 
154848000    299.50839     309.9006    469.83959   -161347.73    161408.17   -159.93899    30.019858 
154852000    271.97543    172.10073    248.84089   -161375.51    161449.02   -76.740169    30.018106 
154856000    295.75363    268.74771    563.32391   -161400.66     161460.6   -294.57619    30.024443 
154860000    277.36016    391.59626    226.86373   -161407.43    161478.25    164.73253    30.026763 
154864000    260.78697    310.17473    300.38294   -161440.93    161521.96    9.7917965    30.024952 
154868000    261.70606    475.44211    278.64972   -161492.84     161557.6    196.79239    30.031402 
154872000    260.57864    325.86065    338.07099   -161547.05    161625.92   -12.210343    30.038428 
154876000     260.1722    282.90094    284.80447   -161581.25    161658.85   -1.9035233    30.035291 
154880000     273.5329    240.22567     155.5521   -161587.43    161657.03     84.67357    30.044905 
154884000    285.84908    328.43805    441.57495   -161591.53    161659.26    -113.1369     30.04032 
154888000    311.18789    417.07396    338.05774   -161654.79    161709.53    79.016219    30.038536 
154892000    254.35051    244.28724    322.38041   -161692.15    161765.75   -78.093162    30.041262 
154896000    293.16959    341.31627    361.93915   -161724.14    161779.54   -20.622878     30.04893 
154900000    283.11053    227.23957    491.13718   -161772.72    161833.27   -263.89761    30.046822 
154904000     294.3873    256.09983    315.44798   -161788.95    161852.21   -59.348148    30.041856 
154908000    304.90977    291.14924     477.2307   -161861.62    161905.19   -186.08146    30.036512 
154912000    275.95534    539.43729    414.98922   -161881.98    161931.82    124.44808    30.034853 
154916000    279.73288    308.30736    233.02493   -161910.83    161977.02    75.282434    30.041825 
154920000    285.21317    383.70971    213.37635   -161943.77    162019.01    170.33336     30.04133 
154924000    280.62354    330.70079    252.68652   -161988.13    162053.64     78.01427    30.041906 
154928000     276.0651    457.97746    238.27567   -162019.97    162094.54    219.70179    30.040621 
154932000     291.0088    350.68337     446.5072   -162079.22    162127.88   -95.823837    30.042217 
154936000    291.67273    408.48895    342.43215   -162124.41    162172.49    66.056805    30.043243 
154940000    305.35769    366.42105     307.5472   -162141.39    162199.15    58.873848    30.047635 
154944000    301.07744    333.89831    221.36172    -162144.2    162197.32    112.53659    30.036611 
154948000    306.01735    522.24892    324.03447   -162168.05    162206.47    198.21445    30.036299 
154952000    279.18657    479.45176    432.63207   -162150.07    162219.42    46.819695    30.043398 
154956000    290.30561    331.25522    283.40174   -162176.54    162248.68    47.853484    30.051844 
154960000    316.35543    484.53564      264.979   -162229.51    162275.35    219.55664    30.047497 
154964000    289.05467    418.16152     239.4876   -162253.17    162305.65    178.67392    30.050491 
154968000    297.48454    250.34803     367.2421   -162281.05    162359.79   -116.89407     30.05573 
154972000      267.496    309.75372    357.44578   -162349.84    162427.56   -47.692054    30.053816 
154976000    282.07651     334.1891    298.40637   -162393.49    162469.99     35.78273    30.051105 
154980000    286.86863    499.51773    317.64024      -162444     162511.5     181.8775    30.056962 
154984000    269.68826    377.53384    204.87932   -162460.93    162532.07    172.65452    30.060164 
154988000    285.08311    389.97987    448.76113   -162518.42    162578.76   -58.781256    30.054424 
154992000    302.28204     339.5975    240.40985    -162550.6    162623.06    99.187649    30.058331 
154996000    319.45406    595.33251    244.57589    -162611.1    162658.43    350.75661    30.064867 
155000000    284.22055    357.49762    306.28097   -162616.68     162678.4    51.216648    30.064236 
155004000    266.54962    354.05799    312.73938   -162648.34    162726.91    41.318612    30.060645 
155008000    287.80454    342.45609    274.59968    -162687.1    162758.18    67.856415    30.060724 
155012000    282.04401    335.23407    260.60067   -162728.26    162780.36    74.633405    30.054548 
155016000    294.94748    294.23704    280.38139   -162756.94    162813.07    13.855655    30.051908 
155020000     269.4625    323.12374     375.1189    -162759.3    162821.44   -51.995153    30.056512 
155024000    273.06757     310.6798    344.94506   -162799.47    162872.34   -34.265257    30.059961 
155028000    296.89219    288.12609    537.73011   -162834.37    162888.44   -249.60402    30.063461 
155032000    292.41959    395.55232    439.62598   -162837.88    162901.17   -44.073655    30.053398 
155036000    253.17356    253.01934    378.07955   -162871.62    162947.38    -125.0602    30.053145 
155040000    264.73984    356.85632     224.5486   -162885.43    162946.15    132.30772    30.049692 
155044000    300.90315    215.02612    206.49906   -162927.32    162985.06    8.5270668    30.058783 
155048000    290.44873    604.76015    277.41378   -162946.37    162999.01    327.34637    30.057411 
155052000    264.24434    219.77923    350.51235   -162965.65    163030.02   -130.73311    30.056163 
155056000     280.9648    283.19181    388.77914   -163006.68       163079   -105.58733    30.050518 
155060000    290.20653    495.74157    218.62598    -163043.7    163109.38    277.11559    30.046713 
155064000    265.90484    274.80926    368.69126   -163073.15    163139.41      -93.882    30.050335 
155068000    266.80078    330.38354    270.61266    -163118.4     163195.7    59.770879    30.053269 
155072000    250.83468    316.32122    516.06092   -163158.31    163244.06    -199.7397    30.051143 
155076000    277.10159     370.4521    305.24461   -163201.48    163277.41    65.207489     30.05493 
155080000    275.43458    202.75054    318.21744   -163242.14    163291.23    -115.4669    30.052465 
155084000    293.64835    541.09955    428.47945   -163265.13    163329.05     112.6201    30.051711 
155088000    271.92819    384.94745    209.97543   -163298.92    163371.45    174.97202    30.050928 
155092000     270.5792    347.82549    300.99702   -163367.47    163421.85    46.828474    30.050666 
155096000    292.59729    306.55774    242.05523   -163411.97    163469.81     64.50251    30.049274 
155100000    301.95714    404.99496    292.06156   -163436.02     163497.2    112.93341    30.057733 
155104000    258.47983    184.05808      230.557   -163450.62    163529.91    -46.49892     30.05367 
155108000    277.88355    372.19492    352.62243   -163504.34    163566.67    19.572493    30.054467 
155112000    266.58459    399.65121    260.67905   -163563.25    163637.93    138.97216    30.048057 
155116000    300.68445    270.15666    339.94184   -163607.94    163657.11   -69.785176    30.046582 
155120000    321.44391    497.71269     436.7478   -163638.12    163676.96    60.964898    30.044538 
155124000    282.64532    348.91916    423.11382   -163675.88     163733.1   -74.194667    30.046922 
155128000    269.79584    324.63192     317.8521   -163690.39    163766.26    6.7798134    30.046007 
155132000    273.66017    488.70111    189.55571   -163731.27    163786.29     299.1454    30.052391 
155136000    268.15921    241.05598    229.11853   -163767.71    163839.78    11.937445    30.060118 
155140000    270.30812    513.12908    294.19326   -163806.65    163861.07    218.93582    30.069447 
155144000    311.97038    621.32658    422.55266   -163824.03    163865.82    198.77392    30.069764 
155148000    284.77428    242.02477    267.28678   -163847.09    163910.92   -25.262011     30.06784 
155152000    269.56647    418.59962     292.7091   -163891.76    163953.04    125.89052    30.059351 
155156000    289.18096    333.13736    469.38272   -163914.32    163956.66   -136.24536    30.049836 
155160000    270.79678    411.18862    206.11606   -163925.58    164000.96    205.07256    30.048903 
155164000    286.84982    279.04355    376.06655   -163959.64    164029.78   -97.022993      30.0565 
155168000    272.77404    279.78684    354.69117   -163970.08    164058.47   -74.904324    30.057961 
155172000    280.84892    265.96605    418.64281   -163995.69    164073.64   -152.67676    30.052724 
155176000    274.01014    493.50753    446.57834   -164040.81    164102.85    46.929187    30.054017 
155180000    308.29427    318.55799    372.22288   -164063.52    164119.68   -53.664888    30.052242 
155184000    290.95267    446.84005    391.66779   -164102.67    164159.82    55.172253    30.058467 
155188000    286.40578     281.0664    324.31502   -164143.61    164213.17   -43.248625    30.061346 
155192000    290.29064    629.53791    234.17123   -164166.05    164231.67    395.36668    30.064808 
155196000    284.31884    227.76271    430.68242   -164199.64    164265.28   -202.91971    30.060414 
155200000    287.73873     181.6596    365.60054   -164201.75    164262.32   -183.94094    30.061466 
155204000    292.58426    524.78132    335.05719   -164255.46    164295.41    189.72414    30.057897 
155208000    303.16601    356.22029    192.84715   -164235.86    164286.12    163.37314     30.06066 
155212000    280.57888    221.62539     140.5367   -164248.93    164319.13    81.088686    30.066329 
155216000    279.22252    420.20174    328.70041   -164276.34    164328.92    91.501337     30.06958 
155220000    275.70447    449.32951    232.07729   -164305.59    164386.42    217.25222    30.066072 
155224000    282.61463     239.8495     342.6813   -164344.52    164415.56    -102.8318    30.066289 
155228000    307.12175    417.43549    320.32169   -164406.76    164458.61      97.1138    30.064469 
155232000     286.1993    173.18442    286.68404   -164445.97    164491.38   -113.49962    30.052306 
155236000    293.99736    427.15947    291.17305   -164500.17       164560    135.98642    30.044654 
155240000     276.6873    504.41223    249.27275   -164505.91    164572.46    255.13948    30.047411 
155244000    304.73564    218.05485     313.8537   -164534.01    164585.19   -95.798851    30.045811 
155248000    305.04596    549.27694    231.43873    -164575.4    164619.59    317.83821    30.048655 
155252000    295.77305    315.34463    326.08658   -164587.85    164625.79    -10.74195    30.043798 
155256000     260.2187    548.94062    234.43092   -164608.48    164672.28    314.50969    30.032866 
155260000    247.49588    312.14904    350.00641   -164652.81    164728.54   -37.857375    30.037229 
155264000     294.9618    262.76846    360.78866   -164704.05    164768.45   -98.020202    30.037663 
155268000    280.58965    525.02804    235.05359   -164711.96    164783.33    289.97445    30.032677 
155272000    263.56769    347.71658    481.38123   -164769.85    164842.99   -133.66465    30.032866 
155276000    265.06898    409.28402    353.87309   -164824.97     164881.4    55.410936    30.033746 
155280000    281.31422    296.92523    394.37538    -164851.3    164922.17   -97.450146    30.034225 
155284000    308.41232    394.19727    388.16466   -164882.88    164940.46    6.0326045    30.028178 
155288000    279.97925    451.29263    243.83795   -164951.41    165021.54    207.45468    30.031833 
155292000    267.72326    279.85478    298.46427   -164984.94    165059.67   -18.609493    30.032104 
155296000    284.77449    273.76758    298.25848   -165013.37    165091.79   -24.490899    30.029742 
155300000    303.32596    198.18932    571.93235   -165049.89    165117.25   -373.74303    30.031524 
155304000    307.46999    277.87619    371.84259   -165075.17    165131.71   -93.966399    30.038017 
155308000    279.83456    327.53652    385.29982   -165099.01    165156.53   -57.763298    30.038308 
155312000    278.19599    330.37552    357.55594   -165143.28     165190.9    -27.18042    30.041059 
155316000    269.10756    332.26248    346.30396   -165171.08    165242.39   -14.041484    30.043474 
155320000    295.69872    425.43937    390.25865   -165252.07    165308.61     35.18072    30.040196 
155324000    288.88116    505.57615    350.05469   -165311.55    165372.91    155.52146    30.044156 
155328000    298.06779    529.33473    344.36214   -165361.37    165414.06    184.97259    30.040896 
155332000    305.59254    472.62552    198.25223   -165421.26    165463.95    274.37329    30.041528 
155336000    285.94351    337.68716    213.03338   -165438.27    165481.85    124.65378    30.034628 
155340000    309.97343    282.71715    297.65234   -165440.61    165491.25   -14.935183    30.035371 
155344000    288.01327    432.39878     195.0564   -165471.29    165536.97    237.34238    30.038126 
155348000    282.44153    476.72338    221.03381   -165516.99    165585.62    255.68957    30.040973 
155352000    293.16874    420.42324    324.96434   -165567.96    165636.96    95.458897    30.036666 
155356000    271.83764    371.48547    319.22601   -165622.26     165682.7    52.259462    30.037399 
155360000    272.64179    310.81381    268.13596   -165679.78     165762.3    42.677845    30.030518 
155364000    288.54305    414.22339     452.2161   -165700.84    165752.49   -37.992705    30.034071 
155368000     296.5764    378.07832    286.53741   -165703.71    165763.39    91.540918    30.026123 
155372000    278.70661    344.34421    368.95642   -165736.85    165804.98   -24.612211    30.027341 
155376000    277.10277    200.84512     311.3009   -165753.48    165825.82   -110.45578    30.024542 
155380000    296.48277    335.26302    274.99673   -165790.81    165840.65    60.266291     30.01372 
155384000    291.05412    321.75518    222.01874   -165852.96    165895.93    99.736442     30.00856 
155388000    253.09365    321.09011    249.55844   -165893.98    165973.41     71.53167    30.008107 
155392000    288.81561     435.9712    309.92213    -165940.4       165989    126.04907    30.012475 
155396000    295.70225    276.29632    417.81464   -165959.22     166010.3   -141.51831    30.005202 
155400000    298.76762    332.65513    284.53797    -165993.7    166033.24     48.11716    30.004943 
155404000    288.97213    338.44364     207.1605   -166021.13     166083.5    131.28314    30.007096 
155408000    285.57056    224.38286    252.54739   -166050.88    166108.01   -28.164529    30.008774 
155412000     286.5935    286.35734    309.14081   -166097.93    166147.51   -22.783465    30.008301 
155416000    274.18674    281.96754    496.05068   -166139.41    166201.77   -214.08314     29.99776 
155420000    259.66517    295.11489    261.00477   -166142.77    166215.14    34.110122     29.98789 
155424000     296.5479    340.18024    384.62126   -166169.96    166223.52   -44.441013    29.991242 
155428000    264.82134    230.60055     433.1191    -166175.9    166244.01   -202.51855    29.993616 
155432000    288.84103    468.43368    233.94534   -166229.46    166272.52    234.48834    29.992141 
155436000     261.5489    169.91933    115.88344    -166242.4    166314.65    54.035889    29.990487 
155440000    274.79204    378.75086    253.26801   -166287.43    166341.71    125.48285    29.993655 
155444000    282.58176    425.77528    195.98542   -166318.35    166379.05    229.78986    29.998879 
155448000    280.87319    608.91855    341.61281    -166361.1    166428.84    267.30574    29.996305 
155452000    279.43977    202.53851    339.65105    -166409.7    166470.99   -137.11254    29.990458 
155456000    309.87452    458.12331    335.23315   -166445.34    166513.16    122.89017    29.996051 
155460000    281.34467    354.25223     234.5415   -166456.66    166539.75    119.71074     29.99522 
155464000    277.90346    365.48697    363.48474   -166491.37     166556.9    2.0022331    29.997817 
155468000    285.15121    411.22438     345.8817   -166505.19    166568.78     65.34268     29.99643 
155472000    264.97223    336.26889    238.65094   -166504.42    166584.88     97.61795     29.99328 
155476000    265.06286    218.72907    288.58294   -166533.21    166610.84   -69.853877    29.996929 
155480000    275.66905    345.20944    347.49672   -166533.65    166607.52    -2.287281    29.993602 
155484000    275.06252    449.05383    298.14424   -166549.01    166625.41    150.90959    30.007784 
155488000    266.86265    276.18242    275.67402   -166607.32    166674.76   0.50839926    30.010264 
155492000    280.69737    174.23943    278.34465   -166628.62    166693.43   -104.10521    30.007899 
155496000    277.11318    323.70619    320.18722    -166652.6    166719.43    3.5189685      30.0022 
155500000    295.47754    298.13101    432.81734   -166683.11    166743.78   -134.68633    30.004694 
155504000    284.07596    320.16909    206.92101   -166738.52    166789.12    113.24808     30.00102 
155508000    290.00563    443.49319    312.49936   -166771.74    166813.88    130.99383    29.992256 
155512000    299.04729    310.14583    287.74238   -166826.09     166862.4    22.403451    29.990086 
155516000    293.22711     292.3791    458.38463   -166863.82    166913.32   -166.00553    29.988046 
155520000    265.95494     272.8842    223.98326   -166898.91    166978.45    48.900944    29.995557 
155524000    262.42158    444.65875    168.73329   -166939.54    167027.33    275.92546    30.002357 
155528000    299.72784    415.37985    450.54526   -166960.37    167021.39   -35.165408    29.993979 
155532000     317.1202    323.68738    329.97196    -167003.1    167035.14   -6.2845781    29.996464 
155536000    293.83123    350.80277    318.67765   -167003.34    167058.48    32.125125    29.998386 
155540000    293.81255    426.60234    227.57458   -167020.83    167071.97    199.02776      29.9915 
155544000    294.63884    258.04271    351.72315    -167044.8    167088.11   -93.680436    29.999167 
155548000    326.38274    559.85816    710.74777   -167102.89    167137.23    -150.8896    29.995874 
155552000    290.80404     302.2219    298.23804   -167120.66    167159.92    3.9838544    29.992085 
155556000    264.89623    437.23782    392.38176   -167133.58    167205.71    44.856064    29.993664 
155560000    269.43279    295.16908    228.26147   -167189.95    167245.58    66.907613    29.992914 
155564000    292.78439    240.54112    306.59613   -167204.72    167274.15   -66.055006    29.984551 
155568000    281.83945    227.89937    417.18212   -167243.14    167296.85   -189.28274    29.989877 
155572000    274.40506    321.90294    261.18149   -167244.79    167305.89     60.72145    29.992604 
155576000    293.18267    352.20379    310.19983    -167279.8    167322.65    42.003964    29.994029 
155580000    264.55711    353.31488    254.85551   -167292.31    167371.29    98.459373    29.994155 
155584000    281.11279    327.29414    476.62319   -167335.79    167406.89   -149.32905    29.989642 
155588000    298.96779    543.26339     250.2157   -167362.24    167421.87     293.0477    29.988262 
155592000    280.49078    316.49323    296.01052   -167367.21    167420.82    20.482703    29.986901 
155596000    259.85665     347.4911    221.52407   -167387.36    167458.82    125.96703    29.984961 
155600000    288.67662    418.89939    324.01606   -167428.42     167486.7    94.883338    29.980947 
155604000    310.12135    616.39325    301.44285   -167483.86    167520.77     314.9504    29.988139 
155608000    276.49342    315.25945    438.76298   -167520.18    167587.38   -123.50353     29.99029 
155612000    262.57903    397.03403    293.04918   -167553.71    167619.69    103.98485    29.998589 
155616000    262.18953    396.45375    425.76773   -167586.09    167667.67   -29.313983    30.006554 
155620000    277.99814    247.73941    266.12011   -167621.67    167708.36   -18.380696     30.00554 
155624000    308.75657    300.87063    339.38297   -167655.95    167710.51   -38.512333    30.001424 
155628000    297.40149    428.24255    223.70403   -167672.36    167734.25    204.53852    29.994283 
155632000    273.75655    296.48622    414.26389   -167711.85     167787.4   -117.77768    30.003712 
155636000    262.98761    207.37156    194.88065   -167721.28    167805.47     12.49092    29.999346 
155640000    323.93475    375.42683    506.89492    -167761.9    167806.91   -131.46809      30.0009 
155644000    305.62489    268.67867    306.15628   -167805.93    167848.67   -37.477607    30.003701 
155648000    302.90421    486.30728    323.23007   -167803.78    167855.05    163.07722    30.002143 
155652000    271.06271    478.53972    190.36654   -167807.14    167886.23    288.17318    30.003919 
155656000    268.11675    317.17273    314.97592   -167848.04    167932.76    2.1968099    29.999587 
155660000    282.84119    256.50797      301.996   -167903.39    167972.81   -45.488035    29.995219 
155664000    302.22152     322.4285    417.49914   -167935.95    167991.27    -95.07064    29.996808 
155668000     290.5671    332.13954    278.76663   -167978.22    168029.87    53.372908    30.007498 
155672000    275.32801    361.37654    265.31314   -168006.47     168073.5    96.063402    30.006122 
155676000    293.80885    343.32746    362.00631   -168072.42    168128.08   -18.678848    30.008327 
155680000    284.78127    170.11009    385.77277   -168125.41    168180.48   -215.66268    30.004633 
155684000    314.19221    324.35787    221.60949   -168142.73    168194.89    102.74838    29.999787 
155688000    291.36789    165.83017    206.05817   -168194.16    168267.98   -40.227993    30.002048 
155692000    295.11132    539.69056     327.1238   -168242.07     168291.8    212.56676    30.005137 
155696000    269.12899     447.1608    327.05269   -168232.88    168288.66    120.10811     30.00711 
155700000    293.79823    361.30674    489.17116   -168264.51    168316.73   -127.86442    30.002865 
155704000    292.09049     250.5522    454.02511   -168289.84    168356.32    -203.4729    30.011541 
155708000    272.70344    328.08155     326.0721   -168354.58    168401.79    2.0094451     30.01617 
155712000    274.58096    537.14644    392.98673   -168355.42    168423.21    144.15971    30.020493 
155716000    254.16618    360.79487    300.69447    -168380.4    168459.13    60.100398    30.019291 
155720000    292.43632    539.67085    395.12411   -168416.85    168476.17    144.54673    30.018207 
155724000    246.63829    435.31113    164.48159   -168414.59    168505.71    270.82954    30.022671 
155728000    285.78332    450.82762     319.1344   -168458.49    168519.28    131.69322    30.020411 
155732000    282.97877    473.80263     445.2486   -168467.15    168545.84     28.55403     30.01782 
155736000    271.03531    264.06535    293.52748   -168514.51    168578.08   -29.462134    30.014154 
155740000    273.37564     268.2812    456.93702   -168533.87    168613.53   -188.65582    30.001861 
155744000    287.42416    423.39433    283.14746   -168596.56    168670.02    140.24688    30.009931 
155748000    284.85793    277.36692    347.85821    -168593.4    168652.06   -70.491297    30.007909 
155752000    286.97595    284.28046    458.09385   -168638.01    168698.81   -173.81338    30.003343 
155756000    300.74308    228.30907    278.00202    -168683.5     168733.6   -49.692952     30.00125 
155760000    279.91357    268.77666    330.85928   -168693.13    168766.41   -62.082626    30.002381 
155764000    261.28295    245.18437    322.75021   -168746.69    168832.74   -77.565849    29.994959 
155768000    306.15322    481.74957    286.78719   -168811.17    168871.62    194.96238    29.998638 
155772000    290.22348     376.0916    241.62954   -168848.16    168917.81    134.46206    30.000774 
155776000    283.36715    541.36896    360.95198   -168862.11    168927.68    180.41698    29.996122 
155780000     280.4709    446.16279    380.83736   -168897.99    168969.85    65.325431    30.001262 
155784000    285.31499    311.41587    225.62796   -168963.01     169017.3     85.78791     30.00084 
155788000    306.25344    539.49883    369.31239    -169002.4    169050.65    170.18644    30.003638 
155792000    296.11423    317.59898    557.79856   -169024.15     169080.3   -240.19957    29.994504 
155796000    293.13342     227.6987    539.57505    -169088.3    169137.59   -311.87635    29.992835 
155800000    281.96389    381.66706    347.93863   -169100.21    169165.17    33.728426    29.988919 
155804000    280.24668    361.80659    252.74482    -169149.4    169194.85    109.06177     29.99273 
155808000    296.24385    463.51203    420.36575   -169181.62    169221.37    43.146287    29.986604 
155812000     309.7947    292.49295    456.59222   -169165.31    169219.41   -164.09927    29.986637 
155816000    299.96469    316.39122    305.38942   -169198.04     169258.5    11.001797    29.994355 
155820000    306.27634    384.25383    438.79873   -169240.25    169278.32   -54.544897    29.992659 
155824000    325.41903    365.64562    438.40634   -169280.16    169318.24   -72.760723     29.99318 
155828000    282.67612    389.16343    249.05683   -169294.44    169348.27     140.1066    30.000389 
155832000    291.69542     407.7237    211.54306   -169345.08    169389.39    196.18064    30.001356 
155836000     272.3797    461.58693    332.32898   -169372.77    169437.41    129.25795    30.003909 
155840000    261.79498    365.42647    252.79907   -169389.68     169467.7    112.62741    29.998854 
155844000    279.17838    234.72219    234.94908   -169432.42    169511.99  -0.22689698    30.002737 
155848000    268.47935    300.64755    266.71571   -169486.89    169576.46    33.931838    30.003768 
155852000    240.90555    398.21393    270.69096    -169555.3    169616.83    127.52297    30.006004 
155856000     284.4837    486.55136    212.95217   -169594.69    169667.52    273.59919    30.006699 
155860000    301.99368    418.88233    489.42469   -169639.41    169694.68   -70.542365    30.005541 
155864000    268.07056     425.8157    291.40894   -169629.83    169696.26    134.40676    30.004218 
155868000    283.19149    194.08993    429.44223   -169644.31    169709.06    -235.3523    30.010065 
155872000    264.99871    290.64905    232.39721   -169671.69    169731.43    58.251846    30.013682 
155876000    277.97472    359.56085    329.85945   -169701.35    169755.31    29.701401     30.01296 
155880000    270.16735    372.27358    306.67067   -169719.05    169783.33    65.602913    30.008198 
155884000    279.58354     293.2759    320.22043   -169752.65     169817.5   -26.944537    30.012099 
155888000    282.98593    487.25328    405.68511    -169770.4    169828.62    81.568167    30.013353 
155892000    300.72765    313.56527    251.64031   -169827.24    169884.96    61.924959    30.014368 
155896000    290.86916      290.057    264.51038   -169879.45    169936.49    25.546619    30.016131 
155900000    295.99594    516.68257    209.16655   -169915.84    169960.99    307.51601      30.0108 
155904000    293.84874    447.64259    219.53977   -169924.27    169988.09    228.10282    30.015615 
155908000    277.17814    380.05612    263.51199   -169945.96     170007.8    116.54413    30.014631 
155912000    306.87903    474.02496    319.94844   -169997.22    170051.38    154.07652    30.014728 
155916000    293.06001    289.51192    348.25271   -170034.36    170094.96   -58.740789    30.014868 
155920000    287.21936    395.86416    407.57629   -170055.68    170127.23   -11.712129    30.011942 
155924000    298.56077    258.96601    182.62375   -170082.06    170130.76    76.342264     30.00525 
155928000    288.12214    385.81836    467.91066   -170081.28    170145.86   -82.092298    30.006302 
155932000    250.31043    272.99623    211.06462   -170106.55    170187.18    61.931611    30.005637 
155936000    286.15951    228.76724    254.66575   -170168.17    170231.96   -25.898508    30.011829 
155940000    268.42782    198.59026    192.62042   -170191.07     170271.8    5.9698396     30.01286 
155944000    259.34174    283.97289     235.0369   -170214.77    170273.62    48.935984    30.010724 
155948000    267.36733    170.02889    277.18378   -170224.03    170301.93   -107.15489    30.009683 
155952000    290.85025    386.71749      380.462   -170274.46    170334.37    6.2554912    30.010741 
155956000    263.37452    334.85178    374.22385   -170334.22    170407.72   -39.372067    30.008074 
155960000     260.4108    404.62247    360.12937   -170359.21    170424.52    44.493103    30.012713 
155964000    295.35877    640.95761    316.72888   -170404.82    170463.41    324.22873    30.015978 
155968000    294.93701     390.8397    295.02728   -170432.63    170477.36     95.81242    30.018858 
155972000    275.51732    372.10311    363.82981   -170479.92    170542.59    8.2732983    30.014124 
155976000    293.29201    381.62468    247.61499   -170550.18    170614.04    134.00969    30.015422 
155980000    270.31365    316.14635    232.17304   -170591.69    170672.91    83.973314    30.013657 
155984000    282.52916    192.33726    272.44262   -170623.78    170687.07   -80.105363    30.010041 
155988000    298.03597    377.21287    369.82071   -170687.25    170741.06    7.3921636    30.008469 
155992000    271.30709    391.16349    216.99554   -170738.54    170801.07    174.16795    30.005631 
155996000    287.54824    324.14254    301.40484    -170748.6    170804.74    22.737695    30.006275 
156000000    304.83373    438.78565     349.1458   -170791.98    170858.87    89.639858    30.005014 
156004000      286.817    323.48886    404.17533   -170818.98    170878.42   -80.686475    30.013087 
156008000    283.09477    367.92348    360.40713   -170862.18    170938.17    7.5163476    30.020342 
156012000    285.26418    305.82485    395.24001   -170930.64    171007.04   -89.415161    30.018579 
156016000    262.60181    539.64444     424.5257   -170964.59    171053.47    115.11874    30.019725 
156020000    297.05562    352.23491    263.98999   -171019.66     171080.2    88.244918    30.023294 
156024000    300.85001      374.859    264.10118   -171064.19    171114.53    110.75782    30.026599 
156028000    272.53845    488.55889    482.52159   -171096.88    171160.83    6.0372991    30.028564 
156032000    290.59763    490.80675     284.8929   -171120.82    171188.63    205.91385    30.029654 
156036000    290.73692    386.94048    388.37849   -171188.47    171250.95   -1.4380104    30.027987 
156040000    296.32253    444.26329    286.82896   -171232.68    171283.33    157.43433    30.034807 
156044000    275.29715    277.74038    194.03745   -171295.37    171345.73    83.702934     30.03548 
156048000    283.15267    429.08961    184.30531    -171330.8    171393.25     244.7843    30.030614 
156052000    272.51482    400.20236    340.23535   -171351.61    171425.11    59.967007    30.034161 
156056000    290.14136    435.83839    304.38718   -171431.84    171492.73    131.45122    30.030559 
156060000    272.10918    410.21569    213.68628   -171441.27    171510.92     196.5294    30.032113 
156064000    289.50905    463.63406    240.09935   -171482.21    171534.53    223.53471    30.030791 
156068000    296.20824    443.06343    265.83563   -171511.66    171570.47     177.2278    30.039105 
156072000     282.1676    392.69847     363.3525   -171564.43    171631.06    29.345969    30.033836 
156076000     267.6351     244.6149    216.00968    -171613.9    171698.35    28.605213     30.03245 
156080000    294.31261    447.25134    318.42102   -171658.57     171717.4    128.83033    30.036314 
156084000    290.24777    254.42312    290.97032   -171670.76    171731.48   -36.547198    30.032398 
156088000    279.66426     275.0556    323.10282   -171693.08     171759.8   -48.047213    30.032854 
156092000    292.62225    348.24271    321.78038   -171727.63    171766.98    26.462327    30.028003 
156096000    301.37807    319.52958    668.40309   -171765.15    171814.45   -348.87351    30.028767 
156100000    278.77433    383.07904    277.27366   -171752.97    171832.55    105.80538    30.032685 
156104000    287.04783    317.98385    478.47598   -171806.47    171851.06   -160.49213    30.024635 
156108000    297.61554     408.4804    303.30291   -171840.85    171901.86    105.17749    30.027197 
156112000      287.762    469.06315    336.74668   -171877.24    171940.81    132.31647    30.033838 
156116000    262.78121    313.94312    206.81728   -171885.36    171961.18    107.12583    30.033502 
156120000    296.90106      419.679    203.84582   -171922.01     171978.8    215.83318    30.031308 
156124000    282.50784    417.79516    253.47394    -171944.8    172008.67    164.32122    30.027514 
156128000    301.46563    215.57116    284.95458   -171994.48    172040.41    -69.38342    30.029069 
156132000    274.78559    451.96271    296.90263   -172028.45     172109.2    155.06008    30.038484 
156136000     278.6701    450.59291    323.79188   -172036.25    172105.19    126.80103     30.04048 
156140000    280.16108     312.9923    214.39265   -172094.98    172151.04    98.599653    30.041553 
156144000    296.92196    290.89866    517.33898   -172117.23    172181.56   -226.44032    30.043929 
156148000    285.10219     328.5051    490.15726   -172170.47    172241.58   -161.65215    30.038518 
156152000    271.44384    345.73775    292.34312   -172203.73    172281.96    53.394628     30.04323 
156156000    283.78334    358.93786    365.77083   -172254.61    172323.28   -6.8329706    30.036663 
156160000     282.5763    351.61591    501.08879    -172256.1    172322.24   -149.47288    30.032472 
156164000    266.91489    556.69608    340.48739   -172268.47    172328.75    216.20869    30.027814 
156168000    256.94159    321.40812    397.35286   -172270.28    172368.13   -75.944732    30.027166 
156172000    268.32449    294.20839    330.19481   -172317.43    172394.99   -35.986422    30.022784 
156176000     292.5321    339.60685    246.37208   -172357.56    172418.08    93.234766     30.02197 
156180000    316.65892    225.62726    540.27128   -172389.69    172433.13   -314.64402    30.025412 
156184000    287.15158    348.12498    305.85575   -172419.49    172490.61     42.26923    30.015685 
156188000    280.15831    402.06775    208.79082   -172467.05    172553.74    193.27693    30.018512 
156192000    270.53827    302.36568    276.63469   -172495.49    172575.44    25.730992    30.022029 
156196000    263.00614    393.03688    296.89386   -172544.65    172616.85    96.143013    30.021923 
156200000    270.71979    234.88609    357.83448   -172555.94    172623.32   -122.94839    30.013436 
156204000    303.44068    570.07347    436.07025   -172571.01    172618.47    134.00322    30.011598 
156208000    292.61423    410.16396    477.33472   -172599.15    172659.29   -67.170763    30.019018 
156212000    279.74096    352.63296     222.6906   -172634.95    172709.12    129.94235    30.008962 
156216000     273.5473    342.53967    249.74694   -172704.62    172770.02    92.792728    30.000864 
156220000    262.96283    297.31274    364.27384   -172711.21    172774.43     -66.9611     29.99944 
156224000    272.97041    197.60173    300.98439   -172762.62    172826.85   -103.38266    29.990893 
156228000    272.98384    347.18698    397.59943    -172808.4    172868.23   -50.412448    29.985659 
156232000    281.94445    220.63768    471.53994   -172842.47    172912.64   -250.90226    29.984309 
156236000    274.30458    420.95804    305.06011   -172859.47     172925.4    115.89793    29.980723 
156240000    289.09531    609.32183    305.62908    -172912.2       172981    303.69275    29.980773 
156244000    273.60729    309.21464     317.8951   -172965.32    173040.78   -8.6804602    29.993781 
156248000    269.38629    412.77166    314.47156    -172971.8    173048.54    98.300096    29.986381 
156252000    306.03197    392.45515    264.29951   -173018.94    173077.15    128.15564    29.975273 
156256000    260.45693     241.7658    507.04306   -173025.71    173130.57   -265.27725    29.975733 
156260000    264.31322    335.86896    355.60218   -173097.61    173177.98   -19.733227    29.974919 
156264000    271.02289    654.78912    270.44377   -173145.75    173223.15    384.34534    29.970883 
156268000    303.12516    275.25345    270.22747   -173198.48    173253.54    5.0259755    29.973594 
156272000    286.78916    472.40963    379.43877   -173221.01    173295.98    92.970864    29.972441 
156276000    283.68678    396.72112    504.29498   -173224.36    173306.04   -107.57385    29.975052 
156280000    300.46022    166.16546    589.01316   -173275.76    173345.18   -422.84769    29.976004 
156284000    258.80436    451.69515    500.96299   -173315.76    173412.51   -49.267847     29.97864 
156288000    288.09307    360.35158    448.45582   -173388.43    173437.78   -88.104233    29.982839 
156292000    288.32191    351.61454    433.06261   -173388.41     173452.6   -81.448072    29.983451 
156296000    330.39951    532.20771    378.76097   -173432.86    173472.22    153.44674    29.976791 
156300000    300.33226    344.24066    411.29783   -173467.62    173520.99   -67.057162    29.975875 
156304000    307.22695    256.93561    465.34254   -173490.13    173561.43   -208.40693    29.972694 
156308000    292.93656    344.23424     342.9335   -173512.42     173574.2    1.3007393    29.970955 
156312000    276.28109    530.66683    372.92675   -173527.09    173607.66    157.74008     29.96322 
156316000    255.26414    290.00977    321.15422   -173546.12    173645.68   -31.144452    29.958469 
156320000    300.44586    274.99517    361.92459   -173564.61    173621.69   -86.929416    29.959842 
156324000    297.99557    560.90581    346.48582   -173618.92    173666.87    214.41999    29.966123 
156328000    275.60977    320.66271    400.70296   -173627.13    173693.46   -80.040257    29.970685 
156332000    275.60059     315.4306     336.5346   -173640.28    173704.43   -21.104003    29.972109 
156336000    265.03559    383.79804    231.70587    -173656.5    173747.78    152.09218    29.969078 
156340000    315.06151     402.8351    400.45525   -173737.47    173796.58    2.3798452    29.973826 
156344000    295.73171    378.63987     440.7168    -173780.2    173849.62   -62.076925    29.976486 
156348000    275.26159    196.08408    372.78304   -173779.43    173860.83   -176.69897    29.974333 
156352000    286.53883    431.37836    309.53935   -173828.07    173906.69    121.83901    29.981926 
156356000    300.45221    548.16784     597.8907   -173872.82    173943.99   -49.722862    29.978697 
156360000     259.3621    212.85111    367.75493   -173890.67    173975.38   -154.90382    29.979065 
156364000    294.56405    219.91825    244.82835   -173936.13    173995.27   -24.910099    29.982323 
156368000    291.33893    408.30254    345.56423   -174005.04    174066.82     62.73831    29.983126 
156372000    306.67119    261.39226    360.60261   -174036.42    174101.42   -99.210343    29.975061 
156376000    283.25781    423.89441    372.10135    -174084.8    174173.31    51.793061    29.976752 
156380000    274.12966    318.71678    415.57966   -174134.66     174215.4   -96.862879    29.970841 
156384000    281.73192    299.20902    272.07506   -174164.77    174236.64    27.133967    29.973725 
156388000    278.04289    343.96867    155.29432   -174191.48    174264.67    188.67435    29.976034 
156392000    291.27615    393.40124    281.42943   -174236.43    174304.74    111.97181    29.986752 
156396000    280.52529    331.34589    333.41684   -174277.64    174358.71   -2.0709456    29.989366 
156400000    293.82169    339.65207    414.49806   -174320.61    174403.97   -74.845998    29.989348 
156404000     253.4487    422.43136    283.74545    -174349.5    174447.37    138.68591    29.997219 
156408000    285.72458    206.51989    248.66165   -174415.61    174469.41   -42.141761     30.00109 
156412000    262.23836    359.18497    248.97664   -174462.89    174548.42    110.20833    30.011414 
156416000    277.30843    262.82766     554.5322   -174495.35    174578.01   -291.70454     30.01023 
156420000     273.1663    290.87717    194.88691   -174567.56    174626.01    95.990257    30.011004 
156424000    269.53949    311.31685    319.05118   -174556.44    174647.43   -7.7343316    30.006293 
156428000    269.84442     551.7722    323.69408   -174550.28     174653.7    228.07812     30.00868 
156432000    282.93842    223.84781    390.49266   -174586.66    174674.24   -166.64485    30.010269 
156436000    278.15369    256.03156    277.86468   -174607.37    174699.65   -21.833118    30.010521 
156440000    281.07757    453.87578     242.9253   -174673.77     174741.7    210.95048    30.012596 
156444000    270.04427    415.96032    200.75733   -174716.56    174802.64    215.20299    30.010436 
156448000    287.12046    277.45113    483.30036    -174772.7    174823.78   -205.84923    30.010669 
156452000    242.57051    273.23331    298.11276   -174783.79    174870.22   -24.879446    30.007075 
156456000    279.01072    203.15308    330.61989   -174825.41    174898.71   -127.46681     30.01027 
156460000    296.19498    342.59281    344.38881   -174869.08    174931.93   -1.7959983    30.006915 
156464000    277.42197    354.79812     346.3962   -174896.88     174941.2    8.4019215    30.009088 
156468000    283.28922    268.17644    291.60589    -174903.1    174978.56   -23.429447    30.014159 
156472000    252.04741    284.00893     224.5781   -174931.62    175023.95     59.43083    30.009574 
156476000    316.86835    255.22459    359.26929   -175007.92    175065.46   -104.04469    30.010638 
156480000    266.93557    275.70265    244.37866   -175037.34    175108.61    31.323995    30.018263 
156484000    264.29451    473.78998    284.47185   -175068.28    175159.68    189.31813    30.022088 
156488000    275.11356    461.16903    391.94116   -175116.47    175187.17    69.227868    30.025438 
156492000    274.61276    323.95936    550.21375   -175134.85    175213.31   -226.25439    30.029115 
156496000    292.05541    276.95099    487.02515   -175199.69    175271.17   -210.07416    30.034032 
156500000    309.18753    459.59639    417.96134   -175246.02    175299.35     41.63505     30.03715 
156504000    261.70714    418.34662    317.04651   -175271.46    175349.65    101.30012    30.032969 
156508000    275.16171    296.27398    257.71512   -175306.43    175381.37    38.558858    30.029091 
156512000    280.71374    559.98473    196.55955   -175355.87    175422.45    363.42518    30.026834 
156516000     269.7776    321.41029    220.70136   -175350.86    175436.91    100.70893    30.024195 
156520000    314.40086    235.05007     329.1465   -175400.55    175442.75   -94.096427    30.033754 
156524000    257.92951    476.77343    235.08592      -175444    175531.66    241.68751    30.039652 
156528000    267.02967    229.86902    331.15134   -175477.28    175560.32   -101.28232    30.043548 
156532000    318.10797    431.68436    432.69537    -175533.3    175587.78    -1.011007     30.04453 
156536000    276.06548    442.05944    424.82741   -175583.64    175631.05    17.232037    30.045386 
156540000    275.32328    416.81418    318.42061   -175611.11    175681.76    98.393567    30.041828 
156544000    303.40175      131.099    362.07952   -175669.44     175718.7   -230.98052    30.041571 
156548000    254.22989    394.21191    249.04354   -175701.07    175800.54    145.16838    30.043929 
156552000    271.80956    515.12569    305.91164   -175781.24    175872.73    209.21404    30.042316 
156556000    261.53119    258.23967    266.12904   -175824.79    175909.34     -7.88937    30.042117 
156560000    272.60792    361.94187    278.95724   -175863.01    175918.92    82.984634    30.036621 
156564000    266.00936     179.0973    212.95277   -175816.03    175907.55   -33.855475     30.04113 
156568000    279.52025    260.79591    167.67229   -175852.26    175928.79    93.123621     30.04797 
156572000    279.41929    291.62196    326.08418   -175864.97    175946.63   -34.462218    30.044483 
156576000    294.12393    473.68846    315.29228   -175877.06    175944.55    158.39618    30.046685 
156580000     291.6553    263.54415    340.41877   -175905.84    175990.22   -76.874629    30.043337 
156584000     275.7427    423.72863    282.63064   -175916.39    176008.64    141.09799    30.045253 
156588000    277.70556     664.9063    212.37169   -175944.47    176018.71    452.53461    30.049479 
156592000    294.48853    856.10144    265.21626   -175974.74    176054.29    590.88518    30.052711 
156596000    303.32864    341.84254    260.25522   -176017.85    176082.31    81.587323    30.054107 
156600000    263.39105    249.13677    379.88118   -176048.08    176123.88   -130.74442    30.051669 
156604000    279.53912    280.84002    301.59089   -176081.67    176169.19   -20.750865    30.056144 
156608000    262.22879    418.37618    193.56708   -176107.02    176187.12     224.8091    30.057699 
156612000    297.06368    260.26465    319.91481   -176124.01     176194.7   -59.650158    30.060469 
156616000    279.43214    341.22172    244.71137   -176154.69    176223.41     96.51035    30.063037 
156620000     284.0226    375.28617    180.51663   -176167.08    176242.49    194.76954    30.057182 
156624000    283.17112    342.56908    267.86695   -176188.29    176271.68    74.702132    30.058717 
156628000      272.503    656.11435    158.14374   -176236.24     176301.8    497.97062     30.06201 
156632000     285.2662    453.74327    401.47409   -176237.29    176322.65    52.269184    30.062821 
156636000    253.36343    339.42881    188.13233   -176278.35    176375.96    151.29647    30.068747 
156640000    299.40562    259.01596    310.36583   -176345.27    176405.61   -51.349874    30.065357 
156644000    289.04446    357.53966     558.7236   -176385.38    176445.59   -201.18394    30.067733 
156648000    294.25997     398.3839    282.88811   -176435.38    176491.08    115.49578    30.073174 
156652000    307.02245    301.99297    336.19257   -176461.47    176519.84   -34.199595    30.074081 
156656000    312.02682    404.18442    289.02074   -176506.42    176553.83    115.16368    30.071379 
156660000    278.95963    274.21036    419.70643   -176523.34    176609.37   -145.49608    30.075587 
156664000    277.25395    283.89923    225.33385   -176539.06    176625.67    58.565372    30.076559 
156668000    274.69842    361.05413    332.85499   -176561.91    176642.05    28.199145    30.077296 
156672000    301.52526    466.78162    412.99914   -176588.15    176656.67    53.782483    30.077837 
156676000    282.93401    384.84819    353.65403   -176645.98    176723.91    31.194167    30.071353 
156680000    285.22615    307.18812    418.34019   -176712.88    176798.75   -111.15208    30.064398 
156684000     294.1658    328.85599    283.16286   -176772.59    176830.12    45.693129      30.0583 
156688000    305.30604     268.8557    361.92644   -176805.08    176874.17   -93.070743    30.058528 
156692000    284.54452    213.81483    373.20435   -176833.85    176919.16   -159.38951    30.055715 
156696000    274.09894    360.57862    190.40512   -176862.57     176949.4     170.1735    30.054017 
156700000     288.4557    350.57713    327.02066   -176931.52    176994.27    23.556472    30.048588 
156704000    277.01131    325.70884    378.15224   -176946.16    177016.95   -52.443394    30.046197 
156708000    276.61711    313.23199    386.25729   -176992.96     177066.9   -73.025305    30.048886 
156712000    276.25746     398.6815    244.88612    -177036.9    177114.03    153.79537    30.048128 
156716000    300.47911    395.26125    448.50331   -177078.14    177141.21   -53.242052    30.050224 
156720000    277.71786    301.67139    357.29603   -177089.35    177166.71   -55.624641    30.049058 
156724000    288.60762    340.37132    186.97216   -177105.06    177186.49    153.39916    30.048407 
156728000     252.5229    298.91188    272.74307   -177111.37    177204.09    26.168807     30.04552 
156732000    248.10687    198.04898    339.10877   -177121.47    177217.87   -141.05979    30.042874 
156736000    248.61431    372.25814     179.6573   -177170.81    177247.89    192.60084    30.051562 
156740000    269.68359    216.25004    173.39734   -177209.24    177278.36    42.852702    30.051245 
156744000    297.47543     343.8025    220.52698   -177246.25     177310.6    123.27552    30.049207 
156748000    306.15911    328.85047    506.25873   -177273.09    177339.81   -177.40826    30.045126 
156752000    273.93074    433.66484    263.44616   -177289.27    177379.51    170.21868    30.043546 
156756000    277.93849    362.19502    350.97161   -177329.05    177411.59    11.223408    30.044726 
156760000    268.92519    389.98624    290.24132   -177370.17    177437.17    99.744919     30.04625 
156764000    266.49055     265.4129    283.82442   -177376.23    177451.39   -18.411521    30.040746 
156768000     244.6224    373.78487    521.17261   -177413.91    177500.83   -147.38774    30.041618 
156772000    273.10736    315.39802    228.11012   -177455.65    177535.58    87.287901    30.039738 
156776000     295.4456    401.91032    382.50467   -177475.99    177539.96    19.405648    30.040191 
156780000    292.43333    415.87695    518.76386   -177517.32    177581.45   -102.88691    30.033853 
156784000    309.73816    267.47185    286.85694   -177560.44     177625.5   -19.385089    30.030037 
156788000    318.23489    422.84022    306.16403   -177591.52    177652.76    116.67619    30.031857 
156792000    280.06795    230.08845    255.77082   -177634.79    177699.83   -25.682374    30.032683 
156796000     300.4723    500.55495    470.21555    -177680.9    177750.39    30.339395     30.02791 
156800000    309.13503    265.54134    368.48571   -177694.29    177758.65   -102.94436    30.025795 
156804000    282.60632    626.89026    348.89262   -177745.23    177814.25    277.99763    30.023076 
156808000    285.50746    478.83531    435.70927   -177777.96    177840.78     43.12604    30.022965 
156812000    314.09611    425.29505    402.55077   -177828.26    177872.25    22.744275    30.022647 
156816000    290.48692    449.19262    382.75937   -177846.01    177906.81    66.433248    30.024263 
156820000    269.54587    388.65742    284.22462   -177850.64    177928.75     104.4328    30.021872 
156824000    263.51572    205.85994    339.71208   -177870.78    177967.67   -133.85214    30.016222 
156828000    270.46765    394.07677    348.45787    -177929.5    178016.28    45.618906    30.019935 
156832000    262.25563    286.94153     332.4252   -177975.11    178074.13   -45.483671    30.016228 
156836000    275.15221    446.31403      377.699   -178017.26    178102.06    68.615028    30.014703 
156840000    291.49423     581.4731    270.38587   -178064.47    178119.66    311.08722    30.013818 
156844000    293.76882    373.58144    266.73382   -178095.94    178169.39    106.84762    30.013505 
156848000    289.08637    404.58158    198.22963   -178151.65    178218.52    206.35195    30.010916 
156852000    308.07511    372.33595     420.0579   -178223.59    178287.12   -47.721954    30.007772 
156856000     279.3068    331.01353     322.1924   -178240.15    178319.22    8.8211267    30.011378 
156860000    301.38608    339.29663    200.88482   -178277.39    178342.89    138.41181    30.007613 
156864000    254.65876    354.69034    292.61115   -178297.13    178399.69    62.079183    30.006064 
156868000     257.5844     390.6765    349.23343   -178344.58     178446.1    41.443067    30.009298 
156872000    325.19812    358.10719    508.57963   -178391.83    178447.36   -150.47243    30.016328 
156876000    275.22622    463.93588    152.32903   -178400.05     178485.4    311.60685     30.01402 
156880000    264.96722    303.86519    269.02283   -178434.68    178527.59    34.842365    30.007962 
156884000    287.68172    645.05798    222.46386   -178484.36     178555.9    422.59411    30.013637 
156888000    260.13921     270.0796    213.49112   -178496.41     178579.8    56.588484    30.017097 
156892000    287.39345    234.45218    555.45593   -178537.61     178616.1   -321.00374    30.018422 
156896000    250.20484    236.59501    399.46282   -178583.94    178669.57   -162.86782    30.024513 
156900000    301.78078    288.18783    293.62423   -178622.75    178693.83   -5.4364016    30.027625 
156904000    286.15844     595.1086    431.10901    -178661.6    178745.61    163.99959    30.027905 
156908000    278.54719    323.59128    232.02794   -178703.56    178781.52    91.563335    30.033779 
156912000     269.3789    545.81996    573.78411    -178726.4    178811.32   -27.964157    30.031324 
156916000    270.69226    287.71202    332.09988   -178768.92    178867.62   -44.387853    30.032535 
156920000    298.40924    296.12997    337.48766   -178793.34    178866.56   -41.357692    30.039503 
156924000    294.92872     528.8843    380.95825   -178796.77    178880.34    147.92605    30.042525 
156928000    269.87038    421.87782     478.1262   -178847.62    178930.03   -56.248388    30.041541 
156932000     276.1242    345.62219    307.55479   -178898.64    178984.61      38.0674    30.041724 
156936000     270.9813    227.47954    289.18455   -178944.52    179024.49   -61.705006    30.036915 
156940000    294.15304    273.74489    373.81032   -178960.99     179023.8   -100.06543    30.032446 
156944000    292.48412    361.28172    293.35423   -178963.34    179028.55    67.927497    30.032163 
156948000    253.92436    272.66505    273.09898   -178960.13     179048.9   -0.4339297    30.037423 
156952000    279.63054    223.24006    399.90478   -178993.66    179072.44   -176.66472    30.041725 
156956000    274.43119    317.29092     303.2196   -179055.05    179141.89    14.071326    30.044149 
156960000     274.3465    228.57564    300.88126    -179090.4    179164.63   -72.305613    30.047713 
156964000    308.30162    321.96064    272.83926   -179133.78    179195.08    49.121383    30.045614 
156968000    298.98018    421.69341    238.96456   -179127.36    179204.77    182.72885    30.044801 
156972000    252.68167    216.14373    405.74307   -179140.77    179233.02   -189.59933     30.04052 
156976000    289.84514    398.04971    267.23964    -179194.8    179268.92    130.81007    30.043286 
156980000    306.44506    501.60431    283.97784   -179244.72    179311.37    217.62647    30.053146 
156984000     266.7095    428.62751     246.0037   -179286.33    179364.91    182.62381    30.055489 
156988000     290.7354    321.07394    369.97503   -179317.21    179389.45   -48.901086    30.054047 
156992000    258.64789    432.93562    282.01245   -179339.19    179434.43    150.92317    30.057754 
156996000    277.64559    332.55638    357.47173   -179387.25    179472.13   -24.915343    30.052344 
157000000    306.87444    348.45323    389.97466   -179410.54    179486.66   -41.521432    30.055677 
157004000    270.02915    316.53312    186.79448   -179451.33    179536.53    129.73864    30.059084 
157008000    279.09868    321.66755    514.83408   -179489.48    179558.37   -193.16654    30.058993 
157012000    293.81806    713.22493    392.47642   -179507.44     179597.8     320.7485    30.059476 
157016000    265.13001    337.07676    208.06301   -179554.03    179647.75    129.01375    30.053049 
157020000    252.80474    227.06841    200.04135   -179559.71    179655.29    27.027065    30.051925 
157024000     261.1451    207.04786    409.82138    -179600.4    179703.55   -202.77352    30.048131 
157028000    323.43679    497.11265    271.67813   -179673.18    179732.21    225.43452    30.053174 
157032000    255.91754    338.09349    201.93086   -179652.89    179748.96    136.16264    30.054206 
157036000    277.22286    409.41232    518.62472   -179683.02    179770.93   -109.21241    30.051763 
157040000    287.14439    522.79843    303.40469   -179725.07     179804.4    219.39374    30.058648 
157044000    268.84005    220.13097    303.29933   -179754.73    179848.48   -83.168356    30.052478 
157048000    295.29537    443.98803    432.02785   -179800.62    179884.14    11.960171    30.050784 
157052000    266.45177    253.60626    356.98803   -179802.07     179900.5   -103.38177    30.054867 
157056000    260.62594    529.05188    351.39434   -179854.18       179955    177.65754    30.054672 
157060000    276.66352    425.51337    200.14839   -179905.08    179995.73    225.36498    30.063771 
157064000    289.58351    357.40868    299.51613   -179932.96    180011.11    57.892547    30.066103 
157068000    255.21529    269.02038    337.44479   -179952.81    180045.76   -68.424413    30.069785 
157072000    296.39979    312.98847    142.68688   -179994.93    180062.38    170.30159    30.069479 
157076000    269.11839    244.00241    352.75873   -180059.88    180134.97   -108.75632    30.056221 
157080000    303.06426    521.62243    346.19829   -180066.91    180137.89    175.42415    30.052284 
157084000    310.26267    421.78114    380.86024   -180100.64    180179.07    40.920899    30.056241 
157088000     265.7784    277.83269    539.77298   -180117.13    180199.84   -261.94028    30.058345 
157092000    262.98412    427.63943    458.71563    -180162.9     180248.3   -31.076206    30.061736 
157096000    292.01923    227.83479    391.00775   -180187.38    180259.93   -163.17296    30.063913 
157100000    273.89297    429.82037    407.35981   -180246.51    180343.13     22.46056     30.06851 
157104000    294.10296    244.00967    370.48373    -180291.7    180352.63   -126.47406    30.064474 
157108000    290.31943     339.5813    292.41067   -180305.27    180385.95    47.170629    30.063373 
157112000    290.98291    303.33483    325.99481    -180351.6    180422.09   -22.659984    30.059696 
157116000    299.33088     383.6449    261.00145   -180397.65    180470.25    122.64345    30.058765 
157120000    303.93103    301.68427    476.31124   -180416.01    180499.09   -174.62698    30.053877 
157124000    296.47104    437.44946    314.12557    -180440.1    180526.38    123.32389    30.060896 
157128000    337.26423    529.47321    391.32682   -180519.24    180550.55     138.1464    30.060557 
157132000    284.91439    196.38818    360.85022   -180524.36    180614.28   -164.46204    30.057609 
157136000     283.2398    298.36588    353.03587   -180563.46    180639.94   -54.669997    30.065522 
157140000    278.15941    319.78826    334.20675   -180574.86    180671.34    -14.41849    30.064884 
157144000    258.55647    284.10922    422.23132   -180616.87    180726.66    -138.1221    30.058072 
157148000    282.03017    211.42198    474.16991   -180657.27    180738.61   -262.74793    30.052942 
157152000    271.17441    280.18594    332.46094    -180690.4    180785.22   -52.275001     30.05124 
157156000    335.01664    545.49677    474.86323   -180747.69    180797.87    70.633539    30.052161 
157160000    268.09482    456.53858    217.80943   -180739.23    180818.62    238.72916    30.054872 
157164000    274.81699    374.49338    287.64217   -180785.67    180873.86    86.851211    30.056104 
157168000    261.17824    707.87568    141.70818   -180797.55     180898.9    566.16749    30.071047 
157172000    280.19941    252.68746    553.39911   -180810.28    180908.86   -300.71165    30.067704 
157176000    285.54149    393.33478    269.93935   -180861.86    180945.67    123.39543    30.072751 
157180000    288.00712    182.69871    296.87555   -180901.01    180975.77   -114.17684    30.068838 
157184000    299.45469     257.9215    208.37636   -180923.14    180991.61    49.545134    30.078303 
157188000    254.89048    483.15924     307.5993   -180935.52       181031    175.55995    30.088208 
157192000    290.59356    510.97866    508.39503   -180954.39    181045.84    2.5836353    30.077978 
157196000    285.46651    343.68349    330.81625   -180993.97    181067.81    12.867239    30.082306 
157200000    297.57492    333.64524    270.45725   -181029.72    181103.14    63.187985     30.09077 
157204000    292.04739    445.63824    345.95868   -181063.82    181137.47    99.679559    30.091423 
157208000    279.97514    281.90474    215.88838   -181071.52    181157.01    66.016364    30.089183 
157212000    300.51073    390.71409    399.36806   -181126.84    181189.05   -8.6539731    30.084388 
157216000    315.88843    570.96731    359.92025   -181195.26     181262.5    211.04706    30.090123 
157220000    270.34517    206.41978    139.74051   -181240.92     181317.5    66.679267    30.092415 
157224000     318.3187    370.14581    528.81322   -181295.11    181370.29   -158.66741    30.088233 
157228000    254.48575    371.14298    242.20222   -181316.85    181406.97    128.94077    30.095709 
157232000    280.27123    278.08818    373.74024   -181355.39    181434.81   -95.652056    30.096265 
157236000    275.44941    359.83204    294.97042   -181386.42    181472.31    64.861623    30.100427 
157240000    251.89026    261.29639    342.81864   -181408.96    181511.26   -81.522256    30.107099 
157244000     271.3965    364.31269    283.64817   -181476.76    181559.15    80.664526    30.108297 
157248000    269.04826    455.37118    421.46862    -181519.8    181602.05    33.902565    30.105559 
157252000    252.96655    444.78813    307.55288   -181569.08    181665.05    137.23525    30.107974 
157256000    295.04585      307.891    364.46071   -181588.38    181675.43   -56.569709    30.104802 
157260000     284.6761    341.80861    410.11823   -181640.62    181706.61   -68.309623      30.0985 
157264000    279.56685    174.56964    189.82838   -181658.93    181749.14   -15.258731    30.099964 
157268000    295.85062    434.35145    435.18669   -181710.38    181774.66  -0.83523921    30.096697 
157272000    292.63932    536.12484    209.44659   -181759.08     181817.3    326.67825    30.100497 
157276000    320.78781    207.59384    406.96682   -181800.91    181852.31   -199.37297    30.107442 
157280000    305.61749     414.5115    259.18461   -181820.64    181904.98     155.3269    30.107549 
157284000    295.86903    370.12836    343.58649   -181861.97    181936.71    26.541863    30.108446 
157288000    275.78652    284.17355    215.21805   -181913.46    182009.12    68.955498    30.109746 
157292000    275.21437    164.00068    225.78985   -181931.24    182034.47    -61.78917    30.111383 
157296000    322.18662    284.73537    386.47028   -182002.51     182061.9   -101.73491    30.104213 
157300000     260.7834    375.12474    328.37756   -182063.59    182144.46    46.747173    30.097977 
157304000    262.48986    185.33278    347.13671   -182100.58    182183.06   -161.80393    30.096131 
157308000    260.58692    411.40756    226.75828   -182107.75     182216.2    184.64928    30.098979 
157312000    267.05915    296.99955    247.18742   -182131.38    182239.03    49.812123    30.094137 
157316000    272.37584    422.77775    232.68251   -182177.75    182277.88    190.09523    30.092027 
157320000    273.73898    274.44134     232.7197   -182208.53    182288.35    41.721639    30.090198 
157324000    275.66974    365.99609    187.20036   -182257.66    182331.43    178.79573    30.090871 
157328000    300.21119    344.51024    574.47309   -182312.67    182375.95   -229.96285    30.090334 
157332000    280.56521    482.03763    380.53583   -182315.83    182407.37    101.50181    30.088137 
157336000    287.87937    499.92374    299.83484   -182340.41    182420.91    200.08889    30.088477 
157340000    257.85307    268.42588    458.28564   -182342.28    182447.28   -189.85976    30.083527 
157344000    275.15623    302.23758    203.61946   -182365.75    182464.85    98.618123    30.079945 
157348000    253.23152    388.89428    378.55678      -182417    182508.43    10.337501    30.080754 
157352000    295.49856    311.71187    375.06481   -182456.37    182530.02   -63.352942    30.079329 
157356000    290.74993     487.6625    225.95639    -182494.5    182579.83    261.70611    30.077922 
157360000    296.99446    341.89571    393.42985   -182552.33    182621.68   -51.534146    30.076942 
157364000    284.23615    336.70641    216.16872   -182577.89    182660.45     120.5377    30.076292 
157368000    275.93449     238.4313    297.94157   -182625.55    182719.01   -59.510272    30.069193 
157372000    260.97848    359.44499    244.43241   -182619.22    182708.29    115.01258    30.067498 
157376000    254.05041    313.08385    396.45337   -182636.18    182746.68   -83.369518     30.06458 
157380000    265.71847    345.87858    294.19364   -182681.99    182777.77    51.684934    30.065831 
157384000    290.04422    481.21761    441.38173   -182743.59    182835.03    39.835879    30.062859 
157388000    282.92422    324.67963    404.16637   -182751.36    182850.69   -79.486748    30.062788 
157392000    322.33079    314.74176    351.71733   -182809.67    182872.16   -36.975566    30.063201 
157396000    299.36631    515.52143    424.22318   -182850.55    182911.53    91.298257    30.062419 
157400000    279.34023    227.88311    454.48667   -182886.97    182974.71   -226.60356    30.062664 
157404000    271.26758    395.90897    183.58361   -182963.01    183041.62    212.32536    30.068986 
157408000    282.80035    477.81143    415.23468   -183017.23    183097.38    62.576749    30.069558 
157412000    304.84765    529.72327    243.45077   -183036.99    183102.92     286.2725    30.069926 
157416000     285.0656    402.37347    254.25353   -183089.61    183175.98    148.11993    30.068995 
157420000     289.4041    575.20359    385.71804   -183142.37    183209.78    189.48555    30.077969 
157424000    271.01266    404.00835    438.32507   -183157.41    183259.39   -34.316716    30.077703 
157428000    279.09269    442.12062    325.76775   -183213.89    183292.55    116.35286    30.082078 
157432000    290.17476    408.70027     221.9119    -183231.6    183292.63    186.78837    30.083369 
157436000     297.1832    429.47238    195.65992   -183266.49    183329.53    233.81246    30.081696 
157440000    296.76388    166.18467    424.74133    -183298.3    183385.47   -258.55665    30.075362 
157444000     278.3812    268.78766    282.63199   -183349.01    183427.49   -13.844324    30.080238 
157448000    268.45339    305.66722    201.00888   -183383.69    183470.98    104.65834    30.079673 
157452000    264.88147    198.75908    292.08236   -183410.57    183502.08   -93.323279    30.075969 
157456000    278.89433    350.27286    331.45527   -183438.69    183519.25    18.817593    30.076325 
157460000    320.21696    413.41135    455.23807   -183490.73    183561.92   -41.826718    30.076504 
157464000    288.65223    495.03703    193.96713   -183504.68    183579.75     301.0699     30.07466 
157468000    265.89689    327.49618    279.46382   -183527.79    183635.59    48.032363    30.067796 
157472000    272.28335     412.1438    469.45322   -183617.14    183707.03   -57.309424    30.067128 
157476000    327.92624    419.87137    386.27135   -183652.07    183700.04    33.600026     30.06623 
157480000     297.0587    400.22021    470.92677   -183666.94    183752.21   -70.706562     30.07272 
157484000    282.98158    467.12004    171.43732   -183737.85    183831.16    295.68273    30.064591 
157488000     283.2084    293.60205    344.13594   -183764.68    183855.21   -50.533898    30.064908 
157492000      289.863    377.87083    419.96678   -183807.66    183889.99   -42.095953    30.061511 
157496000    262.79207    190.91037    324.67073   -183846.41    183943.54   -133.76036    30.062948 
157500000    277.01852    416.61959    204.38135   -183911.63    183974.67    212.23824    30.062509 
157504000    282.10392    455.82561    349.97132   -183944.09    184023.14    105.85429    30.066738 
157508000    266.10917    212.59785    334.98881   -183982.97    184083.27   -122.39097     30.06438 
157512000    239.34296    171.39157     321.3529   -184022.15    184119.44   -149.96133    30.062141 
157516000    292.77657     215.0325     466.8713   -184076.67     184164.8    -251.8388    30.059519 
157520000     284.1666    657.53847    306.97588   -184090.42    184172.67    350.56259    30.068129 
157524000    273.25107    388.71667    235.78071   -184116.45    184205.18    152.93596    30.070431 
157528000    284.12202    463.75425    442.38393   -184153.79    184241.25    21.370313    30.069528 
157532000    284.08689    442.41269      324.042   -184186.03    184278.31    118.37069    30.070858 
157536000    277.26018    561.88566    366.61869    -184190.3    184298.59    195.26697    30.067644 
157540000    289.99045    351.00699    340.45605   -184236.56    184318.02    10.550942    30.067873 
157544000    290.59729    122.01632    353.83021   -184292.16    184386.49   -231.81389    30.064343 
157548000    294.82774    366.11857    347.19156   -184331.99    184401.12    18.927005    30.061508 
157552000    278.49251    309.96427    274.71127   -184340.88    184412.84    35.252994    30.063407 
157556000    264.33657     393.0045    310.53717   -184356.62    184455.39    82.467328    30.051366 
157560000    246.13109    200.97423    374.66788   -184380.03    184480.89   -173.69365    30.046961 
157564000    274.90188     430.2715     473.4155   -184414.07    184507.46   -43.143999    30.047296 
157568000    293.23794    265.24216    346.20527   -184438.41     184524.1   -80.963107    30.049127 
157572000    261.02137    368.06438     404.6265   -184475.24    184567.77   -36.562119    30.049639 
157576000    306.11941     324.1385    186.86756   -184497.86    184575.95    137.27094    30.046206 
157580000     259.4541    232.40808    452.28511   -184523.63    184610.76   -219.87703     30.04083 
157584000    289.26542    305.47484    273.12392   -184542.25    184628.22    32.350921    30.044362 
157588000     262.4677    379.05459    260.92457    -184600.8    184674.75    118.13002    30.048344 
157592000    302.30204      376.951    318.58993   -184642.37    184717.91    58.361069    30.045527 
157596000      252.256    452.24088    293.18971   -184661.59    184764.08    159.05117    30.046569 
157600000    263.30573    248.59754    249.22898   -184690.56    184784.95  -0.63144064    30.051437 
157604000    296.30077     487.3181    333.74906   -184742.17    184805.44    153.56904    30.057161 
157608000    249.89431    278.06319    378.34939   -184766.05    184880.93    -100.2862    30.055104 
157612000    255.35172     220.5148     280.7415   -184790.85    184892.56   -60.226694    30.050978 
157616000    265.34488    390.50923    314.69752   -184840.06    184933.12    75.811713    30.056032 
157620000    271.37659     499.4058    266.88545   -184867.48    184960.63    232.52035    30.057228 
157624000      297.609    262.50582    363.23309    -184872.4    184975.23   -100.72727    30.061976 
157628000    293.94626     287.0973    403.89311   -184926.35    185008.96   -116.79581    30.064354 
157632000    281.39738    350.89447    403.33769   -184968.41     185050.7   -52.443223    30.062507 
157636000    280.66433    337.33701    208.70231   -185030.05    185108.36     128.6347    30.066702 
157640000    251.69674    218.24824    172.28886   -185060.05    185167.72     45.95938    30.061933 
157644000    306.11049    455.88933    290.11164   -185120.58    185193.64    165.77769     30.06028 
157648000    270.62968    404.28942    524.19841   -185147.43    185239.49   -119.90899    30.051356 
157652000    283.63615    220.24326    404.13306   -185153.82    185260.01    -183.8898    30.048479 
157656000    289.71092    297.97185    280.13563   -185199.83    185293.55    17.836222     30.04493 
157660000     288.0529    327.73252    530.80626    -185191.6    185281.09   -203.07374    30.046444 
157664000     267.6686    306.74016    340.82832    -185194.4    185286.55   -34.088157    30.046757 
157668000    278.02427    290.82056    322.36739    -185217.1    185296.71   -31.546831    30.047559 
157672000    288.55808    420.57232     205.5467   -185232.94    185301.58    215.02562    30.043986 
157676000    276.58907    448.00806    395.99438    -185232.9    185326.94    52.013676    30.043834 
157680000    309.24216    383.06681    289.93747   -185280.81    185338.35     93.12934    30.052843 
157684000    252.02839    290.36143    296.58887   -185324.44    185427.88   -6.2274362     30.06025 
157688000    276.53702    255.69176    222.82427   -185384.98    185482.39    32.867493    30.058172 
157692000    278.35814    394.61713    326.33587   -185416.85    185516.56    68.281262    30.052791 
157696000    277.87758    427.84689    353.95268    -185468.2    185551.74    73.894212    30.051624 
157700000    263.44207    221.43155    339.89923   -185493.48    185566.07   -118.46769    30.053868 
157704000    247.05017    365.84966    386.00704    -185510.8    185625.13   -20.157376    30.051928 
157708000    309.97681    168.08566    349.63067    -185591.6    185652.22   -181.54501    30.051393 
157712000    294.68436    262.35671    312.98556   -185610.13    185694.94   -50.628846    30.052476 
157716000    295.08232    319.32538    292.87322   -185652.62    185736.01     26.45216    30.050218 
157720000    276.20299    485.50889     287.7386   -185696.78    185792.26    197.77029    30.043567 
157724000    275.27329    294.93818    231.86263   -185747.35    185835.02    63.075553    30.045831 
157728000    304.18812    290.23317    355.31262   -185793.52    185848.15    -65.07945    30.046578 
157732000    289.02873    523.88356    339.35334   -185855.39    185920.84    184.53022    30.052592 
157736000    273.38698    276.09944    335.08524    -185882.5    185947.36   -58.985802    30.052461 
157740000    305.96318    338.11524    546.66336   -185928.38    185998.57   -208.54812    30.051191 
157744000    302.69149     349.8467    297.56425   -185943.81    186016.45    52.282446    30.051413 
157748000    295.39144    320.97613    320.27514   -185960.16    186047.83   0.70098665    30.053112 
157752000    277.45366    433.51078    310.69026   -185988.98    186087.91    122.82052     30.05291 
157756000    273.37692    477.47224    308.05756   -186037.34    186129.17    169.41469    30.053213 
157760000    236.77012    238.11983    227.84306   -186045.09    186151.77    10.276775    30.052522 
157764000    305.27471    272.92311    337.14061   -186110.03    186193.36   -64.217502    30.048658 
157768000    270.16923    242.17164    353.19304   -186127.08    186229.59   -111.02139    30.054318 
157772000    303.62383    445.23541    297.05901   -186177.26     186243.5    148.17639     30.05708 
157776000    305.05602    288.49127     260.6507   -186225.14     186289.5    27.840574    30.052529 
157780000    286.78771    544.32376    273.32182   -186253.43    186338.78    271.00193    30.058963 
157784000    306.94914    324.84773    265.40099    -186285.1    186372.13    59.446739    30.058578 
157788000    293.69962    400.70671    398.57666   -186338.41    186412.88    2.1300519    30.058057 
157792000    277.79058    409.53052     338.5947   -186351.51    186440.37    70.935815    30.055677 
157796000      310.298    683.79852    374.09662   -186362.83    186442.79     309.7019    30.057794 
157800000    286.14132    482.70992    458.36176   -186401.22    186483.57    24.348159    30.063139 
157804000     289.3969    365.19149    402.50685   -186435.21    186524.51   -37.315365    30.055616 
157808000    283.43862    347.03162    308.83645   -186487.73    186573.26    38.195167    30.048361 
157812000    291.72391    349.27317    291.43427   -186534.43    186595.82      57.8389    30.044778 
157816000    272.36754     270.6933    255.67359   -186555.93    186642.52    15.019712    30.047095 
157820000    297.13267    240.82688    314.12022   -186589.58    186654.02   -73.293344    30.043138 
157824000    275.53568    311.00778    363.74502   -186589.08    186677.14   -52.737235    30.043487 
157828000    290.76478    364.50597    418.12948   -186605.18    186688.05   -53.623508    30.050536 
157832000    280.27651    353.46505     318.5904   -186676.14    186764.97    34.874647    30.054128 
157836000     275.2589    399.52168    395.60528   -186694.72     186804.7    3.9163961    30.053776 
157840000    270.07331     420.1816    283.32058   -186750.04    186844.26    136.86101    30.050845 
157844000    295.24332    547.41977    305.29592    -186782.8    186856.06    242.12385    30.052644 
157848000      292.203    416.15331    428.70599   -186820.18    186905.29   -12.552684    30.053237 
157852000    313.39629    484.32165    346.28755   -186856.16    186922.06     138.0341    30.053738 
157856000    279.03826    443.93769    342.24032   -186897.41    186996.94    101.69738    30.054611 
157860000    276.54957    504.44303    306.88773   -186930.31    187012.08     197.5553    30.057018 
157864000    314.97639    221.20683    360.64561   -186966.26    187038.21   -139.43878    30.054121 
157868000    275.23298    384.63173    332.07743   -187000.92       187098    52.554295    30.057293 
157872000    273.51657     267.2639    448.62696   -187048.27    187150.36   -181.36307    30.054701 
157876000     259.8444     432.9126    320.71226   -187077.75    187178.06    112.20034    30.048316 
157880000    292.91344    317.33592    208.20979   -187105.77    187186.48    109.12614    30.041834 
157884000     300.5446    273.46681    282.86099   -187166.82    187221.78   -9.3941762    30.044681 
157888000    288.50759    179.37907     260.0776    -187188.9    187265.18   -80.698527    30.044729 
157892000    269.54944    259.24046    363.56057   -187216.72    187316.59   -104.32011    30.046184 
157896000    272.62982    416.01886    348.36629   -187226.42    187331.93    67.652567    30.046149 
157900000    283.72205    347.30154    350.58709   -187281.01    187351.29   -3.2855491    30.046424 
157904000    308.42306    336.02275    225.39041   -187329.51     187394.8    110.63234    30.043449 
157908000    295.71015    286.56189    176.03851   -187377.23    187452.83    110.52339    30.041236 
157912000    253.00432    439.48625    399.42953   -187393.37    187491.85    40.056718    30.043722 
157916000    287.96228    280.19716     247.9997   -187469.76    187547.72    32.197464    30.051197 
157920000    286.76096    487.33525    373.64191   -187481.17    187564.58    113.69334    30.040935 
157924000    296.15958    384.57961    457.37029   -187509.18    187608.62   -72.790688    30.036888 
157928000    258.19082    226.87114    222.46138   -187536.97    187641.24    4.4097561    30.033772 
157932000    262.67473    353.79204    170.42916   -187582.49    187684.27    183.36288    30.036192 
157936000    271.22804    267.28745    189.25066    -187628.7    187704.83     78.03679    30.039105 
157940000    253.79728    335.36255    282.81778   -187624.69    187734.44    52.544762    30.039902 
157944000    290.19056    257.95185    373.45552   -187699.52    187775.81   -115.50367    30.036274 
157948000     288.1348    258.85234     235.7151   -187718.59    187799.27    23.137239    30.036185 
157952000    294.16122    248.86582     257.9301   -187739.46    187832.15   -9.0642787    30.032277 
157956000    265.53247    284.10413    284.16751   -187765.15    187863.43 -0.063376841    30.023331 
157960000    298.35023     476.6908    481.16599   -187784.06    187868.36   -4.4751922    30.023317 
157964000     285.2532    215.62173    275.69014    -187782.8    187874.46   -60.068409    30.022233 
157968000    261.74372     294.6016    358.86738   -187822.93     187923.4   -64.265776    30.016976 
157972000    262.57111    423.43578     177.5883   -187879.82    187976.38    245.84748    30.017812 
157976000    277.75598    242.17345     313.5003   -187895.98    187995.73   -71.326851    30.007625 
157980000    256.76727    333.31392    437.60226      -187941    188035.87   -104.28833    30.005049 
157984000    300.04903    303.92127    453.28779   -187958.93    188049.12   -149.36651     30.00213 
157988000    291.34487    289.79976    285.96705   -187991.14     188072.9    3.8327036    30.008441 
157992000    285.72994    341.88438    261.38331   -188020.13     188104.6    80.501068     30.00747 
157996000    271.84797    409.38232    342.95466   -188029.32    188117.16    66.427655     30.00434 
158000000    249.71139    254.55783    476.54248   -188048.43    188170.83   -221.98465    30.008093 
158004000    271.48566    271.25645    206.55144   -188076.45    188192.68    64.705016    30.003508 
158008000    257.44755    252.74039    221.50803   -188107.77    188223.48    31.232363    29.999547 
158012000    299.99647    506.87439    325.04937   -188132.11     188211.4    181.82502    30.005331 
158016000    281.33565      460.759    260.87448   -188156.15     188234.5    199.88452     30.01258 
158020000    294.63136    443.05261    413.79246   -188172.56    188264.48    29.260151    30.011552 
158024000    291.42671    364.83859    339.41593   -188204.03    188280.96    25.422661    30.007237 
158028000    263.77975    515.04587    188.61199   -188251.28    188354.45    326.43388    30.007282 
158032000    307.35983    493.43442    284.17253   -188276.99    188366.21    209.26189    30.009637 
158036000    294.29638    263.09899    477.70289    -188314.9    188400.89   -214.60389    30.004121 
158040000    249.21028    125.84228    291.30692   -188360.42     188460.5   -165.46464    30.009542 
158044000    269.06974    191.15012    466.99399   -188391.06    188481.51   -275.84387    30.017419 
158048000    258.07119    404.88852    238.72106   -188441.15    188535.18    166.16746    30.015693 
158052000    279.61557    407.83296    314.06708   -188493.13    188587.31     93.76588    30.014933 
158056000    264.60384    437.56101    309.89493   -188533.81    188633.77    127.66608    30.016381 
158060000    254.31459    242.58013    248.19307    -188544.6    188660.75   -5.6129407    30.014957 
158064000    274.41893     258.5116    442.29969   -188580.31    188679.98   -183.78809    30.015774 
158068000    261.91702    215.00496    283.63756   -188638.63    188738.26   -68.632593    30.009131 
158072000    282.14106    310.02056    404.62862   -188676.66    188763.92   -94.608053    30.006565 
158076000    295.43243    477.32911    371.33441    -188713.4    188773.77     105.9947    30.007113 
158080000    275.58596    278.84767    202.87575   -188750.03    188818.91    75.971921    30.000092 
158084000    313.48179    510.40398    545.66923   -188766.07    188853.08    -35.26525    30.001021 
158088000    274.06588    448.23095    279.85194   -188807.03    188883.63    168.37901    30.004872 
158092000    274.20434    257.13896     395.3234   -188878.96    188971.94   -138.18444    30.011777 
158096000    270.21314    405.66102    271.63741    -188871.9    188965.33    134.02361    30.010031 
158100000    275.38061    638.75282    462.27731   -188878.81    188976.63    176.47551    30.012365 
158104000    284.97235    295.52383    258.72461   -188912.67       188992    36.799217    30.010809 
158108000    292.70649    344.30062    482.18208   -188934.65    189009.32   -137.88145    30.015315 
158112000    283.71904    331.07248    461.82164   -188963.88    189057.63   -130.74915     30.02274 
158116000    323.24092    479.14703    463.54279   -189024.43     189096.1    15.604237    30.026286 
158120000    267.67476     330.8626    346.95122   -189051.68    189137.87   -16.088624    30.028933 
158124000    293.24345    458.61363    338.60865    -189085.2    189163.13    120.00498    30.029803 
158128000    260.53411    268.28119    441.30997   -189113.66    189205.48   -173.02878    30.031105 
158132000    270.48395    249.85018    203.01412    -189165.6    189272.93    46.836057    30.026637 
158136000    311.27419    334.99113    276.63631   -189204.09     189262.3     58.35482    30.023341 
158140000    264.44507    307.85119    206.51299   -189244.96     189338.6     101.3382    30.017318 
158144000    294.52087    376.48843    293.28055   -189256.55    189353.19     83.20788    30.019566 
158148000     277.9286     450.0131    179.32014   -189301.04    189394.18    270.69296    30.017854 
158152000    281.40048    165.23019    456.97459   -189315.43    189408.31    -291.7444    30.011757 
158156000    271.36628    298.79787    225.30039   -189339.54    189430.86    73.497486    30.015587 
158160000     286.9827    354.41611     386.5735   -189361.13     189454.9   -32.157391    30.012079 
158164000    302.91458    350.67268    262.07345    -189440.2    189523.62    88.599233    30.013983 
158168000    294.15569    511.94059    416.29561   -189464.21    189549.09    95.644977     30.01668 
158172000     277.1716    194.58195    263.80597   -189513.47    189592.94   -69.224014    30.011901 
158176000    281.55194    318.78548    413.95332   -189544.13    189630.38   -95.167845    30.006964 
158180000    305.71327     302.2606    179.95294   -189551.82     189637.4    122.30766    30.004402 
158184000    302.85025    237.53167    252.10772   -189577.24     189664.2   -14.576042    30.005842 
158188000    303.52031    502.71535    632.38622   -189640.31    189718.61   -129.67087    30.004114 
158192000    292.08453    376.50388    319.48457   -189678.05    189764.29    57.019308    29.997534 
158196000    279.05421     378.3999    252.96893   -189713.05       189793    125.43097    30.004556 
158200000    305.60102    428.05655    377.80824   -189742.18    189807.28     50.24831    29.999923 
158204000    268.84675    326.89821     213.4115   -189745.14    189832.72    113.48671    30.002234 
158208000     278.9559    350.35128    318.83993   -189773.27    189866.82    31.511356    30.003934 
158212000    307.25588    444.06492    445.04431   -189833.06    189905.78  -0.97938217    29.999336 
158216000    281.94274     247.7783    420.79703   -189861.18    189950.95   -173.01874    30.002222 
158220000    284.35289    326.97478    251.28973   -189898.49    189977.51    75.685052    30.009017 
158224000    280.00474    329.33014    330.49547    -189912.6    190011.79   -1.1653227     30.00917 
158228000    271.74743    323.17728    479.76248   -189953.44    190045.14    -156.5852    30.017146 
158232000    292.01913    411.34522    405.24795   -189971.82    190062.28    6.0972685    30.019409 
158236000    305.75742    334.86604    176.66714   -190011.86    190088.37     158.1989    30.020188 
158240000    286.16859    314.45432    352.75467   -190028.05     190126.1   -38.300357    30.019033 
158244000    303.28956    471.55979    251.23392   -190074.46    190149.96    220.32587    30.021631 
158248000    298.07612    339.02537    303.71464   -190128.05    190210.94    35.310727    30.025036 
158252000    265.05486    521.57187     355.3451   -190143.39    190256.81    166.22676    30.031963 
158256000    278.63401    260.12352    343.10138   -190199.34    190287.12   -82.977864    30.037507 
158260000    279.67009     537.5872     240.4102   -190251.75    190339.51      297.177    30.038723 
158264000    292.91242    345.64174    217.73875   -190286.79    190371.35    127.90299     30.03707 
158268000    294.34749    427.85202    294.38922   -190333.32    190412.85     133.4628    30.039023 
158272000     281.3457    266.15889    308.26435   -190349.55    190423.81   -42.105466    30.031973 
158276000    287.36601    331.95491    253.54192   -190364.69    190447.85     78.41299    30.039427 
158280000    272.85836    621.10306     205.3011   -190402.42    190498.19    415.80195    30.044922 
158284000    293.54522    251.58676    303.69993   -190435.87    190517.86   -52.113166     30.04817 
158288000    279.47722    276.78949    250.72602   -190475.65     190562.2    26.063477    30.046739 
158292000    285.49868    276.84471    373.63746   -190508.12    190594.35   -96.792754    30.046776 
158296000    292.77686    433.98035    380.56903   -190560.03    190643.97    53.411315    30.045457 
158300000     300.5031    432.21368    243.10026   -190562.39     190639.1    189.11343    30.049135 
158304000     268.4561    178.83304    305.93865      -190563    190668.54   -127.10561    30.051005 
158308000    307.28507    278.84332    302.57464   -190614.09    190681.61   -23.731318    30.050378 
158312000    258.70797    354.03654    412.14788   -190624.65    190729.12   -58.111337    30.045274 
158316000    260.61205    176.29625    313.94259    -190660.8    190754.08   -137.64635    30.044206 
158320000    299.08293    286.75509    432.60347   -190694.31    190787.24   -145.84837    30.045581 
158324000    275.02299    269.65479    273.22914   -190724.51    190813.42   -3.5743439    30.046822 
158328000    276.56789    498.10174    337.89379   -190760.35    190854.77    160.20795    30.046929 
158332000    283.42445    531.38813    344.37069   -190786.24    190877.39    187.01743    30.045634 
158336000    270.08616    480.03032    413.10647   -190796.85     190891.7    66.923843    30.040282 
158340000    256.59991    448.68842    299.21338   -190834.18    190920.42    149.47504    30.040256 
158344000     291.9666    306.25675    209.23207   -190846.75     190922.1    97.024681     30.04141 
158348000    268.41577    290.02453    294.80916   -190849.27    190943.23   -4.7846359    30.043585 
158352000     265.7536    346.33627    377.70908    -190885.8    190986.46   -31.372804    30.040065 
158356000    282.29254    275.54643    228.58079   -190905.71    191003.83    46.965635    30.040662 
158360000    275.73039    216.42318     400.7902   -190933.19    191037.34   -184.36703    30.033168 
158364000    314.72131    528.22299    348.44766   -190998.06    191071.27    179.77533    30.030389 
158368000    285.84562    315.94556    233.31085   -191040.91    191121.64    82.634703    30.028703 
158372000    296.47093    539.90047    372.29702   -191104.36    191183.55    167.60345    30.029835 
158376000    274.22502    433.16539    247.78276   -191117.37    191195.93    185.38263    30.033066 
158380000    272.66585     241.5065    297.10982   -191150.22    191229.76   -55.603322    30.030356 
158384000    274.52518    438.02119    326.18349   -191186.16    191280.58     111.8377    30.035664 
158388000    289.05521    453.17531    334.73501   -191272.72    191342.67     118.4403    30.039619 
158392000    276.60705     184.6008    349.34677    -191266.1    191357.95   -164.74596     30.03869 
158396000    265.86385    512.89764    370.77519    -191286.8    191369.25    142.12245    30.043943 
158400000    275.53153    413.27244      327.246    -191308.7    191399.34     86.02644    30.050352 
158404000    285.47059    601.55566    289.43451   -191361.16    191446.09    312.12115    30.052211 
158408000    272.49699    331.29276    175.75598   -191412.04    191521.64    155.53678    30.046911 
158412000    312.10609     204.5368    320.90163   -191443.27    191513.89   -116.36482    30.044725 
158416000    286.33277    188.70548    233.94275   -191493.37    191576.04    -45.23727    30.052132 
158420000    295.65507    323.22098    266.31615    -191514.6       191586     56.90483    30.051651 
158424000    262.05804    487.47801    158.79823   -191554.24    191643.57    328.67978     30.05388 
158428000    294.75453    363.80631    557.27034   -191636.31    191713.23   -193.46403    30.053598 
158432000    324.03028    221.29315     441.5881   -191658.54    191712.33   -220.29495    30.049626 
158436000    290.61373    303.32694    323.78357   -191740.08     191805.7   -20.456627     30.04365 
158440000    260.13494    257.97392    309.85909   -191762.54     191867.5    -51.88517    30.044478 
158444000    285.87704    206.13846      396.841   -191827.28    191914.96   -190.70255    30.041338 
158448000    278.50372    347.05534    382.11388   -191851.59    191962.84   -35.058545    30.037794 
158452000    261.19209    542.46868    569.44545   -191892.74    191997.17   -26.976764    30.041604 
158456000    268.57543    304.41511    339.09979   -191932.24    192051.68   -34.684676    30.042159 
158460000    286.22459    277.99065    401.52871   -191991.69    192076.72   -123.53806    30.044128 
158464000    282.79124    302.35568    284.27538   -192021.12    192115.23    18.080294     30.03854 
158468000    298.52043     414.2291    360.64604   -192061.86    192145.47    53.583055    30.036658 
158472000    330.12119     448.1216    383.03816   -192104.81    192160.85    65.083441     30.03615 
158476000     283.3141    274.47699    318.33347   -192105.54    192191.58    -43.85648    30.040363 
158480000    265.96853    351.95695    387.55932   -192127.54    192228.24   -35.602371    30.041325 
158484000    308.91556    407.48303    398.23553    -192184.6    192259.33    9.2475014    30.041093 
158488000    273.66346    285.50903    404.83378   -192195.27    192293.48   -119.32475    30.036209 
158492000    299.59774    183.16282      169.957   -192241.15    192323.41     13.20582    30.033867 
158496000    256.85428    290.11293    217.87804   -192276.23     192377.9    72.234892    30.029724 
158500000    314.58259    574.24648    376.04269    -192307.6    192384.06    198.20379     30.02778 
158504000    270.70764    425.59701    338.27338    -192317.2    192423.15    87.323632    30.027374 
158508000    281.62386    258.00554    320.48044      -192330    192432.23   -62.474897    30.029083 
158512000    283.50424    406.81705    390.49679   -192361.68    192453.32     16.32026    30.022915 
158516000    276.94393    295.85668    411.31047   -192399.92    192509.29    -115.4538      30.0241 
158520000    274.83138    302.30994      251.246   -192462.71    192554.63    51.063934    30.023148 
158524000    266.49054    410.84495     340.7368    -192516.6    192620.44    70.108155     30.02556 
158528000    304.47125    452.78556    339.05422   -192567.29     192649.7    113.73133    30.028478 
158532000    310.43571    327.76097    357.42765   -192621.92    192681.77   -29.666674    30.028775 
158536000    313.66216     351.5726    372.68163   -192644.04    192724.81   -21.109032    30.029492 
158540000    284.16726    302.15922    329.96809   -192706.45    192793.13   -27.808876    30.022777 
158544000     285.2063    332.15525    517.70493    -192747.7    192835.85   -185.54969    30.024972 
158548000    281.74101    343.37677     375.9512   -192785.41    192878.03   -32.574434    30.020945 
158552000    287.72898    578.18159    370.51509   -192845.81    192945.42     207.6665    30.020951 
158556000    312.68647    525.00496    367.54186   -192877.76    192964.45    157.46311     30.02187 
158560000    302.07818    554.75012    406.10369    -192909.6    192987.04    148.64643    30.026573 
158564000    270.35987    368.64031    271.79996   -192941.44    193039.49    96.840352    30.027533 
158568000    317.41154    492.84262    545.13424   -192972.89    193051.46   -52.291621    30.025112 
158572000    268.02321    135.53329    323.42508   -192976.27    193080.92   -187.89179    30.028852 
158576000    269.68235    206.33396    360.29456   -193025.45    193125.88    -153.9606    30.029104 
158580000    274.62149    383.59456    222.81799   -193055.79    193157.35    160.77657     30.03171 
158584000     299.0109    353.76788    234.77867   -193078.45    193164.87     118.9892    30.035085 
158588000    281.59334    209.26865    462.91757    -193104.3    193209.94   -253.64892    30.036983 
158592000    256.26028    263.69847    246.01874   -193158.74    193248.46    17.679728    30.031438 
158596000    275.46924    320.86499    257.91807   -193182.43    193286.41     62.94692    30.036654 
158600000    262.15453    309.15943    263.89041   -193221.49     193333.9    45.269023    30.035693 
158604000    302.05743    249.89663    319.17604   -193295.94    193375.26   -69.279411    30.036513 
158608000    264.46816    337.58821    318.31898   -193319.02     193423.2    19.269225    30.041821 
158612000    274.27157    372.73584    305.54857   -193371.76     193432.5    67.187279     30.03802 
158616000     274.9646    395.04133    335.51818   -193394.06    193472.28    59.523152    30.041209 
158620000    286.39882    429.73805    396.02198   -193423.54    193506.14    33.716075    30.042075 
158624000    286.53859    286.45048    300.56808   -193471.96    193546.22     -14.1176    30.041943 
158628000    259.65991    248.70801    272.21555   -193491.65    193579.74   -23.507544     30.04156 
158632000    276.66137    414.46029    262.47029   -193523.79    193593.37       151.99    30.045855 
158636000    280.54694    360.25044    431.23362   -193511.91    193595.56   -70.983184    30.039345 
158640000    303.79098    427.66891    356.79824   -193570.43    193655.52    70.870672    30.042996 
158644000    281.54554    196.15677    192.09796   -193571.82    193679.97    4.0588016    30.044484 
158648000    281.94458     231.8405    661.21803   -193614.64    193700.11   -429.37753    30.037834 
158652000     272.6548    590.74794    252.87899   -193669.94    193761.34    337.86895    30.043745 
158656000    302.72077    495.57038    271.94933   -193736.15    193797.38    223.62105    30.053472 
158660000    284.21887     252.8023    419.22019   -193752.72    193835.46   -166.41789    30.054968 
158664000    296.91281    441.88598    515.19368   -193798.81    193874.16     -73.3077    30.052267 
158668000    286.26464    502.82943    349.08308   -193857.43    193944.53    153.74636    30.053271 
158672000    273.66536    325.14526    397.74536   -193896.32    193993.56   -72.600095    30.051897 
158676000     302.4624    442.80312    298.71288   -193962.25    194035.95    144.09024    30.056883 
158680000     287.6601    329.91847    427.94909   -193992.61    194079.93   -98.030616    30.050921 
158684000    286.48093    329.15813    218.73539   -194023.15    194093.61    110.42274    30.054929 
158688000    272.91265    441.09112    315.89692   -194045.19    194129.93     125.1942    30.056824 
158692000    282.06741    406.46386    263.96758    -194102.2    194186.93    142.49628    30.062226 
158696000     277.6177    428.81106    248.89359   -194166.22    194269.73    179.91747    30.062166 
158700000    277.46114    426.63546     232.0656   -194219.75    194305.22    194.56986    30.070695 
158704000    269.86142    307.13289    287.35468   -194240.84    194330.83    19.778202    30.073002 
158708000     287.4772    323.82232    177.44572   -194293.39    194376.18     146.3766    30.075167 
158712000    289.76505    331.87066    247.78015   -194333.75    194421.46    84.090516    30.068687 
158716000    288.84556    210.48452    245.35188   -194344.49    194412.89   -34.867353    30.074131 
158720000    289.94286    437.57478    293.40413   -194355.96    194437.25    144.17065    30.077532 
158724000    298.92422    321.35883    407.68815   -194393.15    194487.66   -86.329321    30.077262 
158728000    269.27752    273.44607    387.30687   -194444.73    194530.42    -113.8608    30.079852 
158732000    300.42093    442.80664    306.13939   -194452.64    194546.15    136.66725     30.08431 
158736000    287.33602    279.40936    359.27243   -194455.49    194547.99   -79.863073    30.080747 
158740000     268.7745    372.39539    246.26721   -194479.52    194579.96    126.12818    30.086042 
158744000    269.09798    457.70933    190.21459   -194505.44    194601.54    267.49473    30.090914 
158748000    241.15748    297.24175    350.17738    -194537.2    194645.22   -52.935632    30.089354 
158752000     278.0818    282.13274    383.51096   -194608.93    194701.81   -101.37822    30.087743 
158756000    287.68689    418.46774    173.97497   -194660.41    194738.35    244.49276    30.086965 
158760000    283.60439    310.18393    344.94886   -194675.02     194754.5   -34.764935    30.089537 
158764000    291.12436    510.83119    561.87386   -194700.47    194792.22   -51.042678    30.088953 
158768000    314.11808    401.09845    394.35306   -194756.53     194812.9     6.745391    30.086704 
158772000    289.02572    537.45828    319.03742   -194771.62    194873.19    218.42086    30.089491 
158776000    309.99175    362.26061    526.86363   -194824.33    194902.04   -164.60302    30.092988 
158780000    303.13647    421.78303    512.16379   -194860.73    194943.75   -90.380763    30.087914 
158784000    252.46083    277.60465    239.98838   -194894.17    195012.04    37.616273    30.090144 
158788000    318.09587    351.72595    279.90609    -194973.5    195047.38    71.819868    30.089113 
158792000    244.38358     425.1701    290.58558    -194997.2    195117.44    134.58452    30.090446 
158796000    270.84309    303.32497    482.92234   -195044.51    195154.18   -179.59737     30.08485 
158800000    277.97199    264.60356    414.14674   -195075.88    195152.12   -149.54318    30.092113 
158804000    271.71328    273.53997    281.18622   -195089.25    195183.75   -7.6462494    30.089014 
158808000    306.90491    308.24046    410.22367   -195129.64    195203.86   -101.98321    30.086406 
158812000    293.06458    322.09653    328.24833   -195166.08    195252.94   -6.1518058    30.084663 
158816000    254.75608    474.25666    181.13509   -195182.33    195286.62    293.12157    30.084415 
158820000    264.57327     307.8138    217.82217   -195229.03    195335.18    89.991624    30.083122 
158824000    298.06211    495.57349    570.25629   -195261.65    195338.84   -74.682807    30.082107 
158828000    289.92844    357.11244    317.80352   -195265.58    195356.22    39.308915    30.082893 
158832000    273.66376    244.69473    268.84325   -195307.67     195395.6    -24.14852    30.079254 
158836000    302.20838    395.19891     210.6342   -195377.93    195451.43    184.56472    30.081033 
158840000    278.70121     488.8883    294.15658   -195410.39    195502.39    194.73172    30.080705 
158844000    251.72727    299.03931    339.77163   -195406.05    195530.36   -40.732317    30.079185 
158848000    280.85205    177.43666    152.65295   -195455.45    195537.68    24.783708    30.080572 
158852000    270.14513    311.25166    308.17652   -195491.68    195590.04    3.0751383    30.081915 
158856000    272.76441    204.33385    306.61645   -195525.02    195618.63    -102.2826    30.080789 
158860000    280.86411    443.08922    250.27582   -195553.52    195655.09     192.8134    30.086133 
158864000     319.3428    356.34411    205.95781   -195589.16    195663.97    150.38629    30.090405 
158868000    304.31595    349.80591    509.02345   -195590.07    195673.83   -159.21754    30.082787 
158872000    288.03533    365.45948    186.85798   -195574.34    195653.93     178.6015    30.089265 
158876000    277.46516    321.72987    294.42636   -195622.14    195706.08    27.303518    30.083758 
158880000    298.05857    553.01549    486.49941   -195661.33    195730.13    66.516088    30.081481 
158884000    297.81712    295.48085    161.65719   -195677.58    195764.39    133.82367    30.084903 
158888000    280.18048     363.9063    381.47871   -195723.36    195809.32   -17.572414    30.085665 
158892000    266.51362    459.06984    275.38192   -195750.56    195870.47    183.68792    30.085065 
158896000    289.09386    443.48374    295.81574   -195790.87    195867.79    147.66799    30.087441 
158900000    283.72651    292.44207    312.44792   -195796.59    195878.29   -20.005856    30.087183 
158904000    294.90668    362.33343    414.06958    -195824.5    195895.47   -51.736147    30.084077 
158908000    271.79099    334.20111    429.33527   -195825.57     195927.7   -95.134161    30.082285 
158912000    307.56113    361.36026    333.57494   -195902.29    195977.25    27.785319     30.08126 
158916000    297.19386    339.73386    330.30178   -195946.89    196033.92    9.4320779    30.081673 
158920000    289.55698    188.04223     317.5708   -195985.73    196074.26   -129.52856    30.080932 
158924000    282.34211    410.02856    256.75163   -195996.52    196102.53    153.27693    30.078949 
158928000    280.33357    244.76425    343.18089   -196028.53    196128.85   -98.416643    30.078272 
158932000    302.35265    291.67497    264.35769   -196086.39    196146.92    27.317279    30.077762 
158936000    276.65498    250.49329    362.71764   -196077.76    196176.18   -112.22435    30.082655 
158940000    299.12071    384.77728    384.40993   -196107.69    196183.41   0.36734859    30.078589 
158944000     271.5248    339.42675    357.73586   -196120.59    196209.58   -18.309115    30.074772 
158948000    298.92911     405.6356    438.56132   -196159.89    196241.06   -32.925718    30.071329 
158952000    267.26199    563.54458    401.59058   -196204.82    196288.74      161.954    30.072693 
158956000    311.11109     294.5423    240.94221   -196241.33    196302.25    53.600093    30.069563 
158960000    276.87667    309.43248    229.14293   -196271.99    196339.35    80.289544    30.071554 
158964000    278.55655    202.73303    289.13862   -196302.64    196384.93   -86.405595    30.076848 
158968000    271.95083    208.93458    588.92958   -196321.94    196420.68     -379.995    30.072151 
158972000    273.31831      568.342    275.78383   -196380.19    196463.72    292.55817    30.075601 
158976000    287.61597    494.39333     236.6453   -196441.82    196516.64    257.74803    30.074384 
158980000    264.61916    525.18758    169.57899   -196477.09    196591.45    355.60859    30.071586 
158984000    294.13556    558.93039    251.96103   -196512.91    196596.41    306.96936    30.072942 
158988000    267.08306    420.73337    302.08804   -196507.63    196614.36    118.64533    30.077609 
158992000    268.28149    329.10324    402.37784   -196550.41    196673.27   -73.274601    30.080289 
158996000    284.58022     418.1931    324.92383   -196601.21    196705.54    93.269269    30.075652 
159000000    274.21523    432.11262    244.06525   -196636.77    196733.74    188.04737     30.07956 
159004000    269.05983    272.55566    361.63152   -196668.56    196771.84   -89.075864     30.08335 
159008000    287.63678    152.31304    398.47424   -196692.04    196785.98    -246.1612     30.07948 
159012000    255.30159    590.27585     240.9748   -196718.58    196825.82    349.30105    30.078898 
159016000    280.91527    272.61119      272.323      -196732    196814.06   0.28818908    30.081749 
159020000    277.46277    430.94308     286.1794    -196758.4    196855.83    144.76368    30.081979 
159024000    297.02429    480.67497    215.09407   -196793.27    196880.85    265.58091    30.081815 
159028000    307.83397    417.59045    271.76553      -196838    196924.54    145.82492    30.085173 
159032000    269.18924    340.34212    253.67015   -196872.51    196982.77    86.671972     30.08428 
159036000    304.41764    299.29565    185.95496   -196926.38     196986.3    113.34068    30.088246 
159040000    302.61927    218.35642    324.53382   -196976.87    197030.61    -106.1774    30.087832 
159044000    271.51659    387.56583    233.29223   -197018.86    197117.15     154.2736    30.085352 
159048000    300.58192    388.05841    376.09681   -197055.93     197120.4      11.9616    30.087821 
159052000    294.92885    217.83398    192.83396   -197096.64     197170.3    25.000013    30.080469 
159056000    283.24904    298.92025    459.86713   -197153.49     197233.9   -160.94688    30.084985 
159060000     304.2136    275.26748    323.29088   -197209.52    197292.42   -48.023399    30.084052 
159064000    271.79557    269.14587    318.31447   -197253.19    197352.81   -49.168599    30.077758 
159068000    308.55834    363.41364     306.2061   -197303.09    197364.07    57.207542     30.08067 
159072000    247.60013    344.60275    258.43453   -197342.67    197458.71    86.168225    30.074514 
159076000    285.81031    264.97154      323.752   -197392.96    197483.75   -58.780461    30.075886 
159080000     311.2053    522.96583     455.4784   -197440.45    197508.97    67.487432    30.080371 
159084000    297.96638    346.43161    470.85864   -197476.68    197532.87   -124.42704    30.076245 
159088000    293.67895    425.40572     317.4552   -197495.63    197570.31    107.95052    30.078759 
159092000    289.86707    395.28801     215.0547   -197517.11     197582.6    180.23331    30.081439 
159096000    270.32518    332.96248    305.62356   -197530.97     197624.6    27.338922    30.082232 
159100000    298.65753     511.1531    458.47236   -197584.84    197666.78    52.680741    30.082649 
159104000     265.7711    580.92526    345.92771   -197602.32    197701.24    234.99755    30.081496 
159108000    271.54315    411.27653    184.95217   -197658.72    197759.08    226.32436     30.08841 
159112000    248.98017    368.45024    294.19176   -197713.59    197812.12    74.258473    30.083838 
159116000       272.05    226.24687    154.25923   -197772.93    197861.67    71.987648    30.088756 
159120000     269.4844    156.77648    136.16624   -197813.96    197896.13    20.610241    30.093202 
159124000    283.28501    300.36804    468.33323   -197866.34    197959.46   -167.96519    30.089939 
159128000    299.92911    318.40471    596.51902   -197955.02    198034.67   -278.11431     30.08415 
159132000    306.88099    317.68522    380.24318   -197992.42    198047.69   -62.557959    30.075704 
159136000    284.43851    351.13987    370.56603      -198034    198100.96    -19.42616    30.075129 
159140000    276.13246    248.03414    355.81156   -198072.44    198165.24   -107.77742    30.076926 
159144000    266.94836    176.09817    449.77591   -198095.35    198179.42   -273.67774     30.07187 
159148000    282.39378    420.15684    180.11093   -198102.36    198193.38    240.04591    30.072885 
159152000     262.1735    229.98988    189.32626   -198150.03    198257.32    40.663622    30.080575 
159156000    281.57563    274.55748    203.91928   -198230.65    198306.94    70.638193    30.075376 
159160000    307.98455    365.93089    707.54353   -198279.97    198361.27   -341.61263     30.06953 
159164000    274.14023    329.60994    291.28835   -198332.91    198415.02    38.321592      30.0741 
159168000    290.95653    742.36756    400.86359   -198372.24    198439.09    341.50397    30.072701 
159172000    271.81551    231.96187    195.80102    -198401.4     198492.1    36.160847    30.065542 
159176000    287.40053    442.91365    246.93059   -198446.87    198522.18    195.98306    30.069567 
159180000    274.02548    194.32675    230.18987   -198477.68    198575.71    -35.86312    30.059033 
159184000    271.47883    353.05966    222.14323   -198481.51    198580.53    130.91643    30.055821 
159188000    256.32701    238.34625    427.64067   -198506.08    198607.86   -189.29442    30.059663 
159192000    258.06672    223.03126    300.96488   -198544.51    198652.68   -77.933621    30.055263 
159196000     261.2875    339.87417    453.94607   -198572.89    198690.12    -114.0719    30.057392 
159200000    278.94536    513.59631    272.23679   -198599.26    198700.23    241.35952    30.057591 
159204000    263.27874    289.43745    314.53229   -198632.55    198735.01   -25.094846    30.061142 
159208000    282.99779    379.59354    316.19275   -198661.97    198759.56    63.400786    30.055505 
159212000    297.24629    429.64664    411.28692   -198732.34    198800.57    18.359722    30.052856 
159216000    287.79183    367.14304    186.13321   -198773.72    198861.37    181.00984    30.050456 
159220000    237.93298    524.97898    311.40304   -198800.09    198901.78    213.57594    30.048808 
159224000    290.48203    242.88545    433.38338   -198846.89    198953.92   -190.49793    30.048894 
159228000    252.85665    298.77946    221.50013   -198878.59    198984.82    77.279335     30.04908 
159232000    287.11828    220.15182    369.50417   -198930.17    199018.45   -149.35235    30.049641 
159236000    275.55296    380.96358    363.89882   -198970.44    199048.46    17.064756    30.055927 
159240000    299.93102    236.72048    491.87852   -199037.43    199121.44   -255.15804    30.060258 
159244000    301.06023    392.48787    433.09632   -199081.65    199163.31   -40.608458    30.053994 
159248000    327.32793     337.6836    556.59458   -199105.97    199183.85   -218.91098     30.04635 
159252000    277.22204    354.46381    341.57602   -199165.89    199248.81    12.887787    30.049506 
159256000    263.94057    327.14361    373.13287   -199176.73    199282.93   -45.989261    30.049228 
159260000    286.33691    370.41008    423.48091   -199224.55    199307.68   -53.070827    30.047845 
159264000     263.2251    258.85392    280.87882    -199247.8    199356.03   -22.024899    30.047405 
159268000    302.58399    410.24344    404.80466   -199309.67    199401.08    5.4387803    30.048961 
159272000    277.60295    291.77447     285.6207   -199356.74       199454    6.1537677    30.052251 
159276000    255.49449    439.03363    231.40554   -199416.19     199522.4    207.62808    30.051297 
159280000    258.97605    330.63411     480.4262   -199448.28    199539.24   -149.79209    30.049779 
159284000    293.73071    257.61844    409.94165   -199489.62    199562.39   -152.32321    30.047944 
159288000    283.63972    432.48097    222.43592   -199524.05    199607.41    210.04505    30.048836 
159292000    272.35634    425.69736    317.49328   -199573.01    199681.63    108.20408    30.051694 
159296000    300.73669    413.94943    423.60478   -199579.84    199678.24   -9.6553561    30.051532 
159300000    279.17197    373.63337    227.04226   -199675.23    199760.21    146.59111    30.051577 
159304000    314.58612    547.37797    307.46578   -199723.51    199781.64    239.91219    30.056115 
159308000    266.28756    352.49621    378.96697   -199736.62    199828.73   -26.470762    30.060774 
159312000    289.17027    456.81579     236.0693   -199799.99    199876.85    220.74648     30.06025 
159316000    273.78136    279.67859    464.64333   -199832.82    199924.58   -184.96474        30.06 
159320000    273.04418    329.62539    300.42632   -199866.78    199941.76    29.199074    30.061411 
159324000    279.44266     357.2229    325.27159   -199912.78    199995.44    31.951308    30.056549 
159328000    286.56232    296.96989     234.0706   -199931.99    200005.24    62.899281    30.056619 
159332000    276.10542    227.60683    236.09305   -199957.47    200043.73   -8.4862167    30.056496 
159336000    265.63971    197.74571    278.42308   -200011.41    200106.14   -80.677361    30.058805 
159340000    301.40697    339.86933    616.98192   -200023.45    200103.35   -277.11259    30.051384 
159344000    272.82133    277.31651    215.04698   -200068.72    200166.08    62.269535    30.051972 
159348000    252.11367    352.67983    366.37672   -200096.06     200219.5   -13.696892    30.055181 
159352000    266.91209    267.91271    531.48092   -200139.29    200222.21    -263.5682    30.053861 
159356000    296.86379    403.78069    279.17448   -200179.49    200256.72     124.6062    30.055398 
159360000    275.94679    311.89193    300.26428   -200224.69    200319.99    11.627643    30.058232 
159364000    269.42159    419.78437    326.37522   -200265.37    200357.61    93.409148    30.061255 
159368000    289.42616    392.09909    274.35538   -200307.81    200400.39    117.74371    30.058584 
159372000    261.43064    250.68446    411.80278   -200341.13    200437.76   -161.11832    30.057898 
159376000    314.44052    260.29843    271.37749   -200376.62    200438.22   -11.079067    30.059285 
159380000    296.01965    281.00125    254.25152   -200417.32    200487.72    26.749732    30.064893 
159384000    272.02284    379.24056    233.49647    -200470.6    200547.53    145.74409    30.066166 
159388000    273.20268    247.94497    395.37424   -200497.14     200592.2   -147.42927    30.062267 
159392000    273.82596    310.61594    368.14859   -200539.75    200639.41   -57.532643    30.063461 
159396000     250.4314    282.05691    283.98114   -200570.86     200687.7   -1.9242311    30.061064 
159400000    305.59649    280.82237    244.84238   -200610.49    200700.27    35.979996    30.060517 
159404000    275.45436    272.75045    207.91369      -200624    200717.48    64.836758    30.054144 
159408000    289.85196    338.88617    301.86164   -200660.38    200733.97    37.024536     30.04849 
159412000    283.43589    371.22512    372.87336   -200693.64    200786.71   -1.6482341    30.048666 
159416000    301.26372    441.00963    506.72734   -200737.24     200812.5   -65.717712    30.043432 
159420000    278.59604    389.96246    312.80816   -200769.88    200841.57    77.154297    30.042864 
159424000    281.39236    514.89233    356.40371   -200759.53    200843.47    158.48861     30.03909 
159428000    294.27012    414.64086    257.74805   -200778.98    200850.28    156.89281    30.041908 
159432000    277.51743     509.9168    295.82269   -200818.66    200908.79    214.09411    30.042837 
159436000     292.2502    526.10597    276.77622   -200851.91    200935.96    249.32975    30.049494 
159440000    285.60075    352.15986    411.05779   -200882.85    200947.01   -58.897928    30.055508 
159444000    284.92955    371.64941     407.2777   -200904.67    200991.74   -35.628291    30.049758 
159448000    286.15877    235.82619    397.28203   -200966.36    201057.93   -161.45584    30.045943 
159452000     266.8645    434.47851    287.03316   -201034.37    201109.11    147.44535    30.041799 
159456000    273.62864    693.29792    205.12947   -201058.54    201160.96    488.16846    30.035411 
159460000    313.98176    431.15811    346.08383   -201124.25    201189.91    85.074279    30.038148 
159464000    285.91071    325.68304    228.17031   -201141.27    201210.39    97.512729    30.040865 
159468000     333.2422    324.97559    349.84031   -201171.21    201223.59   -24.864716    30.044842 
159472000     319.5673    540.18583    428.37269   -201182.45    201258.56    111.81314    30.043739 
159476000    268.62627     302.9468    325.61327   -201190.13     201282.7   -22.666473    30.041848 
159480000    299.92837    296.18225    382.61274   -201208.91     201278.7    -86.43049    30.042999 
159484000    251.03603    310.37626    230.21193   -201217.33    201312.41    80.164325    30.046558 
159488000    266.22099    186.62581    355.11931   -201255.34    201348.08   -168.49351    30.042466 
159492000    266.84061    149.38322    371.00255   -201291.26    201378.92   -221.61933    30.034155 
159496000    256.50383    233.65133     160.6471   -201327.07    201416.24    73.004232    30.035062 
159500000    289.26818    267.40027    328.26237    -201404.2     201487.6   -60.862103    30.038886 
159504000    279.44598    291.22804    251.98069   -201445.03    201519.59    39.247342    30.041306 
159508000     294.1649    274.97327    405.28311   -201490.52    201574.57   -130.30985    30.043414 
159512000    281.44682    365.05965    192.50777   -201532.66     201625.1    172.55188    30.042497 
159516000    283.80494    175.98583    460.18657   -201581.57    201652.38   -284.20074    30.040532 
159520000    298.63556    632.04527     590.2281   -201620.93    201705.24    41.817176    30.041333 
159524000    291.71283    209.83391    506.78536   -201641.41    201722.37   -296.95145    30.037477 
159528000     284.4703     385.1425    209.62656   -201689.92    201755.73    175.51594    30.041637 
159532000    271.71503    432.24373    547.60676   -201700.75    201789.06   -115.36303    30.039764 
159536000    294.39734    299.35475    281.87054    -201732.9    201822.63    17.484211    30.045055 
159540000    246.05308    345.36838    140.43521   -201769.94    201886.94    204.93316    30.044974 
159544000    271.21892    387.97352    215.18635   -201811.71    201913.85    172.78717    30.049555 
159548000    278.19014    320.49159    130.04497   -201881.37    201960.28    190.44663    30.048566 
159552000    279.42594    268.12031    504.04575   -201888.26    201981.84   -235.92545    30.046657 
159556000    285.07334    594.90769    286.34433   -201939.07    202024.02    308.56335     30.04069 
159560000    291.40712    442.96821    259.34708   -201962.23    202057.92    183.62113    30.044221 
159564000    289.70057    419.76059    389.91461    -202001.4    202066.72    29.845975    30.047262 
159568000    277.63758    282.48384     420.7213   -202004.31    202089.91   -138.23746    30.043755 
159572000    283.94491    438.71814    359.86819   -202049.04    202133.32    78.849954    30.046449 
159576000    280.90305    243.37598    342.74595   -202066.48     202170.6   -99.369971    30.043797 
159580000    287.77834    441.88097    338.78459   -202112.35    202195.92    103.09638    30.044543 
159584000    322.45255    498.66807    452.54647   -202130.29       202194    46.121592    30.039021 
159588000    288.65598    508.96817    284.23797   -202173.38       202252     224.7302    30.040537 
159592000    261.30009    286.47352    218.84724    -202188.1    202288.29    67.626277    30.038723 
159596000    274.68073    354.32679    328.71402      -202208     202320.7    25.612768    30.036658 
159600000    293.17238    259.41468    374.87699   -202299.49    202377.65   -115.46231    30.035031 
159604000    281.99834    320.30258    291.02727   -202328.27    202404.17    29.275314    30.035685 
159608000    258.68825    362.41663    240.16246   -202364.82    202471.11    122.25417    30.032551 
159612000     272.8593    386.41714    299.01496   -202399.58    202480.94    87.402176    30.027734 
159616000    297.67234    399.72654    256.02884   -202459.66    202546.53     143.6977     30.03032 
159620000    286.50055    394.88023     260.4265    -202473.9    202563.13    134.45373     30.03265 
159624000    306.49782    347.81622    153.12805   -202505.46    202582.01    194.68818    30.031917 
159628000    276.23469     441.0822    330.77152    -202531.1     202630.1    110.31068    30.032205 
159632000    308.82939    371.30302    254.17429   -202570.07    202658.68    117.12873    30.035205 
159636000    281.62485    304.54317    431.38972   -202593.51    202677.72   -126.84655    30.038943 
159640000    285.05867    392.88473    260.32902    -202638.3    202716.53    132.55571    30.039092 
159644000     282.4195    309.28513    236.62828   -202674.92    202764.18    72.656847     30.03337 
159648000     291.6998    320.32906    243.03541   -202733.28    202815.75    77.293651    30.033398 
159652000    335.65962    485.22787    320.22203   -202790.94    202834.89    165.00584    30.035036 
159656000    272.12095    371.60265    289.67734   -202766.22    202857.71    81.925313    30.034974 
159660000    281.47666    458.12468    304.72023   -202782.86    202880.88    153.40446    30.032114 
159664000    278.09665    385.70768    300.37623   -202814.55    202922.97    85.331448    30.028753 
159668000    264.38682    369.86051    205.28151   -202843.88    202955.24      164.579    30.028635 
159672000    263.26168     418.0298    294.88035    -202866.8    202980.39    123.14945    30.027568 
159676000    299.34427     346.7465    267.44855   -202934.99    203023.02    79.297952    30.030244 
159680000    253.72523    359.55847    271.03221   -202953.08    203063.26    88.526259    30.026746 
159684000    261.81873    473.78065    391.66888   -202980.08    203081.93    82.111772    30.032434 
159688000     290.0775    414.60829    374.42693   -203033.05     203114.2    40.181363     30.03846 
159692000    295.81501    359.33401    479.44967    -203073.8    203156.42   -120.11566    30.037105 
159696000    254.11633    338.41282    146.58214   -203113.26     203230.9    191.83068    30.044506 
159700000    273.74251     421.3798    426.56567   -203164.69    203256.66   -5.1858726    30.042023 
159704000    285.59942    218.61281    378.93439   -203200.74    203263.77   -160.32158    30.040518 
159708000    259.22179    395.85154    342.40417   -203227.27    203326.53    53.447372    30.038152 
159712000    270.53426    229.55137    199.40729   -203243.55    203355.46    30.144084    30.034686 
159716000    314.67984    249.13841    380.07316      -203312    203383.61   -130.93474    30.040017 
159720000    261.02811     176.1618    382.52485   -203376.27    203477.67   -206.36305    30.047416 
159724000     297.0852    346.51418    320.83842   -203422.58    203511.76     25.67576    30.046969 
159728000    247.47947    263.71482    219.52414   -203451.05    203545.99    44.190676    30.050101 
159732000    261.55872    281.32198    422.03077   -203493.88    203606.45   -140.70879    30.049717 
159736000    256.41524     402.5937    346.99126   -203516.15    203626.32    55.602439    30.051204 
159740000      298.753     269.5368    391.07657   -203577.86    203665.76   -121.53978    30.044883 
159744000    332.69592    316.08987    488.41512   -203601.05    203685.08   -172.32524    30.042759 
159748000     275.1181    427.23167    384.83226   -203638.05    203744.42    42.399416    30.035813 
159752000    275.75543     348.1569    295.93916   -203683.59     203786.4    52.217741    30.039935 
159756000    287.28182    276.67591    240.47412   -203710.54    203804.78    36.201795    30.033761 
159760000    299.60887    287.17548    530.80173   -203769.59    203845.65   -243.62625    30.031119 
159764000    300.07673    343.55625    480.47208   -203790.89    203863.42   -136.91582    30.026964 
159768000    295.23585    433.86212    193.27074   -203840.19    203919.02    240.59138    30.025316 
159772000     294.1499    391.00047    366.54561   -203888.81    203981.67    24.454852    30.022829 
159776000    268.07717    507.20602    379.18612   -203907.02    204011.81    128.01989    30.017215 
159780000    280.91141    394.25767    227.93177   -203941.76    204019.84     166.3259    30.020423 
159784000    292.64359    395.81447    239.58805    -203962.5    204052.53    156.22642    30.020076 
159788000    290.96353    186.73448    470.76872   -204002.49    204090.15   -284.03425    30.026198 
159792000    279.62282     327.9655    231.46538   -204026.49    204126.94     96.50012    30.026606 
159796000    279.73903    402.13348    310.25411   -204066.31    204159.41    91.879361    30.027895 
159800000    290.17143    316.08061    192.24394   -204122.76    204222.39    123.83667    30.023652 
159804000    300.67478      181.069    325.98951   -204169.78     204257.6   -144.92052    30.024876 
159808000    284.56828    313.75307    532.74077    -204230.8    204321.94    -218.9877    30.019576 
159812000    271.63348    489.07952    414.65374   -204282.83    204387.62    74.425774    30.025863 
159816000    274.96132    182.56827    551.62566   -204293.19    204385.91   -369.05739    30.031026 
159820000    265.89918    434.17227    336.11656   -204304.69    204411.38    98.055708    30.034234 
159824000    289.86958     296.5437    260.07851   -204345.21    204423.99    36.465194    30.034572 
159828000    259.53739    356.53809    323.15669   -204346.33    204442.87    33.381405    30.033026 
159832000    292.39078    387.53487    312.04935   -204360.41     204439.4    75.485519     30.03557 
159836000    302.78771    312.53665    261.91378   -204395.92    204461.03    50.622865    30.029444 
159840000    294.11602    382.68697    419.34753   -204424.43    204507.02   -36.660567    30.024843 
159844000    300.42137    398.79198       495.45    -204444.3    204540.41   -96.658017    30.024616 
159848000    286.49508    328.79628    342.93968   -204477.37    204564.06   -14.143405    30.019531 
159852000     291.4431    263.18723    318.00293   -204524.68    204617.87   -54.815706    30.017602 
159856000     269.4931    171.40108    188.67169   -204562.54     204654.1   -17.270603    30.018271 
159860000     297.6708    302.66809    243.66123   -204574.52    204672.77     59.00686    30.011816 
159864000     252.9663    215.61551    405.82231   -204614.89    204720.11   -190.20681    30.008338 
159868000    298.18515    567.20524    186.51267   -204671.67    204730.76    380.69257    30.008612 
159872000    252.20188    249.94497    251.28355   -204677.91     204786.2   -1.3385865    30.006147 
159876000    287.05184      426.939    212.03069   -204724.38    204814.79    214.90832     30.00893 
159880000     270.1695    334.33705    125.81239   -204721.61    204821.19    208.52467    30.009762 
159884000    264.83844    444.62602    238.07088   -204768.75    204868.23    206.55513    30.020406 
159888000    254.59457    368.66578    319.79418   -204772.15    204898.42    48.871597    30.018738 
159892000    277.90755    412.45154    190.99038   -204836.05    204915.41    221.46116    30.015812 
159896000    275.23167     180.1008    247.12717   -204838.26    204952.81   -67.026371    30.011368 
159900000    299.75491    296.16031     262.6928   -204860.98    204964.18    33.467513    30.012226 
159904000    279.07914    233.75994    527.25089   -204872.91    204984.91   -293.49096    30.012373 
159908000    294.02235    299.94788    216.13407   -204929.89     205017.2    83.813808    30.011003 
159912000    263.96592    221.04585    380.91191   -204996.06    205083.27   -159.86607    30.005676 
159916000    287.36736    173.17267    215.58128   -205040.51    205122.21   -42.408606    30.004078 
159920000    306.65514    635.77424    347.94393   -205038.74    205119.96     287.8303    30.003779 
159924000    273.76769    234.99803     296.4617   -205046.27    205152.54   -61.463671    29.998122 
159928000     275.0011    427.56444    253.26765   -205082.07    205178.81    174.29679    29.995131 
159932000    297.68119    235.63779    413.96498   -205118.49    205187.59   -178.32719    29.995976 
159936000    296.06537    269.49529    429.76318   -205143.76    205235.11   -160.26789     29.99136 
159940000    280.40332    454.84617    290.93092   -205178.95    205275.34    163.91524    29.990637 
159944000    269.04743    351.87951    390.67691   -205219.02    205334.11   -38.797399    29.984721 
159948000    292.09801     543.9788    431.92922   -205257.07    205350.75    112.04958    29.986062 
159952000    297.97525    284.97071    296.92183   -205334.39    205398.42   -11.951129    29.981682 
159956000    297.11881    255.31496    422.18558   -205361.75    205449.03   -166.87062    29.981988 
159960000    304.25066    510.35354    353.69687   -205416.43    205489.32    156.65667    29.987564 
159964000    292.59702    499.91513    249.25464   -205420.85    205516.99    250.66049    29.986649 
159968000    298.66746    466.53939    561.09374   -205435.24    205527.75   -94.554346    29.982216 
159972000     277.9225      263.721    579.04972   -205461.86    205562.33   -315.32873    29.975367 
159976000     314.1749    579.60098    414.55652   -205505.96    205573.28    165.04446    29.974533 
159980000     277.2248     443.7526    379.16634   -205538.03    205653.75    64.586267    29.965832 
159984000     285.2873    303.74684    332.66233    -205567.8    205672.51   -28.915482    29.965344 
159988000    258.85639    170.96766    240.01419   -205598.03     205721.6   -69.046527    29.962952 
159992000    283.03421    263.90762    329.96664   -205639.98    205729.13   -66.059023    29.967129 
159996000    294.08484     496.6833    462.55978   -205697.71    205766.81    34.123515    29.962862 
160000000    263.60007    346.73367    362.84026   -205724.21    205823.81   -16.106591    29.961173 
160004000     272.3338    228.52462    281.53724   -205751.42    205853.47   -53.012622    29.962308 
160008000    295.86796    376.06941    324.31205   -205806.31    205893.88    51.757362    29.961725 
160012000    306.64286    331.54137    342.08216   -205861.29    205958.67   -10.540787     29.96537 
160016000    275.71462    433.71606    261.20833   -205898.16    205999.71    172.50774    29.961901 
160020000    290.33055    379.43426    453.76421   -205964.23    206031.44   -74.329948    29.962336 
160024000    256.87693     311.2948    349.17122   -205986.64    206091.67    -37.87642    29.971424 
160028000    286.78174    392.26624    153.75794   -206026.66    206123.27    238.50831    29.970905 
160032000    301.37887    352.05888     240.0317   -206036.63    206133.07    112.02718    29.973737 
160036000    273.66939    243.75348    326.01669   -206044.88    206154.99   -82.263207      29.9792 
160040000    256.53017    299.03679    157.31019   -206076.91     206199.8     141.7266    29.972863 
160044000    280.45405     378.5651     373.8392   -206151.16    206231.88    4.7259029    29.970808 
160048000    256.45534     375.1119    289.19735   -206179.05    206291.46    85.914544    29.971532 
160052000    276.89458    242.70525    351.14343   -206206.86    206333.64   -108.43818    29.968333 
160056000    282.14579    371.60211    270.88259   -206254.27       206352    100.71951    29.970257 
160060000    272.06712     245.0689    341.06608   -206288.84    206391.33   -95.997183    29.970722 
160064000    272.32856    358.13048    298.97156   -206337.63    206436.93    59.158918     29.97632 
160068000    282.36352    287.34493    235.66908   -206394.75     206476.7    51.675851    29.982704 
160072000    301.94755    212.94003    266.69028    -206421.5    206520.29   -53.750244    29.988063 
160076000    258.50894    340.87451    283.33319   -206447.74    206549.45    57.541323    29.987749 
160080000    269.57863    399.97524    429.99005   -206465.39    206568.88   -30.014812    29.987495 
160084000    285.50597     235.7066     400.5028   -206489.01    206589.44    -164.7962    29.985322 
160088000    283.33047    425.91286    286.90958   -206507.31    206598.53    139.00328    29.995878 
160092000     263.4828    226.48091    318.76077   -206513.82    206638.57   -92.279855    30.001059 
160096000    259.58223    388.67375    297.19788   -206535.26    206646.08     91.47587    29.996844 
160100000    257.99611    364.75813    286.66728   -206551.59    206688.98     78.09085    29.988492 
160104000    279.10254    337.62501    487.83296   -206614.93    206715.25   -150.20795    29.996335 
160108000     254.2463    364.96422    255.42906   -206643.96    206761.63    109.53516    29.995444 
160112000     292.3819    382.06428    326.54939   -206694.22    206785.63     55.51489    30.001363 
160116000    296.26663     358.3072    429.80502   -206731.73    206814.15   -71.497825    30.000024 
160120000     299.4132    364.53916    343.35569   -206751.45    206838.31    21.183467    29.994352 
160124000    277.47155    335.30616     475.1341   -206789.47    206881.52   -139.82794    29.991558 
160128000     276.3977    269.19339    263.68286   -206820.95    206911.61    5.5105273    29.992033 
160132000    263.01175    358.87023    424.74837   -206851.75    206950.17   -65.878143    29.985998 
160136000    280.21668    214.95654    242.27395   -206881.88    206967.93   -27.317406    29.988489 
160140000    284.88154    309.78837    319.42711   -206922.36    207024.15   -9.6387449     29.98574 
160144000    266.13955    238.32984    190.41105   -206949.67    207059.49     47.91879    29.982726 
160148000    268.40645     335.1054     351.5495   -206990.12       207096   -16.444103    29.981134 
160152000    287.84792    362.23427    333.65205   -207027.71    207105.22    28.582228    29.984766 
160156000    281.52376    339.33962    395.40339   -207045.15    207142.48   -56.063768    29.982822 
160160000    280.22844    278.82588    413.71245   -207112.87    207184.74   -134.88657    29.979142 
160164000     277.5594    400.61718    165.79239   -207108.89    207197.64    234.82479    29.977215 
160168000    280.63434    273.41161    335.79613   -207135.35     207220.1   -62.384518    29.976526 
160172000    275.45974    239.69448    546.15309   -207144.68    207246.89   -306.45861    29.978631 
160176000    249.09726    289.50649     366.1473   -207193.68    207303.84   -76.640811    29.977401 
160180000    274.01707    274.35975    396.98134   -207221.51    207334.94   -122.62159    29.978649 
160184000    265.57812    275.04557    201.25122   -207256.87    207366.41    73.794349    29.982082 
160188000    276.65928    329.89448    212.21232   -207300.27    207412.72    117.68216    29.983644 
160192000    292.90229    388.16701    323.67927   -207365.14    207449.33    64.487737    29.984826 
160196000     277.2612    601.72772     598.0412   -207350.77    207443.45    3.6865239     29.98527 
160200000    252.95865    294.28173    327.42161   -207368.88    207483.01   -33.139877    29.983615 
160204000    298.05418    254.84414    449.69185    -207415.4    207514.02    -194.8477    29.979983 
160208000    306.66293    243.24366    355.17883   -207473.09    207560.82   -111.93517    29.981031 
160212000    272.13798    372.31883    210.14695   -207508.41    207620.67    162.17188    29.984387 
160216000     262.1659      551.038     387.1556   -207536.66    207649.05     163.8824    29.983124 
160220000    313.40749    293.85539    342.31603   -207618.89    207697.34   -48.460649    29.983691 
160224000    298.65561    328.12347    303.52026   -207655.75     207737.4    24.603207    29.985279 
160228000    286.86466    301.33289    318.89561   -207691.17    207782.54   -17.562711    29.985676 
160232000    299.70794      402.828    491.06649   -207710.17    207799.06   -88.238484    29.984242 
160236000    261.76159    379.60463     258.7306   -207733.01    207858.46    120.87403    29.988909 
160240000    273.37137    371.25427    293.96738   -207795.84    207894.25    77.286893    29.985263 
160244000     255.1463    371.54608    290.98851   -207830.81    207969.94    80.557575    29.982241 
160248000     282.5362    424.59434    402.01809   -207897.91    207972.69    22.576251    29.983428 
160252000    280.63565    265.18194    432.82158   -207882.76    207971.97   -167.63963    29.980432 
160256000    326.53205      486.111    420.78432   -207936.58    208017.74    65.326682    29.987919 
160260000    290.52397    301.32422    283.43232   -207947.39    208041.03    17.891899    29.982116 
160264000    286.70413    366.09298    302.33027   -207981.11    208067.15     63.76271    29.982266 
160268000    284.74622    543.12108     200.2599   -208012.21    208109.75    342.86118    29.990999 
160272000    272.26677    329.56358    212.95119   -208023.39    208119.24    116.61239    29.988446 
160276000    307.23261    426.86996    335.63872   -208063.72    208136.23    91.231242    29.989663 
160280000    313.29222    413.22786    349.71817   -208083.18    208152.07    63.509692    29.987303 
160284000    284.94875    306.38815    319.32871   -208084.21    208176.93   -12.940562    29.980955 
160288000    310.62647     436.4599    286.15648   -208122.72    208207.47    150.30343    29.982507 
160292000    306.77421    515.49529    329.85852   -208127.07    208215.84    185.63677    29.985829 
160296000    283.20878    263.53714    348.04546    -208155.1    208251.22   -84.508325    29.981143 
160300000    294.09088    361.51595    321.95312   -208177.21    208277.19    39.562827    29.978534 
160304000    269.55566    291.03599    442.64925   -208192.15    208296.13   -151.61326    29.981212 
160308000    288.36371    380.34712    261.11428   -208232.24    208322.03    119.23284    29.979699 
160312000    304.72027    404.02971    132.18987   -208253.09    208325.49    271.83984    29.979751 
160316000    297.72231    279.95108    276.96347   -208269.05    208373.87    2.9876116     29.97847 
160320000    282.75127     380.8068    601.24616    -208344.3    208448.17   -220.43935    29.977338 
160324000    285.75811    308.29923    401.75797   -208404.29    208488.67   -93.458741    29.977473 
160328000    300.90613    389.26174    570.96747   -208420.67    208511.16   -181.70573    29.975266 
160332000    281.95737    168.82528    493.64291   -208439.02    208546.71   -324.81763    29.970144 
160336000    305.18434    278.05788    274.03694   -208485.31    208568.05    4.0209377    29.965535 
160340000    270.79228    347.05661    346.72789   -208556.88    208655.62   0.32871202    29.969725 
160344000    291.76449     220.9285    321.62304   -208638.61    208716.75   -100.69454    29.967162 
160348000    281.60964    341.78408    155.55016   -208677.27    208778.61    186.23392    29.973526 
160352000    288.31463    288.67899    202.96867   -208711.08     208802.1    85.710311     29.96506 
160356000    274.95586    366.21989    325.76046   -208731.76    208838.19     40.45943    29.964419 
160360000    300.38408    423.38427    390.40664   -208783.04    208866.83    32.977631    29.966405 
160364000    281.33074    379.27427    327.38317   -208815.16    208911.21      51.8911    29.969224 
160368000    262.99596    256.40623     373.9533   -208834.78    208950.75   -117.54707    29.968327 
160372000    312.63242    428.28227    408.98735   -208872.34    208970.72    19.294921    29.967907 
160376000    266.66941    383.63843    344.75713   -208873.98     208976.2    38.881298    29.966004 
160380000    261.17506     429.7363    201.31997   -208891.83    209008.27    228.41633    29.964585 
160384000    286.09613    541.74516    257.23902   -208952.26    209036.25    284.50614    29.968623 
160388000     300.0477    489.25288    350.46277   -208991.52    209093.89    138.79011    29.970561 
160392000    279.59012    331.00886    359.00826   -209016.57    209119.23   -27.999401    29.967167 
160396000    281.42508     366.0238    445.89395   -209077.23    209179.28   -79.870147    29.970758 
160400000    256.27401    327.21852    447.27546   -209102.13    209219.69   -120.05694    29.974267 
160404000    277.93647    276.55128    277.10021   -209118.42    209228.78  -0.54892832    29.973313 
160408000      258.546    242.72702     230.8362   -209154.24    209279.17    11.890824    29.973463 
160412000    283.62986    297.22501    251.69269   -209202.47     209296.9    45.532319    29.971778 
160416000    274.98934    372.98993    334.02164   -209209.51     209300.4    38.968286    29.973881 
160420000    318.21425    274.90297    390.11661   -209233.19    209321.87   -115.21364    29.972868 
160424000    282.59888    432.19452    365.84814   -209244.53    209363.65    66.346386    29.975764 
160428000    264.18997    353.83057    275.90834   -209281.96    209399.21    77.922234    29.979633 
160432000    272.86669     334.2463     314.8565   -209322.59    209413.76    19.389801    29.974817 
160436000    286.36565    312.88981    249.83122   -209338.81    209440.01    63.058591    29.978739 
160440000    291.88139    240.95449    320.51901   -209369.72    209461.78   -79.564522    29.982293 
160444000    253.87214    321.45494    288.60025   -209377.65    209491.98    32.854693    29.980088 
160448000    293.91315    263.14872    244.84638   -209411.88    209518.13    18.302338    29.979861 
160452000    292.00119    341.78736    431.25309   -209448.54    209540.96   -89.465731    29.975174 
160456000     253.7767    261.51554    254.88902   -209434.16    209547.74    6.6265247    29.966856 
160460000    282.04292    243.25418    380.13558   -209473.37    209590.56    -136.8814    29.966281 
160464000    279.72169     426.3945    135.15499   -209523.22    209634.79    291.23951    29.966555 
160468000    287.65548     599.3334    321.60487   -209537.87    209623.59    277.72853    29.963183 
160472000    317.74257    294.04231    359.50802   -209541.79    209618.77   -65.465718    29.969874 
160476000    283.87652    503.30246    304.43705   -209576.81     209684.3    198.86542    29.972913 
160480000     282.8432    286.55407    423.54267   -209611.43     209716.8    -136.9886     29.97655 
160484000     321.8023    427.24271    357.26465   -209674.98    209745.21    69.978057    29.974422 
160488000    305.00321    503.19579    295.51824   -209702.18    209786.78    207.67755    29.976566 
160492000    283.32622    281.01657    358.27465   -209707.33    209809.55   -77.258081    29.972412 
160496000    277.87578    288.92024    548.63923    -209751.3    209852.72   -259.71898    29.968522 
160500000    293.75926    602.39232    366.09332   -209799.19    209906.48      236.299     29.96901 
160504000     290.5247    350.54042    420.94048   -209848.38    209936.11   -70.400065    29.971503 
160508000    274.26551    442.36361    381.30401   -209860.37    209960.86      61.0596    29.971773 
160512000    286.51248    386.91735    361.46206   -209917.15    209998.34    25.455284    29.965808 
160516000    260.70402    139.02134    332.49354    -209905.3    210005.08    -193.4722    29.966873 
160520000     278.0907    592.63985    379.46416   -209924.15    210013.68    213.17569    29.971122 
160524000    288.15183     432.7258     255.8151   -209957.62    210045.98     176.9107    29.972821 
160528000    291.88441    328.66314    276.35153   -209972.97    210066.31    52.311619    29.974924 
160532000    304.00416    387.13373    319.77352   -210024.22    210117.85    67.360215    29.972544 
160536000    257.92803     336.2805    240.01458   -210039.77    210156.35    96.265919    29.968459 
160540000    283.33865     403.9651    393.75502   -210106.84    210188.31     10.21008    29.963223 
160544000    277.70595    312.53694    333.46928   -210133.09    210234.09   -20.932337    29.962101 
160548000    283.46411    233.74952    292.28805   -210178.05    210279.04   -58.538533    29.962059 
160552000    249.30659    191.61672     219.5254   -210229.55    210334.21   -27.908675    29.959869 
160556000    277.95773    326.60419    294.08951   -210292.55    210388.91    32.514681    29.961187 
160560000    289.45717    374.96105    291.08033   -210336.15    210432.96    83.880715    29.958195 
160564000    288.25191    369.31581    239.39631   -210378.74    210496.68     129.9195    29.960241 
160568000    311.37998    424.45227    341.62225   -210471.23    210558.32    82.830026    29.966838 
160572000    302.69295    429.16007    388.54973   -210513.65     210600.3     40.61034    29.971729 
160576000    292.25651    271.63658    364.42082    -210559.3    210645.17   -92.784232    29.966439 
160580000    276.48969    530.94276    221.32042   -210624.57     210724.1    309.62234    29.965791 
160584000    259.78844    360.16519    359.02322    -210646.1     210765.3    1.1419665    29.962323 
160588000    289.56163      416.899    292.47178   -210683.31    210775.06    124.42722    29.960107 
160592000     264.8725     199.6637    360.30186   -210702.18    210809.94   -160.63816    29.959311 
160596000    286.40023    303.04541    169.50313   -210757.98    210840.51    133.54228    29.960803 
160600000    283.24433    251.91951    289.93249   -210770.24    210870.25   -38.012983     29.95722 
160604000    294.96455    334.02933     315.9661   -210781.86    210880.15    18.063234    29.958534 
160608000    295.09832    154.06458    362.25049   -210785.42    210881.81   -208.18591    29.961577 
160612000    280.72185    292.14143    354.10892   -210857.99    210951.58   -61.967491    29.957091 
160616000    319.17883    573.84492    346.18693   -210890.56    210961.38    227.65798    29.953506 
160620000    277.06984      234.674     345.4687   -210881.87    210986.09    -110.7947    29.947079 
160624000    296.55284    440.18629    383.00568   -210909.99    210993.74    57.180612    29.942824 
160628000    280.18098    221.26707    379.90235   -210915.17    211020.17   -158.63529    29.942304 
160632000    290.15501    261.34115    313.24431   -210954.52    211049.36   -51.903159    29.948171 
160636000    253.94342    332.09347    414.49553   -210977.52    211065.19   -82.402059    29.943665 
160640000    295.30363     238.4529    428.65317   -211020.75     211117.7   -190.20027    29.947512 
160644000    258.15641    389.38319    137.24031    -211055.5    211173.68    252.14287    29.950736 
160648000    291.45389    562.55863    332.59554   -211098.77    211186.67    229.96309     29.95581 
160652000    288.25235    388.71463    441.76713   -211106.19    211202.46   -53.052503    29.958003 
160656000    279.44334    468.36261    371.93834   -211148.88       211254    96.424262    29.953238 
160660000    265.28835    338.69598    376.36436   -211186.19    211284.74   -37.668381    29.950396 
160664000    300.80945    335.87278     342.2894   -211221.84    211310.09   -6.4166162    29.948292 
160668000    277.09715    337.25777    286.16546   -211222.38    211315.82    51.092307     29.95177 
160672000    268.58221    269.77181    346.88326   -211225.63    211346.24   -77.111443    29.951393 
160676000    277.12539    386.91207    311.94239   -211282.11    211381.77    74.969681    29.953983 
160680000    282.23488    266.35053    260.62322    -211300.3    211414.65    5.7273091    29.955868 
160684000    298.79272    535.44579    487.06561   -211342.06    211428.59    48.380175    29.956687 
160688000    291.23033     234.8757    239.47433   -211375.08    211472.96   -4.5986289    29.960124 
160692000    293.38146    502.80524    280.35388   -211397.67    211496.94    222.45136    29.962959 
160696000    311.91216    435.02831     257.4575   -211434.47    211522.08    177.57082    29.965565 
160700000    236.78798    368.40914    401.35191   -211430.72    211554.71   -32.942772    29.970669 
160704000    298.76032    239.35433    352.49565   -211503.48    211585.02   -113.14131    29.976433 
160708000    269.14362    287.81903     296.4563   -211529.33    211628.54   -8.6372761    29.972818 
160712000    250.16569    198.57484    399.47098   -211535.96    211655.85   -200.89614    29.971287 
160716000    281.30029    463.46371    227.89615   -211624.27    211721.54    235.56756    29.969541 
160720000    299.90214    372.34177    314.45875   -211641.97    211725.91    57.883012    29.963284 
160724000    287.00454    300.44382    414.52004   -211682.79    211766.96   -114.07622    29.963934 
160728000     285.4356    306.91885    257.20224   -211714.58    211812.43    49.716614    29.967192 
160732000    273.11115     285.7425    227.67511   -211773.78    211866.51     58.06739    29.968164 
160736000    284.99135    343.60581     328.4864   -211820.21     211912.3     15.11941    29.964591 
160740000    286.70502    404.02667    364.92025   -211875.43     211973.1    39.106419    29.963308 
160744000    283.80353    481.68764    214.98137    -211903.8    212011.19    266.70627    29.963639 
160748000    268.55884    275.38137    424.87991    -211924.4    212035.58   -149.49854    29.963976 
160752000    271.80525    407.99224    389.36937   -211972.08    212079.95    18.622868    29.964526 
160756000    281.44825    270.18048    346.50924   -211992.89    212096.15   -76.328757    29.970682 
160760000    324.18349     408.4909    318.19548   -212073.22    212149.31    90.295412    29.967374 
160764000    258.42926     258.2305    517.07103    -212105.3    212217.28   -258.84053    29.968276 
160768000    257.11392    419.69369    254.32133   -212108.58    212223.46    165.37236    29.966676 
160772000    276.94714     313.5551    212.33545   -212152.48    212267.11    101.21966    29.967881 
160776000    261.81686    292.71603    394.18297   -212201.92    212306.71   -101.46693    29.964377 
160780000    259.26206    264.93983    413.89894   -212203.45    212324.42   -148.95911    29.955581 
160784000    288.63974     196.1843    312.92112   -212221.52    212319.67   -116.73682    29.950242 
160788000     287.6799     461.4375    246.01005   -212263.93    212351.29    215.42745    29.947138 
160792000    274.36917    400.97674    439.44596   -212307.85    212418.49   -38.469216    29.944801 
160796000    267.42042    300.25741    329.12379   -212362.98    212465.84   -28.866382    29.943227 
160800000    290.26221    263.93721    246.40736   -212402.28    212503.24     17.52985    29.943211 
160804000    269.95776    276.70096    313.75561   -212443.02    212541.94   -37.054648    29.944348 
160808000    312.67295    536.38599    362.92478   -212506.05    212569.78    173.46121    29.948252 
160812000    281.27962    438.84845    389.11235   -212514.93     212610.4    49.736102    29.942728 
160816000    277.80217    329.58129     356.4378   -212519.71    212619.86   -26.856507    29.940345 
160820000    288.95673    98.442627    342.79674   -212552.69    212655.14   -244.35411    29.937045 
160824000    261.23078     243.1311    171.68627   -212573.83     212696.9    71.444826     29.93739 
160828000    281.46672    722.08726    397.04824   -212621.84    212711.33    325.03902    29.942067 
160832000    256.04239    272.56623    364.35927   -212636.18       212763   -91.793037    29.929114 
160836000    317.14379    502.96106    515.75986   -212693.09    212786.98   -12.798796    29.934267 
160840000    282.05534    329.16079    269.77912    -212707.7    212807.47    59.381668    29.930154 
160844000    266.77417    394.67458     366.0903   -212746.66    212854.34    28.584284    29.924969 
160848000    288.69491    321.00843    338.36922   -212792.17    212881.35   -17.360796    29.918675 
160852000    296.83455    397.01051    199.52481   -212823.49    212905.76     197.4857    29.916795 
160856000    271.03664    270.65712    309.17443   -212862.14    212936.43   -38.517318    29.913997 
160860000    309.48697    427.30748    386.85622   -212933.36    213007.34    40.451268    29.914999 
160864000    290.05225    301.06689    513.41522   -212954.09    213044.38   -212.34833      29.9188 
160868000    292.44981    380.87013    276.80293   -213011.72     213101.5     104.0672    29.918922 
160872000     289.6418    302.29168      248.603   -213028.96    213123.54     53.68868    29.921777 
160876000    265.12099    316.97144     302.9342   -213082.17    213206.73    14.037249    29.921067 
160880000    275.08536    195.08116    259.11869   -213117.87    213221.78   -64.037533    29.921377 
160884000     301.6363    532.00537    320.12902   -213158.51    213253.04    211.87635     29.92202 
160888000    297.48314    320.89399    525.28401   -213208.02    213290.11   -204.39002    29.920993 
160892000    282.09642    602.81532    253.38338   -213266.24    213356.93    349.43195     29.92362 
160896000     294.1274    413.61744    369.35653    -213283.1    213375.53    44.260907    29.920962 
160900000    261.69242    418.76837     257.6673   -213312.03    213430.25    161.10107    29.919613 
160904000     277.1836    188.93105    247.54594   -213356.34    213475.53   -58.614891    29.916538 
160908000      303.804    466.73514     297.0634   -213417.72    213507.16    169.67175    29.920595 
160912000    295.01691    333.50289     190.3373   -213463.93    213553.48    143.16558    29.917003 
160916000     292.6954    329.31757    324.96734    -213525.9    213613.24     4.350234    29.915045 
160920000    295.92359    322.34369    375.08175    -213550.9    213631.94    -52.73806    29.907634 
160924000    324.40088    346.62989     310.9841   -213607.05    213676.32    35.645795    29.910546 
160928000    287.48824    264.49392    365.61946   -213648.38    213729.79   -101.12554    29.915859 
160932000    312.41459    436.18295    389.43183   -213651.95    213732.74    46.751119    29.917553 
160936000     258.8267    334.37378    485.70946   -213663.99    213781.04   -151.33568    29.916388 
160940000    314.13351    249.03476    332.36711   -213705.66    213792.23   -83.332354    29.917141 
160944000    265.16313    413.78941    239.06361   -213702.56    213812.44     174.7258    29.915241 
160948000    274.42382     423.8313    345.17013   -213722.75    213835.66    78.661172     29.91759 
160952000    253.76734    338.51951     218.8676   -213756.01    213852.37    119.65191    29.915809 
160956000    292.33586    335.48806    431.65563   -213788.57    213877.69   -96.167572     29.91457 
160960000    299.54502    361.41669    413.77661   -213796.23    213889.25   -52.359922    29.912728 
160964000    302.94302    604.20077    466.74212   -213823.48    213888.42    137.45864    29.905411 
160968000    279.00619    402.25773    354.66349   -213871.38    213966.92    47.594241    29.908554 
160972000    282.97445    316.61949    373.14298   -213888.79     213979.9    -56.52349    29.904636 
160976000    315.75588    283.79831    406.20293   -213924.85    213997.07   -122.40461    29.906056 
160980000    301.72962    485.12417    295.99862   -213960.49    214060.63    189.12555    29.904226 
160984000    283.58785    358.95841    435.37144   -214014.03    214109.16   -76.413028    29.903152 
160988000     309.3396    501.60663    235.93285   -214050.31    214144.32    265.67378    29.896237 
160992000      237.255    167.07239    247.59116   -214073.34    214197.65   -80.518764    29.892643 
160996000    278.34557    250.27021    500.87864   -214117.85    214215.46   -250.60843    29.893341 
161000000    256.96913     202.9581    179.19725   -214133.38    214237.86     23.76085    29.899291 
161004000    280.23414    302.31763    397.70575   -214212.64    214306.69   -95.388125    29.900173 
161008000    284.79605    233.75732     276.7466   -214223.09    214318.07   -42.989283    29.898844 
161012000    272.12336    335.98177    263.71305    -214222.8    214334.77    72.268719    29.900469 
161016000    282.77195    452.13933     295.5516   -214245.52    214342.12    156.58773    29.904496 
161020000    284.44033    524.56464    306.06725   -214279.58    214385.27    218.49739    29.905776 
161024000    284.02275      372.712    201.03016   -214311.66     214398.1    171.68184    29.907369 
161028000    291.75556    265.49155     251.2661   -214343.93    214440.23    14.225449    29.907696 
161032000    240.95267    205.95228    254.91947   -214361.01    214481.53   -48.967188    29.899332 
161036000    251.59295    373.60852    342.67706   -214368.41    214487.71    30.931455    29.899809 
161040000    284.44411    368.01811    303.02622   -214434.03    214532.02     64.99189    29.894643 
161044000     272.0428    300.26446    284.56395   -214437.76    214525.98    15.700512    29.897152 
161048000    279.48688     391.3483    343.47125   -214472.64    214571.88    47.877049    29.898967 
161052000    258.14774    318.02939    343.78537   -214499.81    214631.07   -25.755988    29.899952 
161056000    285.41788     265.1214    343.80488   -214542.22    214665.21   -78.683477    29.896493 
161060000    327.21783    261.04036    172.95316   -214635.72     214686.9    88.087201    29.896077 
161064000    274.71555    299.08749    480.40766      -214687    214793.67   -181.32017    29.896519 
161068000     282.8777    466.33808    208.31321   -214772.25    214850.35    258.02487    29.896959 
161072000    259.77789    257.65576    210.59936   -214804.05    214912.74    47.056401     29.89379 
161076000    276.44583     395.6645    273.11245   -214834.47    214933.59    122.55204    29.894135 
161080000    312.86979    367.32393    276.23184    -214866.9    214955.15    91.092088    29.894704 
161084000    275.45555    265.65875    291.18244   -214915.51    215015.03   -25.523689    29.893973 
161088000    263.26867    340.97655    280.31867   -214958.51    215075.95    60.657881    29.893854 
161092000    270.39929    243.90417    297.78972   -214964.12     215070.2   -53.885544    29.895498 
161096000    275.48891     430.7494    283.60952   -215004.89     215102.5    147.13987    29.898153 
161100000    290.49318    333.05355    436.19145   -215051.24     215138.3   -103.13789    29.892778 
161104000    269.40678    392.33865     323.7189    -215075.5    215185.54    68.619748    29.894838 
161108000    265.76389     325.8021    380.84691    -215118.5    215244.39   -55.044813    29.893524 
161112000    264.11002    183.74763     468.7392   -215166.43    215255.63   -284.99157    29.894825 
161116000    283.22858    397.54088    262.25466   -215212.91    215315.32    135.28622    29.894352 
161120000     285.2512    271.19087    102.36524   -215271.27     215357.4    168.82563    29.901697 
161124000     278.6296    270.48664    471.15101   -215282.04    215361.95   -200.66438    29.904606 
161128000    261.64871     288.5991    302.52449    -215262.7    215379.49   -13.925386    29.901595 
161132000    260.33354     256.2191     246.3057   -215296.25    215418.33     9.913399    29.897615 
161136000    299.97649    281.79776    395.03617   -215307.33    215412.66    -113.2384    29.891702 
161140000    258.57104    310.52165    264.79812    -215317.9    215432.13    45.723529    29.891799 
161144000    321.01594    289.04287    226.51985   -215391.34    215464.44    62.523018    29.895387 
161148000    269.49383    460.60636    288.34113   -215392.44    215511.69    172.26523    29.897577 
161152000    262.11855    365.94625     415.0816   -215473.92     215555.7   -49.135352    29.896321 
161156000    297.62336    355.39938     283.2574   -215486.95    215559.57    72.141982    29.896962 
161160000    272.65492    374.22554    313.03588   -215510.51    215619.67    61.189665    29.898058 
161164000    251.72228    371.05674    316.73752   -215556.36    215671.66    54.319224    29.899523 
161168000    302.60112    384.05301    273.78048   -215638.08    215713.58    110.27253    29.900389 
161172000    249.81186    256.15103    352.94707   -215679.82    215795.02   -96.796035    29.900716 
161176000    295.81253    258.80193    274.93364   -215712.62    215803.55   -16.131708    29.899822 
161180000    279.68526    294.47626     492.4891   -215771.93    215841.79   -198.01284    29.898288 
161184000    291.92984     458.4655    179.03118   -215820.54    215915.31    279.43432    29.891449 
161188000    299.27985    227.88857      339.496   -215866.63    215943.91   -111.60742    29.890397 
161192000    301.62755    403.37378    425.96623   -215903.81     215985.4   -22.592447    29.889649 
161196000    294.30644    261.88493    333.61695   -215950.92    216052.49   -71.732017       29.892 
161200000    258.16808    447.87558    317.43647    -215973.1     216075.5    130.43911    29.894642 
161204000     305.7188    332.12436    366.52597   -215989.88    216090.04   -34.401609    29.896216 
161208000    296.51391    281.98629    182.82358   -216024.37    216113.87    99.162714    29.892211 
161212000    286.30923    329.24228     400.9083   -216028.66    216138.57   -71.666024    29.893754 
161216000    304.44565    434.99833    493.78129   -216079.49     216165.1   -58.782958    29.897405 
161220000    304.88881    348.60023    311.44767   -216118.32    216203.92    37.152566    29.889889 
161224000    287.24334    256.76094    315.78641   -216141.16     216260.8   -59.025472    29.890944 
161228000    314.16632    297.36742    469.50657   -216196.14     216281.9   -172.13915    29.889153 
161232000    269.50021    335.47092    212.71285    -216213.1    216333.18    122.75806    29.885936 
161236000    260.47402    348.31941    240.73024   -216251.72    216378.17    107.58917    29.884634 
161240000    275.46035     303.5988    417.23274   -216286.39    216403.83   -113.63393    29.887905 
161244000    276.53336    335.99176    273.95478   -216300.38    216379.99    62.036977    29.890008 
161248000     271.5624    345.87262    244.18653   -216321.87    216420.86    101.68609    29.888356 
161252000    308.56082    246.43607    240.22701   -216341.05    216406.88    6.2090597    29.889896 
161256000    280.64301     313.0791    304.40578   -216382.15    216477.11    8.6733147    29.891663 
161260000    316.53071    335.45917     219.5852    -216432.2    216511.69    115.87397    29.889254 
161264000    308.51322    524.39451    394.46047   -216483.21    216547.99    129.93404     29.89043 
161268000    271.81728    338.35903    225.00956   -216497.94    216612.37    113.34947    29.889918 
161272000    281.78937    308.12646    357.05183   -216538.21    216643.02   -48.925372    29.891249 
161276000     282.3037    477.62577    237.00692   -216577.39    216669.62    240.61884    29.887914 
161280000     297.7974    567.29328    322.43005   -216627.84    216713.85    244.86323    29.890385 
161284000    284.01846    336.89709    261.86101   -216659.61    216776.19    75.036084    29.892925 
161288000    261.31688    553.95903    288.29466    -216720.3    216829.36    265.66437    29.893411 
161292000    308.95101    262.72443    608.06589   -216781.55    216852.95   -345.34145    29.893945 
161296000    267.85943     339.1705    259.82213   -216811.62    216921.23    79.348373    29.889451 
161300000    299.38874    441.33192    268.72297    -216867.9    216951.04    172.60895    29.885633 
161304000    274.03947    283.77005    241.41137   -216886.36    217004.44    42.358678    29.880449 
161308000    266.67225    349.53885    303.34873   -216915.52    217036.08    46.190115    29.880198 
161312000    294.08457    289.78775    441.73989   -216957.61    217049.07   -151.95214    29.875842 
161316000    288.87485    553.62025    408.26176   -217002.89    217089.53    145.35849    29.880414 
161320000    275.51532    201.39142     379.9084   -217014.08    217125.26   -178.51698    29.884839 
161324000    311.03199    315.66334    255.15121   -217049.97    217145.43    60.512127    29.889942 
161328000    263.91987     159.1823    238.46458   -217066.49    217184.73   -79.282277    29.890873 
161332000    292.53872    440.92975    270.02167   -217128.81    217205.91    170.90808    29.895926 
161336000    253.19688    364.35532    230.21423   -217142.94    217264.84    134.14109    29.896901 
161340000    278.25421    327.31028    212.04772   -217169.48    217271.13    115.26255    29.899235 
161344000    268.13578    391.13054    340.39424   -217211.69    217309.16      50.7363    29.898788 
161348000    272.08829    276.49235    440.28881   -217213.67    217317.59   -163.79646    29.892847 
161352000    260.53295    213.98148     262.7748   -217233.92    217347.47   -48.793322     29.89132 
161356000      271.579    307.82913    241.23579   -217295.29     217389.5    66.593338    29.885607 
161360000    292.92299    433.64558    196.05271   -217357.56    217443.48    237.59287    29.886919 
161364000    296.89113    261.11476    288.07813   -217372.95    217469.62   -26.963372    29.884236 
161368000    277.27968    289.16181     348.8112   -217409.02    217521.94    -59.64939    29.880632 
161372000    319.29863    617.96952    177.94211   -217488.03    217563.27    440.02742    29.885222 
161376000    285.19251     329.4709    327.07197      -217529    217626.15    2.3989265    29.883508 
161380000    304.34639    337.38486    429.54369   -217547.78    217640.62   -92.158832    29.882661 
161384000    262.61303    381.83134    212.65621   -217581.21    217699.74    169.17513    29.880555 
161388000    295.90603    400.57197     374.3727   -217596.21    217704.06     26.19927    29.876539 
161392000    300.33271    404.63055    209.83853   -217614.41    217696.24    194.79202    29.878254 
161396000    283.57788    547.36157    293.15276   -217647.32    217738.35    254.20881    29.880979 
161400000    265.09647    221.42074    334.22363   -217675.01    217784.46   -112.80289    29.886573 
161404000    296.26026    402.73096    355.56732   -217712.21    217813.83    47.163641    29.887177 
161408000    275.58188    331.84579    391.61069   -217742.02    217848.85     -59.7649    29.881845 
161412000    258.81658    214.42173    196.65094   -217799.35    217900.11    17.770794    29.882697 
161416000    277.17491    418.69411    340.40926    -217851.4    217966.83    78.284845    29.883973 
161420000    269.15102    129.92988    346.89982   -217895.69    218009.39   -216.96994    29.885791 
161424000    303.02167    330.65331    338.90132   -217923.01    218031.88   -8.2480126    29.890401 
161428000    277.51877    312.34175    231.68017    -217977.4    218095.55    80.661583    29.887101 
161432000    258.82184    432.75883    198.69123   -218033.85    218130.59     234.0676    29.888049 
161436000    264.68474    249.21606    162.27721   -218080.27    218190.72    86.938857    29.889996 
161440000    276.81691    492.38344    361.16892   -218077.93    218178.17    131.21452     29.88744 
161444000    283.57851    327.55091    344.47291   -218122.81    218220.66   -16.922005     29.88967 
161448000    286.97267    609.87732    385.77656   -218179.17    218278.27    224.10076    29.895164 
161452000    282.95838    406.66153    319.48248   -218221.51    218334.46    87.179048    29.895756 
161456000    258.52181     536.4083    313.55847   -218255.86    218385.08    222.84984    29.889747 
161460000    261.31786    534.70276    311.09065   -218307.31    218426.74    223.61212    29.884706 
161464000    268.33787    410.45463    286.84249   -218347.39    218449.53    123.61215    29.883304 
161468000    281.87422    388.31518    327.23319   -218381.35    218488.94    61.081986    29.883814 
161472000      271.778    389.54506     279.3372   -218416.85    218512.74    110.20786    29.883823 
161476000    278.44826    457.27978    434.60446   -218450.56    218546.69    22.675322    29.884865 
161480000     274.0211     355.6633    418.48764   -218491.31    218606.28   -62.824346     29.88242 
161484000    310.81333     249.9895    404.96666   -218519.46    218617.75   -154.97717    29.884497 
161488000     271.0221    311.84546    244.31534   -218558.41    218663.78     67.53012     29.88864 
161492000    284.13308    350.12248    333.57312   -218566.27    218662.48    16.549363    29.886207 
161496000    306.02299    436.90874    314.49223   -218608.07    218703.89    122.41652     29.88031 
161500000    278.33749    264.43283    263.83781   -218662.97    218759.42   0.59501472    29.879586 
161504000    261.76548    301.43851    265.95127   -218703.53    218808.97    35.487244    29.881411 
161508000    290.40723    423.83848    413.77774   -218698.18    218791.24     10.06074    29.886162 
161512000    279.08399    556.66754    125.82404   -218747.06    218838.54    430.84349    29.885097 
161516000    308.52222    584.08707    265.07031   -218786.81    218869.98    319.01676    29.886055 
161520000    286.15643    549.47554    278.94078   -218812.35    218913.78    270.53477    29.875588 
161524000     279.3652    270.27457    292.28907   -218813.13    218907.62   -22.014501    29.877795 
161528000    316.92183    301.76785    227.86238    -218855.4    218943.11    73.905475    29.880542 
161532000     302.0185    512.97344    355.47647   -218901.62     218965.7    157.49697    29.877327 
161536000    280.85252    274.61382      547.602   -218937.06    219026.67   -272.98818    29.880657 
161540000    315.46912    402.21456    288.90753   -218991.26    219074.02    113.30704    29.884041 
161544000    330.44716    307.86781    350.97139   -219041.13    219092.55    -43.10358    29.881381 
161548000    297.91943    325.97261     415.9807   -219057.15    219133.83   -90.008087     29.87745 
161552000    287.02728    194.01196     262.8058   -219083.35    219168.42   -68.793847    29.873343 
161556000    294.25309    330.78455    360.05976   -219106.01    219190.36   -29.275201    29.866319 
161560000     293.6613    296.36804    526.77111   -219166.38    219229.03   -230.40307    29.866146 
161564000    280.66028    477.57546    247.05458   -219196.98    219292.45    230.52089    29.866228 
161568000    274.73825    222.34133    261.61155   -219207.81    219310.94   -39.270226    29.862674 
161572000    282.03245    276.67695    166.82886   -219258.16    219364.84     109.8481    29.859946 
161576000    291.77759    289.12895     252.9235   -219312.43    219409.02    36.205452    29.859044 
161580000    273.92759    309.37135     207.6333   -219354.01    219462.37    101.73805    29.865284 
161584000    284.31841    288.42845    331.02494   -219394.82    219486.82   -42.596495    29.870752 
161588000    314.10232    428.69691    384.67767   -219433.55    219512.47    44.019241    29.872723 
161592000    298.07958     466.6975    348.37435   -219484.15    219568.38    118.32314    29.874228 
161596000    295.55181     403.9441    167.82382   -219503.05    219587.67    236.12027    29.876279 
161600000    270.79198    411.37506    386.11387   -219540.08    219637.91    25.261183    29.877237 
161604000     302.0859    295.16653    178.00687   -219573.52    219667.85    117.15966    29.875353 
161608000    274.30504     308.3465    344.37523   -219626.19     219717.2   -36.028725    29.873409 
161612000    266.42686    166.33333     361.5765   -219622.96    219738.34   -195.24318    29.875188 
161616000    301.50095    616.74129    358.62871   -219681.77    219780.61    258.11258    29.879696 
161620000    291.39652    359.72095    355.46208   -219728.28    219836.41    4.2588716    29.879723 
161624000    314.16983    362.92458     246.3409   -219784.87       219856    116.58368     29.88061 
161628000    327.48429    568.45459    413.69159   -219798.42    219857.55      154.763    29.886226 
161632000    277.39739    487.32885    174.67046    -219839.2    219946.08    312.65839    29.885835 
161636000    295.33221    529.99625    285.64018   -219839.34    219926.18    244.35606    29.882897 
161640000    301.69075    385.90156    275.06886   -219852.17    219934.11     110.8327    29.881649 
161644000    243.74131    230.51507    228.38819   -219886.94    219997.16    2.1268798    29.880948 
161648000    298.01296    393.50025     290.5125   -219930.38    220023.63    102.98775     29.88306 
161652000    307.13927    338.36903    295.53935   -219996.39    220070.06    42.829682    29.888342 
161656000    285.66941    235.58884    306.12108   -220026.41    220121.65   -70.532246    29.888236 
161660000    301.09871    321.95515    520.07258   -220040.69     220147.7   -198.11743     29.88762 
161664000    287.11793    469.35189    214.07138   -220080.35    220184.17    255.28051    29.889579 
161668000    280.00669     377.9876    469.16476   -220114.58    220221.49   -91.177168    29.888488 
161672000    283.55146    463.64767    152.74973    -220137.7    220242.35    310.89794    29.884366 
161676000    275.15246    275.77291    270.71435   -220185.73    220276.83    5.0585613    29.887595 
161680000    276.29332    388.28357    286.60322    -220170.8    220271.58    101.68035    29.881909 
161684000     295.0792    239.97186    469.72874   -220213.71    220294.36   -229.75688    29.879908 
161688000    303.31146    396.35866    329.04829   -220252.13    220333.11     67.31037    29.879845 
161692000    290.34222    159.69234    442.67445   -220271.22    220383.28   -282.98211    29.878209 
161696000    309.12083    361.67046    330.58355   -220327.16    220401.71    31.086909     29.87354 
161700000    284.15092    377.54935    334.97435   -220342.48    220436.31    42.575006    29.879039 
161704000    291.99298    520.14249    369.39908   -220393.06    220486.38    150.74342    29.878438 
161708000    291.88696     435.9603    254.31221   -220384.69     220487.8    181.64808    29.879786 
161712000    286.32663     263.3035    372.86214   -220432.87     220522.3   -109.55865    29.883425 
161716000    290.99419    373.96935    290.63821   -220490.68     220581.3    83.331139    29.884535 
161720000    307.18857    318.43293    267.51667   -220509.48    220599.12    50.916263    29.879117 
161724000    283.03627    459.09212    374.75324   -220580.65    220657.78    84.338885    29.874422 
161728000    279.12527      388.162    321.79224   -220598.51    220691.83    66.369759    29.869233 
161732000    288.00049    377.11264    231.10974   -220615.86    220716.78     146.0029    29.865263 
161736000    301.27762    243.75213    253.28601   -220633.97    220746.59   -9.5338867    29.864835 
161740000    295.48148    492.23514     280.6822   -220670.34    220768.11    211.55294    29.865393 
161744000    256.75388    252.90253    468.99864    -220698.8    220807.43   -216.09611    29.863187 
161748000    278.22484    476.27244    487.74515   -220745.08    220829.26   -11.472709     29.85792 
161752000     258.8751     456.5318     217.3808   -220759.09    220870.95      239.151    29.858476 
161756000     260.1342    303.79578    218.46271   -220806.26    220933.02    85.333063     29.86236 
161760000    274.25036    306.59288    263.89134   -220843.54    220949.87    42.701548    29.861297 
161764000    274.12503    297.31279    571.63245   -220849.86    220957.19   -274.31966    29.861573 
161768000    274.20781    151.08792    302.36045   -220897.04     220993.9   -151.27252    29.851168 
161772000    251.17556    422.84144    254.37869   -220901.55    221023.05    168.46275    29.850633 
161776000    255.33518    485.08383    297.63794   -220920.48    221052.28    187.44589    29.852139 
161780000    288.43698    184.21595    425.71677   -220967.32     221073.1   -241.50082    29.845104 
161784000    255.31279    312.60298    317.49184   -221019.61    221134.47   -4.8888682    29.846063 
161788000    281.25779    476.41288    239.13681   -221067.01    221165.89    237.27607    29.850448 
161792000    290.99575    296.10249    414.08118    -221110.3    221192.43   -117.97869    29.849846 
161796000    297.05078     460.7512    239.84336   -221155.06    221235.86    220.90784    29.853457 
161800000    292.98198     224.7729     312.8549   -221169.26    221271.77   -88.081999    29.847336 
161804000    299.62642    708.21216     346.3267   -221220.76    221316.45    361.88546    29.845825 
161808000    263.85058    372.16848    258.95366      -221247    221367.67    113.21482    29.840327 
161812000    291.49362    346.59575    248.84464   -221308.93    221407.11    97.751113    29.842626 
161816000    290.84403    412.98053    294.78963   -221321.79    221426.18     118.1909    29.844857 
161820000     278.7111    446.00969    364.98175   -221366.34    221461.09    81.027939    29.849714 
161824000    294.52289    327.75644    443.74323   -221402.34    221490.83   -115.98679    29.850748 
161828000    296.23381      275.355    359.71364   -221413.91    221509.46   -84.358639    29.847178 
161832000    273.16266    327.97835    231.56743    -221429.1    221530.67    96.410923    29.850233 
161836000    294.23298    481.30123    250.16704   -221480.77    221569.14    231.13419    29.853466 
161840000    284.36353    263.21588    403.29154   -221520.16    221609.37   -140.07566    29.854217 
161844000    289.52961    460.50791    622.40438    -221558.7    221658.16   -161.89646      29.8545 
161848000    292.58632    456.25326    357.12571   -221625.98    221717.06    99.127552    29.849399 
161852000    282.37731    354.88847    237.76089   -221687.76    221789.01    117.12759    29.846493 
161856000    288.53124     564.4748    228.73464   -221707.61    221797.01    335.74015    29.850188 
161860000    279.57655    315.48439    357.74081    -221752.6    221837.65   -42.256422    29.842927 
161864000    266.46241     389.6289    263.97088   -221782.06    221887.53    125.65802    29.848709 
161868000    308.55097    259.96488     261.4525   -221833.08    221923.72   -1.4876214     29.85031 
161872000    297.75898    496.17733     318.2273   -221885.81    221970.01    177.95003     29.84803 
161876000    287.56911    331.20116    355.76534   -221872.55    221980.54    -24.56419    29.849699 
161880000    296.29104    326.93132    412.54311   -221904.43    222002.27   -85.611786    29.846353 
161884000    310.13024    322.87509    797.01556   -221920.35    222013.18   -474.14047    29.842534 
161888000    273.62174     288.6083    371.55758   -221944.06    222069.84   -82.949274    29.841304 
161892000    276.59413    211.81403    209.59068   -221962.11    222063.34    2.2233531    29.840409 
161896000    293.12176    372.76154    376.17399   -221997.55     222097.4   -3.4124419    29.846263 
161900000    303.08496    466.90909    386.20323   -222050.61    222144.17    80.705859    29.849327 
161904000    301.41671    403.36125    335.09988   -222087.65    222174.05    68.261366    29.852057 
161908000    274.86462    317.88182    306.04053   -222104.79    222222.44    11.841294    29.852582 
161912000    300.92283    385.24158    312.09692   -222144.59     222238.8     73.14466    29.856411 
161916000     268.7229    319.58152    281.87999    -222148.1    222271.21    37.701528    29.857902 
161920000    291.27963    345.62764    422.04806   -222187.49    222286.94   -76.420421    29.850175 
161924000    294.08426    391.01767    259.83042   -222234.14    222324.83    131.18725    29.854725 
161928000     270.4663    242.10305    233.40331   -222292.67    222409.93    8.6997391     29.85471 
161932000    279.86696    384.16094    258.18668   -222325.07     222433.8    125.97426    29.853559 
161936000    279.68786    217.69268      311.411   -222365.65     222466.1   -93.718313     29.85104 
161940000    276.96392    469.79801    160.25317   -222393.78    222498.75    309.54484     29.85244 
161944000     301.9615    307.86004    271.81485   -222419.61    222511.83    36.045189     29.85586 
161948000    260.33413    341.39528    192.07484   -222459.03    222556.57    149.32044    29.849757 
161952000    269.15456    322.19926    281.01056   -222479.51    222585.84    41.188696    29.850361 
161956000     275.8463    343.17443    266.33875   -222509.41    222607.54    76.835676     29.85102 
161960000    288.12809     339.3444    355.51029   -222545.92    222655.19   -16.165889     29.84704 
161964000    265.84278    437.69251    275.62139   -222591.76    222692.08    162.07113    29.849483 
161968000    301.30973    303.92714    406.22101   -222633.67    222715.97   -102.29388    29.849893 
161972000    267.83957    268.66329    282.42814   -222665.23    222778.88    -13.76485    29.852598 
161976000    284.12806    400.81898    255.23264   -222723.15     222814.3    145.58634    29.853232 
161980000    271.98058    339.27857    273.24978   -222740.46    222839.02    66.028798    29.851695 
161984000    306.86073    394.88158     479.2691   -222795.39       222882   -84.387514    29.848902 
161988000    265.44243     225.9702     372.0735   -222838.52    222944.64    -146.1033    29.844138 
161992000    298.47948    306.93441    301.87863   -222873.62     222964.9    5.0557769    29.843516 
161996000    267.14376    389.27591    245.67137   -222876.41    222998.14    143.60454    29.846185 
162000000    266.26788    346.72989    495.98933   -222918.63    223036.58   -149.25943    29.850158 
162004000    281.11412    220.59234     219.2941   -222957.64    223066.79    1.2982338    29.852428 
162008000    299.13237    240.33647    348.10466   -222986.98    223082.98   -107.76818    29.852017 
162012000    277.88599    275.95133    382.60549   -223042.26    223139.46   -106.65416    29.852764 
162016000    290.12868    433.55958    237.05534   -223081.35    223187.96    196.50424    29.846017 
162020000    283.60206    247.95184     224.3123   -223116.97    223231.16    23.639534    29.845873 
162024000    301.10683    257.71958    410.30697   -223144.14    223238.82   -152.58739    29.847079 
162028000    252.00961    272.02791    230.94955      -223184    223310.23     41.07836    29.846851 
162032000    258.62418    475.24191    328.83463    -223207.5    223325.26    146.40729    29.845677 
162036000    295.84804    275.88701    319.43625   -223271.81     223361.8   -43.549237    29.853065 
162040000    280.65858    348.18292    488.88795   -223323.21     223424.5   -140.70503    29.852362 
162044000    289.88969    527.13211    299.13242   -223380.62    223493.39     227.9997    29.848552 
162048000    263.82811     218.8431    288.65031   -223432.59    223534.42   -69.807211    29.848472 
162052000    293.95527      577.475    301.24298   -223499.12    223591.71    276.23201    29.846574 
162056000    265.59182     483.3584    317.58053    -223523.7    223634.14    165.77787    29.846786 
162060000    279.79282    277.43086    243.28668   -223569.82    223668.06    34.144181    29.845457 
162064000    280.14042     379.9143    267.81753   -223607.16    223711.59    112.09677    29.847334 
162068000    298.29808    364.19271    330.24435    -223650.2     223732.2    33.948362    29.851262 
162072000    305.33864     359.8536    302.38618   -223735.17     223806.9    57.467418    29.849776 
162076000    280.44167    445.65599    215.47541   -223761.39     223856.4    230.18059    29.855607 
162080000     307.8143    234.01395    275.17211   -223799.16    223892.42   -41.158151     29.85101 
162084000    289.87107    247.09007    330.26539   -223849.54    223932.21   -83.175318    29.844662 
162088000    268.95967    441.56324    325.75453   -223878.57    223985.32    115.80871    29.841909 
162092000    274.44515    436.66272    332.02427   -223929.85    224027.23    104.63845    29.848155 
162096000    309.58167     582.9315    278.46549    -223983.1    224074.69    304.46601    29.850269 
162100000    289.06302    352.47801    243.53555   -224013.04    224117.02    108.94246    29.850649 
162104000    286.52808    276.86474    495.86022    -224045.2    224135.75   -218.99547    29.850077 
162108000    269.90073    570.36524    297.13867    -224088.6    224202.63    273.22657    29.852941 
162112000    282.32261    304.08699    330.01498   -224093.23    224202.28   -25.927993    29.854405 
162116000    282.55555    315.51368    400.84719   -224106.09    224211.12   -85.333504    29.851335 
162120000    276.66139    375.19655    281.26318   -224147.77     224259.5    93.933363     29.85362 
162124000    298.87737    347.83683    284.73328   -224183.78    224288.18    63.103556    29.851863 
162128000     307.7277    360.26217    269.78319   -224216.21    224316.18    90.478976    29.848938 
162132000    254.87744    413.23041    207.57013    -224198.1    224322.26    205.66028    29.853015 
162136000    295.02039    349.23025    268.16585   -224248.83    224336.11    81.064402    29.854541 
162140000    291.61749    248.72875    188.99534   -224267.67    224351.23    59.733411    29.858866 
162144000    302.43863    375.75763    469.47375   -224302.63    224387.05   -93.716117    29.857257 
162148000    295.41601    389.91817    299.47886   -224342.18    224438.37    90.439308    29.852988 
162152000     324.6709    312.53325    455.32589   -224397.71     224485.2   -142.79264    29.854031 
162156000    289.53172    449.11431     237.1776   -224423.61    224522.17     211.9367    29.849098 
162160000    280.28458     431.4797    444.58264   -224447.65    224550.57   -13.102942    29.850074 
162164000    329.13056    486.28949    290.78561   -224504.87    224571.99    195.50388    29.847418 
162168000    281.20633    257.31017    350.41455   -224492.53    224588.26   -93.104375    29.851846 
162172000    274.78075    517.33866    389.68966   -224525.23    224640.77      127.649    29.856766 
162176000    282.99176    368.81797    313.55425   -224567.39    224666.52    55.263716    29.856269 
162180000    247.62598    256.22171    198.48883   -224590.99    224719.56    57.732884    29.852362 
162184000    271.07585    431.38568    132.88668   -224648.79    224754.42    298.49899    29.855452 
162188000    277.95209    355.81554    308.43621   -224688.02    224770.85    47.379331    29.855754 
162192000    299.47981    296.01544      380.654    -224697.6    224792.13   -84.638552    29.856676 
162196000    286.97805    364.39339    299.05217   -224700.87    224824.38     65.34122    29.854289 
162200000    281.02259    323.67766    634.75636    -224720.9    224831.04    -311.0787    29.854659 
162204000    298.99039    337.37107    325.43751   -224780.92    224890.88    11.933558    29.858453 
162208000    266.48745    363.91975    215.99931   -224823.36    224935.74    147.92043    29.855709 
162212000    323.31297    455.46169    344.58675   -224885.57    224951.73    110.87494    29.854554 
162216000    322.84445    451.14689    376.86295   -224922.09    225000.19    74.283942    29.851665 
162220000     262.7041    388.80116    368.12453   -224915.27    225045.29    20.676629    29.851325 
162224000    279.67122    317.04916    270.48863   -225001.68    225109.68    46.560527    29.848217 
162228000    277.75932    254.37881    374.81072   -225047.68     225156.5   -120.43191    29.853537 
162232000    255.15957    245.63279    311.85264   -225100.03    225211.03   -66.219847    29.849864 
162236000    298.90437    461.93998    351.86741   -225124.87    225205.37    110.07257    29.844278 
162240000    278.20875    512.50751    263.90141   -225145.83    225244.48     248.6061    29.842792 
162244000     295.0949    215.36368     636.7024   -225181.28    225272.78   -421.33872    29.832523 
162248000    286.73951    591.46187    265.87986   -225241.94     225329.6    325.58202    29.827412 
162252000    265.62784    359.51682    306.21551   -225243.91    225352.33    53.301315    29.830346 
162256000    286.46399    330.36329    247.41406    -225312.3    225409.91    82.949233    29.828954 
162260000    296.98783    458.96879    339.25107   -225380.29    225482.01    119.71772    29.828946 
162264000    255.52532    307.12534    273.30123    -225426.6    225544.38    33.824112    29.827833 
162268000    289.56254    187.56945    323.52684    -225446.5    225543.84   -135.95739    29.829927 
162272000    268.48327    259.23952    438.25842    -225468.1    225579.61   -179.01891    29.826605 
162276000    283.35973    405.83069    191.99728   -225520.08    225617.87    213.83341    29.826393 
162280000    296.16411    319.73075    204.79344    -225540.5    225638.53    114.93731    29.820947 
162284000    302.61921    235.53817    329.11355   -225566.59    225656.03   -93.575385    29.819815 
162288000    310.39842    457.97692    448.24937   -225642.69    225731.91    9.7275571    29.815111 
162292000    264.39064    350.02648    420.21297   -225653.32    225755.86   -70.186488    29.813814 
162296000    268.41717    370.93219    274.22096   -225711.36    225816.71    96.711237      29.8162 
162300000    280.90808    331.63185     250.5791   -225738.15    225834.85    81.052746    29.819495 
162304000    268.64524    318.94631    302.36311   -225738.47    225852.14    16.583207      29.8147 
162308000    304.37256    373.49316    386.50544    -225784.5    225877.54   -13.012279    29.816674 
162312000    272.61244     325.4537    223.55225   -225857.52    225972.04    101.90145    29.820251 
162316000    278.26202     332.1951    301.87741   -225881.49    226006.08    30.317694    29.825256 
162320000    261.54234    288.30318    227.33022   -225947.06    226058.27    60.972963    29.827267 
162324000     279.2622    287.74167     387.1167   -225979.08    226078.26   -99.375029    29.823674 
162328000    284.76241    282.06358    556.03832   -225997.93    226110.03   -273.97475    29.824774 
162332000    284.82448    260.06491    232.25969   -226038.59    226150.65    27.805217    29.823286 
162336000      297.821    517.26995    287.10701   -226076.14    226176.93    230.16295    29.824818 
162340000     267.0669    210.27992    366.40087   -226093.75    226209.56   -156.12095    29.822334 
162344000    309.59003    463.34812     610.0288   -226142.06    226236.44   -146.68068    29.820426 
162348000    266.61987    247.99885    221.74845      -226187    226298.74    26.250401     29.82188 
162352000    303.26288    403.51441    495.15433   -226235.18    226338.27   -91.639922    29.822099 
162356000    281.23437    457.77843    264.08559   -226255.89    226357.73    193.69284    29.824284 
162360000     289.8528     320.4636    247.96695   -226274.48    226369.88     72.49665    29.821771 
162364000    274.97698    361.76325    224.12002   -226323.07    226440.47    137.64322    29.819179 
162368000    305.89742    276.94004     410.8201   -226344.87    226446.01   -133.88006    29.825397 
162372000     302.8835    859.34928    276.49013   -226396.66    226487.79    582.85915    29.823356 
162376000    316.20367     273.2596    399.72772   -226433.69    226518.43   -126.46811    29.823629 
162380000    313.76327    292.31759    323.99548   -226469.61    226557.69    -31.67789    29.826339 
162384000    287.25051    447.68686    437.89522   -226519.84    226610.41    9.7916395    29.824877 
162388000    301.82528    547.80184    285.50238   -226547.06    226638.37    262.29946    29.826932 
162392000    323.31282     297.9017    596.85984   -226583.72    226653.16   -298.95814    29.826852 
162396000    294.27973     458.9746    294.94479   -226601.91    226687.93    164.02982     29.82543 
162400000    270.60743     328.6157    467.10579   -226615.47    226711.62   -138.49008    29.825715 
162404000    266.34673    220.80066    220.73838   -226667.03    226789.56  0.062275174    29.815324 
162408000    305.92004    326.67488    263.34917   -226684.35    226784.92    63.325712    29.812065 
162412000    290.24781    493.79096    216.62755   -226714.93    226809.25    277.16341    29.814847 
162416000     289.7517    271.11725     159.6113   -226739.98    226824.85    111.50594    29.819863 
162420000    311.72646      302.064    299.26843   -226753.21    226842.63    2.7955685    29.816924 
162424000    262.53084    362.12948    276.87736   -226754.31    226885.94    85.252119    29.818222 
162428000    276.96819    357.54884    288.69856   -226812.69     226911.5    68.850281     29.81831 
162432000    308.29208    311.45567    379.10735   -226886.51    226962.52    -67.65168     29.82183 
162436000    278.92364    283.74903    328.41271    -226932.1     227027.9   -44.663685    29.823942 
162440000    297.18743    278.43296     294.1222   -226972.87     227064.6   -15.689239    29.825345 
162444000    289.01915    327.68253    328.62898   -227049.44    227151.93  -0.94645891    29.821413 
162448000    287.23239    386.82723    618.72865   -227075.27    227191.77   -231.90142      29.8227 
162452000    284.92497    350.30476    235.34985   -227130.12    227214.38     114.9549    29.820143 
162456000    279.55033    410.58961    252.80182   -227158.77    227256.35    157.78779    29.819322 
162460000    266.36063    404.52038    287.00613   -227204.67     227299.1    117.51425    29.821515 
162464000    318.05174    394.55767     328.4519   -227278.25    227355.25    66.105767    29.816833 
162468000    282.21402     357.4048     333.5711   -227328.44     227422.6    23.833697    29.823111 
162472000    322.56424    359.71778    415.21416   -227370.03    227447.94   -55.496383    29.821876 
162476000    307.87439    463.86709    180.80258   -227412.56     227488.1    283.06451    29.824288 
162480000    272.38047    318.72092    294.16495   -227453.06    227555.02    24.555968    29.827761 
162484000    294.99463    305.01072    259.88472    -227485.1    227578.68    45.125999    29.827208 
162488000     290.4278    273.37784    254.78782   -227548.57    227638.19    18.590024    29.833728 
162492000    264.40694    200.73589    245.25437   -227562.03    227683.16   -44.518482    29.832923 
162496000    292.90973    446.00276    171.01405   -227635.89    227721.57    274.98871     29.83514 
162500000    268.67947    319.71588    390.45397   -227659.06    227766.42   -70.738087    29.835195 
162504000    268.97404    212.10597    253.44989    -227671.1    227792.23   -41.343925    29.834957 
162508000    259.96057    249.47741     259.8261   -227696.54    227804.91   -10.348691    29.836208 
162512000     294.8311    541.70463    403.35601   -227772.62    227858.99    138.34862    29.833961 
162516000    307.36283    284.82694    392.50123   -227774.32    227862.25   -107.67429    29.835044 
162520000    304.43614    400.79106    516.07792   -227786.84    227881.69   -115.28686    29.831535 
162524000    268.19499    249.70736     269.0636   -227831.77    227938.62   -19.356243    29.824857 
162528000    295.48945    378.02057    306.12712   -227864.02    227966.83    71.893445    29.823026 
162532000    289.99571    149.57123    332.72773   -227912.39    228014.34   -183.15651    29.817006 
162536000    283.28421    317.03556    325.78647   -227952.26    228029.45   -8.7509124    29.821698 
162540000    275.88415    228.47851     315.6618   -227998.79    228088.52   -87.183299    29.820858 
162544000    263.24465    278.46291    157.63831   -228011.25    228136.05    120.82461    29.822784 
162548000    260.64697    382.44174    222.45817   -228051.91    228164.72    159.98357     29.82447 
162552000    293.43697    304.48406    208.63499    -228100.2    228179.42    95.849067    29.820883 
162556000    272.76875    267.34717    336.28457   -228131.02    228224.56   -68.937397    29.823573 
162560000      265.198     439.4718    225.64754      -228176    228263.72    213.82426    29.819368 
162564000    281.22106     384.2897    447.79389   -228191.54    228294.06   -63.504195    29.820744 
162568000    274.05651    334.59172    188.08591   -228241.56    228361.25    146.50582    29.819567 
162572000    285.89097    483.00032    395.03058   -228311.03    228404.15     87.96974    29.819274 
162576000    299.23527    391.78419    261.94866   -228366.72    228468.73    129.83553    29.819756 
162580000    275.28718    273.32486    296.88815   -228419.57    228535.95   -23.563293    29.816562 
162584000     278.5736    514.26077    330.77748   -228465.64    228582.75    183.48329    29.813607 
162588000    264.48368    656.65428    324.88402    -228504.8    228616.86    331.77026    29.810263 
162592000    276.18061    257.61571    196.92503   -228516.82    228637.65    60.690686    29.810481 
162596000    293.81152    399.23972    395.08623    -228542.8    228658.21     4.153494    29.812366 
162600000    296.47844    373.47563    349.16916   -228582.64     228680.8    24.306473    29.814298 
162604000    300.56972    399.78427    463.85569   -228642.21    228723.11   -64.071426    29.813633 
162608000    284.29134    283.45149    273.59613   -228675.43    228775.55    9.8553592    29.810244 
162612000     260.3748    228.10651    259.07159   -228700.69     228811.3   -30.965086    29.805487 
162616000    279.52461     361.2089    283.37523   -228732.78    228838.96    77.833664    29.807261 
162620000     272.2801    490.23018    187.37674   -228760.11    228873.17    302.85345    29.811419 
162624000    284.70683    476.30425    592.74985   -228795.34    228885.79    -116.4456     29.81435 
162628000    264.17997    111.08168    412.91062   -228841.41     228936.1   -301.82894    29.811145 
162632000     262.2141    173.40289     241.2062   -228874.41    228989.26   -67.803311       29.813 
162636000    283.52369    327.29021    171.71845   -228901.37    229006.53    155.57175    29.817174 
162640000    313.16799    351.41742     390.1922   -228935.55    229020.26   -38.774788    29.810962 
162644000     274.7144    327.30344    387.11856   -228941.41    229024.75   -59.815125    29.811971 
162648000    276.25338    421.65718    308.88933   -228982.36    229097.44    112.76785     29.80904 
162652000    287.86913    477.55783    420.62624   -229021.17    229129.84    56.931593    29.807211 
162656000    261.38647    200.25836    300.63756   -229046.82    229160.36    -100.3792    29.807547 
162660000    306.63886    545.89999    401.14097   -229099.26    229187.19    144.75903     29.81277 
162664000    259.18595    293.71679    237.81469   -229155.67    229278.84    55.902102    29.812839 
162668000    269.94291    242.90509    453.61019   -229212.98    229317.74    -210.7051      29.8098 
162672000    270.72023    485.56238    299.49727   -229270.19    229367.15    186.06511    29.808159 
162676000    283.19649    177.32555      251.803   -229316.98    229402.37   -74.477452    29.810592 
162680000    298.90864    424.16942    365.22507   -229383.54    229472.72    58.944349    29.806076 
162684000    282.22007    403.78726    432.16735   -229408.95    229520.48   -28.380096    29.810172 
162688000    273.92447    327.82166    335.52963   -229441.87    229560.43   -7.7079754    29.813054 
162692000    299.43831    407.73497       228.74   -229497.37    229596.55    178.99496    29.812656 
162696000    258.23511    370.86969    365.59708   -229538.65    229657.63    5.2726184    29.814876 
162700000    303.74744    318.19428    500.03798   -229575.72    229660.37    -181.8437    29.809305 
162704000    283.82307    331.09721    297.25125    -229604.5    229710.87    33.845965    29.809417 
162708000    307.60593    527.11227    469.84482   -229639.31    229727.49    57.267451    29.811157 
162712000    290.75355    294.22329    374.02323   -229656.89     229760.1   -79.799947    29.811448 
162716000    249.00702    282.21129    235.59071   -229674.97    229802.85    46.620575    29.813025 
162720000    284.84877    580.44359     225.4762   -229753.83    229859.29    354.96739    29.809955 
162724000    289.69703    394.28421     234.7176   -229818.38    229915.64    159.56661     29.81461 
162728000    266.83803    419.02497    429.23645   -229873.99     229998.2   -10.211476    29.807934 
162732000    283.12856    234.63447    331.99321   -229927.54    230020.03   -97.358741    29.806147 
162736000    276.71251    315.01306    424.26983   -229942.77    230055.33   -109.25678    29.806479 
162740000    270.65781    273.31323     307.6631   -229963.97     230079.2   -34.349871    29.800777 
162744000    287.08523    563.06606    389.13952   -230009.63    230112.98    173.92654    29.797603 
162748000     279.0772    381.85111    438.98499   -230035.05    230150.65   -57.133877    29.798317 
162752000    289.38142    466.81136    307.63043   -230066.15    230157.84    159.18093    29.799819 
162756000     278.3816    281.04375    249.24228   -230080.59    230179.49    31.801475    29.803845 
162760000      273.327    459.90737    209.73395   -230107.62    230225.64    250.17342    29.802787 
162764000    261.14558    443.20848    296.24106   -230151.22    230267.19    146.96742    29.804851 
162768000    264.84323    214.72388    363.61911   -230188.15    230312.61   -148.89523    29.800079 
162772000    293.95011    431.02803    426.96901   -230235.64    230341.35    4.0590225    29.794368 
162776000    297.64117    306.75837    221.56754   -230271.41    230372.09     85.19083    29.795025 
162780000    302.62387    430.49373    355.62604   -230306.29     230394.3    74.867693     29.79188 
162784000    261.23884    251.50233    315.61603   -230338.33    230451.34   -64.113699     29.79348 
162788000    276.13539     313.6486    409.80251   -230365.49    230466.91   -96.153916    29.793764 
162792000    282.89136    403.36335    537.94015    -230401.1    230509.23    -134.5768    29.792496 
162796000    284.34055    318.50136    416.00108   -230401.32    230519.12   -97.499727    29.791266 
162800000    303.10605    455.05585    467.04055   -230459.64    230539.28   -11.984699    29.794903 
162804000     300.6543    546.18365    380.26312   -230507.83    230613.14    165.92054    29.795441 
162808000     272.0816    331.41646    340.51882   -230521.47    230635.89   -9.1023559    29.793007 
162812000    279.79327     316.1517    335.66985   -230540.32    230649.44   -19.518147    29.791233 
162816000    290.69604     398.6196    288.42602   -230523.17    230640.05    110.19358     29.79318 
162820000    313.05467    273.41464    434.95547   -230566.62     230662.8   -161.54083    29.792437 
162824000    296.76168    401.48924    358.55202   -230597.01    230686.51    42.937219    29.799594 
162828000    265.75676    306.94938    195.19624      -230631    230739.21    111.75314    29.798766 
162832000    293.99499    553.21178    250.60978   -230675.74     230774.6      302.602    29.802223 
162836000    280.93804    593.50623    414.10573   -230742.64    230854.82     179.4005    29.802555 
162840000    278.67829    130.45574    277.92378      -230767    230874.06   -147.46804    29.800339 
162844000    274.51247    419.07958    320.84537   -230808.52    230911.51    98.234211    29.793652 
162848000    255.14878    402.34931    375.16327   -230825.06    230952.04    27.186044    29.789784 
162852000    303.32636    321.52645    389.82519   -230876.08    230955.43   -68.298741    29.792442 
162856000    268.85228    420.18893    235.26316   -230897.85    231018.29    184.92577    29.791626 
162860000    283.78671    196.88437    451.55004   -230948.06     231036.8   -254.66567    29.789554 
162864000    292.09657    378.73658    364.37163   -230987.56    231086.21    14.364952    29.791523 
162868000    287.71116    400.83529    257.84524   -231009.07    231103.86    142.99005    29.794739 
162872000    302.84836    526.62635    430.51768    -231049.6    231139.04    96.108675    29.792928 
162876000    260.78464    152.34628    334.46891   -231071.82    231193.92   -182.12263    29.786622 
162880000    251.83491    308.20831    349.34837   -231097.24    231208.48   -41.140063    29.787583 
162884000     258.3997    313.33748    322.47059   -231159.35    231274.31   -9.1331056    29.789058 
162888000    307.11883     436.6037    416.22201   -231196.97     231293.3    20.381687    29.791227 
162892000    280.31978     652.5379     351.0801   -231189.13    231299.57     301.4578     29.79008 
162896000    291.67509    320.73895    379.54361   -231237.11    231311.34   -58.804658    29.784263 
162900000    287.74066    234.05109     338.5921   -231266.36    231353.86   -104.54101    29.785249 
162904000    276.70149    348.98511    218.50506      -231327    231438.93    130.48005    29.787436 
162908000    281.27628    406.40183    234.13099   -231368.94    231476.89    172.27085      29.7856 
162912000    314.08901     422.0712    317.94394   -231439.82    231515.87    104.12726    29.790635 
162916000    266.81348    325.28314    457.92855   -231445.17    231552.45   -132.64541    29.792855 
162920000    274.81213    369.98217    400.86616   -231475.47    231568.05   -30.883993    29.795577 
162924000    276.34851    390.19882    234.87772   -231540.95    231607.48     155.3211    29.798679 
162928000    335.86892    544.98597    411.94776   -231588.45    231662.02     133.0382    29.795227 
162932000    268.10074    521.13396    334.32708   -231608.86    231714.39    186.80688     29.79303 
162936000    298.20777    424.37525     572.4251   -231664.94    231765.75   -148.04985    29.793199 
162940000    261.83785    211.92894    297.38061    -231705.4    231812.39   -85.451669    29.792892 
162944000    316.62667     313.2071    280.83839   -231750.04    231831.21     32.36871    29.793969 
162948000    314.11186    375.08342     430.3181   -231801.32    231887.95   -55.234683     29.79221 
162952000    278.16408    539.77973    346.70589   -231854.73    231939.96    193.07384    29.791051 
162956000    268.78473    327.79976    448.31075    -231886.5    231998.32   -120.51099    29.790493 
162960000    289.97529    394.81552    233.91457   -231943.51    232049.47    160.90095    29.795404 
162964000    308.23373    258.59442     313.8706   -231995.16    232087.54   -55.276186    29.793135 
162968000    287.73174    441.65904    392.51822    -232011.6    232109.24    49.140818    29.794799 
162972000    281.68041     334.2355    441.85985   -232036.73    232145.85   -107.62435    29.798017 
162976000    256.71706    392.06839    481.09978    -232046.7       232154   -89.031387    29.796964 
162980000    296.20144    340.57962    564.88491   -232069.87     232153.8   -224.30529    29.793339 
162984000    294.47312     281.5648    451.19772    -232096.3     232190.6   -169.63292    29.790066 
162988000      294.071    298.34835    305.49157   -232137.29    232245.04   -7.1432258    29.788994 
162992000    281.53061    365.12972    243.65369   -232198.84    232312.53    121.47603     29.78501 
162996000    304.43127     267.9891    379.96288   -232232.32    232336.61   -111.97378    29.785366 
163000000    283.64329    201.08952     283.3017   -232271.02    232367.74   -82.212174    29.787051 
163004000     299.5556    306.94771    273.30293   -232299.33    232392.43     33.64478    29.792926 
163008000    285.34603    183.94546    265.58081   -232345.59    232448.61   -81.635352    29.791434 
163012000    309.84833    339.88138     423.9028   -232387.72    232463.99   -84.021427    29.788341 
163016000    279.27508    232.88372     285.3049   -232399.62    232499.25   -52.421181    29.787824 
163020000    287.44318    179.20081     453.6198   -232446.03    232536.16   -274.41899    29.783695 
163024000    278.14684    366.82051    269.82679   -232481.56    232581.74    96.993725    29.785602 
163028000    252.68591    150.14678    256.07745   -232479.89     232598.2   -105.93066    29.790987 
163032000    288.43691      277.988    236.10726    -232503.1    232588.86    41.880741    29.789421 
163036000    253.25069    509.67057    255.75815   -232484.06    232597.84    253.91242    29.791934 
163040000    270.41154    392.58609    356.58026   -232510.14    232625.71    36.005829     29.78924 
163044000    279.13239    121.86106    405.58676   -232589.75    232690.72    -283.7257    29.791027 
163048000    263.67375    280.73608    174.65916   -232629.12    232738.75    106.07693    29.791779 
163052000    259.99271     210.6388    358.82191   -232638.91    232773.05   -148.18311    29.789316 
163056000    263.95252    264.76781    254.05353   -232715.71    232818.97    10.714279    29.788805 
163060000    277.11833    459.85046    285.76289   -232769.33    232875.58    174.08758    29.789134 
163064000    279.49369    420.68285    200.91462   -232810.95     232912.7    219.76823      29.7914 
163068000    263.42236    306.72624    272.93466   -232864.97    232970.04    33.791584    29.785247 
163072000    253.48252    214.60844    413.05376   -232877.84    233000.46   -198.44532    29.785463 
163076000     295.2427     248.3502    158.94236   -232920.37    232992.35    89.407842    29.784936 
163080000    284.37674    278.04981    412.07594   -232948.98     233051.3   -134.02614    29.778796 
163084000    295.10716    435.19086    348.35651   -232944.51    233051.29    86.834346    29.783472 
163088000    236.69096    356.34519    457.57903   -232945.79    233087.86   -101.23385    29.782814 
163092000    278.01831    355.29809    302.83634   -232989.04    233100.66    52.461757    29.779466 
163096000    279.25619    225.78543    492.31628   -233022.76    233123.08   -266.53085     29.77979 
163100000    280.86897    505.50823    274.49044   -233071.91    233162.39    231.01779     29.78137 
163104000     323.7459    360.32341    531.44767   -233086.28    233165.38   -171.12426     29.78397 
163108000    287.71201    326.71453    311.67109   -233135.47    233222.27    15.043432    29.782515 
163112000    280.41967    606.89034     389.8778   -233152.48    233271.22    217.01254    29.785439 
163116000    270.75176    287.00399    366.73745   -233194.24    233317.93   -79.733467    29.787322 
163120000    298.39092    566.93785    600.89476   -233258.76    233352.87   -33.956904    29.789384 
163124000     252.4726    545.14055    333.83247   -233261.28    233384.23    211.30808    29.794082 
163128000    286.21504    339.68302    311.98474   -233299.56    233399.28    27.698274    29.795272 
163132000    299.02492    348.19762    367.18027   -233344.23     233422.7   -18.982651    29.796232 
163136000    301.46289    407.36498    231.63349   -233363.03    233463.64    175.73149    29.785257 
163140000     250.2692     216.6772    285.08972   -233383.58    233498.59   -68.412521    29.782057 
163144000      303.165    345.77284    198.89426   -233442.39    233546.81    146.87858     29.78879 
163148000    281.54201    463.80799     368.0454   -233476.75    233585.94    95.762587    29.782935 
163152000    293.59874    451.56453    256.37381   -233532.31    233617.59    195.19072    29.780492 
163156000    295.73969    251.26555    298.88381   -233555.68    233644.75   -47.618268    29.777559 
163160000    292.37842    579.08526    602.89934   -233567.98    233669.95   -23.814088    29.786843 
163164000    312.86474    518.86979    220.52912   -233635.91    233722.73    298.34067    29.785409 
163168000    290.16332    309.34672    427.75166   -233639.71    233741.81   -118.40494    29.783871 
163172000    290.57511    350.21289    200.70836   -233686.93    233783.47    149.50454    29.781271 
163176000    254.80084     211.8397    405.32659   -233730.32    233839.19   -193.48689    29.778906 
163180000    301.33603    366.66409    229.91847   -233762.75    233852.98    136.74562    29.783186 
163184000    287.45374    295.45229    462.19503    -233792.9    233906.69   -166.74273    29.783975 
163188000    272.56366    298.58937     439.3983    -233832.3    233933.84   -140.80893    29.789929 
163192000    292.13998    414.78814    423.52487   -233869.92    233975.76   -8.7367313     29.78896 
163196000    296.67721    350.95655    190.51996   -233886.76    233986.24    160.43659    29.785437 
163200000    291.33563    442.02699    496.27619   -233911.76    234005.93   -54.249204    29.789174 
163204000     291.2554    335.52213    245.81935   -233930.27    234028.81    89.702774    29.791899 
163208000    265.29026     349.2777     219.3237   -233947.53    234063.25      129.954     29.78844 
163212000    286.01359    378.03915     277.0473   -233981.09    234082.98    100.99185    29.784672 
163216000    264.17802    361.65832    341.92737   -233968.22    234101.65    19.730955    29.784622 
163220000    283.38983    366.91906    495.90928   -233994.98    234114.05   -128.99022    29.785623 
163224000    288.17315    379.21912    485.03026   -234052.96    234145.19   -105.81114    29.783488 
163228000    282.37049    565.39161     206.1967   -234073.14    234175.43    359.19492    29.783226 
163232000    272.04468    216.17807    381.52658   -234098.03    234204.15   -165.34851    29.783339 
163236000    274.76807    398.88153    234.18182   -234146.58    234260.12    164.69971     29.78187 
163240000     281.7122    453.45141     515.9701   -234219.51    234317.84   -62.518697    29.782513 
163244000    299.19631    371.42627    345.12107   -234229.28    234330.98    26.305198    29.783759 
163248000    268.99385      289.202    166.28095   -234287.48    234401.75    122.92105    29.785517 
163252000    277.02833    428.24398    121.73372   -234328.42    234414.69    306.51026    29.788152 
163256000     262.9487    361.09045    288.50095   -234356.45    234469.89    72.589507    29.792104 
163260000    291.13034    401.74467    258.67146   -234400.66    234501.13    143.07321    29.786942 
163264000    256.91632    523.46651    187.67252   -234450.62    234567.64      335.794    29.787331 
163268000    264.38787    326.80941     291.5927      -234449    234585.65     35.21671    29.791138 
163272000    265.56478    342.92683    320.45053   -234482.35    234589.39    22.476301    29.791273 
163276000    294.76294    317.68744    324.56959   -234556.73    234658.54   -6.8821531    29.792317 
163280000    258.98589    448.25275    354.17277    -234594.5    234699.72    94.079982    29.793717 
163284000    329.65665    466.65959    205.58766   -234627.21    234713.38    261.07193    29.795241 
163288000    284.95554    225.91785    552.68703   -234651.12    234744.79   -326.76918    29.796838 
163292000    300.23758    389.41236    240.42749   -234690.01    234779.83    148.98488    29.798115 
163296000    251.62654    459.18122    186.84812   -234752.27    234865.93     272.3331    29.799178 
163300000    265.13657    241.41617     395.3858   -234791.14    234905.78   -153.96962    29.802177 
163304000    294.70386    280.17404     463.7585    -234826.6    234914.83   -183.58446    29.797375 
163308000    268.28376    227.72364    382.87334   -234852.29    234960.88    -155.1497    29.800268 
163312000    306.40531    419.29971    262.20333   -234898.81    234982.08    157.09638    29.800047 
163316000    252.55293    214.29728    318.26496   -234961.53    235091.69   -103.96768    29.806153 
163320000    281.72037    402.40351    276.53481   -235022.09    235138.51    125.86871    29.806132 
163324000    288.97721    377.45158    315.05568   -235066.94    235167.87    62.395902    29.808281 
163328000    284.18909    258.34869    144.07964   -235081.74    235184.76    114.26906    29.809545 
163332000    284.06088    415.20796    410.44499    -235118.5    235213.41    4.7629658    29.806973 
163336000    312.11525    378.83986     265.4793   -235203.51    235273.75    113.36056     29.80492 
163340000    312.01803    410.86113    452.85162   -235238.82    235315.21   -41.990489    29.805692 
163344000    306.96299    436.86133    380.71899   -235270.71    235358.02    56.142333    29.805087 
163348000     311.6982    307.11214    304.46014      -235334    235404.83    2.6519979    29.804715 
163352000    270.50347    375.98499    264.42152    -235343.9    235461.95    111.56347    29.810856 
163356000    259.66643    287.02259    173.32389   -235389.88    235515.04     113.6987    29.806244 
163360000    323.97898    435.85566    452.96903   -235421.16    235519.81   -17.113373    29.806677 
163364000    294.81006    543.23308    295.29715   -235471.88    235562.05    247.93593    29.799509 
163368000    293.66426    253.60344    259.31631   -235513.87    235609.53   -5.7128643    29.795958 
163372000    301.06979     368.4926    284.08345   -235582.64    235660.02    84.409141    29.800712 
163376000    287.98543    495.36982    341.31509      -235629     235728.5    154.05474    29.796156 
163380000    292.52733    346.16629    179.43156   -235687.93    235762.97    166.73473    29.798872 
163384000    272.68241    509.80133    219.74205   -235709.77    235812.67    290.05929    29.803815 
163388000    298.17861    465.29377    267.42467   -235747.51     235844.4     197.8691    29.803867 
163392000    274.34406    259.76882    303.49081   -235770.23    235865.92   -43.721989    29.805994 
163396000    290.82746    253.70489    641.46898   -235819.61    235918.43   -387.76409    29.801217 
163400000    294.79372    284.99044    222.42678   -235877.19    235987.55    62.563662    29.800064 
163404000    287.65981    264.51993     366.4692   -235885.61    235995.71   -101.94927    29.799565 
163408000    303.30238    462.00161    402.44734    -235928.7    236018.15    59.554273    29.795907 
163412000    260.91309    289.15242    278.43605   -235923.63    236048.33    10.716366    29.800066 
163416000    242.29672    329.03948     269.4165   -235954.29    236071.23    59.622981    29.799232 
163420000    300.48736    499.24488    239.28723    -235984.8    236075.74    259.95764      29.7953 
163424000    294.17477    210.86409    285.73168   -235986.97    236084.25   -74.867594    29.798032 
163428000    301.66187     401.5669    198.07178   -235996.47     236104.3    203.49512    29.794937 
163432000    294.46613    486.68189    453.42987   -236040.24    236133.98    33.252017    29.796256 
163436000    312.25778    411.80331    186.63995   -236097.37    236166.51    225.16336    29.799236 
163440000    276.29761    334.68995    375.88758   -236120.45    236242.45   -41.197634    29.792914 
163444000    298.16698    484.12039    351.60855   -236161.25    236254.51    132.51184    29.794443 
163448000    308.23999    173.62127    289.74135   -236173.82    236252.33   -116.12008    29.792807 
163452000    275.94037    311.43008    368.66721   -236211.56    236301.86   -57.237129    29.793761 
163456000    305.33647    411.74918    436.79235   -236262.47    236353.47   -25.043172    29.792422 
163460000    294.24358    328.45543    456.16539   -236318.59    236405.03   -127.70996    29.793637 
163464000    310.08459    516.91565    271.27341   -236354.15    236444.07    245.64224    29.793463 
163468000    308.43345    595.12006     498.5865   -236414.86    236507.85    96.533559    29.792292 
163472000    257.39093    358.30863    353.92473   -236448.51    236572.29    4.3839001    29.792758 
163476000    264.50245    305.41774     252.9816   -236473.12    236596.96     52.43614    29.795618 
163480000    306.48715    404.21414    329.71623   -236539.61     236636.6    74.497917    29.795138 
163484000    275.55836    329.27427    318.59972   -236563.47     236662.4    10.674546    29.798398 
163488000    276.81071    467.08154    227.46073   -236605.96     236720.5    239.62081    29.802356 
163492000    275.94129    224.78238    346.17911   -236639.94    236739.41   -121.39673    29.798184 
163496000    259.26453    304.20548    267.87841   -236677.01     236793.2    36.327073    29.789923 
163500000     281.0842    297.85063    354.13295   -236706.31    236795.79   -56.282317     29.79351 
163504000    266.10016     393.0165    427.75623   -236727.43    236853.19   -34.739726    29.791428 
163508000    294.13258     329.3007    481.53362   -236777.55    236877.33   -152.23292    29.790193 
163512000     290.2443    388.93146    339.62445   -236791.92    236861.65     49.30701    29.788954 
163516000    289.21335     473.2657    136.69374   -236824.82    236911.37    336.57196    29.790862 
163520000    288.17477    396.29404    346.05048   -236882.32    236995.07    50.243559    29.794676 
163524000    287.86722    278.12177    286.70434   -236939.26    237049.34   -8.5825718    29.795698 
163528000    256.39555     288.0651    264.45717   -236971.74     237097.8    23.607926    29.790781 
163532000    285.31846    375.47993    391.47573   -237027.79    237118.58   -15.995798    29.789151 
163536000    288.43369    463.49158    252.30423   -237089.26    237154.22    211.18735    29.782365 
163540000     260.3817    457.53144    370.83906   -237097.35    237195.38     86.69238    29.779724 
163544000    302.06932    450.98692    396.04299   -237143.62    237244.91    54.943933    29.780778 
163548000    279.67805    399.35888    247.08949   -237181.79     237304.9    152.26939    29.777585 
163552000    270.83707    380.37668    322.16787   -237195.72    237330.58    58.208812    29.781248 
163556000    274.76302    186.52197    257.66063   -237230.36    237344.45   -71.138656    29.783847 
163560000    273.23392    280.56608    337.19363   -237241.11    237349.92   -56.627543    29.784671 
163564000    309.05155    344.94886    376.28778    -237300.1    237389.17   -31.338925    29.787387 
163568000    297.97682    303.86168    283.10525    -237346.1    237446.54    20.756435    29.785475 
163572000    317.18118    267.74568    298.98962   -237408.22     237496.7   -31.243945    29.793003 
163576000    311.91643    246.08516    329.95456   -237430.53    237520.19   -83.869396    29.792094 
163580000    296.75061    456.33429    386.17032   -237462.32    237561.57     70.16397    29.792811 
163584000    302.20643    473.77185    280.33381   -237475.59    237580.12    193.43804     29.79923 
163588000    278.51275    238.85768    377.81452   -237494.86    237595.25   -138.95684    29.802834 
163592000    295.89658     166.3873    345.19468   -237522.47    237618.89   -178.80739    29.799697 
163596000    289.24759    497.93466     192.3171   -237600.97    237695.24    305.61757    29.807809 
163600000    288.54829      461.375    264.43364   -237656.96     237755.4    196.94135    29.809857 
163604000    291.06148    449.08969    447.05759    -237699.3    237793.25    2.0321029    29.801098 
163608000    239.35272    248.86408    167.37816   -237719.59    237860.11     81.48592    29.806038 
163612000    292.06907    252.28977    256.32076      -237812    237906.83   -4.0309878    29.803081 
163616000    256.38323    269.93233      155.748   -237862.47    237971.64    114.18434    29.807683 
163620000    300.09612    475.73312    275.79063   -237922.04    238007.59    199.94249    29.803057 
163624000    263.17179    394.36151    244.57183   -237957.41    238072.98    149.78968    29.805734 
163628000    300.48475    353.78002    428.80714   -238010.66    238106.58   -75.027113    29.803611 
163632000    264.74126    483.81294     317.4125   -238032.32     238126.7    166.40043    29.803017 
163636000    259.96287    199.79194    298.26662    -238078.1    238195.58   -98.474683    29.798105 
163640000    260.72408    259.11172    281.64554      -238083    238204.25   -22.533826    29.793326 
163644000    297.32126    218.91309    351.07085   -238116.49    238229.02   -132.15775    29.791338 
163648000    295.78694    401.57412    317.58631   -238132.21    238237.18    83.987811    29.789725 
163652000    277.43433    137.81097    362.31664   -238131.75    238244.38   -224.50566    29.786612 
163656000    277.80396     288.4345    355.99641   -238173.18    238293.95   -67.561918     29.77901 
163660000    268.49123    236.89172    280.45206   -238208.76    238316.23   -43.560346    29.780938 
163664000    305.60963     352.3247    271.87074   -238252.19    238351.34    80.453959    29.780352 
163668000    308.02864    571.78858    338.25517   -238285.85    238360.91    233.53341    29.778769 
163672000    296.37203    373.06492    504.74199   -238313.18    238407.71   -131.67707    29.778543 
163676000     271.9818    393.62896    454.34393   -238338.55    238445.14   -60.714967    29.775285 
163680000    274.33405    412.33942    306.12293   -238389.75    238488.62    106.21649    29.775189 
163684000    282.05341    242.69161    191.12924   -238387.49    238504.11    51.562372    29.771356 
163688000    294.25414     324.8003    247.41376   -238433.75    238533.01    77.386537    29.771438 
163692000    298.43037    240.19587    285.79206   -238460.98    238569.76   -45.596188    29.770916 
163696000    285.90769    492.41516    361.17003   -238475.52    238599.54    131.24513    29.773574 
163700000    276.32723    249.73121    238.42569    -238505.7    238621.59     11.30552      29.7664 
163704000    279.52802    310.09749    437.67669   -238528.03    238643.31    -127.5792    29.761306 
163708000    292.74722    358.72987    266.05704   -238554.61    238661.09     92.67283    29.760715 
163712000    277.00155    540.16244    354.04157   -238619.61    238734.07    186.12087    29.756986 
163716000    266.17002     195.8129     416.4268   -238664.97    238791.56    -220.6139    29.759925 
163720000    282.99118    521.83239    215.37319   -238708.18    238834.19     306.4592    29.757828 
163724000    256.07962    244.92246    279.79643   -238753.72    238869.19   -34.873973    29.760316 
163728000    257.16778    332.26046    257.65088   -238776.46    238907.43    74.609585    29.758184 
163732000    298.56771    267.32777    334.63898   -238836.15    238927.32   -67.311212    29.749428 
163736000    301.98106    566.69206    380.00007   -238878.22    238969.57    186.69199    29.747274 
163740000    253.06929    392.39818    344.92708   -238882.44    239003.05    47.471101    29.752467 
163744000     293.6764    196.51713    192.77924   -238940.79    239042.73    3.7378901     29.74853 
163748000    303.93435    474.50073    183.80181   -238966.03    239056.78    290.69892    29.741986 
163752000    270.98262    358.54519    382.86292   -238994.45    239112.08    -24.31773    29.744135 
163756000    271.30425    401.85214    447.48676   -239037.05    239145.58   -45.634614    29.749361 
163760000    283.22461    408.20739    321.15699   -239049.85    239143.85    87.050405     29.75009 
163764000    295.34289    316.68363     360.5876   -239075.39    239172.05   -43.903978      29.7546 
163768000    295.76973    461.25054    391.17233   -239127.21    239232.57    70.078209    29.749602 
163772000    277.84561    571.75399     302.2747   -239191.92    239315.02     269.4793    29.748569 
163776000    281.36373    573.86771    275.01581   -239196.66     239306.1     298.8519    29.745826 
163780000    276.39955    291.42925     457.6871   -239211.37    239321.15   -166.25786    29.744148 
163784000    275.70617    290.79372    223.61943   -239221.76    239327.01    67.174286    29.741517 
163788000    297.27807     558.9038    282.63144   -239230.24    239323.77    276.27236    29.740796 
163792000    257.31225    444.75657    134.47869   -239262.73    239383.35    310.27789    29.737539 
163796000    273.33573     210.2954    294.18217   -239308.01    239415.43   -83.886768    29.740446 
163800000    285.56723    344.50018    318.32712   -239349.92     239451.9    26.173052    29.740485 
163804000    272.68562     239.3251      362.833   -239347.44    239469.18   -123.50791    29.738134 
163808000    284.05938    240.05367    166.70276   -239403.24    239508.41    73.350903    29.739348 
163812000    299.34384    271.14329    363.35122   -239442.16    239548.75   -92.207932    29.737642 
163816000    308.62366    255.19512    426.72733   -239454.33    239550.13   -171.53222    29.736906 
163820000    277.36516     505.7254    272.56929   -239481.88    239592.65     233.1561    29.734719 
163824000    268.02509    356.06421    318.30144   -239552.42     239647.2    37.762768    29.735671 
163828000    291.19401    275.25967    294.73984   -239611.03    239713.49    -19.48017    29.732329 
163832000    297.32688    270.77403     423.5957   -239630.67    239738.06   -152.82168    29.731049 
163836000    285.51238     181.9096    461.01708   -239659.33    239769.28   -279.10748     29.73346 
163840000    299.42553    540.75898    300.64428   -239711.51    239800.01     240.1147    29.731931 
163844000    305.52835    275.60394    292.36201    -239756.3     239841.5   -16.758072    29.730587 
163848000    276.10497    281.16807    290.72384   -239752.84    239880.37   -9.5557721    29.730613 
163852000     277.6461    258.98203    257.18182   -239804.54    239906.99    1.8002105     29.73084 
163856000    282.15563    270.11877    211.83821   -239849.66    239948.46    58.280556    29.726204 
163860000     294.1807    331.75105    359.18783    -239888.1    239976.99    -27.43678    29.727481 
163864000     306.6569    235.18307    447.00259   -239905.33    240001.78   -211.81952    29.724684 
163868000    278.49262    265.40635    323.55272   -239939.37    240041.83    -58.14637    29.723415 
163872000    262.99548    167.81711    310.03479   -239984.71    240095.69   -142.21768    29.725606 
163876000    285.15934    551.29882    206.25437   -240013.25     240105.8    345.04445    29.727275 
163880000    306.00996    380.52479     483.6278   -240032.08    240122.74   -103.10301    29.724774 
163884000    262.34495    315.29715     219.0857   -240049.74    240177.47    96.211447    29.732048 
163888000    288.15374    273.00724    263.21038   -240112.12    240221.15    9.7968687    29.726337 
163892000    285.76989    357.49987    348.06659    -240166.9    240274.64    9.4332767    29.730356 
163896000    291.58422    398.54723    378.22649   -240209.74       240309    20.320745    29.731531 
163900000    301.65489    361.40296    382.56562   -240244.45    240336.03   -21.162662    29.732499 
163904000    306.56453    376.84487    277.69474   -240296.41    240378.33    99.150138    29.735899 
163908000    284.31636    340.26583    474.02592   -240327.93    240448.27   -133.76009    29.734056 
163912000    289.91921    396.50816    362.37664   -240384.15    240487.38    34.131516    29.732126 
163916000    275.74608    302.91314    360.97502   -240436.53    240537.07   -58.061882    29.737398 
163920000    303.87319    321.81808    321.80336   -240496.41    240580.89  0.014715772    29.742861 
163924000    302.49537     239.1283     165.9355   -240547.39    240631.52      73.1928    29.734717 
163928000    290.98111    431.13632    335.94961   -240561.21    240653.01    95.186708    29.734027 
163932000    273.36679    319.65662    420.81053   -240581.03    240702.38   -101.15391    29.732761 
163936000    280.40696    201.97167    450.02166   -240626.46     240739.6      -248.05    29.728282 
163940000    275.33046    275.37646    400.07036   -240671.26    240764.35    -124.6939    29.725137 
163944000    275.11685    236.14508    354.62006   -240676.94    240783.44   -118.47497    29.723405 
163948000    290.58827    494.45076    287.63609   -240732.64    240838.49    206.81467    29.725381 
163952000    265.33516    468.40583    304.93614   -240778.33    240902.43     163.4697    29.728728 
163956000     276.2889    494.79543    428.86372   -240808.84    240926.54    65.931706    29.730331 
163960000    269.65889    300.51048    184.90691   -240833.29    240939.98    115.60356    29.730975 
163964000    276.18625    335.70119    333.14901    -240871.7     240973.2     2.552175    29.729776 
163968000    264.00843    497.41143    242.51511   -240923.88    241041.94    254.89632    29.735273 
163972000    291.35003    286.76616    396.57582   -240976.34    241064.18   -109.80965    29.734136 
163976000    306.98035    333.03683     484.0799   -241033.87    241121.33   -151.04307    29.735103 
163980000    287.05877     352.9973     221.0479   -241044.91    241155.26     131.9494    29.729603 
163984000    289.33366    496.76738    494.59942   -241100.46    241196.27    2.1679673    29.726936 
163988000    295.98482    508.68685    223.89759   -241131.42    241231.29    284.78925    29.730359 
163992000    305.63906    253.98578    402.47241   -241182.69    241275.44   -148.48662    29.727265 
163996000    282.41502    367.59402    314.01412   -241250.31    241335.06    53.579898    29.730467 
164000000     296.7541    330.51182    210.77554   -241302.78    241396.68    119.73628    29.729919 
164004000     286.8834    561.00338    318.51226   -241299.49    241415.23    242.49112    29.731475 
164008000    256.92477    377.63069    173.36617   -241335.56    241450.86    204.26452    29.732899 
164012000    263.34206    500.07581     330.0493   -241338.56    241450.29    170.02652    29.730685 
164016000    262.35097    219.13402    297.49998    -241376.3    241477.63   -78.365969    29.729935 
164020000     279.4789    386.65758    380.21197   -241427.47     241538.1    6.4456046    29.726964 
164024000    276.71402    217.94442    402.36453   -241472.95    241586.69   -184.42011    29.729162 
164028000    279.09119     430.2849    253.23309   -241502.52    241608.39    177.05182    29.728025 
164032000    264.11502    182.90473    295.28538   -241496.55    241629.19   -112.38065    29.728423 
164036000    299.88323    406.58316    418.33535   -241536.16    241645.07    -11.75219     29.73195 
164040000    263.07002    357.56305    252.21788   -241570.13    241684.47    105.34518    29.733182 
164044000    299.59351    232.19163    405.09592   -241570.87    241663.42   -172.90429    29.728273 
164048000    290.15947     395.2023    239.28738   -241567.34    241665.89    155.91491    29.730281 
164052000    278.26047    352.83704    278.68419   -241590.18    241710.22    74.152847    29.724873 
164056000     291.6713    473.20622    237.56173   -241632.42    241732.54    235.64449    29.726304 
164060000    331.33965    566.64684    295.00676   -241683.13    241774.59    271.64008    29.725698 
164064000    300.87854    555.61457    429.33309   -241732.28    241831.83    126.28148    29.728786 
164068000    297.72341    304.44655    357.94304   -241762.64    241887.44   -53.496493    29.725522 
164072000    258.41882    278.36994    344.10666   -241802.11    241932.47   -65.736724    29.723402 
164076000    288.42345    350.39264    310.85205   -241842.79    241938.95    39.540591    29.718409 
164080000    290.29736    155.70185    309.52366   -241866.59    241969.75   -153.82181    29.718936 
164084000    307.09365    578.37117    312.38962   -241907.01    241998.11    265.98154     29.72236 
164088000    268.35091    356.86074    301.14731   -241931.91    242052.49    55.713431    29.718695 
164092000    280.20363    374.95066    319.81053   -241948.58    242065.46    55.140132    29.721214 
164096000    285.15157     206.8441    333.52891   -241983.58    242092.47   -126.68481    29.718096 
164100000    294.22196    420.59289    326.49665    -242013.2    242121.14    94.096242    29.719519 
164104000    286.98239    337.31573    453.11085   -242024.63    242151.88   -115.79512    29.716799 
164108000    254.18496    263.56498    269.25649   -242056.84    242170.05   -5.6915084    29.719231 
164112000    285.49907     334.6309    291.78754   -242093.04    242198.24    42.843368    29.719909 
164116000    269.64694    525.94476    250.01474   -242120.44    242220.65    275.93002     29.72022 
164120000    280.82519    531.74887    138.72707   -242154.67    242263.95     393.0218    29.719956 
164124000    300.79918    317.36399     211.3727    -242144.6    242258.94     105.9913    29.726782 
164128000    288.63536    288.41219    267.57272   -242147.61    242266.78    20.839474    29.727078 
164132000    252.33222    259.78407    376.18275   -242155.27    242258.07   -116.39867    29.723897 
164136000    293.29169    300.23997    292.87003   -242205.12    242306.63    7.3699382      29.7301 
164140000      291.109    283.51791    372.92707   -242228.24    242347.22   -89.409156    29.729092 
164144000     256.7088    176.99827    236.89866   -242237.26    242355.79   -59.900388    29.734543 
164148000    307.19641    342.80944    212.15567   -242278.63    242381.02    130.65377    29.732634 
164152000    291.99223    265.19657    309.75553   -242298.07    242396.85   -44.558965    29.728142 
164156000    290.14709    403.36532    302.90479    -242319.9    242438.46    100.46053    29.724303 
164160000    282.63455    251.20012    394.06351   -242341.08    242466.76   -142.86339     29.72553 
164164000    279.52355    238.43096     370.0455   -242360.36    242465.23   -131.61455    29.725732 
164168000    317.18781    282.87721    266.34558   -242387.13     242470.5     16.53163    29.730162 
164172000     314.5314    487.58255     164.5151   -242425.99    242530.01    323.06745    29.735074 
164176000    274.06814    295.36766    372.75361   -242439.16    242550.68   -77.385952    29.736685 
164180000    280.59007    413.02157    378.69764   -242454.35     242553.3    34.323938    29.733407 
164184000     318.5238    270.02016    263.94406   -242499.52    242577.74    6.0761034    29.741107 
164188000    294.96251    319.56977    418.52308   -242480.83    242571.88    -98.95331    29.743957 
164192000    275.08458    447.36384    246.10457   -242501.64    242609.02    201.25927    29.743129 
164196000    310.79427    426.90958    331.35078   -242506.33    242616.32    95.558795    29.747589 
164200000    257.21617    285.82758    346.51502   -242538.45    242666.22    -60.68744    29.742222 
164204000    261.07998    351.28672    305.22442   -242584.23    242717.96    46.062305    29.748555 
164208000    278.24303    203.56915     296.6457   -242632.12    242748.21   -93.076545    29.745625 
164212000    281.48896    456.73709    449.15908   -242678.55    242798.62    7.5780061    29.745026 
164216000      270.253    422.79204    328.67243   -242700.64    242828.51     94.11961    29.740986 
164220000    269.25795    300.90952    478.56367   -242735.97    242846.97   -177.65415    29.738514 
164224000    275.57101    380.45777    369.18415   -242762.16    242870.12    11.273622    29.740249 
164228000    277.40745    275.08929     388.3185   -242787.32    242907.26   -113.22921    29.741503 
164232000    277.82948      430.896     428.5615   -242821.38    242920.05    2.3344994    29.744557 
164236000    298.01813    461.28912    328.03245   -242884.35    242986.14    133.25667    29.745913 
164240000    298.41665    313.46003    225.15303   -242904.57    243010.61    88.306996    29.741682 
164244000    300.90463    300.40358    452.54773   -242932.35    243029.54   -152.14416    29.739684 
164248000    275.08562     413.8758      267.511   -242939.24    243056.68     146.3648    29.741811 
164252000    304.16361    351.02392    180.70437   -242958.28       243068    170.31955    29.743858 
164256000    303.21722    434.14617    378.41277   -242961.86    243076.54    55.733402    29.741765 
164260000    321.26348    331.95004    420.61913   -243020.01    243112.12   -88.669094    29.741553 
164264000    262.89474    234.24071    141.11001   -243028.09    243141.98    93.130695    29.743471 
164268000    280.37596    305.68827    192.60881   -243092.55    243195.32    113.07946    29.744694 
164272000    300.02264    433.83774    160.49618   -243107.72    243204.77    273.34156    29.749372 
164276000    256.94234    269.69913    278.97098   -243136.03    243252.72   -9.2718527      29.7498 
164280000    303.27774    402.74541    389.32923   -243139.68     243246.9    13.416179      29.7495 
164284000    287.57435    604.09542    249.59575    -243171.1    243275.27    354.49966    29.752508 
164288000    276.93745    491.40449    249.18086   -243207.07    243329.97    242.22363    29.755457 
164292000    272.79058    438.93746    410.32242   -243237.23     243337.6    28.615042    29.757214 
164296000    281.09095    323.18563    312.57992   -243272.29    243382.35    10.605704    29.759258 
164300000    269.02186    312.25085    350.72088   -243316.94    243425.18   -38.470035     29.75448 
164304000    284.77655    542.29242    390.35706   -243323.21    243430.98    151.93536    29.751363 
164308000    242.22817    281.44411     211.6319   -243313.67    243456.94    69.812216    29.750505 
164312000    290.19813    362.82878    140.72833   -243342.74    243444.84    222.10046    29.749744 
164316000    295.23369    418.43549    243.26098   -243345.64    243458.22     175.1745    29.753748 
164320000     285.4633    411.54304    379.48107    -243328.2    243434.33     32.06197    29.753441 
164324000    285.62693    458.39062    375.92475   -243361.94    243484.13    82.465871    29.752673 
164328000     295.5038      395.409    254.07229   -243380.85    243488.44    141.33671    29.756856 
164332000    273.10929    294.42404     274.9147   -243393.98    243502.97    19.509338     29.75612 
164336000    309.04176    474.51685    452.23625   -243426.35    243523.39      22.2806    29.753739 
164340000    279.39894    286.81087    379.54324   -243474.14    243573.82   -92.732374    29.750507 
164344000    320.07245    653.45167    232.61061   -243537.82    243620.25    420.84106     29.75319 
164348000    275.62162    370.00232    278.99929   -243535.27    243641.11    91.003033    29.755391 
164352000    299.92681    445.04824    246.37683   -243575.66    243675.18    198.67142     29.75776 
164356000    298.31619     275.0659    739.65532   -243609.71    243715.29   -464.58941    29.751918 
164360000     298.3677    212.95278    339.33758    -243645.2    243748.89    -126.3848    29.756574 
164364000     309.6051    364.79416    633.19759   -243715.52    243816.53   -268.40343    29.753594 
164368000    274.93699    256.05867    489.70608   -243760.51    243877.62   -233.64741    29.748445 
164372000    249.41699    322.95342    220.64055   -243819.27    243944.03    102.31288    29.743659 
164376000    282.77993    425.17487    477.39292   -243882.24    243987.15   -52.218047    29.742813 
164380000    260.65354    480.08137    163.36413   -243906.06    244033.15    316.71724    29.744468 
164384000    251.94681    249.13745    214.45137   -243979.56    244090.74     34.68608    29.744267 
164388000    276.76343    319.65096    378.64296   -244014.58    244124.91   -58.992007     29.74427 
164392000    267.93304    159.54085     312.7036   -244041.62    244167.52   -153.16275    29.745374 
164396000    272.80257    334.87827    347.15418    -244089.3    244207.97   -12.275909    29.742396 
164400000     293.9948    410.47192    326.20104    -244137.6    244244.59    84.270881    29.742858 
164404000    295.85297    338.21248    385.00247   -244210.65    244289.68   -46.789997    29.748308 
164408000    325.84921    345.16165    417.37187   -244263.98    244347.08   -72.210218    29.755372 
164412000    281.45358     270.8437    267.51773   -244317.72     244428.8    3.3259691    29.753329 
164416000    263.68914    276.44211    330.47622   -244332.77       244446   -54.034113    29.753957 
164420000    258.38228    221.10357    209.93141   -244344.45    244471.25    11.172157    29.755016 
164424000    294.20954    516.75659    290.82162   -244386.31    244484.24    225.93497    29.756056 
164428000    246.29863     478.4769    256.16642   -244391.22    244516.55    222.31049    29.760882 
164432000     280.2942    267.29821     498.4526   -244430.97    244552.82   -231.15439     29.76631 
164436000    278.41967    362.84181    324.49962   -244464.76    244586.62    38.342187    29.771113 
164440000    321.22463    403.39336    492.60376   -244513.87    244617.95   -89.210402    29.772471 
164444000    269.23996    360.88812    309.68878   -244526.21    244648.77    51.199338    29.768058 
164448000    306.67499    525.59888    212.64702   -244587.07    244667.39    312.95186    29.768851 
164452000    280.67846    204.34929    268.32522   -244597.34    244712.28   -63.975928    29.765416 
164456000    284.90126    377.86893     403.5596   -244641.46    244749.05    -25.69067    29.769824 
164460000    278.16087    219.98471    420.92291   -244675.81    244793.79    -200.9382    29.770482 
164464000      291.223    272.71606    402.22935   -244722.13    244833.93   -129.51329    29.765375 
164468000    268.54179    285.47525    380.74782   -244737.86     244857.2    -95.27257    29.761098 
164472000    303.74063    368.78708    411.52261    -244773.4    244882.45   -42.735523    29.762308 
164476000    286.16257    348.81437     451.5034   -244811.47    244920.47   -102.68903    29.764175 
164480000    297.03164     313.3573    317.82564    -244844.2    244944.29   -4.4683484    29.762991 
164484000    284.59188    398.82208    318.52522   -244869.42    244995.77    80.296856    29.763926 
164488000    300.12143    354.38331    300.36627   -244928.15    245030.47    54.017034    29.768498 
164492000    268.26576     252.0144    285.54013   -244919.89     245050.9   -33.525734    29.769309 
164496000    304.70737    327.72711    319.11814   -244952.71    245039.72    8.6089754    29.769149 
164500000    298.56574     333.6864    438.34306   -244981.23    245088.52   -104.65666    29.767654 
164504000    284.03485    276.43634    380.71455   -245021.94     245133.3   -104.27821    29.769337 
164508000    292.41239    88.799913    419.53311   -245046.85    245153.48    -330.7332    29.767045 
164512000    293.05247    290.66996    276.54185   -245071.87    245179.85    14.128114     29.76465 
164516000    275.97252     297.9266    352.10256   -245124.65     245240.3   -54.175958    29.764619 
164520000    284.95212    395.77348    309.79954   -245172.44     245278.2    85.973938    29.766021 
164524000    289.74435    474.61502    262.84839   -245231.58    245339.36    211.76663    29.766176 
164528000     308.8461    317.81821    431.18892   -245245.54     245323.2   -113.37071    29.766615 
164532000    293.94659    342.84731    197.88225   -245260.78    245355.77    144.96505    29.772318 
164536000    296.09801    337.99782    264.91404   -245291.89    245403.11    73.083779    29.770154 
164540000    292.94799    438.14292    263.63591   -245306.11     245419.7    174.50701    29.769357 
164544000    303.38059    321.79445    368.11208   -245384.01     245489.6   -46.317631    29.771648 
164548000    266.68214    468.80857    286.87989   -245434.97    245559.03    181.92867    29.769045 
164552000    287.46867     475.5202    500.78133   -245442.07    245558.24   -25.261128    29.769562 
164556000    286.34616    218.46883    363.08395   -245491.09    245595.73   -144.61512    29.762178 
164560000    272.10022    304.30523    294.28029   -245511.79    245622.28    10.024939      29.7602 
164564000    285.32012    180.31602     537.0181   -245554.77    245660.22   -356.70209    29.755503 
164568000     328.5755    361.30206    321.66256   -245605.22    245713.79    39.639504    29.750694 
164572000    314.89413    477.15618    531.92655   -245610.22    245712.33   -54.770379    29.756699 
164576000    288.25209    331.55786    163.98476   -245633.31     245747.9    167.57311    29.755311 
164580000    286.21435    520.97818    377.16375   -245680.08    245799.21    143.81443    29.755601 
164584000    292.94056    384.33691    428.04936   -245716.86    245807.66   -43.712453    29.752189 
164588000    307.59613    208.47622    305.08515   -245718.16    245820.18   -96.608932    29.753289 
164592000     283.9028    322.28481    330.14867   -245764.81    245859.52   -7.8638613    29.754549 
164596000    285.19053    493.09656    389.40104   -245765.77    245899.74    103.69552    29.753458 
164600000    254.50229    459.17802    201.05055   -245779.37    245902.25    258.12747    29.757195 
164604000    300.08325    379.15269    493.27153   -245850.01    245952.54   -114.11884    29.751681 
164608000    272.01416    518.07741    257.69592   -245911.51     246020.5     260.3815    29.753008 
164612000    300.36727    617.74023     466.1755   -245973.84    246071.27    151.56473    29.746453 
164616000    268.23395    208.86248    356.08567   -246016.68    246128.38   -147.22318    29.743578 
164620000    281.04042    216.37755     350.4553   -246079.74     246185.6   -134.07774    29.737763 
164624000    268.62925    368.46517    382.21562   -246123.98    246243.33   -13.750447    29.741248 
164628000    266.99456    229.59589    274.79215    -246185.4    246309.62   -45.196254    29.743018 
164632000    273.83837    217.86721    438.82996   -246218.66    246336.93   -220.96275    29.744354 
164636000    307.21648    274.21427    506.96714   -246262.04    246359.91   -232.75288    29.740644 
164640000    271.50911    455.85509    235.37284   -246291.07    246411.31    220.48225    29.744001 
164644000    300.95367    320.00265    311.97272   -246331.36    246433.48    8.0299344    29.741465 
164648000    305.02777    328.54443    552.31783   -246398.56     246491.3   -223.77339    29.735751 
164652000    261.26071    238.30251    321.77029   -246391.53    246526.96   -83.467782    29.735324 
164656000    273.66316     413.5315    337.17995   -246455.75    246584.81    76.351553    29.733116 
164660000    266.26245    256.45849    319.44814   -246485.82    246624.38   -62.989646    29.732319 
164664000     268.8093    316.63985    211.88027   -246513.06    246636.47    104.75957    29.734142 
164668000    261.61244    463.79661    272.48597   -246571.15    246709.62    191.31064    29.736621 
164672000    260.18864     348.1866    154.54424   -246617.92    246725.55    193.64236    29.734454 
164676000    299.02628    352.16593    154.63899   -246671.46    246777.29    197.52694    29.736152 
164680000    264.60496    199.68228    241.71934   -246695.64    246828.23   -42.037057    29.735255 
164684000    306.34657    402.35495    337.30302   -246763.27    246866.91    65.051935    29.734973 
164688000    277.37278    354.42779    378.08304   -246782.06    246893.85   -23.655247    29.731919 
164692000    290.33989    372.77842    345.75059    -246836.4    246948.71    27.027831    29.726578 
164696000    272.76427    414.77231    340.76994    -246862.4    246975.23    74.002369    29.726375 
164700000    280.35237    228.49585    258.77967   -246864.43    246962.97   -30.283825    29.732832 
164704000     268.9351    461.97585      233.181    -246885.9    246987.59    228.79485    29.733635 
164708000    279.21468      201.548    193.92237   -246902.49    247016.74    7.6256308    29.732534 
164712000    280.24733    376.34206    230.83877   -246958.47    247071.57    145.50329    29.729485 
164716000    259.38915    235.74345    278.88244   -246991.83    247110.27   -43.138993    29.731415 
164720000    257.68865    362.99621      299.018   -247044.07    247166.75    63.978217    29.728657 
164724000    261.48913    294.78794    386.31651   -247084.17    247205.35   -91.528566    29.726874 
164728000    267.43634    189.18467     326.3177    -247103.2    247221.96   -137.13302    29.725971 
164732000    271.23156    454.33043    281.45605   -247122.96     247221.5    172.87438    29.725156 
164736000    290.05474    296.88376    285.76338   -247158.59    247266.95    11.120382    29.726148 
164740000    288.47326    473.26514    313.65513   -247214.18    247314.63    159.61001    29.723713 
164744000    299.15629    379.73356    370.67495   -247243.71     247359.6    9.0586054     29.72095 
164748000    308.61414    278.39793    517.79745   -247287.49    247370.71   -239.39952    29.718957 
164752000    287.35183    476.48812    276.74549   -247299.26    247427.65    199.74264    29.720256 
164756000    276.41046    450.61639     318.9253   -247330.28    247437.22    131.69109     29.71588 
164760000    262.36786     171.9821    329.46143   -247330.04    247454.52   -157.47933    29.719597 
164764000    275.74944    277.61272    259.37613    -247334.9    247453.32    18.236595    29.718362 
164768000    299.33522    316.13702    175.59242   -247373.02    247469.11    140.54461    29.720243 
164772000    300.68997     432.2753    250.13115   -247399.86    247490.13    182.14415    29.722237 
164776000    286.40277    289.65712    394.71553   -247438.31    247550.55   -105.05841    29.716527 
164780000    281.44112    285.06782    283.43619   -247463.74    247557.57    1.6316243    29.712319 
164784000    275.09952    344.02991    294.09814   -247478.97    247587.06    49.931768    29.710102 
164788000    276.60648      196.395     512.1325   -247497.76    247612.01    -315.7375    29.705465 
164792000    283.15062    509.67601    387.69561   -247539.29    247649.58     121.9804    29.709095 
164796000    279.86459    277.13282    388.27186   -247558.54    247676.47   -111.13904    29.710743 
164800000    281.86885    439.45264    404.33687   -247576.49    247702.99    35.115771    29.708123 
164804000    283.50326    245.00401    881.73496    -247635.5       247740   -636.73095    29.706816 
164808000    297.63155    525.15583    279.15044   -247657.12    247763.27    246.00539    29.707705 
164812000    261.07321    322.99703    158.81758   -247680.47     247789.9    164.17945    29.703647 
164816000    286.15412    332.74761    375.38837   -247693.92    247808.07   -42.640762    29.701845 
164820000     251.9073    342.34869    414.40095   -247703.87    247830.71   -72.052255    29.706069 
164824000    266.57667    359.94087    210.29274    -247730.6    247864.73    149.64813    29.709027 
164828000     292.1717    281.75644      332.628   -247806.86    247891.91   -50.871557    29.705733 
164832000    274.55055    360.57629    407.01777   -247821.35    247932.28   -46.441472    29.707552 
164836000    290.68779     300.8792    244.68787   -247855.75    247955.29    56.191333    29.712912 
164840000    292.98851    337.24429    235.71361   -247877.09    247977.71    101.53067    29.712082 
164844000    290.36384    362.75797    204.25115   -247920.36    248032.19    158.50682    29.712353 
164848000    275.21819    289.46098    191.02311   -247918.97    248036.36    98.437869    29.714785 
164852000    298.91007    355.27163    234.29202   -247977.66    248074.96    120.97961    29.716927 
164856000    286.55196    392.63743    319.00781   -248002.36    248118.36    73.629624    29.722799 
164860000    274.60865    252.28757    216.71907   -248025.66    248139.26    35.568499      29.7243 
164864000    293.11623    293.36937    356.17509   -248053.11    248158.22   -62.805718    29.722606 
164868000    290.43135    356.63753    351.53366   -248098.08    248195.14    5.1038699    29.720926 
164872000    300.41424    322.47517    392.42713   -248140.46    248229.93   -69.951964    29.717496 
164876000    288.58618    159.37209    324.31817   -248168.03    248290.18   -164.94608    29.714954 
164880000    293.29737    322.03243    409.14826   -248245.66    248357.56   -87.115829    29.712521 
164884000    252.96753    495.24968     291.4829   -248279.51    248415.53    203.76678    29.711643 
164888000    280.39731    371.06519    241.53397   -248302.42    248433.33    129.53122    29.716446 
164892000    294.27867    287.80133    249.67112   -248331.62     248442.2    38.130201    29.719427 
164896000    296.83546    250.39253    323.33735   -248363.02    248462.71   -72.944818     29.72131 
164900000    295.41932    245.02453     292.5165   -248403.95    248491.77    -47.49197    29.728295 
164904000    268.59042    553.98252    261.62846   -248393.62    248517.12    292.35406    29.723612 
164908000    296.12835    563.07093    265.01972   -248408.27    248537.89     298.0512    29.724634 
164912000    283.39492     412.0845    441.28284   -248465.92    248567.45   -29.198344    29.722375 
164916000    268.58155    317.08567    240.16108   -248492.09     248614.3    76.924598    29.724942 
164920000    306.36202    395.45879    170.42575    -248523.8    248629.38    225.03304     29.72668 
164924000    246.38823    307.92249    236.47726   -248552.17    248682.46    71.445228    29.721641 
164928000    298.25836    266.84852    279.37287   -248598.81    248720.24   -12.524358    29.718617 
164932000    296.34133    341.27557      400.196   -248626.91    248749.89   -58.920438    29.720777 
164936000    272.20412    368.35022    228.34692   -248675.74    248796.44     140.0033    29.716757 
164940000    252.49266    319.95214     377.6008   -248742.74    248880.38   -57.648667    29.715602 
164944000    296.40587    353.68906    288.50075   -248772.88    248892.37    65.188313    29.715979 
164948000    291.73717    509.05031    465.03787   -248809.16    248920.14    44.012442    29.715744 
164952000     273.0327    271.18299    244.79625   -248826.65    248946.89    26.386741     29.71569 
164956000    268.22598    261.33578    253.84044   -248908.44    249024.27    7.4953448    29.710025 
164960000    295.43278    307.91145    221.17601    -248952.4    249057.73    86.735442    29.711812 
164964000    269.60775    252.49561    241.65364   -248990.89    249098.89    10.841971    29.708014 
164968000    318.41033    353.49997    260.59519   -249030.93    249120.54    92.904779    29.708867 
164972000    285.21766    302.23746    401.62333   -249077.83    249181.55   -99.385872    29.707675 
164976000     274.0805    324.75338    334.63408   -249087.49    249209.23   -9.8807006    29.707962 
164980000    297.80817    563.68063    309.47421   -249155.62    249277.57    254.20642    29.703866 
164984000    269.07006    309.15869    191.89962   -249212.29    249316.13    117.25907    29.702408 
164988000    261.98886    386.60849    166.83799   -249235.53    249347.78     219.7705    29.699286 
164992000    268.45717    397.83758    367.98368   -249235.87    249360.97    29.853903    29.699907 
164996000    255.05145    217.35918    294.93809   -249281.77    249405.18   -77.578907    29.700484 
165000000    289.94716    363.51633    352.71538   -249308.09    249414.97    10.800951    29.700753 
165004000    290.58223    368.06091    570.45372   -249353.19    249468.26   -202.39281    29.702449 
165008000    286.18265    361.74914    368.67712   -249371.44    249498.82   -6.9279851    29.699186 
165012000    253.92764    219.58742    267.71391   -249369.53    249502.82   -48.126488    29.702907 
165016000    300.38515    365.45145    514.35904    -249425.7    249528.47    -148.9076     29.69913 
165020000    301.82304     286.3313    282.15006   -249450.88    249574.08    4.1812416    29.704639 
165024000    297.15047    389.05269    317.33255   -249494.21    249596.74    71.720138    29.711707 
165028000     283.2323    304.06491    290.53559   -249517.79    249636.36     13.52932    29.712602 
165032000    281.56685    369.12977    200.22759   -249565.36     249701.4    168.90218    29.710455 
165036000    291.89286     328.7801    317.63676   -249643.71    249756.11    11.143333    29.706783 
165040000    308.62712    367.20777    302.47795   -249708.98    249787.95    64.729815    29.711128 
165044000     273.1533    316.46612    343.90913   -249741.84    249853.01   -27.443019    29.712566 
165048000    277.08014     408.7443    471.89735   -249748.47    249881.87   -63.153048    29.709436 
165052000    288.26894    478.32297    394.75146    -249791.6    249905.79    83.571514    29.707767 
165056000    280.86962    350.43302    341.88379   -249824.83    249942.32      8.54923    29.707927 
165060000    296.93196    357.04316    419.10433   -249910.73    250007.04   -62.061165    29.707762 
165064000    313.86772    486.01727    229.41644   -249961.73    250051.95    256.60083    29.707465 
165068000    296.07445    237.43461    214.23469   -249990.21    250102.59    23.199913    29.709716 
165072000    274.14817    376.24122    439.29684   -250043.15    250156.82   -63.055622     29.70665 
165076000    290.71744    129.11557    365.63777   -250108.31    250203.55   -236.52219     29.70412 
165080000    283.59827    259.05565      271.843   -250158.95    250258.04   -12.787343    29.707562 
165084000    269.01033    442.24831    401.26633   -250190.79    250290.16    40.981975    29.707164 
165088000    275.74918    303.82064    277.92585   -250200.54    250316.26    25.894781     29.71044 
165092000    297.59553     369.9453    626.15899   -250253.55    250367.29    -256.2137    29.713036 
165096000    282.57622    335.05825    332.77264   -250287.23    250397.83    2.2856088    29.716508 
165100000     267.4876    398.71669    265.12182   -250314.68    250436.27    133.59487    29.714498 
165104000      296.698    358.06095    495.13794   -250347.54    250441.16   -137.07699    29.719584 
165108000    280.17329    325.64498    335.96518   -250347.09    250467.39   -10.320208     29.72263 
165112000    288.28281    488.24546    439.74777   -250396.78    250489.14    48.497688    29.725893 
165116000    280.87053    267.85983    465.26083   -250430.53    250560.28     -197.401     29.72205 
165120000    274.68612     430.1613    260.13464   -250482.66    250595.99    170.02666    29.723001 
165124000    291.57238    402.47162    310.82249   -250515.11    250625.89    91.649129    29.721713 
165128000    292.98685    357.89657    273.57747   -250566.12    250669.13      84.3191    29.719383 
165132000    308.81469    241.17496    454.14943    -250604.2    250665.66   -212.97447    29.721154 
165136000    288.02656    256.89171    219.40678   -250636.98    250737.92    37.484936    29.720553 
165140000    267.68077    329.69387    240.85285   -250700.89    250801.91    88.841021    29.717515 
165144000    282.69929    364.12277    221.35613   -250738.49    250855.01    142.76664    29.720997 
165148000    286.97869    348.15248    289.01776   -250801.11    250895.78    59.134715    29.721725 
165152000    265.52621    289.52749    237.57946   -250810.82    250929.41     51.94803    29.723042 
165156000    279.89705     402.7584    291.17801   -250858.47    250975.12    111.58038    29.720305 
165160000    298.77194    649.60221    201.21431   -250928.21    251013.19     448.3879    29.718663 
165164000    269.59968    425.02556    330.97776   -250970.99    251081.06    94.047803    29.713173 
165168000    248.34693    197.67491    142.16152   -250980.87    251122.04    55.513393    29.710472 
165172000    260.79394    340.42495    449.59317   -251007.34    251135.74   -109.16822    29.706378 
165176000    288.39908    219.56795    384.23815   -251028.32    251138.21    -164.6702    29.707765 
165180000    281.31645    254.31481    365.32653   -251034.03    251147.87   -111.01172    29.707464 
165184000    271.99715    506.53007    385.64173   -251112.56     251237.7    120.88834    29.703602 
165188000    275.10903    228.93523    305.70272   -251140.83    251253.81   -76.767496    29.698467 
165192000    317.07908    388.13681    222.97572   -251207.88    251303.93    165.16109    29.697334 
165196000     271.7284    578.13163    214.78057   -251202.69    251317.84    363.35106    29.698311 
165200000     293.7985    142.27988    246.57255   -251243.44    251357.39   -104.29267    29.695097 
165204000    287.56465    409.43198    166.79234   -251278.23    251389.16    242.63965    29.700976 
165208000    260.49486    321.68485    351.52976    -251307.8    251444.05   -29.844913    29.695665 
165212000     268.1049    342.26471    198.98938    -251379.6    251497.61    143.27533    29.697898 
165216000    259.99708    472.20193    420.07017   -251398.63    251511.91    52.131756    29.698808 
165220000    293.79595    423.68718    303.26608   -251456.17    251544.98     120.4211    29.704359 
165224000    289.45407    428.08413    272.35294   -251517.09    251616.61    155.73118    29.701439 
165228000    277.72627    368.25867    387.55852   -251521.01     251625.1   -19.299847    29.707519 
165232000    279.15788    371.94945    318.38291   -251564.16    251677.31    53.566543    29.705524 
165236000    271.88973    329.79048     204.4032   -251595.25    251730.64    125.38727    29.706319 
165240000    286.34015    339.82686        313.1    -251652.5    251754.31    26.726863    29.709958 
165244000    268.95606    346.29251    361.72517   -251702.74    251820.23   -15.432657     29.70616 
165248000    296.20007    390.03874    313.30354   -251750.31    251846.62    76.735202    29.704739 
165252000    290.03163    302.95027    323.21962   -251818.26    251920.14   -20.269353    29.702147 
165256000    303.85512    370.63768    409.00926   -251845.61    251935.05   -38.371576     29.70233 
165260000    286.64333    342.98437    356.05194   -251846.77    251966.44   -13.067577    29.699727 
165264000    277.88064     379.7222    353.22874      -251877     252000.1    26.493464    29.694791 
165268000    303.20748    221.31252    458.95744   -251914.45    252020.49   -237.64492    29.695511 
165272000    245.02183    437.90793    200.44874   -251909.05    252050.88    237.45919     29.69655 
165276000    296.81802    375.73654    257.02536   -251957.21    252074.84    118.71118    29.699983 
165280000    293.11647    233.87496    439.08833   -251986.84    252110.29   -205.21337    29.698521 
165284000    267.04951    319.02503    254.08662   -251985.02    252103.71    64.938414    29.691293 
165288000    263.38224    350.92544    289.20437   -252036.27    252166.67    61.721071    29.695618 
165292000    293.84045    388.28511    271.24821   -252099.79    252234.11     117.0369    29.695427 
165296000    284.82878    360.06649    244.06539   -252125.74    252249.03    116.00109    29.696193 
165300000    278.46844    370.42684    442.32922   -252200.28    252309.53   -71.902376    29.693386 
165304000    278.17736    410.70622    304.31196   -252227.63    252341.19    106.39425    29.694504 
165308000    275.32888    266.89299    368.73793   -252233.58    252355.68   -101.84495    29.691226 
165312000    265.60735    382.39296    404.41585   -252277.83    252394.66   -22.022893    29.690676 
165316000      286.038    204.71785     619.8588   -252312.27    252428.26   -415.14096    29.685745 
165320000    285.44007    501.54528    409.72023   -252356.32    252452.69    91.825053    29.685729 
165324000    299.06771     449.3727    465.55582   -252371.13    252472.93   -16.183127    29.683149 
165328000    309.85304    420.43188      524.847   -252416.46    252512.37   -104.41512    29.682276 
165332000    267.61518    295.36671    361.06401   -252431.17    252554.28     -65.6973    29.681736 
165336000     257.5226     275.2422    243.77357   -252464.63    252596.89    31.468628    29.686252 
165340000    283.97146     571.6582    246.50668   -252471.54    252598.85    325.15152    29.687242 
165344000    265.75856    373.30808    370.57872    -252535.5     252650.1    2.7293606    29.689088 
165348000    272.82079     271.5908    306.07968   -252540.66    252662.24   -34.488884    29.692279 
165352000    296.86142     309.1095    298.93841   -252603.13    252724.42    10.171085     29.69416 
165356000    272.70705    383.40806    456.43242   -252625.14    252756.71   -73.024359    29.695002 
165360000    264.43677    338.72501    173.43296   -252681.67     252813.1    165.29205    29.694702 
165364000    298.97845    210.16814    325.83517   -252734.71     252834.4   -115.66703    29.693463 
165368000    272.01474    291.24385    195.84694   -252770.72    252887.46    95.396915    29.695303 
165372000     285.4058    439.44313    448.74091   -252819.62    252937.59   -9.2977857    29.694795 
165376000    271.62976    440.96864    212.10336   -252840.17    252953.15    228.86528    29.694853 
165380000    284.23171    258.45341    358.44642   -252899.97    253005.65   -99.993011    29.693384 
165384000    267.28836    355.54306    467.94664   -252923.23    253040.76   -112.40359     29.69534 
165388000    278.57121    299.43353    471.07308   -252964.32     253071.8   -171.63955    29.692929 
165392000    293.21141    264.35965    366.87544   -253017.55    253121.79   -102.51579    29.690651 
165396000    291.06553    474.71384    299.50824   -253070.31    253170.97    175.20561    29.700374 
165400000    304.17938    348.01479    415.13562   -253104.03     253215.2   -67.120838    29.695543 
165404000    276.29871    243.69622    435.19678   -253181.19    253293.92   -191.50056    29.694673 
165408000    302.34037    369.20154    309.52638   -253225.52    253344.69    59.675165     29.69142 
165412000    278.83814    414.97249    267.93458   -253275.91     253383.6     147.0379    29.693308 
165416000    277.36999    352.56218    466.16731   -253287.73    253408.04   -113.60513     29.69269 
165420000    288.00451    449.27569    261.49489   -253300.42    253412.58    187.78079    29.689035 
165424000    297.14765    443.06172     342.2966   -253318.13    253425.31    100.76512    29.693892 
165428000    303.61641    521.94231    285.98609    -253330.8    253443.48    235.95623    29.693408 
165432000    291.86419    381.38866    458.86893   -253349.77    253465.49   -77.480272    29.693047 
165436000    293.60713    454.80621    169.44248   -253441.54    253546.36    285.36373    29.692404 
165440000    304.12942    484.82157    394.87241    -253502.5    253601.11    89.949162    29.695356 
165444000    290.24131    475.37046     444.5177    -253579.3    253693.21    30.852765    29.696692 
165448000    268.60846     349.1614    267.54618   -253631.24    253737.56    81.615229    29.696373 
165452000    286.92889    372.27982    445.21301   -253662.18    253761.67   -72.933191    29.700526 
165456000     292.0505    348.41427    297.35377   -253686.26    253794.43    51.060495    29.696749 
165460000    230.95861    201.95811    438.01302   -253702.71    253853.92   -236.05491    29.700742 
165464000    267.51679    318.08243     473.9519   -253764.91    253889.11   -155.86947    29.702329 
165468000    284.19304    489.78119    276.24352   -253809.38    253926.36    213.53767    29.703571 
165472000    277.99737     246.0544    193.36991   -253825.89    253935.08    52.684485    29.706512 
165476000    287.39755    340.81184    476.58616   -253839.93    253954.64   -135.77431    29.704317 
165480000    282.06847    304.32001     212.1103   -253876.48    253991.57    92.209709    29.704712 
165484000     277.9072    302.97447    497.18166   -253904.29    254019.23   -194.20719    29.707878 
165488000    280.20239    386.99577     324.5775   -253936.11    254042.96    62.418266     29.70271 
165492000    275.50565    245.49679    371.82057   -253966.02    254077.05   -126.32378    29.700469 
165496000    274.74082    364.20804    276.23275   -253997.36     254133.7    87.975282    29.700087 
165500000    278.20319    268.38461    196.72293   -254037.84    254143.41    71.661679     29.70403 
165504000    267.54358    318.29394    205.89576   -254060.45    254185.73    112.39818    29.706779 
165508000    297.69823    171.08497    207.12602   -254144.36    254247.12   -36.041048    29.706002 
165512000     269.5379    270.50917    336.89334   -254171.03    254303.41    -66.38417    29.706424 
165516000    281.25249    343.40148     329.7174   -254207.07    254325.37    13.684075    29.701923 
165520000    286.67657    240.75847    303.96882   -254245.35    254335.54   -63.210353    29.701866 
165524000    286.96643    573.46173    297.21768   -254271.61    254367.92    276.24406    29.704865 
165528000    283.17587    231.77436    321.43587   -254299.23    254412.27   -89.661511    29.704932 
165532000    289.67392    379.30047    290.69087   -254350.81    254454.66    88.609601     29.70811 
165536000    245.73107    408.00515    451.76491   -254411.18    254536.23   -43.759757    29.704477 
165540000    265.49563    549.05743    323.16813    -254458.5    254581.39     225.8893    29.704377 
165544000    297.22654     236.5257    280.89192   -254520.91    254626.81   -44.366217    29.704599 
165548000     242.7971    403.39398    246.86594   -254536.28    254688.31    156.52804    29.704453 
165552000    262.01961    246.51906     320.9416   -254557.54    254698.77   -74.422539    29.700005 
165556000    260.20631    253.25189    174.26618   -254571.18    254697.62    78.985709    29.698698 
165560000    272.16967    240.83326    506.09782   -254650.67    254780.62   -265.26456    29.694675 
165564000     319.5496    340.22312    323.68694   -254710.79    254802.93    16.536174     29.69666 
165568000    285.36909    347.59398    324.21141   -254724.61    254826.17    23.382562    29.695895 
165572000    255.97307     256.0759    370.39018    -254724.4    254863.21   -114.31428    29.694795 
165576000    271.00284    366.02623    377.28921   -254759.03    254866.11   -11.262979    29.696264 
165580000    280.87684    290.44572    337.53469   -254794.78    254915.98   -47.088969    29.696674 
165584000    300.64421    358.82638    439.49672   -254867.04    254967.11   -80.670348    29.698414 
165588000    286.11379    373.53141    212.67439   -254922.16    255020.24    160.85702    29.695099 
165592000    280.00974     352.9018    389.63713   -254953.44    255053.32   -36.735329    29.697985 
165596000    255.55463    200.56703    437.07731   -254999.97    255119.92   -236.51028    29.696394 
165600000    258.49023    278.87699    308.45773   -255015.32     255144.9   -29.580741    29.697215 
165604000    277.48039     336.1051    338.31057   -255045.04    255159.42   -2.2054708     29.69537 
165608000      260.648    229.66738     251.5481   -255071.38    255197.05   -21.880721    29.697368 
165612000    280.93511    376.70551    390.47465   -255110.99    255237.19   -13.769141    29.696533 
165616000    239.08186    343.85182    189.69854   -255107.74    255267.48    154.15328     29.69594 
165620000    271.79996     371.9139    186.18625   -255160.57    255292.11    185.72765    29.699677 
165624000     297.3812    422.22956     312.1969   -255215.96     255315.8    110.03265    29.697117 
165628000    323.50365     501.1287    193.63313   -255254.22    255354.59    307.49557    29.694427 
165632000    290.04847     308.9463    260.89692   -255279.89    255387.57    48.049387    29.694306 
165636000    272.94227    214.58799    593.88225   -255313.44    255415.55   -379.29426     29.68684 
165640000    292.11387    338.34356    345.35145   -255354.62    255471.01    -7.007884    29.684684 
165644000    289.32456     365.8048    216.90784   -255390.56     255478.8    148.89696    29.683987 
165648000    291.33989    292.92306    349.72941   -255396.23    255502.32    -56.80635    29.686095 
165652000    282.88299    637.00167    326.75199   -255427.68    255554.26    310.24968    29.687453 
165656000      283.399    288.06619    355.16518   -255449.39    255563.89   -67.098996    29.685868 
165660000    292.76719    264.31775    625.47543   -255469.18    255574.64   -361.15768    29.686965 
165664000    308.86016    272.07203    374.79525   -255502.71    255612.06   -102.72322    29.684151 
165668000    296.07239    290.05581    254.35092   -255499.72    255626.18    35.704889    29.687001 
165672000    283.28015    287.55259    242.17737   -255561.79    255689.91    45.375217     29.68808 
165676000    301.59317    411.81899    481.99832   -255632.65    255729.08   -70.179329    29.686435 
165680000    279.39616    354.40313    203.61874   -255656.44    255770.21    150.78439    29.689302 
165684000    254.95911    301.82415    203.06339    -255697.6    255809.23    98.760758    29.690553 
165688000    247.94466    253.49804    179.59708   -255728.74    255860.89    73.900959    29.691219 
165692000    320.35512    400.39158    284.69604   -255788.06     255876.6    115.69554    29.690724 
165696000    284.79427    286.14053    424.22824   -255814.04    255910.67    -138.0877    29.692438 
165700000    270.60253    481.35003    365.08452    -255832.7     255953.6     116.2655    29.693127 
165704000     278.4742    479.17645    243.98028   -255871.84    255978.43    235.19617    29.698621 
165708000    265.96327    269.18221    315.07179   -255914.47    256025.46   -45.889576    29.702461 
165712000    283.16623    394.62312    525.49262   -255945.16    256062.52    -130.8695    29.701075 
165716000    276.22425    492.78006    375.90782   -255985.45    256105.84    116.87224    29.695631 
165720000    304.25068    438.18242      346.443   -256018.17    256122.09    91.739416    29.699346 
165724000    263.80095    292.33257    302.04879   -255999.96    256143.13     -9.71622     29.69837 
165728000    288.84191     314.6065    246.16765    -256059.5    256172.99    68.438847    29.701081 
165732000    298.39066    385.62411     363.1739   -256094.01     256194.5    22.450213    29.700998 
165736000    278.96117    427.27605    253.42477      -256127    256241.22    173.85128    29.700246 
165740000    283.88773    487.15195    285.32925   -256165.12    256277.43     201.8227    29.697469 
165744000    275.56882    461.53687    231.70482   -256174.36    256298.44    229.83206    29.696522 
165748000    284.44503    542.64621    329.79947   -256211.82    256329.47    212.84675    29.700908 
165752000    275.51091    497.88959    225.46007   -256238.67    256356.18    272.42952    29.699186 
165756000     279.2045    280.71832    492.73059   -256265.15    256399.64   -212.01227    29.696485 
165760000    317.20034    455.69122    195.42857   -256294.27    256399.38    260.26265    29.699726 
165764000     262.7203     369.1437    324.21084   -256318.65     256445.5    44.932865    29.698642 
165768000     300.7469    353.02724    291.48862   -256366.89    256483.24    61.538627    29.698434 
165772000    291.57623    373.69173    336.06981   -256407.96    256520.16    37.621921    29.698286 
165776000    281.86951    249.33917    239.47269   -256409.44     256527.8     9.866479    29.700753 
165780000      317.922    342.76606    337.63264   -256435.16    256516.68    5.1334203    29.699814 
165784000     290.2432     290.5871    221.60089   -256450.98    256544.26    68.986208    29.702263 
165788000     279.9868    369.57106    393.31037   -256467.12    256583.87    -23.73931    29.699936 
165792000    286.45274    419.54136    306.84032   -256502.82    256611.02    112.70104     29.69937 
165796000    284.77856    245.17272     323.9324   -256526.94    256639.29   -78.759686    29.698448 
165800000    285.51166     381.7374     514.9605   -256567.63    256689.93    -133.2231    29.695581 
165804000    260.08231    266.12816    338.14816   -256571.02    256694.71   -72.019992    29.698317 
165808000    305.01788    603.77619    326.79823   -256630.24    256715.02    276.97795    29.702014 
165812000    300.41429    407.36346    479.48992   -256656.31    256770.76    -72.12646    29.707111 
165816000    293.17957    302.66519    453.98057    -256688.9    256787.53   -151.31538    29.703437 
165820000    289.78787     380.7072    222.97665   -256723.16    256846.04    157.73055    29.706649 
165824000    269.07348    290.34608    148.84833   -256768.56    256896.38    141.49776    29.705687 
165828000    265.55077    593.75093    255.01251   -256816.64    256947.68    338.73842     29.71043 
165832000     293.5373    477.00389    416.98886   -256854.29    256949.24    60.015034     29.70837 
165836000    301.21076    461.37756    186.59659   -256904.22    257000.33    274.78097     29.71176 
165840000    284.55875    423.40029    395.54906   -256946.04    257067.63    27.851226    29.711314 
165844000    280.71791    443.08422    229.70975   -256956.62    257074.65    213.37447    29.708404 
165848000    264.20465    190.57213    158.63355   -256954.37    257094.61    31.938582    29.711114 
165852000     278.7843    343.20484    223.28369   -256973.27    257105.31    119.92115    29.710599 
165856000     282.7101    215.38627    278.83476   -257030.77    257137.53   -63.448488    29.709784 
165860000     296.9975    379.29879    279.83362    -257048.4     257151.6    99.465166     29.71644 
165864000    279.16318    553.00009    356.09718   -257069.51    257193.62     196.9029    29.714533 
165868000    280.46083     215.8665    284.37026    -257103.7     257210.7   -68.503756      29.7104 
165872000    259.86742    194.66478    402.64227   -257134.61    257260.01   -207.97748    29.715265 
165876000    271.12733    549.06443    212.08197   -257179.35    257307.79    336.98246    29.714172 
165880000    297.97689    223.99981    441.42873   -257233.24    257349.12   -217.42892    29.710508 
165884000    287.09884    210.22868    257.96678   -257283.73    257396.49   -47.738097    29.711645 
165888000    286.04453    502.44944    207.11941   -257323.91    257429.08    295.33004    29.712882 
165892000    275.59645    259.75457    177.13762   -257306.14    257423.48     82.61695    29.714955 
165896000    281.68579    555.79984    259.49682   -257325.39    257454.27    296.30303    29.716129 
165900000    274.25483    205.37016     485.8135   -257385.76    257494.31   -280.44334    29.712723 
165904000    290.91395    334.52517    301.59557   -257421.51    257532.35    32.929599     29.71157 
165908000    271.69262    319.87831    329.60006   -257471.29    257598.93   -9.7217501    29.713528 
165912000    274.61327    486.13231    333.42213   -257535.96    257656.79    152.71018    29.714338 
165916000    270.78645    327.18921    476.56767   -257556.69    257665.95   -149.37846    29.716484 
165920000     288.8466     358.4121    300.32148   -257594.56    257700.97    58.090621    29.714878 
165924000    262.42024    442.26054    246.56652   -257627.27    257738.24    195.69402    29.715306 
165928000    276.66411      413.424     354.9346   -257679.06    257786.51    58.489405    29.716294 
165932000    263.64857    338.39189    270.85565   -257684.62    257809.48    67.536243    29.712862 
165936000    272.59709    370.82046    313.74016   -257728.37    257839.39    57.080295    29.714253 
165940000     284.8285    310.97343    314.61041   -257776.22    257874.83   -3.6369825     29.71999 
165944000     248.6407    371.66884    279.04543   -257802.86    257921.08    92.623403    29.715392 
165948000    268.75129    276.65828    314.87535   -257812.69    257934.59   -38.217068    29.719123 
165952000    266.10985     295.5699     362.5138   -257883.67    258006.02   -66.943902    29.722658 
165956000    281.14539    300.36314      288.989   -257933.98    258066.63    11.374136    29.721627 
165960000    265.09179    328.96109    304.89414   -257956.45    258095.87    24.066955    29.721975 
165964000    276.34024    268.15746    309.37468   -258003.06    258137.84   -41.217213    29.726461 
165968000    305.57909     351.9711    283.48156   -258048.17    258149.07    68.489539    29.727602 
165972000    276.89492    257.46513    325.54269   -258053.54    258188.27   -68.077556    29.726284 
165976000    285.64597    351.98969     465.7432   -258097.99    258212.98   -113.75352    29.730735 
165980000    268.15552    343.85561    251.86727    -258119.9    258240.96     91.98834    29.735454 
165984000    309.00592    228.03692    358.36123   -258152.06    258253.49   -130.32432    29.735037 
165988000    281.96101    244.08859    358.16957   -258188.99    258308.82   -114.08098    29.737245 
165992000    294.44773    612.29707    284.03624   -258221.08    258307.72    328.26084    29.742889 
165996000    304.80345    334.77501    365.25015   -258258.33     258364.4   -30.475134    29.742436 
166000000    291.31175    368.23929    336.85885   -258284.19    258385.69    31.380432    29.741803 
166004000    304.28275    391.90734    278.98561   -258315.07    258418.02    112.92173    29.742954 
166008000    307.85805    611.69516    422.92629   -258347.51    258448.07    188.76887     29.74328 
166012000    262.43487    307.85317    322.87987   -258367.43    258497.53   -15.026704    29.742044 
166016000    314.59936    540.75779    611.98497   -258442.22     258520.9   -71.227184    29.740794 
166020000    307.95982    395.43342    386.34604   -258475.72    258556.51    9.0873798    29.740473 
166024000    283.17116    504.31582    385.46709   -258492.73    258592.98    118.84873    29.740169 
166028000    304.29938     115.2455    254.84126   -258545.66    258647.37   -139.59575    29.740026 
166032000    298.83109    418.54147    433.76591   -258549.78    258645.73   -15.224438    29.745641 
166036000    291.01993    357.85768    548.72357   -258591.83    258687.56   -190.86589    29.746362 
166040000    270.82871    311.73744    230.69802   -258594.77    258727.41    81.039416    29.746902 
166044000    283.13788    288.43879    390.97079    -258647.7    258763.62     -102.532    29.745829 
166048000    287.50104     346.9195    398.45182   -258679.31    258802.44    -51.53232    29.742913 
166052000    322.63042    758.93929    393.41685   -258733.72    258825.31    365.52244    29.747697 
166056000    314.28077    314.61682    370.75069   -258779.57    258873.69   -56.133869    29.744148 
166060000    298.70931    321.23264    291.59085   -258807.04    258907.56    29.641795    29.744443 
166064000    288.06575    292.82892    415.17834   -258872.18    258968.99   -122.34942    29.741963 
166068000    246.15267    433.60894    195.93642   -258885.41    259014.47    237.67252    29.743225 
166072000    262.49501    533.41002      214.461   -258937.32    259073.24    318.94902    29.738856 
166076000    273.46593     335.3298    379.87736   -258980.27    259107.24   -44.547557    29.737623 
166080000    261.72161    333.60333    472.05424   -259008.48    259140.24   -138.45092    29.742871 
166084000    264.78815    262.96869    460.05057    -259044.3    259165.45   -197.08188    29.741539 
166088000     276.2835    211.80622    248.31948   -259071.62    259190.36   -36.513262    29.740315 
166092000    301.56972    248.07142     320.2425   -259122.47    259233.15   -72.171077     29.73997 
166096000    280.07835    376.85681    273.19284   -259145.05    259265.07    103.66397    29.738326 
166100000    275.16446    278.85113    349.70426    -259158.4    259284.73   -70.853125    29.738522 
166104000    319.65194     490.1269    259.88165   -259236.03    259331.85    230.24525    29.736276 
166108000    265.24247    218.19008    329.35529   -259254.51    259377.67   -111.16521    29.733874 
166112000    288.24727    514.58343    227.55158   -259279.33     259401.1    287.03184    29.736954 
166116000    267.44707    419.69842    303.55221   -259350.22    259480.43    116.14621    29.741518 
166120000    272.13356    489.29343    327.27314   -259386.55    259510.54    162.02029    29.740341 
166124000    270.95662    271.54625    357.00449   -259403.93    259550.45   -85.458241    29.739426 
166128000    249.84553    269.60381    325.94016   -259445.74    259587.01   -56.336352    29.736123 
166132000    306.27692    287.32424    343.87689   -259511.07    259614.25   -56.552653    29.737997 
166136000    314.66327    324.52148    462.07558   -259551.09    259665.43    -137.5541     29.73788 
166140000    286.55127    452.26289    301.00231   -259601.26    259713.38    151.26058    29.733873 
166144000    298.43512    309.94207    411.79512   -259626.67    259718.72   -101.85305    29.732127 
166148000    278.73186    467.90149    227.55923   -259687.06    259795.67    240.34226    29.731703 
166152000    301.60377    343.41529    360.82841    -259759.2    259842.79    -17.41312    29.726893 
166156000    287.13326    326.57433    243.92198      -259785    259917.25    82.652355    29.724886 
166160000    272.11331    219.09923    249.23532   -259832.05    259948.53   -30.136092    29.729342 
166164000    291.96793    251.35882     189.2981   -259850.44    259956.79    62.060721    29.738643 
166168000    278.98932    286.52074    258.60661   -259884.48    260009.21    27.914136    29.738345 
166172000    296.10184    307.73052    174.11287   -259915.97    260032.77    133.61765    29.734228 
166176000      286.408     213.9347    198.78732   -259957.56    260061.83    15.147382      29.7289 
166180000    281.91993    269.89841    298.84809   -259970.88    260065.08   -28.949678    29.726767 
166184000    298.36684    359.44116    215.66706    -259970.6    260084.99     143.7741    29.726688 
166188000    302.30088    497.55113    303.07827   -260015.66    260125.52    194.47286    29.726935 
166192000    261.51889    264.91749    182.09423   -260025.01    260152.24    82.823262    29.722867 
166196000    298.59118     361.3394     256.9447   -260060.49    260162.74    104.39471    29.725018 
166200000    253.06406    477.01459     266.8318   -260074.41    260214.79     210.1828    29.728567 
166204000     276.3149    237.76464    203.10291   -260151.53    260272.88     34.66173    29.727105 
166208000    287.53897    396.66121    296.24818   -260174.14    260297.21    100.41303    29.726195 
166212000    277.22342    599.81399    325.90291    -260211.1    260315.02    273.91108    29.725979 
166216000    262.22287    393.99163    254.50302   -260223.48    260354.97    139.48862    29.722686 
166220000    265.58552     274.2343    269.45325   -260276.58    260398.58    4.7810478    29.728392 
166224000    278.61626    269.08467     480.9021   -260310.19     260431.9   -211.81743    29.731962 
166228000    286.83042    355.20785    322.87291   -260351.05    260458.36    32.334941    29.732336 
166232000    289.31081    364.21527    322.05854   -260373.01    260478.42    42.156731    29.728425 
166236000    283.75514     364.1425    297.90291   -260391.97    260487.51    66.239597    29.731806 
166240000     266.2878    321.72861    337.97208   -260393.26    260520.75   -16.243474    29.732426 
166244000    293.78279     225.7996    312.93766   -260493.14    260590.58   -87.138055    29.736898 
166248000     293.1703    192.03744    385.88612   -260544.13    260653.61   -193.84868    29.737238 
166252000    281.97889    386.08231    236.52051   -260575.56    260703.53    149.56181     29.74139 
166256000    286.99166    576.56663    233.64668    -260585.1    260690.87    342.91996    29.743321 
166260000     269.5669    311.16764    290.49015   -260603.58    260740.14    20.677485    29.741946 
166264000    270.86479    250.48506    478.84802   -260645.04    260763.67   -228.36296    29.743242 
166268000     285.6261    244.42327    427.99886    -260683.6    260805.33   -183.57558    29.739292 
166272000    279.54645    392.18096    344.62925   -260722.56    260846.12    47.551718     29.73934 
166276000     270.1379    281.64165    273.99309   -260777.85    260901.13    7.6485532    29.739199 
166280000    271.12864    300.02606    304.26455    -260835.2    260957.63   -4.2384881    29.737396 
166284000    281.91025    256.44618    351.04059   -260886.57    260977.92   -94.594404    29.735205 
166288000    279.63994    454.14398    331.68038   -260898.45    260994.68    122.46361    29.736753 
166292000     274.5016    294.42123    324.63336   -260954.73    261069.47   -30.212126    29.735543 
166296000    285.03816    357.80842    282.40541   -260961.32    261095.96    75.403001    29.735871 
166300000    300.18378    556.17605     294.4054   -261000.55     261091.4    261.77066    29.735012 
166304000    301.05242    407.63834    321.27877   -261044.71    261136.23    86.359574    29.730103 
166308000     296.1689    321.01716    269.93517   -261071.73    261165.07    51.081986    29.731488 
166312000    263.86998    373.03282    384.01205   -261110.57    261231.97   -10.979228    29.728287 
166316000     293.4109    321.51499    360.12143   -261138.58    261238.25   -38.606439    29.725733 
166320000    266.25721    349.47936    171.43201   -261192.14    261312.82    178.04735    29.724048 
166324000    292.52342    231.42663    293.97052   -261264.19    261386.73   -62.543896    29.724679 
166328000    309.55878    352.76673    423.67304    -261320.8    261413.51   -70.906307    29.723797 
166332000    276.12165    252.02276    544.02788   -261294.88    261419.03   -292.00512    29.719853 
166336000    295.52519    580.21173    441.29193    -261350.6    261460.92     138.9198    29.722039 
166340000    305.50209    411.55572    486.11465   -261341.02    261461.81    -74.55893    29.724156 
166344000    278.57975    428.45513     372.5486   -261364.68    261467.26    55.906522     29.72312 
166348000    256.96958    391.04065    252.62125   -261414.62    261528.71     138.4194    29.715852 
166352000    279.89591    311.35392    440.21063   -261429.58    261552.78   -128.85671    29.711708 
166356000     287.3035    275.78822    376.90198   -261457.39     261561.9   -101.11376    29.706082 
166360000    261.90603    241.53087     277.7333   -261472.75    261593.92   -36.202429    29.704491 
166364000    270.97788    315.12613    292.16052   -261473.26    261600.74    22.965616    29.712218 
166368000    240.65395    247.84163    285.21377   -261500.07    261654.06   -37.372148    29.713024 
166372000    260.65544    411.92417    376.61652   -261537.33    261685.13    35.307646    29.714351 
166376000    289.01873    360.05371    256.59699   -261604.35    261711.99    103.45672    29.708843 
166380000    270.80084    256.20851     376.1087   -261616.96    261736.85   -119.90018    29.708568 
166384000    257.30602    176.15333    195.26866   -261655.73    261781.57   -19.115326    29.705072 
166388000    295.37022    375.64749    244.43567   -261714.63    261816.55    131.21182    29.707614 
166392000    314.89977    340.51902    219.60419   -261748.74    261850.19    120.91483    29.709136 
166396000     271.6498    253.22084     360.6046   -261777.84    261911.24   -107.38376    29.716104 
166400000    295.73914     500.9287    347.42865   -261816.49    261922.55    153.50005    29.718884 
166404000    303.94416    261.40336    249.85519   -261848.57    261938.72    11.548175    29.715716 
166408000    296.36632    349.73421    355.67997    -261873.5    261988.32   -5.9457571    29.721608 
166412000    290.32342    307.30862    370.07649   -261912.24    262025.67   -62.767873    29.719376 
166416000    281.83873    394.13887    222.73445   -261921.26    262048.18    171.40443    29.715952 
166420000    287.94028    370.74773    336.50249   -261958.62    262085.31    34.245243    29.716509 
166424000    281.54823    288.08944    298.14119   -261977.75    262095.34   -10.051749    29.725501 
166428000    290.09261     314.3368    400.33311   -262004.25     262121.9    -85.99631    29.728399 
166432000    301.80877    281.38774    365.41887   -262062.01    262169.95   -84.031125    29.730803 
166436000    284.54418    311.46295    314.87492   -262092.92    262191.18   -3.4119761    29.726694 
166440000    304.72096    361.36882    174.96043   -262146.11    262233.68    186.40839    29.723498 
166444000    303.45765    381.50168    302.74696   -262150.99    262263.95    78.754713    29.726969 
166448000    279.95411    471.58952    235.75593   -262175.67    262315.63     235.8336    29.729824 
166452000    288.69587    266.54389    272.12015      -262229    262358.67   -5.5762612    29.728991 
166456000    251.96627    448.75071    331.23815    -262240.7    262378.48    117.51256       29.728 
166460000    272.11764    319.38651     293.5876   -262289.98    262425.01    25.798909    29.727883 
166464000    292.61924    410.93105    494.71284   -262333.87    262438.31   -83.781795    29.727447 
166468000    271.84314    206.59363     263.4581    -262331.5     262462.3   -56.864472    29.731869 
166472000     293.9046    297.85323    361.90001   -262407.66    262492.16   -64.046776    29.729052 
166476000    256.70635    243.42505    367.23091   -262396.44    262529.87   -123.80586    29.727906 
166480000    291.02834    276.58421    331.14346   -262437.03    262542.83   -54.559251    29.736644 
166484000    285.05423    292.13715    360.92352   -262453.27    262574.51   -68.786378    29.734368 
166488000    287.18653    305.42956    342.37182   -262480.22    262609.79   -36.942264    29.739571 
166492000    271.97814    384.06134     413.6639   -262541.67     262671.7   -29.602558    29.736375 
166496000    285.13782    313.27186    396.41021   -262589.36    262711.27   -83.138347    29.735651 
166500000    269.78389    184.48631    423.88929   -262622.66    262754.76   -239.40299    29.735216 
166504000    250.76986    300.10197    338.05852   -262668.91    262824.62   -37.956555    29.730134 
166508000    266.52107    290.86904    261.91267   -262730.69    262852.86    28.956369    29.728144 
166512000     314.8091    563.18551    280.76255   -262793.63    262892.36    282.42297    29.723455 
166516000    277.48605    258.07141    179.27578   -262826.69    262945.35    78.795627     29.72251 
166520000    269.98182    405.46607    215.37999    -262846.4    262978.36    190.08609    29.720671 
166524000    260.09183     378.1378    292.74649   -262869.96     263004.1    85.391315    29.717757 
166528000    300.05706    372.88523      372.238   -262896.06    263007.81    0.6472306    29.722393 
166532000    273.66686    264.59905    303.52967   -262920.41    263024.51   -38.930615    29.716656 
166536000    276.87321    477.68444    284.91648   -262952.08    263061.07    192.76796    29.716261 
166540000    273.71789    266.66908    138.18381    -262972.4    263103.38    128.48527    29.721225 
166544000    303.59662    336.05015    351.35007   -263040.05    263136.63   -15.299925     29.72237 
166548000    285.33026    193.06256      433.038   -263071.45    263196.34   -239.97544    29.721958 
166552000    291.42693    343.56819    308.72224   -263096.18    263221.28    34.845952    29.724226 
166556000    297.04487    495.79653    362.90215   -263172.59    263279.77    132.89438      29.7232 
166560000    274.98807    468.66058     275.9232    -263208.6     263333.8    192.73738    29.726837 
166564000    317.40841    559.57375    449.57421   -263264.85    263382.77    109.99954    29.731758 
166568000    281.12454    357.48632    237.00947   -263274.28    263394.42    120.47685    29.727609 
166572000    268.86333    228.95585    360.79597   -263323.83    263472.25   -131.84011    29.726671 
166576000    280.66782    328.11572      236.442   -263420.64    263541.19     91.67372    29.726016 
166580000    286.10581    346.86329       342.67   -263436.33    263553.31    4.1932982    29.725865 
166584000    242.53497    191.73409    498.45201   -263483.91    263633.18   -306.71792    29.722193 
166588000    276.65832    238.96841     387.2188   -263550.72     263666.7   -148.25039    29.725304 
166592000    290.87306    367.55959    429.66248   -263585.88    263695.96   -62.102894    29.721463 
166596000    263.69323    305.52425    278.16675   -263627.86    263746.85    27.357502    29.722311 
166600000    286.72807    287.31055    265.01466   -263666.66    263777.19    22.295894    29.723751 
166604000    312.80729     396.2433    283.17974   -263693.53    263792.98    113.06357    29.719353 
166608000    291.05903    294.43476    310.71351    -263730.4    263855.46   -16.278753    29.722439 
166612000    249.79108    305.22159    289.28197   -263781.76    263917.06    15.939621    29.719807 
166616000    287.85731    241.21931    303.03214   -263835.92    263963.25   -61.812826    29.717851 
166620000    275.65253    291.47106    260.33143   -263832.39    263975.93    31.139626    29.713836 
166624000    266.57891    422.69705     377.1269   -263890.62    264011.87    45.570154    29.716423 
166628000    285.16162    316.64781    396.36695   -263910.93    264032.04   -79.719132    29.713694 
166632000    277.01498     438.9702    281.59523   -263958.46    264073.92    157.37497    29.718692 
166636000    291.57807    493.55096    469.11247   -263994.02    264091.47    24.438491    29.708184 
166640000      341.979    507.13803     524.1458   -264026.02    264101.62   -17.007767    29.707454 
166644000    295.97813    574.58481    231.58525   -264046.53    264164.83    342.99956    29.704285 
166648000    268.96558    256.11921    301.51281   -264073.52    264193.02   -45.393593    29.705031 
166652000    277.42219    506.00667    233.45366   -264094.53    264228.66    272.55301    29.708385 
166656000    290.30644    332.57156    153.79418    -264148.8    264251.14    178.77737    29.707478 
166660000     317.4445    371.70911    205.50665   -264220.69    264319.59    166.20246    29.704908 
166664000    278.56826    237.81559    247.70581   -264220.57    264353.41   -9.8902147    29.704171 
166668000    278.72414    252.36675    300.70658   -264258.88    264379.66   -48.339834    29.702686 
166672000    270.20987    359.53565    345.70274   -264276.61    264400.95    13.832912    29.703809 
166676000     269.3365    212.32477    176.62648   -264332.35     264452.5    35.698298    29.701864 
166680000    304.02569    303.44282    356.62006   -264391.18    264483.62    -53.17724    29.696573 
166684000    274.60533    376.27505    476.07856   -264387.52     264514.7   -99.803509    29.696783 
166688000    262.65458    315.29601    315.18105   -264438.83    264576.97   0.11496061    29.693566 
166692000    256.69079    419.35774    345.88833   -264492.38    264615.99    73.469407    29.695606 
166696000    271.50654     419.7914    348.83923   -264534.93    264656.34    70.952167    29.696679 
166700000    296.88279    330.73917    277.67728   -264572.32    264677.67    53.061896    29.695961 
166704000    271.84503    380.75524    208.70513   -264598.76    264723.19     172.0501    29.693843 
166708000    288.94877    466.98736    364.22195   -264652.09    264774.94    102.76541    29.690974 
166712000    287.28714    394.85744    348.68711   -264687.88    264796.86    46.170335    29.688833 
166716000    284.25536    599.65894    380.98337   -264725.44     264847.7    218.67557    29.686513 
166720000    296.38914    402.04443    226.84331   -264781.91    264901.69    175.20113    29.691943 
166724000    287.50267    422.61109     337.4295   -264808.96    264930.48    85.181596    29.686631 
166728000    287.52895    408.48208    197.09701   -264867.67    264983.09    211.38507    29.689388 
166732000    292.24031    266.84173    328.82295   -264920.66    265045.32   -61.981219    29.688683 
166736000    282.16888     459.0804    231.76147   -264936.55    265049.51    227.31893    29.692699 
166740000    309.30619    435.57241    374.52911   -264975.55    265078.98    61.043302    29.692553 
166744000    267.50668    383.30618    184.14388   -264994.96    265115.03     199.1623    29.696476 
166748000    289.22034    475.53122    427.22785   -265026.84    265137.62    48.303369    29.698541 
166752000    274.38441    259.03363    282.91026   -265074.39    265187.46   -23.876632    29.697062 
166756000    267.82368    412.43203    282.76796   -265086.16       265209    129.66407    29.697399 
166760000    260.73394    473.80265    348.48229   -265112.68    265238.77    125.32036    29.698868 
166764000    283.93236    329.52443    366.55592   -265179.29    265288.36   -37.031494    29.702446 
166768000    306.79954    748.50388    353.02717    -265208.7    265318.72    395.47672    29.701827 
166772000    272.30745    401.06652    188.50034   -265238.94    265350.73    212.56619    29.699732 
166776000    269.36854    247.50933    319.81128   -265263.06    265359.08   -72.301949    29.700737 
166780000    256.13031    217.16335    192.46596    -265284.8    265413.16    24.697386    29.698215 
166784000      264.538    343.05899    272.42074   -265317.97    265459.27    70.638254    29.699031 
166788000    297.88428    281.51145    430.97945    -265340.8    265465.86   -149.46801    29.698158 
166792000    273.99606    228.05512    287.33403   -265412.27    265505.01   -59.278918    29.693383 
166796000    262.71138    398.96768    319.62936    -265421.1       265554    79.338311    29.690439 
166800000    319.51825    437.53265    335.87076   -265480.23    265564.96    101.66188    29.690441 
166804000    291.93006    432.53027    156.77593   -265522.12    265623.64    275.75434    29.689138 
166808000     277.1955     264.4521    259.04573   -265547.36    265656.03    5.4063721    29.690709 
166812000    275.09774    280.00166    281.65076   -265545.62    265681.82    -1.649095    29.685133 
166816000    256.07033    376.82874    331.56189   -265608.06     265744.2    45.266853    29.687263 
166820000    289.85981    356.96832    336.79579   -265638.99    265739.63    20.172529    29.692546 
166824000     282.4353    551.78041    311.71239   -265691.99    265790.92    240.06802    29.696164 
166828000    267.66078    165.35145    286.10424   -265683.87    265810.21   -120.75279    29.695495 
166832000    309.19194    381.13571    232.08736    -265740.8    265837.81    149.04835    29.693194 
166836000    291.10381    323.41733    237.66866   -265736.11    265862.98    85.748679    29.687987 
166840000    286.74879    295.33244    501.13046   -265769.29    265886.06   -205.79801    29.683071 
166844000    308.50791    607.17649    370.78909   -265825.32    265913.21    236.38741    29.683578 
166848000    300.81943    402.86638    195.03422   -265839.26    265941.09    207.83216    29.683564 
166852000    274.38769    282.12907    270.54592   -265872.36    265988.47    11.583151    29.683296 
166856000    279.94195    476.01067    606.12256   -265918.54    266048.76   -130.11189    29.687411 
166860000    273.32754    215.95383     282.5681   -265952.06    266071.44   -66.614277    29.688208 
166864000    291.26045    680.03618    359.46859   -266007.23    266102.36    320.56758    29.693529 
166868000    267.71651    313.72468      230.099   -266011.88    266140.66    83.625678    29.697132 
166872000    283.32916    386.42259    445.75356   -266037.69    266146.99   -59.330978    29.701509 
166876000    274.33982     395.8905    276.30888   -266075.17    266186.81    119.58162    29.705883 
166880000    258.47688    374.49284    277.64546    -266089.4    266235.37    96.847383    29.700665 
166884000    276.09078    293.73399    426.29682   -266144.65    266264.71   -132.56284    29.703766 
166888000    263.23917    299.48917    387.49897   -266192.59     266333.3   -88.009805    29.698818 
166892000    286.36513    229.94271    269.02477    -266230.9    266335.83   -39.082061    29.696237 
166896000    287.64841    257.25586    357.38373   -266204.95    266323.28   -100.12787    29.694955 
166900000     295.5075    460.06413    294.65692   -266239.36    266357.52    165.40721      29.6951 
166904000    279.38266    399.33948    343.31958   -266277.18    266381.55    56.019894    29.700549 
166908000    290.10288     243.9112    345.13135   -266317.51    266436.75   -101.22015     29.70217 
166912000    295.83207    435.30491    297.86254   -266358.49    266462.03    137.44237    29.704833 
166916000    315.15192    315.87537    360.16857   -266434.75    266514.31   -44.293204    29.711882 
166920000    301.50919    349.51919    174.26696   -266470.39    266565.28    175.25223    29.709178 
166924000    275.56348    277.05188    360.63342   -266488.44    266605.23   -83.581537    29.710856 
166928000    313.69817    484.92971    381.51852   -266542.08    266643.83    103.41119    29.704484 
166932000    315.83774    303.35074    365.84811   -266575.28     266672.3   -62.497368    29.707704 
166936000    308.52361    288.25164    241.78322   -266597.71    266696.81    46.468424    29.708503 
166940000    310.15514     395.2906     416.8497   -266620.55    266725.48   -21.559096    29.711717 
166944000     278.7385    217.62338    349.93236   -266640.91    266756.89   -132.30898    29.713109 
166948000     277.9383    275.16869    491.74535   -266655.68    266786.03   -216.57666    29.707487 
166952000    266.82423    290.28041    293.01425   -266705.28    266850.63   -2.7338417    29.705584 
166956000     296.1257    331.80962    311.23605   -266738.93    266853.01    20.573567    29.704895 
166960000    286.52759    222.63956    238.84002   -266766.92    266874.97   -16.200458    29.704509 
166964000    262.01915    347.05097    486.98508   -266787.43    266918.15   -139.93411    29.706793 
166968000    286.94317     418.6285     464.6462   -266822.95    266933.64   -46.017697    29.706586 
166972000    285.39725    359.34897    300.45283   -266868.71     266955.6    58.896135    29.706884 
166976000    273.68978    286.03155    250.24941   -266873.78    266978.25    35.782137    29.713654 
166980000    285.97633     263.1403    334.90501   -266907.06    267046.05   -71.764709     29.71405 
166984000    268.99026    477.01159    343.91662   -266942.76       267072    133.09497    29.712031 
166988000    305.97296    342.20846    433.98237   -266967.56     267080.8   -91.773912    29.712403 
166992000    280.31187    343.02303    408.43549    -266991.1     267105.2   -65.412463     29.71584 
166996000    302.27903    362.01966    466.66409   -267026.01    267135.12   -104.64443    29.722414 
167000000     307.5342    316.11756    240.63596    -267056.4    267150.87    75.481596    29.720942 
167004000    258.82654    259.30212    404.99628   -267106.21    267245.25   -145.69416    29.725338 
167008000    269.41256    450.55179    343.43791   -267164.46     267290.9    107.11388    29.726947 
167012000    297.22123    194.92392    321.50949   -267211.79     267317.8   -126.58557    29.725901 
167016000    286.59113    413.64064    416.00963   -267248.18    267346.13   -2.3689935    29.724744 
167020000    329.94094    332.43336    264.45411   -267285.85    267368.17    67.979255    29.721541 
167024000    273.45068    376.99528    295.07115   -267274.67    267415.07     81.92413    29.720613 
167028000    283.29401    377.39365    376.46906   -267305.48    267427.12   0.92458756    29.724858 
167032000    290.86837    360.02199    350.74102   -267345.33    267463.32    9.2809742    29.723627 
167036000    276.47927    654.70351    284.33368    -267391.6    267503.93    370.36983    29.722503 
167040000    283.06975    307.21722    378.70654    -267428.4     267521.9   -71.489318    29.718564 
167044000     283.9737    214.28307    305.31569   -267466.32    267590.92   -91.032619    29.711381 
167048000    252.22389    283.25752    228.46619    -267494.7    267629.35    54.791327    29.713805 
167052000    282.13047    495.08217    388.23279   -267557.28    267671.36    106.84938    29.716284 
167056000     292.3836    304.28659    381.79977   -267595.84     267701.5   -77.513182    29.717286 
167060000    281.74183     433.6327    409.53113   -267612.53    267738.91    24.101568    29.716497 
167064000    279.90361    223.54847     275.2962   -267613.78    267727.02   -51.747727    29.711635 
167068000     304.7131    433.82532    274.64341   -267645.86    267748.12    159.18191    29.711304 
167072000    312.84197    371.26351    546.84731   -267694.39    267776.55    -175.5838    29.711061 
167076000    264.73135    357.23625    485.69492    -267706.8    267843.62   -128.45867     29.70938 
167080000    260.64664    482.17304    187.63534   -267759.16    267883.77     294.5377    29.711819 
167084000    315.51698    460.38592    471.38948   -267784.17    267893.54   -11.003556    29.712384 
167088000     260.3386    419.03281    198.49178   -267795.79    267911.53    220.54103    29.715164 
167092000    284.44822    414.18942    394.16329    -267847.5    267972.18    20.026127    29.716509 
167096000     298.5506    248.89435    356.73476   -267883.45    267998.36   -107.84041     29.71433 
167100000    270.19991    172.16715    318.83944   -267939.22    268069.51   -146.67229    29.716784 
167104000    259.97925    261.38215    206.49852   -267969.02    268115.83    54.883636     29.71212 
167108000    303.97119    637.75014    361.26125   -268021.99    268148.41    276.48889    29.714983 
167112000    281.37588    459.21348    205.30907   -268047.57    268166.67    253.90442    29.713038 
167116000    308.42335    473.63259    503.33701   -268113.62    268223.83   -29.704415    29.710223 
167120000    299.81651    330.21618    251.71513   -268144.57    268259.92    78.501057    29.709804 
167124000     284.0583    380.75779    340.93903   -268168.49    268299.54    39.818765    29.711116 
167128000    324.87499    472.84233     309.3369   -268262.56    268342.24    163.50544    29.711544 
167132000    275.06267    283.07674    326.66029   -268294.28    268432.93   -43.583548    29.709133 
167136000    268.82047     281.8661    351.21376   -268317.44    268451.37   -69.347653    29.707062 
167140000    282.50753    236.13123    295.92225   -268349.47    268461.92   -59.791011    29.710611 
167144000    276.47196    481.19892    281.76579   -268393.01    268507.95    199.43313    29.712883 
167148000     271.6947    395.45474    173.49998   -268437.16    268560.76    221.95476    29.707912 
167152000    266.03958    241.54451    211.86604   -268483.58    268610.03    29.678471    29.711005 
167156000     279.5481    345.93053    310.95945   -268551.37    268659.47    34.971086    29.711012 
167160000    285.75961    490.32842    215.42191    -268606.5    268724.17    274.90652    29.710379 
167164000    293.83535    452.32789    350.03947   -268624.89    268733.64    102.28841    29.711193 
167168000    278.71423    471.72008    253.04677   -268677.55    268787.46    218.67331    29.710064 
167172000    273.41396     211.3349    302.29861   -268734.59    268857.03   -90.963715    29.710449 
167176000    287.12645    436.80168    192.98155    -268759.4    268873.38    243.82014    29.705245 
167180000    291.19009    215.73386    291.60356   -268798.39    268908.12   -75.869696      29.7037 
167184000    276.17721    260.59006     424.9223   -268828.19    268959.27   -164.33224    29.706769 
167188000    274.46699    407.09552    294.63564   -268878.34    268991.38    112.45988    29.703843 
167192000    280.09038    374.80093    293.44793   -268924.71    269046.46    81.352993    29.707887 
167196000    286.49396     451.7288    361.23305   -268980.81    269104.62    90.495748    29.704219 
167200000    283.61656    324.84461     236.7453   -269041.71    269169.23    88.099312    29.708151 
167204000    267.08466    363.01458     457.4642   -269075.97    269189.76   -94.449618    29.708437 
167208000    284.51641    370.05327    293.26528   -269084.18    269201.21    76.787995    29.709414 
167212000    281.58937    354.14339    317.98842   -269107.19    269238.62    36.154978    29.707204 
167216000    293.18236    359.24694    199.07721   -269177.23    269285.35    160.16973    29.706755 
167220000    268.96276    448.81017    241.20014   -269193.99    269318.45    207.61003    29.705124 
167224000    260.02403    250.44329    344.56696   -269209.87    269349.73   -94.123677    29.708078 
167228000    287.71791     242.5082    162.55593   -269230.18    269344.27    79.952268    29.705546 
167232000    304.78718    419.24459    290.92079    -269291.3    269388.53    128.32379    29.705047 
167236000    321.74812    371.75853    243.21581   -269339.39    269429.89    128.54272    29.704249 
167240000    290.28435     337.6473    320.37804   -269372.66    269486.25     17.26926     29.70558 
167244000    291.61762    289.14484    323.86961   -269435.67    269536.77   -34.724768    29.703143 
167248000    241.26959    370.05888    349.74492   -269464.58    269602.67    20.313957    29.702795 
167252000    286.70301     498.4679    312.50902   -269503.69     269603.4    185.95888    29.704455 
167256000    289.53393    231.58137    385.04553   -269559.69    269682.42   -153.46416    29.706371 
167260000    273.48415    296.98803    293.27325   -269597.78     269725.5    3.7147887    29.709578 
167264000    281.46525    349.18928    310.05747   -269644.67    269745.78    39.131819    29.711066 
167268000    258.84785    249.07172    190.98645   -269661.87    269781.87    58.085272     29.70919 
167272000    288.50615    350.59744    203.58243   -269694.86    269815.94    147.01502    29.710899 
167276000     291.6569    477.80144    360.18734      -269714    269833.65     117.6141    29.711209 
167280000    306.90766    384.51782    511.07634      -269744    269851.69   -126.55852    29.712466 
167284000    271.64582    339.74006    293.30277   -269766.11    269892.81    46.437287    29.712589 
167288000     286.1966    266.11793    260.66352   -269816.96    269930.54    5.4544095     29.71129 
167292000    277.70655    324.40241    299.88655   -269852.58    269982.97    24.515865    29.716402 
167296000    293.56694    279.59302    498.66125   -269896.51    270014.94   -219.06823    29.716111 
167300000    306.72754    274.31078    316.25271   -269923.59    270031.59   -41.941924    29.712627 
167304000    280.52884    310.39294    255.04448   -269962.92    270082.59    55.348457    29.714273 
167308000     278.5325    239.93509    421.70482   -270004.79    270121.34   -181.76974     29.71136 
167312000    280.34503    239.86605    360.63994   -270006.37    270142.47   -120.77389    29.714541 
167316000     250.6906    395.02561    232.55639   -270026.97    270160.23    162.46922    29.718226 
167320000    281.27265     384.9734    188.55209   -270078.19    270188.49    196.42131     29.71894 
167324000    277.20866    264.33981    306.92129   -270086.93    270206.74   -42.581485    29.716733 
167328000    282.76448    348.86667    267.33936   -270106.93    270218.57    81.527305    29.715154 
167332000    272.08974    448.91884    270.41612   -270113.12    270241.79    178.50272      29.7198 
167336000    262.93085    403.37162    338.37835   -270157.61    270287.41    64.993271    29.718388 
167340000     256.0094    411.75063    193.43495   -270162.81    270294.41    218.31568     29.71816 
167344000    311.80529    286.94794    469.63031   -270215.19    270323.22   -182.68237    29.719407 
167348000    311.51753    460.17011    523.51126   -270260.18    270362.85   -63.341148    29.718679 
167352000    279.28002    257.00783    298.19821   -270325.41    270452.33    -41.19038    29.716697 
167356000    280.65301    264.72968    267.85432   -270372.58    270512.63    -3.124641    29.718487 
167360000    282.17153    553.64832    340.70615   -270422.45    270543.47    212.94217    29.722635 
167364000    291.94341    344.37932    310.40973   -270455.38    270561.06    33.969584    29.724579 
167368000    290.09197    397.58635    269.80059   -270468.21    270580.02    127.78576    29.726654 
167372000    281.74102    615.47655    329.80059   -270532.76    270639.44    285.67596     29.72789 
167376000    267.70495    306.92708    299.77033    -270547.5    270676.36    7.1567478    29.728491 
167380000     276.4721    290.61756    252.25439   -270558.18    270690.83    38.363174    29.733582 
167384000    268.92902    617.04405    228.82288   -270599.78    270721.64    388.22117    29.736354 
167388000    280.83004    230.83744    292.23027   -270604.69    270738.44   -61.392822    29.738318 
167392000    280.63333    281.71172    336.45616      -270638    270758.93   -54.744438     29.74003 
167396000    304.02717     410.5195    437.79958   -270674.23    270790.48   -27.280083    29.740872 
167400000    260.93882    246.10905    432.78326   -270688.06    270822.27   -186.67421    29.737486 
167404000    277.89443    273.08994    416.51125   -270714.33    270853.11   -143.42131    29.740364 
167408000    258.33862    432.02208     395.0525   -270747.13    270877.02    36.969577    29.737626 
167412000    275.81889    263.33838    342.05518   -270767.82    270888.04   -78.716805     29.73818 
167416000    266.01379    323.54729    253.76896   -270795.75    270925.73    69.778327    29.740109 
167420000    296.25534     372.1312    388.83179   -270835.69    270948.43   -16.700588    29.735536 
167424000    265.24519    355.37175    366.15605   -270842.92    270968.74   -10.784298    29.737177 
167428000    300.94968    347.15928    373.38745   -270867.94    270976.83   -26.228173    29.736923 
167432000    276.62248    265.44951      303.308   -270906.03    271030.03   -37.858485    29.734591 
167436000    275.00306    462.81577    267.20606    -270893.9    271044.37     195.6097    29.731633 
167440000     262.0126     422.3498    310.95569   -270937.08    271070.43    111.39411    29.732533 
167444000    280.76993    250.54069    326.59999   -270956.21    271095.29   -76.059302    29.733937 
167448000    276.89474    306.24842    306.82376   -270995.67    271134.48  -0.57533885    29.732881 
167452000    288.05163    316.26396    512.83445   -271043.44    271154.66   -196.57049    29.729913 
167456000    288.01065    289.47461    354.58299   -271116.94    271224.08   -65.108382    29.734653 
167460000    307.83912    302.15164    555.20486   -271124.86    271232.76   -253.05321    29.734907 
167464000    289.52475    334.16905    167.78206   -271147.03     271265.2    166.38699    29.732831 
167468000    264.98552    231.65009    224.57933   -271149.96    271267.63    7.0707578    29.731903 
167472000    277.81935    302.55443    443.97434   -271163.69     271274.1   -141.41991    29.731414 
167476000    306.95388    322.62159    263.37566   -271168.81    271284.94    59.245927    29.730966 
167480000    287.78617    393.61604    338.27678    -271225.4    271346.45     55.33926     29.72945 
167484000    303.70908    217.39693    506.19575    -271251.5    271368.14   -288.79882    29.731679 
167488000    283.43306    379.33669    340.17232   -271262.87    271402.24    39.164366    29.731652 
167492000    268.21344     177.4257    314.88928   -271315.91    271444.86   -137.46357    29.726073 
167496000    245.76679     371.7736    284.06603    -271386.3    271537.53    87.707568    29.726948 
167500000    241.52031    394.73384    228.05705   -271416.76    271551.75    166.67679    29.725965 
167504000    281.38542    324.97176    298.25086   -271454.81    271561.24    26.720896    29.724362 
167508000    291.36589    273.12873    297.67081   -271500.56    271612.95   -24.542083    29.722761 
167512000    266.17635    506.50373    341.55603   -271518.61    271667.28     164.9477    29.723662 
167516000    245.84356    363.21275    369.73759   -271576.28    271723.97   -6.5248322    29.727908 
167520000    288.38319    343.05626    365.02712   -271607.45    271735.91    -21.97086    29.735105 
167524000    271.68338    167.76932     180.2884   -271625.14    271762.32   -12.519079    29.736352 
167528000     308.6086    326.73551    246.50393   -271688.41    271790.63     80.23158    29.735265 
167532000    278.56335     251.0987    253.50931   -271713.05    271823.77   -2.4106108     29.73345 
167536000    289.53835    434.56901    408.92819   -271730.37    271861.99    25.640814    29.737944 
167540000    301.18867    209.46489    318.55907   -271786.57    271900.55   -109.09418    29.738331 
167544000     269.3472     274.2721      221.564    -271801.6    271930.53    52.708101    29.733165 
167548000     307.8387    359.29362    474.15891   -271867.35    271953.76   -114.86529    29.737083 
167552000    275.24166    262.70007    255.11634   -271874.36    272003.69    7.5837333     29.73758 
167556000    299.93849    333.53028     345.4686   -271917.79    272038.56   -11.938318    29.736815 
167560000    302.69139    302.42994     454.1034   -271924.13    272043.51   -151.67346    29.735493 
167564000    294.88451    516.94215    461.68576   -271990.38    272097.87    55.256394    29.734961 
167568000    287.58083    329.43902    262.19069   -272024.45     272148.1     67.24833     29.73394 
167572000    267.66562    364.98082     429.0646   -272074.29    272189.56   -64.083778    29.731607 
167576000    293.39742    416.52625    376.58036   -272100.33    272215.73    39.945897    29.727507 
167580000    269.50781    149.62703    286.25946   -272111.93    272244.77   -136.63242    29.731405 
167584000    294.42808      323.565    325.13272    -272144.7    272245.47    -1.567718    29.733895 
167588000    267.58553    293.38324     244.9047   -272143.47    272280.61    48.478533    29.735954 
167592000    261.48771    479.01267    185.89667   -272161.26    272306.45    293.11601    29.734868 
167596000    265.39071    353.64126    351.34395   -272182.36    272327.38    2.2973114    29.733033 
167600000     280.3856    323.69307    266.90165    -272245.4     272361.9    56.791419    29.732914 
167604000    273.66089    376.86632    232.80204   -272283.49    272396.35    144.06428    29.736398 
167608000    250.65928    193.71712    205.97454      -272305    272432.83    -12.25742    29.737094 
167612000    305.21997    231.21838    224.84364   -272351.05    272467.31    6.3747392    29.740034 
167616000     289.8136    528.53198    290.46629   -272406.96    272522.29    238.06569    29.742662 
167620000    286.17968     394.7787    318.19493   -272424.82    272542.22    76.583775    29.743791 
167624000    285.29965    261.37767    298.76263   -272455.67    272576.89    -37.38496    29.743531 
167628000    315.21976    210.24418    508.61676    -272468.6    272595.14   -298.37257    29.738963 
167632000    277.11552    388.27866    329.16955   -272522.68     272640.4    59.109112    29.738585 
167636000    258.39302    316.19722    378.29553   -272569.77    272700.14   -62.098314    29.735347 
167640000    273.12996    217.55609    345.44715   -272627.26    272765.18   -127.89107    29.729838 
167644000    292.15006    442.61151    292.24122   -272681.31    272784.22    150.37029     29.73022 
167648000    303.87558    371.51302    313.56743   -272734.67    272843.39    57.945597    29.728946 
167652000    302.32193    358.46634     302.0495   -272754.81    272879.55    56.416837    29.729859 
167656000    295.91854     475.0532    483.28723   -272750.09    272868.07   -8.2340237    29.730026 
167660000    272.34832     404.2961    224.75068   -272799.54    272923.01    179.54542    29.726793 
167664000    320.03765    371.08185    370.41461   -272874.87    272984.31   0.66724173    29.727227 
167668000     259.1042    175.20704    402.74867   -272863.92    272990.34   -227.54164    29.728591 
167672000    270.75425     399.2793    226.78525   -272870.14    273018.27    172.49405    29.729665 
167676000    282.58857    345.35922    251.30729   -272902.12     273039.8     94.05193     29.73241 
167680000    291.36409    592.15958     396.1729   -272927.03    273061.73    195.98667    29.741385 
167684000    291.39144     537.6206    351.49569   -272953.63    273049.06     186.1249    29.748475 
167688000    309.30175    343.19561    395.73188   -273002.62    273111.03   -52.536271    29.752857 
167692000    243.41125    291.39319    201.09883   -273002.22    273143.34    90.294363    29.750302 
167696000    257.16875    294.60825    373.45272   -273006.25    273150.91   -78.844473    29.754573 
167700000    256.31006    328.32009    161.89866      -273076    273223.56    166.42144    29.757834 
167704000     261.0239    244.42843    251.53254   -273112.87    273254.19    -7.104112    29.761575 
167708000    275.15947    495.87195    360.36202    -273150.1    273275.21    135.50994    29.760966 
167712000    288.87867    249.52844    311.23161   -273207.65    273314.98    -61.70317    29.762137 
167716000    290.13802    255.39655    433.99183   -273250.89    273362.66   -178.59528    29.759744 
167720000    299.97253    427.29549    385.60854   -273298.87    273416.23    41.686946    29.755629 
167724000    305.26234    313.14396    463.85084   -273333.09    273427.01   -150.70689     29.75602 
167728000    278.97573    350.18105    413.64138   -273346.87    273465.85   -63.460327    29.754869 
167732000    273.39769    320.87989    353.50016   -273355.15    273497.59   -32.620271    29.756718 
167736000    262.49468    306.59765    271.58699   -273374.28    273523.16    35.010654    29.756774 
167740000    272.54407    350.16586    306.25079   -273411.11    273533.55    43.915076    29.754876 
167744000    299.39424    274.96497    303.69325   -273461.22    273572.29   -28.728283    29.759221 
167748000    290.73845    383.74198    227.87366   -273473.15    273598.21    155.86832    29.759304 
167752000    290.29359    523.58667    291.00504   -273508.99    273624.16    232.58163    29.757814 
167756000    263.05162    243.18809    285.00257   -273521.99    273656.37   -41.814484    29.760075 
167760000    305.08655    325.58994    299.28366   -273581.63    273672.63    26.306279    29.761781 
167764000    289.42176    400.95217    232.65022   -273573.49    273705.06    168.30195    29.763246 
167768000    308.30725    303.70699     437.0092    -273610.4    273719.43   -133.30221    29.758202 
167772000    268.79635    253.70084    284.35274   -273677.98    273812.09   -30.651904    29.758917 
167776000    291.47394    387.20206    413.43124    -273750.5    273877.55   -26.229182    29.755493 
167780000    290.81914    354.05899    185.95302   -273820.57    273935.23    168.10597    29.757785 
167784000    277.82999    323.88017    377.85852   -273874.83    273992.35   -53.978353    29.759631 
167788000    303.69383    377.53465    218.79511   -273907.49    274019.83    158.73953    29.760436 
167792000    265.15018    287.57433     158.6085    -273918.9    274064.24    128.96583    29.760136 
167796000    299.80307    455.52836    667.05957   -273953.75    274062.55   -211.53121    29.756757 
167800000    277.24723    301.31197     332.7657   -273981.94    274107.83    -31.45373     29.75356 
167804000    250.79192    281.31706    241.32069   -274031.64    274169.85    39.996369    29.755035 
167808000    282.04997    462.37374    213.13408   -274076.68     274206.4    249.23966    29.755659 
167812000    284.53312    460.17999    227.15321   -274105.88    274226.12    233.02678    29.751164 
167816000    261.86576    195.74412     226.9821    -274146.1    274278.93    -31.23798    29.745567 
167820000    283.30171    429.40461    436.64299   -274160.85    274299.88   -7.2383792    29.742729 
167824000    283.83171    263.67861    424.77969   -274192.77     274312.5   -161.10108    29.742985 
167828000    276.48377    300.46159     140.3231   -274234.75    274343.85    160.13848    29.740483 
167832000    282.43078    365.80484    403.31524   -274262.17     274379.1   -37.510399    29.736844 
167836000    263.22713    501.01555    284.41756   -274307.59    274441.85    216.59798    29.736958 
167840000    284.72727    148.45224    265.57852   -274336.72    274480.23   -117.12629    29.735551 
167844000    284.46267    278.95289    283.45444   -274384.74    274513.29   -4.5015538    29.734839 
167848000    271.83783    305.61254    420.19041   -274411.09    274558.97   -114.57787    29.731361 
167852000    290.60696    500.59563    253.68432   -274437.11    274575.85    246.91131    29.728664 
167856000    280.23236     194.5692    247.77661   -274484.41    274613.85   -53.207414    29.728426 
167860000    270.70475    310.95378    458.93576   -274525.67    274659.86   -147.98198     29.72397 
167864000    289.42258    507.02287    220.70765    -274574.2    274710.78    286.31523    29.726645 
167868000    288.70205    269.76282    423.98501   -274636.13    274748.54    -154.2222    29.722851 
167872000    269.79538    421.35623    182.62263   -274667.09     274800.9     238.7336    29.727256 
167876000    295.99178     325.1985    371.48539   -274679.43    274797.07   -46.286886    29.728531 
167880000    277.99916    186.52825    120.53195   -274713.33    274844.31    65.996307    29.727086 
167884000    292.38153    308.41656    375.44511   -274751.96    274874.64   -67.028547    29.727918 
167888000     278.0195     260.2703    358.74282   -274804.35    274930.27   -98.472517    29.724941 
167892000    253.28863    441.49965    315.66826   -274835.42    274985.74    125.83139    29.725815 
167896000    268.26382    145.87803    334.21987   -274885.29    275025.38   -188.34185    29.729185 
167900000    269.04783    429.09709     221.0514   -274908.88    275025.52    208.04569    29.732876 
167904000    277.51329      371.201    244.63237   -274948.89    275056.94    126.56863     29.73393 
167908000     287.5287    293.05182    276.19804   -274966.77    275096.64    16.853784    29.733769 
167912000    299.49507    385.03408    334.24429   -275003.39    275112.52    50.789791    29.733398 
167916000    295.02727     266.7846    437.50476   -275045.52    275159.95   -170.72016    29.732312 
167920000    277.21959    314.48981    264.85511   -275070.53    275209.27    49.634692    29.737141 
167924000    276.94985    243.52024    314.58667   -275082.52    275204.93    -71.06642    29.730843 
167928000     293.2165    472.86617    376.28524    -275109.4    275234.22    96.580924    29.729598 
167932000    318.55309    327.60444    315.57662   -275180.77    275282.58    12.027818     29.72574 
167936000    312.29971    455.34305    497.11409   -275167.24    275260.25   -41.771039    29.727493 
167940000    259.22959    258.63115    255.67314   -275185.92    275324.07    2.9580072     29.72665 
167944000    292.48257    326.85418    312.88114   -275217.53    275336.27     13.97304    29.732311 
167948000    306.94625    474.13624    281.60508   -275283.41    275391.25    192.53116    29.728189 
167952000    282.34456    438.38391      408.956   -275289.79     275413.4    29.427918    29.725075 
167956000      293.069    474.76626    479.37947   -275339.36    275457.42    -4.613204    29.729156 
167960000    289.79784    508.22872    506.88758   -275390.45    275500.23    1.3411445    29.727904 
167964000    292.04373    292.70103    470.11534   -275386.92    275514.84   -177.41431    29.728941 
167968000    275.56981    244.34683    316.68335   -275398.04    275517.92   -72.336526     29.72184 
167972000    290.16913     636.7133    262.59028    -275426.8    275536.16    374.12303    29.724097 
167976000    286.51703    290.00515    251.18146   -275450.94    275547.95    38.823688     29.72354 
167980000    298.94988    340.22286    502.21157   -275465.12     275575.8   -161.98871    29.721987 
167984000    285.73929    354.63379    202.86418   -275515.58    275627.11    151.76961     29.72524 
167988000    280.66378    312.78852    342.04306   -275521.39    275644.18   -29.254543    29.724745 
167992000    312.04661    441.47552     506.8633   -275561.75    275655.04   -65.387777    29.725148 
167996000      259.498    483.19425    246.88274   -275592.06    275733.61    236.31151    29.723361 
168000000    266.62559    242.33311    303.54712   -275637.99    275762.07   -61.214012    29.726986 
168004000     256.3378    311.13356    294.54049   -275633.46    275779.77    16.593069    29.725862 
168008000     280.1238    195.76262    186.88719   -275690.33    275814.44    8.8754219    29.728376 
168012000    306.93507       229.89    274.15639   -275756.63    275862.66   -44.266394    29.726726 
168016000    256.72331    451.06874    256.58104   -275768.08    275905.94     194.4877     29.72614 
168020000    298.32551    375.34393    592.28355   -275808.09    275918.93   -216.93962    29.726551 
168024000    289.41662    501.19302    153.30584   -275840.08    275961.84    347.88718    29.727774 
168028000     247.5757    515.56468    188.94323   -275867.17    276016.58    326.62146    29.725017 
168032000    273.49014    275.24255    297.51218   -275920.92     276045.7   -22.269628     29.72395 
168036000    295.55668    356.55655    294.45557   -275926.92    276051.07    62.100986    29.726917 
168040000    274.55613     308.5561    216.13148   -275988.89    276121.22    92.424618    29.724999 
168044000     268.6509    401.42758    359.59595   -276032.38     276155.6    41.831627    29.727224 
168048000    327.42989    611.27079    444.75953   -276109.16    276190.35    166.51126    29.723107 
168052000    304.45823    322.25219    311.70024    -276096.1    276202.51     10.55195    29.726446 
168056000    285.56299    199.76492    335.50316   -276121.09    276242.51   -135.73825     29.72912 
168060000    288.12884    401.98212    454.20139   -276151.75    276264.06   -52.219268    29.725437 
Loop time of 5144.93 on 1 procs for 32000000 steps with 196 atoms

Performance: 671.729 ns/day, 0.036 hours/ns, 6219.716 timesteps/s
99.9% CPU use with 1 MPI tasks x no OpenMP threads

MPI task timing breakdown:
Section |  min time  |  avg time  |  max time  |%varavg| %total
---------------------------------------------------------------
Pair    | 1568.5     | 1568.5     | 1568.5     |   0.0 | 30.49
Bond    | 2527.9     | 2527.9     | 2527.9     |   0.0 | 49.13
Neigh   | 16.544     | 16.544     | 16.544     |   0.0 |  0.32
Comm    | 8.596      | 8.596      | 8.596      |   0.0 |  0.17
Output  | 4.1199     | 4.1199     | 4.1199     |   0.0 |  0.08
Modify  | 989.79     | 989.79     | 989.79     |   0.0 | 19.24
Other   |            | 29.51      |            |       |  0.57

Nlocal:    196 ave 196 max 196 min
Histogram: 1 0 0 0 0 0 0 0 0 0
Nghost:    0 ave 0 max 0 min
Histogram: 1 0 0 0 0 0 0 0 0 0
Neighs:    3913 ave 3913 max 3913 min
Histogram: 1 0 0 0 0 0 0 0 0 0

Total # of neighbors = 3913
Ave neighs/atom = 19.9643
Ave special neighs/atom = 5.87755
Neighbor list builds = 77666
Dangerous builds = 0

write_restart FINALCONFIG

Total wall time: 1:30:03
