LAMMPS (16 Mar 2018)
# 1. INITIALIZATION
#allows pair, bond, bending and dihedral interactions
atom_style molecular

  # periodic (video game) boundaries in all cartesian directions
boundary p p s

  # uses real units (instead of units based on pair potential parameters).  List of units used in manual
units real

###########
# 2. ATOM DEFINITION
##########

   ##
   # Read in data from starting configuration file
   ##

#read_data chainconfig.dat

 #use to restart
read_restart RESTART
  orthogonal box = (-400 -400 -0.0371672) to (400 400 123.895)
  1 by 1 by 1 MPI processor grid
  196 atoms
  194 bonds
  192 angles
  190 dihedrals
  2 = max # of 1-2 neighbors
  2 = max # of 1-3 neighbors
  4 = max # of 1-4 neighbors
  6 = max # of special neighbors

   ##
   # Specify the nature of the bond interactions
   ##


bond_style harmonic
bond_coeff 1 450 1.54

special_bonds lj 0.0 0.0 0.0 angle no dihedral no

angle_style harmonic
angle_coeff 1 62.1  114.00

dihedral_style opls
dihedral_coeff * 1.4110 -0.2708 3.143 0.0

mass * 14.0

pair_style lj/cut 14.0
pair_coeff 1 1 0.0912 3.95 14.0
#pair_modify tail yes

group twistables type 3
6 atoms in group twistables
group freeze type 2
6 atoms in group freeze
fix startend freeze setforce 0.0 0.0 0.0
fix startend0 twistables setforce 0.0 0.0 0.0

################
# 3.  Simulation Settings
###############

neighbor        2.0 bin
neigh_modify    every 1 delay 0 check yes



# Define some variables
variable Lx          equal xhi-xlo   # Ang
variable Ly          equal yhi-ylo   # Ang
variable Lz          equal zhi-zlo   # Ang

variable dz          equal ${Lz}/30  # Ang
variable dz          equal 123.931948666893/30  

variable zzlo        equal zlo+0.05  # Ang
variable zzhi        equal zhi  # Ang
variable vol         equal ${Lx}*${Ly}*${Lz}  # Ang^3
variable vol         equal 800*${Ly}*${Lz}  
variable vol         equal 800*800*${Lz}  
variable vol         equal 800*800*123.931948666893  
variable TEMP        equal 300.00 # K
variable TThi        equal 320.00 # K
variable TTlo        equal 280.00 # K
variable dt          equal 1.25 # fs

timestep     ${dt}
timestep     1.25

variable zlo1      equal ${zzlo}+2.7
variable zlo1      equal 0.0128327665533126+2.7
variable zlo2      equal ${zzlo}+8.4
variable zlo2      equal 0.0128327665533126+8.4
variable zhi1      equal ${zzlo}+115.5
variable zhi1      equal 0.0128327665533126+115.5
variable zhi2      equal ${zzlo}+121
variable zhi2      equal 0.0128327665533126+121

# heat layers

region          hot  block  INF INF INF INF ${zlo1} ${zlo2}
region          hot  block  INF INF INF INF 2.71283276655331 ${zlo2}
region          hot  block  INF INF INF INF 2.71283276655331 8.41283276655331
region          cold block INF INF INF INF ${zhi1} ${zhi2}
region          cold block INF INF INF INF 115.512832766553 ${zhi2}
region          cold block INF INF INF INF 115.512832766553 121.012832766553
compute         Thot all temp/region hot
compute         Tcold all temp/region cold


# 1st equilibration run
fix             1 all nvt temp ${TEMP} ${TEMP} 50
fix             1 all nvt temp 300 ${TEMP} 50
fix             1 all nvt temp 300 300 50
thermo          100
run             8000
Unused restart file peratom fix info:
  fix style: STORE, fix ID: layers_COMPUTE_STORE
Neighbor list info ...
  update every 1 steps, delay 0 steps, check yes
  max neighbors/atom: 2000, page size: 100000
  master list distance cutoff = 16
  ghost atom cutoff = 16
  binsize = 8, bins = 100 100 16
  1 neighbor lists, perpetual/occasional/extra = 1 0 0
  (1) pair lj/cut, perpetual
      attributes: half, newton on
      pair build: half/bin/newton
      stencil: half/bin/3d/newton
      bin: standard
Per MPI rank memory allocation (min/avg/max) = 9.689 | 9.689 | 9.689 Mbytes
Step Temp E_pair E_mol TotEng Press Volume 
134452000    263.55741   0.85615236    586.93194    740.98294   -2.6383403     79316447 
134452100     308.1042     6.612068    586.36193    772.06201   -2.9902655     79316447 
134452200    275.82304     24.00401    580.82114    765.14949     -2.84556     79316447 
134452300    319.20746    4.3130447    592.53529    782.39021   -2.6473205     79316447 
134452400    282.27038   -1.0413861    606.44682    769.47734   -2.9926715     79316447 
134452500     292.1086    15.465452    585.88343    771.13933   -2.9061281     79316447 
134452600    317.41221    17.395664    577.40877    779.30281   -2.5650114     79316447 
134452700    280.97958    18.532432    571.98506    753.83911   -2.7729033     79316447 
134452800    311.72018    11.674945    603.59784    796.46263    -3.091748     79316447 
134452900    266.11222    4.9313419     604.4245    764.03569   -2.6971899     79316447 
134453000    311.92348    4.7103477    588.70134    774.71969   -2.8125758     79316447 
134453100    272.26815    20.207042      574.628    753.09307    -2.998023     79316447 
134453200    310.53214    11.365458    591.61874    783.48347   -2.7529801     79316447 
134453300    310.97179    7.5331867    591.75917    780.04719    -2.713617     79316447 
134453400    301.43088    9.2151363    586.95962    771.38385   -3.0258906     79316447 
134453500    306.22978    20.761325    601.87818    800.63801   -2.7841629     79316447 
134453600    280.60167    13.507736    579.85009    756.45978   -2.6373987     79316447 
134453700    310.62111    3.0018825    600.44527    783.99815   -3.0176847     79316447 
134453800    316.19214    2.7002911    599.81165    786.30115    -2.959667     79316447 
134453900    281.97625    24.775958    569.44829    758.12518   -2.6670605     79316447 
134454000    315.13451    15.597385    592.72504    791.49687   -2.8610444     79316447 
134454100    283.07719    14.115564    589.06659    767.72302   -2.8232014     79316447 
134454200    246.46121    16.554166     578.5986     738.4103   -2.7823384     79316447 
134454300    306.02679    10.937342    591.58818    780.40603   -2.9506972     79316447 
134454400     289.3756    16.115662    566.88963    751.20716   -2.6655929     79316447 
134454500    311.88747    23.741412    576.33368    781.36216   -2.6466402     79316447 
134454600    294.77476    10.842545    577.86119    760.04391   -3.0083624     79316447 
134454700    281.99375     21.67687    578.42649    764.01447   -2.6579227     79316447 
134454800    320.58264    11.098802     592.9584    790.39842   -2.7757369     79316447 
134454900    317.19675    11.415629    571.81847    767.60723   -2.9158784     79316447 
134455000    313.93759    25.938333    575.23442    783.65148   -2.6529863     79316447 
134455100    314.45978    20.303748    571.22864    774.31464   -2.6875781     79316447 
134455200    324.39495    8.9224043    583.03642    780.51597    -2.903185     79316447 
134455300     289.4969    11.246855    599.96724    779.48647   -2.8722738     79316447 
134455400    269.85667    10.428329    590.22913    757.51379   -2.7767201     79316447 
134455500     302.9086    24.495721    576.81057    777.37433   -2.7109657     79316447 
134455600    320.26121    16.694093    576.07879    778.92725   -2.7965887     79316447 
134455700    298.73981    2.5638167    580.53194    756.74065   -2.7963578     79316447 
134455800    286.11789    10.927115     612.5485    789.78392    -2.943381     79316447 
134455900    278.14563    28.815736    562.61485    753.10495   -2.6633109     79316447 
134456000    323.51088    11.586238    577.80645    777.43596   -2.7167604     79316447 
134456100    296.61728    10.800568    591.81501    775.02673   -2.8590478     79316447 
134456200    276.32174    19.217767    566.63519    746.46717   -2.8172841     79316447 
134456300    280.28544    9.2436232    608.70128    780.86305   -2.7900144     79316447 
134456400    292.27123    6.6465242    591.19582    767.72733   -2.8726942     79316447 
134456500    306.69793    16.871723    563.90542    759.04776   -2.8249741     79316447 
134456600    329.25895    16.100894    578.16563     785.6509   -2.6620544     79316447 
134456700    291.71204    11.938682    585.70727     767.2059   -2.7808603     79316447 
134456800    299.99669    14.434467    605.59021    794.40014   -2.8994396     79316447 
134456900    313.91257    11.489627    579.60191    773.55572   -2.7423108     79316447 
134457000    312.28329     5.017428    591.66795    778.20253   -2.8012077     79316447 
134457100    310.85196    28.539106    570.43791    779.66219   -2.8087996     79316447 
134457200    277.70368    20.090389      569.737    751.24487    -2.640319     79316447 
134457300    295.09904    3.3991297    599.90713    774.83493   -2.9171943     79316447 
134457400    290.89311    12.353021    573.20407    754.64103   -2.8369665     79316447 
134457500    303.68338    26.814516    565.92294    769.25584   -2.5655728     79316447 
134457600    313.34196    14.484419    584.60431    781.22123   -2.8569522     79316447 
134457700    288.97108   -2.0597452    603.85687    769.76387   -3.0474688     79316447 
134457800    308.38673    25.922136    584.45648    789.63086   -2.5385077     79316447 
134457900    312.25501    21.564264    560.79063    763.85561   -2.7709067     79316447 
134458000    295.83144    7.6227332    614.17773    793.75484   -2.9523419     79316447 
134458100    312.46914    19.433546    574.51294    775.57166   -2.6654476     79316447 
134458200    309.93053    17.162327    575.93136    773.24328    -2.740617     79316447 
134458300    297.26124    12.230382    603.22628    788.24212   -2.9596051     79316447 
134458400    284.32366    18.436282    583.42386    767.12554   -2.6749951     79316447 
134458500    304.34685    17.446586    584.59186    778.94248   -2.7424313     79316447 
134458600    313.54597    22.275422    587.36795    791.89447   -2.8089351     79316447 
134458700    290.55512    10.729893    590.18082    769.79818   -2.9282251     79316447 
134458800    297.54113    16.680233    598.95933    788.58771   -2.6936717     79316447 
134458900    288.15954    23.958367    584.26091     775.7143   -2.7534331     79316447 
134459000     310.3484    14.756328    577.59359     772.7424   -2.8374782     79316447 
134459100    301.15901    10.362244    589.78397    775.19729   -2.8024374     79316447 
134459200    304.02483    8.4315089    581.45889    766.60725   -2.7453335     79316447 
134459300    281.66871    11.480853    580.19645    755.39948   -2.8365465     79316447 
134459400    342.51843    19.018743    572.48125    790.59156   -2.7307753     79316447 
134459500    282.67168    4.7991942    595.37576    764.48012   -2.8039763     79316447 
134459600     321.0648     1.058363    610.16631    797.84615   -2.9853265     79316447 
134459700    285.75082    26.670641    569.32919    762.09477   -2.7733719     79316447 
134459800    332.41157    23.917248    574.11961    791.25373   -2.4961301     79316447 
134459900    312.68643    2.0069756    603.19779    786.95624   -2.8933737     79316447 
134460000    304.80027    9.9299382     590.5984    777.69593   -3.0101651     79316447 
Loop time of 1.13666 on 1 procs for 8000 steps with 196 atoms

Performance: 760.122 ns/day, 0.032 hours/ns, 7038.170 timesteps/s
99.9% CPU use with 1 MPI tasks x no OpenMP threads

MPI task timing breakdown:
Section |  min time  |  avg time  |  max time  |%varavg| %total
---------------------------------------------------------------
Pair    | 0.39996    | 0.39996    | 0.39996    |   0.0 | 35.19
Bond    | 0.67715    | 0.67715    | 0.67715    |   0.0 | 59.57
Neigh   | 0.013035   | 0.013035   | 0.013035   |   0.0 |  1.15
Comm    | 0.0022597  | 0.0022597  | 0.0022597  |   0.0 |  0.20
Output  | 0.00049853 | 0.00049853 | 0.00049853 |   0.0 |  0.04
Modify  | 0.036431   | 0.036431   | 0.036431   |   0.0 |  3.21
Other   |            | 0.007323   |            |       |  0.64

Nlocal:    196 ave 196 max 196 min
Histogram: 1 0 0 0 0 0 0 0 0 0
Nghost:    0 ave 0 max 0 min
Histogram: 1 0 0 0 0 0 0 0 0 0
Neighs:    3877 ave 3877 max 3877 min
Histogram: 1 0 0 0 0 0 0 0 0 0

Total # of neighbors = 3877
Ave neighs/atom = 19.7806
Ave special neighs/atom = 5.87755
Neighbor list builds = 61
Dangerous builds = 0
velocity        all scale ${TEMP}
velocity        all scale 300
unfix           1

# Second Equilibration
fix             1 all nve
fix             hot all langevin ${TThi} ${TThi}  50.0 599804  tally yes
fix             hot all langevin 320 ${TThi}  50.0 599804  tally yes
fix             hot all langevin 320 320  50.0 599804  tally yes
fix             cold all langevin ${TTlo} ${TTlo} 50.0 27859 tally yes
fix             cold all langevin 280 ${TTlo} 50.0 27859 tally yes
fix             cold all langevin 280 280 50.0 27859 tally yes
fix_modify      hot temp Thot
fix_modify      cold temp Tcold


variable        tdiff equal c_Thot-c_Tcold
thermo_style    custom step c_Thot c_Tcold f_hot f_cold v_tdiff
thermo          4000
run             1600000
Per MPI rank memory allocation (min/avg/max) = 10.44 | 10.44 | 10.44 Mbytes
Step c_Thot c_Tcold f_hot f_cold v_tdiff 
134460000    423.08213    206.61291           -0           -0    216.46921 
134464000    284.84423    358.86751   -12.397696    33.835674   -74.023284 
134468000    422.71667    280.15184   -34.281649    78.136255    142.56483 
134472000    354.05333    442.35124   -60.647914    87.153698   -88.297905 
134476000    320.89854    214.61484   -89.627322    122.36493     106.2837 
134480000    366.64486    371.54167   -118.26256    130.07689   -4.8968143 
134484000    340.88929     430.3162   -141.65849    139.56197   -89.426905 
134488000    400.12984    378.98381   -155.42463    175.50282    21.146035 
134492000    347.66687    277.46904    -189.5392    198.31229    70.197829 
134496000     302.3674    397.32154   -179.86329     201.7628   -94.954139 
134500000    162.02191    275.35173   -240.41493    234.68416   -113.32982 
134504000    320.72332    575.31571   -265.06076    269.51068   -254.59239 
134508000    187.50979    354.93081   -295.66395    313.09983   -167.42102 
134512000    464.98801    293.43531   -299.24048    335.41894     171.5527 
134516000    328.19536    527.52972    -317.8094    345.84866   -199.33436 
134520000    273.11411    344.00204   -337.88084    370.98285   -70.887927 
134524000    356.26618    398.21678   -375.21564    393.75877   -41.950599 
134528000    379.24504    350.86442    -410.8206    420.95025    28.380626 
134532000    447.86151    293.71851   -416.47403    430.82978      154.143 
134536000    255.89282    353.69988   -407.89908    458.64209   -97.807065 
134540000    432.91661    347.68745   -437.45567    464.54125    85.229163 
134544000    360.20337     445.9381   -443.69649     469.6079   -85.734731 
134548000    375.85242    419.39898   -473.24899    492.83997   -43.546556 
134552000    531.73517    210.88771   -483.41735    531.69565    320.84746 
134556000     414.7292    293.61894   -521.05565    508.37489    121.11025 
134560000    342.40741    418.44388   -511.04413     545.9348   -76.036468 
134564000    339.28558    427.31602   -537.20569    562.81156   -88.030439 
134568000    167.49179    408.47028   -558.23557    566.28844   -240.97849 
134572000    425.27293    304.95153   -573.77717    582.65576     120.3214 
134576000    391.14118    399.75255   -592.46366    586.32297   -8.6113684 
134580000    329.29356    245.66293   -597.47366    621.63154    83.630634 
134584000    343.24573    258.92287    -628.2583    627.66368    84.322862 
134588000    453.03913    272.92559   -647.52607    657.21546    180.11354 
134592000    217.64522    415.06512   -645.31491    655.43437    -197.4199 
134596000    303.47239    316.21899    -653.0649    686.25467   -12.746604 
134600000    544.87782    359.98177   -703.41108    718.87372    184.89605 
134604000    146.80146    310.57481   -732.89202    753.41266   -163.77335 
134608000      404.284    442.83431   -759.08189    768.63864    -38.55031 
134612000    218.82223    320.90233   -760.35674    770.68092   -102.08009 
134616000    308.40979    313.15995    -786.5892    796.08012    -4.750163 
134620000    375.57551    259.95224   -819.85269    807.49516    115.62327 
134624000    361.09874    222.92919   -828.78241    825.14926    138.16955 
134628000    324.69907    346.38911     -834.161    835.33726   -21.690044 
134632000    534.17687      436.083   -827.53807    872.54777    98.093875 
134636000     580.5891    247.83354   -867.41977    879.36934    332.75556 
134640000    320.72714    464.46914   -877.80029    900.94767     -143.742 
134644000     278.5022    253.67501   -888.85693    919.37591    24.827188 
134648000    431.78393     225.9242   -920.71875    937.97219    205.85973 
134652000    480.65592      260.521   -940.04407    960.42815    220.13492 
134656000    368.64366    327.81404   -967.01639    981.40678    40.829625 
134660000    236.81842    293.34202   -981.41905    986.58682   -56.523593 
134664000    385.68994    354.86862   -1000.8142    998.79788    30.821322 
134668000    516.01981    239.62611   -1036.5596    1018.6667     276.3937 
134672000    306.97065    296.40761   -1066.4018    1073.5164    10.563042 
134676000    351.70458    327.09156    -1085.141    1089.6106    24.613025 
134680000    375.38568    416.14742   -1097.2679    1117.7656   -40.761737 
134684000    512.46563    247.24586   -1125.8772    1158.2393    265.21976 
134688000    270.22261    250.09737   -1142.1808    1184.4088    20.125242 
134692000    384.52122     384.0125   -1191.9236    1192.2606   0.50871337 
134696000    274.18761    269.33317   -1194.5798    1217.7901    4.8544433 
134700000    393.10083    355.95661   -1217.5591    1214.1726    37.144219 
134704000    421.14278    417.51812    -1241.885    1250.3957     3.624667 
134708000    273.96867    332.58711   -1266.0451    1289.6424   -58.618441 
134712000     258.7933     304.0471   -1285.0188    1298.1187   -45.253803 
134716000    282.87979    168.85626   -1311.4201    1301.3923    114.02354 
134720000      410.168    541.59621   -1333.2671    1334.2484    -131.4282 
134724000    406.32771    244.34984   -1372.3467    1368.3598    161.97786 
134728000    417.59264    440.33079   -1393.5244    1408.1222    -22.73815 
134732000    322.61228    409.04439   -1428.3478    1442.8038   -86.432114 
134736000    242.21838    266.84145   -1428.8251    1445.0644   -24.623073 
134740000    256.46843    521.61823   -1437.7626    1431.3156    -265.1498 
134744000    404.45895    375.54548   -1441.4437    1466.5968    28.913466 
134748000    318.13978    411.36956   -1462.6963    1488.2458   -93.229782 
134752000    177.47438    351.65656   -1472.9092    1481.1703   -174.18217 
134756000    598.15214    266.35723   -1501.9913    1513.0478    331.79491 
134760000    322.11449    381.53484   -1517.2431    1538.6664   -59.420352 
134764000    423.33561    371.57292   -1560.1387    1549.8214     51.76269 
134768000    305.77625    276.79545   -1551.3799    1583.5361    28.980801 
134772000    434.63056    350.65546    -1579.364    1581.3127    83.975105 
134776000    370.20422    211.83792   -1594.6345    1608.1608     158.3663 
134780000    307.80325    575.63779   -1571.4063    1592.4241   -267.83454 
134784000    359.46838    297.26891   -1630.1633    1635.9677    62.199471 
134788000    324.56991     262.1582    -1637.613    1674.8959     62.41171 
134792000    266.97355    352.74544   -1667.3787    1684.0371   -85.771894 
134796000    368.97257    335.09475   -1666.5864    1717.7746    33.877817 
134800000    292.27277    471.73609   -1701.0282    1721.3152   -179.46332 
134804000    291.58957    357.91266   -1713.9909    1738.2239   -66.323088 
134808000    232.13926    129.63851   -1737.2759    1783.8583    102.50075 
134812000     743.0551     491.7336   -1762.2127    1767.4945    251.32149 
134816000     200.5791    388.93802   -1778.7257    1804.2485   -188.35892 
134820000    337.68769    250.81851   -1762.8808    1805.1484    86.869181 
134824000    514.32191    522.16255   -1799.0926    1814.8801   -7.8406363 
134828000     392.5981    470.66134   -1841.5755    1860.7838   -78.063244 
134832000    286.08317    291.26929   -1884.4686     1899.409   -5.1861216 
134836000    518.18239    333.47701   -1916.7203    1934.9854    184.70538 
134840000    399.98636    462.10203   -1920.0495    1949.5325   -62.115666 
134844000    404.84956    161.69211   -1924.4353    1972.9867    243.15745 
134848000    277.26815    258.40566    -1961.848    1990.3196    18.862491 
134852000    328.84183    468.29405   -1983.9803    2022.3048   -139.45222 
134856000    183.25244    385.75665   -2007.9131    2044.8196   -202.50421 
134860000    209.68278    204.43066   -2043.2192    2076.5448    5.2521208 
134864000    433.55736    223.48662   -2060.2674    2103.7062    210.07074 
134868000    242.80797    244.44759   -2080.1356    2114.2391    -1.639623 
134872000    265.70901    149.86208   -2123.1674    2157.7769    115.84693 
134876000     261.7876    445.19973   -2147.4438    2161.8046   -183.41212 
134880000    536.66834     330.4246   -2204.3769    2212.9761    206.24374 
134884000    346.12197    131.07471   -2212.6862    2224.8677    215.04726 
134888000    539.90579    336.31849   -2210.2751    2251.6787    203.58729 
134892000    267.75453    287.39478     -2249.61    2258.3475    -19.64025 
134896000    283.85815    488.49029   -2255.9886    2277.1668   -204.63214 
134900000    252.39495    183.56261   -2274.7953    2283.1801     68.83234 
134904000    336.32993    264.94547   -2311.1118    2310.8693    71.384465 
134908000     312.1367    225.51105   -2313.0345    2322.2347    86.625652 
134912000    314.58467    384.14492   -2333.6527    2352.2827   -69.560249 
134916000    352.78315    229.68748   -2342.7188    2397.2528    123.09567 
134920000    203.87549    325.85189   -2359.5606    2414.2484    -121.9764 
134924000    349.45219    305.66838   -2404.2031    2428.7752    43.783811 
134928000    280.85457    328.19678   -2448.0812    2454.7777   -47.342211 
134932000    397.07011    291.15436   -2486.3927    2492.6514    105.91574 
134936000    282.90863    339.96056   -2526.2087    2536.6184   -57.051931 
134940000    424.35191    334.24149   -2563.2734    2576.8775    90.110422 
134944000    431.47139    154.53427   -2586.0336    2613.6812    276.93712 
134948000    409.96162    240.74116   -2609.1633    2648.7502    169.22046 
134952000    349.20805    307.70578   -2625.0355    2642.3828    41.502271 
134956000    309.06217    439.74774    -2653.558    2669.9151   -130.68557 
134960000    401.31167     310.8166   -2656.1053    2686.0324    90.495067 
134964000    422.26704    408.70937   -2685.7611    2711.9416    13.557663 
134968000    711.51099    290.86006   -2721.1831    2726.1261    420.65092 
134972000    401.41868    338.23948   -2736.4725    2751.6733    63.179201 
134976000    305.77444    370.66218    -2753.726    2764.4053   -64.887734 
134980000    254.79254    285.55412    -2776.175    2783.4549   -30.761582 
134984000    333.51955    419.94073   -2803.8858    2814.0859   -86.421187 
134988000    410.22513    368.94779    -2834.694    2876.0957    41.277334 
134992000     220.7878    258.79779   -2855.3013    2883.4942   -38.009993 
134996000    612.84312    141.75604   -2876.6787     2900.491    471.08708 
135000000    330.09359    287.50411   -2886.0979     2915.662    42.589473 
135004000    389.43372    348.45341   -2912.7985    2923.8825    40.980313 
135008000    364.94554    465.66669   -2914.4016    2929.5832   -100.72115 
135012000     467.4039    211.55674   -2945.0314    2974.1183    255.84716 
135016000    249.04072     455.7492   -2952.9432    2985.4446   -206.70848 
135020000    323.08824    172.07679   -2963.0279     2993.491    151.01145 
135024000    377.15074    242.92348   -2992.5927    3025.9839    134.22727 
135028000    248.85048    402.22686   -3031.1062    3055.2571   -153.37637 
135032000    190.84904    376.34516   -3039.1488    3071.0389   -185.49611 
135036000    353.72679    364.19385    -3068.734    3092.8399   -10.467059 
135040000    345.81867    301.77148   -3098.0829    3123.2819    44.047184 
135044000    294.87786    227.97983   -3113.7038    3127.5896    66.898034 
135048000    378.45407    274.59363   -3143.2912    3168.2037    103.86043 
135052000    443.55283    297.38953   -3146.7317    3172.7433     146.1633 
135056000    492.85963    361.44927   -3175.9474    3204.9199    131.41035 
135060000    331.84831    340.07714   -3191.5585    3227.1055   -8.2288313 
135064000    618.51779    322.93129   -3212.8027    3255.6704    295.58649 
135068000    317.25711    373.91263   -3220.8966    3276.7781   -56.655524 
135072000    417.87467    322.69023   -3235.1474    3279.5063    95.184444 
135076000    307.66292    417.65245   -3252.7472    3288.3706   -109.98952 
135080000    393.40901    304.38006   -3276.2685     3301.709    89.028943 
135084000    310.75435    380.62279   -3293.3066    3324.4533   -69.868432 
135088000    380.48976    380.81372   -3294.5549     3318.644  -0.32396065 
135092000    469.03119    224.92191   -3300.9296     3346.455    244.10927 
135096000    367.53079    286.25219   -3307.4163    3362.8738    81.278606 
135100000    378.18646    414.09201   -3360.2427    3377.4429   -35.905552 
135104000    272.06196    289.90552   -3403.8084    3401.7985   -17.843555 
135108000    342.85522    383.81246   -3424.2938    3453.5075   -40.957243 
135112000     249.8642    309.63152   -3460.6183    3467.8839   -59.767319 
135116000    197.18517    463.96419   -3488.9884    3503.1528   -266.77902 
135120000    295.68301    272.13027   -3524.8886    3534.8607    23.552739 
135124000    378.21062      600.778   -3538.1285    3541.7173   -222.56738 
135128000    398.20903    284.28245   -3566.8904    3567.0452    113.92658 
135132000    243.56778    289.26765   -3571.6233    3593.3814   -45.699871 
135136000    411.50966    165.17642   -3607.5909    3627.7288    246.33323 
135140000     301.3326    238.42534   -3628.3655    3636.6934    62.907254 
135144000    363.13753    415.73032   -3649.7495    3644.0682   -52.592791 
135148000    420.10142    293.95032   -3670.2135    3682.2228     126.1511 
135152000    290.51154    405.51021   -3666.4671    3693.2986   -114.99867 
135156000    478.67071    298.15456   -3689.4633    3701.8581    180.51615 
135160000    277.04102    246.10945   -3706.1113    3740.8458    30.931577 
135164000    261.28122    324.92727   -3717.6024    3749.1427   -63.646049 
135168000    543.31795    292.00213   -3759.4996    3760.2853    251.31582 
135172000     586.7435    382.00217    -3771.232    3789.2386    204.74133 
135176000    202.91919    261.83182   -3767.1746     3818.943    -58.91263 
135180000    430.06775    341.12484   -3817.5673    3814.6286    88.942913 
135184000    246.97445    249.24197   -3829.5581    3861.1907   -2.2675232 
135188000    442.20404    271.09819   -3860.1685    3863.5314    171.10584 
135192000    305.60404    306.53231   -3880.9008    3873.7746  -0.92826929 
135196000    339.21508    337.02704   -3868.5494    3895.4313    2.1880337 
135200000    302.05313    226.19847   -3883.0341    3931.9217    75.854662 
135204000    501.85951    175.44509    -3915.082    3953.8308    326.41442 
135208000    333.54203      407.603   -3935.9019    3957.2634    -74.06097 
135212000    310.97596    233.17333   -3949.3575    3969.8147    77.802634 
135216000    397.98363    366.57879     -3967.33    3980.2826    31.404832 
135220000     294.7799    228.44003   -3978.5906    4012.1847    66.339877 
135224000    180.39437    464.29823   -3993.6893     4031.733   -283.90385 
135228000    369.90192    227.29811    -4010.199    4040.3432    142.60381 
135232000    405.23417    422.88358   -4046.3495     4023.732   -17.649417 
135236000    256.76058    288.82414   -4069.1759    4075.1522   -32.063564 
135240000    386.00745    281.34575   -4089.5879     4109.279     104.6617 
135244000    263.32795    409.12283   -4071.5662    4120.5139   -145.79488 
135248000    394.48365     367.8224    -4098.619    4115.4102    26.661256 
135252000    314.49215    284.21075   -4116.1905    4155.4758      30.2814 
135256000    263.04197    395.87913   -4159.1309    4165.3271   -132.83715 
135260000    376.80208    308.32961   -4188.0783    4183.1844    68.472471 
135264000    388.26275    369.70378   -4181.1701    4206.7815    18.558971 
135268000    482.77486    247.19712   -4214.8258    4246.9942    235.57774 
135272000    363.48566    328.00174   -4203.7077    4245.9756    35.483914 
135276000    241.37806    340.83547   -4230.1317    4233.4923   -99.457418 
135280000     277.5848    302.56797   -4239.3126    4264.1687   -24.983172 
135284000    369.71972    303.21597   -4272.4147    4295.2177    66.503749 
135288000    311.15905    363.97529   -4284.6528    4317.1846   -52.816243 
135292000    445.46259    190.35517   -4313.6218    4321.5497    255.10743 
135296000    317.75082    320.26907   -4360.7466    4352.6137   -2.5182465 
135300000    405.50872    243.14678   -4343.8028    4379.3871    162.36194 
135304000    312.26456    461.95551   -4362.2276    4390.4745   -149.69094 
135308000      462.032    307.93724   -4392.2076    4407.3864    154.09476 
135312000    215.46298    307.13082   -4416.8169    4434.5656   -91.667839 
135316000    429.73496     221.2444   -4442.1955    4431.0705    208.49056 
135320000    359.27353    339.29373   -4473.7382    4461.4254    19.979804 
135324000    486.30597    321.69871   -4511.0492    4536.2398    164.60726 
135328000    270.09235    342.74972   -4526.2685    4557.3536   -72.657375 
135332000    509.51079    439.54078   -4528.6204    4570.6928    69.970008 
135336000    279.79894     402.6729   -4566.9978    4587.3311   -122.87396 
135340000    507.01906     459.2804   -4586.5968    4608.5184    47.738658 
135344000    356.06478    402.38126   -4592.8968    4621.5083   -46.316482 
135348000    443.22376    452.64566   -4620.2439    4630.8697   -9.4218952 
135352000    564.40283    244.10738   -4658.3303    4673.7313    320.29546 
135356000    669.03153    386.40028    -4693.898    4691.6804    282.63125 
135360000    421.68211    274.12967   -4661.9831    4688.4177    147.55244 
135364000    301.75423    196.35009   -4682.2776    4703.9591    105.40414 
135368000    500.93224    371.88436   -4706.7063    4717.1732    129.04787 
135372000    395.29694    264.35361   -4699.5846    4733.9616    130.94333 
135376000    346.67848     366.8022   -4729.1252    4749.1314   -20.123719 
135380000    400.68089    258.23632   -4747.6112     4778.565    142.44457 
135384000    326.00528    261.64923   -4756.6887    4789.8316    64.356052 
135388000    384.80426    488.67604   -4765.5494    4789.3978   -103.87178 
135392000    191.95235    493.24965   -4765.8503    4779.6131    -301.2973 
135396000    378.72251    332.52732   -4794.9027    4805.8288    46.195184 
135400000     362.7984    227.41215   -4807.5607    4818.4169    135.38625 
135404000    558.69702    238.14543   -4821.4114    4836.0848    320.55159 
135408000     342.2496    277.95275   -4815.1932    4838.2482    64.296841 
135412000    248.59883    197.23329   -4828.9277    4857.1714     51.36554 
135416000    571.77061    368.36638   -4855.8362    4877.4439    203.40424 
135420000    285.87566    216.60163   -4883.3783    4884.6426    69.274029 
135424000    341.67598    206.19568   -4900.1427    4894.4729     135.4803 
135428000    421.68174    345.95504   -4891.3478    4902.7166    75.726692 
135432000    282.65311     329.9335   -4901.4552    4925.7883   -47.280385 
135436000    363.03898    290.04033   -4933.3324    4937.5413    72.998646 
135440000    348.63934    352.29343   -4959.8498    4971.3514   -3.6540874 
135444000     403.7321    264.66506   -4963.4918    5007.4014    139.06704 
135448000     474.5642    216.24257    -5016.636    5044.1677    258.32163 
135452000    287.51714    392.51161   -5038.7316     5043.564   -104.99447 
135456000    317.25885    366.54212   -5060.4146    5057.6798   -49.283266 
135460000    285.92912    265.55775   -5060.7383    5101.3519    20.371367 
135464000    285.67406    313.21949   -5113.7121    5111.0464    -27.54543 
135468000    374.76268    237.80261   -5129.3999    5154.2467    136.96007 
135472000    191.09339    271.51353   -5131.5779    5137.6346   -80.420141 
135476000     281.7273    188.20038   -5132.3363     5153.001    93.526914 
135480000    456.48047    276.37176   -5134.7366     5169.175     180.1087 
135484000    425.94421     221.8488   -5170.1962    5185.6032    204.09541 
135488000     285.9083    424.49247   -5183.8026    5198.7723   -138.58417 
135492000     494.2917     412.9503   -5208.5011    5225.2789    81.341402 
135496000    467.23065    397.36696    -5220.621    5250.8216    69.863686 
135500000    579.44531    318.66919    -5235.639    5258.6331    260.77611 
135504000    271.69892    242.79346   -5213.4665    5270.1989     28.90546 
135508000    351.79528    607.24595   -5250.8846    5268.7589   -255.45067 
135512000    306.73427    577.72734   -5296.5502     5298.608   -270.99307 
135516000    306.72767    382.96823   -5311.0362    5324.7674   -76.240556 
135520000    333.93804    366.82659   -5341.5702    5357.2522    -32.88855 
135524000    198.63492    245.46742   -5372.2061    5385.8006   -46.832507 
135528000    370.01884    300.94538   -5401.2079    5392.1069    69.073459 
135532000    400.19863     279.0008   -5410.6236    5416.4909    121.19783 
135536000    284.41267    377.00913   -5421.0736    5423.7959   -92.596462 
135540000    317.54934    269.02879   -5431.5498    5462.8778    48.520551 
135544000    534.07555    584.16706   -5464.0477    5449.7395   -50.091514 
135548000    145.94398    228.08884   -5450.6452    5488.9747   -82.144861 
135552000    388.55064    523.91623   -5502.6899     5507.022   -135.36558 
135556000    269.37063    418.85624   -5514.0512    5527.9425   -149.48561 
135560000    444.13574     237.6207   -5507.4195    5526.8395    206.51504 
135564000    269.94255    373.60945   -5556.8104    5549.6844   -103.66689 
135568000    310.84309    217.46805    -5550.706    5574.5604    93.375039 
135572000    286.68191    375.04513   -5573.0511    5584.2452   -88.363219 
135576000    241.14541    248.90271   -5576.3339    5586.2821   -7.7572991 
135580000    345.96819    419.15482   -5597.2911    5618.5533   -73.186629 
135584000    432.13369    211.39212   -5612.2074     5641.233    220.74158 
135588000    327.83521    553.07163   -5615.2284    5643.4606   -225.23643 
135592000      377.142    291.49077   -5632.4842    5642.0521    85.651234 
135596000    439.68186    247.46608   -5624.0016    5650.0193    192.21579 
135600000    329.77217    293.12617   -5620.5157    5650.8841    36.646004 
135604000    523.13533    321.40567   -5653.8956    5654.7462    201.72966 
135608000    231.10672    307.40257   -5664.3156    5679.0758    -76.29585 
135612000    470.89578    302.42823   -5703.3843    5728.2959    168.46755 
135616000    393.55177     311.7088   -5721.0675     5736.101    81.842975 
135620000    580.56155     244.4136   -5733.3033    5754.4542    336.14795 
135624000    264.13827    252.71176   -5739.5642    5769.9948    11.426506 
135628000    370.39877    337.43931   -5780.5832    5796.6877    32.959454 
135632000    399.21213    303.18558   -5797.4155    5803.7764     96.02655 
135636000    233.08871    572.21642   -5800.9317    5816.6001   -339.12771 
135640000    334.99814    405.18434    -5818.997    5838.3072   -70.186199 
135644000    449.19993    402.12013   -5844.4534    5857.8111    47.079801 
135648000    243.51632     249.2308   -5860.1714    5889.7299   -5.7144835 
135652000    244.61633    184.98204   -5878.6315    5894.4624    59.634288 
135656000    378.04511    449.49672   -5873.4029    5892.3901   -71.451611 
135660000    360.59466     154.6828   -5915.1568    5918.1158    205.91186 
135664000    338.68166    565.90455   -5924.4027    5949.2516   -227.22289 
135668000    261.25227    296.94459   -5970.4371    5956.4065   -35.692319 
135672000    451.12141    194.99797   -5988.1476    5987.4409    256.12344 
135676000    315.88997    203.15741   -5995.3204    6002.6575    112.73256 
135680000    313.83678     284.7718   -6009.7368    6029.1752    29.064977 
135684000    319.01122    507.09897   -6030.7119    6062.4517   -188.08776 
135688000    455.58427    274.64877   -6071.7128    6086.7281     180.9355 
135692000    371.01124    262.33216     -6098.28    6088.0165    108.67908 
135696000    402.34687    323.88247   -6084.3548     6103.011    78.464404 
135700000     280.9365    208.07778   -6107.8443    6128.4212    72.858722 
135704000    383.16608    169.80545   -6128.7013    6163.2095    213.36063 
135708000    269.68431    373.91387   -6167.6611     6193.795   -104.22956 
135712000    542.83122    170.42613   -6228.2478    6225.3976     372.4051 
135716000    593.94927    333.92259   -6249.6153    6270.3954    260.02668 
135720000    309.00048    303.31856   -6260.0413    6290.2759    5.6819251 
135724000    352.93584    209.65963   -6274.7885    6335.3942    143.27621 
135728000    226.17831    234.62775   -6308.2113    6355.4662   -8.4494347 
135732000    232.33386    238.86906   -6340.7193    6366.3008    -6.535196 
135736000    295.93775    187.51488   -6341.4107    6379.2422    108.42287 
135740000     410.5357    291.67591   -6373.3222    6397.6657    118.85979 
135744000    322.05617    198.00155   -6402.8167    6425.0582    124.05462 
135748000    229.22887    266.76988   -6395.8482    6434.4631   -37.541013 
135752000    359.36078    202.65547   -6439.6475    6442.6708    156.70531 
135756000    446.31691    268.63738   -6445.6958    6436.6934    177.67953 
135760000    191.26794    153.46115   -6415.6794    6460.0922    37.806786 
135764000    209.22537    392.72202   -6461.7076    6468.1018   -183.49665 
135768000    398.70061    341.66169   -6452.2389    6474.7916    57.038924 
135772000    217.51706     261.3325   -6478.0488    6500.5182    -43.81544 
135776000    404.13947     531.6262   -6489.4555    6516.9901   -127.48673 
135780000     321.3688    301.07201   -6520.7531    6533.1248    20.296783 
135784000    351.85429    390.99794   -6545.4347    6553.0971   -39.143651 
135788000    237.05617     382.2007   -6557.3495    6576.8122   -145.14453 
135792000    303.64668    238.13731   -6585.6469    6614.4881     65.50937 
135796000    459.46158    140.66967   -6611.6047    6619.1125    318.79191 
135800000    469.66863    245.74841    -6636.023    6647.3112    223.92022 
135804000    515.29571    248.50814   -6652.4076     6672.447    266.78757 
135808000    262.22282    481.21354   -6650.0457    6669.4636   -218.99072 
135812000    298.63341    279.20737   -6673.9278    6680.7119    19.426043 
135816000    389.12909    303.39241   -6673.8419    6688.3064    85.736689 
135820000    384.99716     430.9998   -6681.1868    6686.5926   -46.002636 
135824000    433.33169    393.46228   -6669.8415    6704.2817    39.869411 
135828000    419.39094     313.9192   -6715.5632    6713.6063    105.47174 
135832000    353.85561    470.59624   -6734.2987    6710.5174   -116.74064 
135836000    340.12734    428.89092   -6730.9634    6746.9225   -88.763584 
135840000    201.44584    464.29187   -6733.0944    6750.8978   -262.84603 
135844000    345.31763     329.3653   -6731.6027    6767.4348    15.952331 
135848000    389.31936     252.9271   -6757.4254    6800.5392    136.39226 
135852000    228.77455     359.1018   -6774.3954    6810.1963   -130.32725 
135856000    279.19994    336.93043   -6775.3409    6813.5407   -57.730486 
135860000    565.19716    350.36176   -6796.3449    6836.3285     214.8354 
135864000    290.54324    465.13216   -6818.0207    6836.0961   -174.58892 
135868000    433.78025    290.20601   -6848.8622    6854.5909    143.57424 
135872000    223.17137    292.82592   -6871.6219    6872.8574   -69.654553 
135876000    268.12912    284.99897   -6893.9441    6902.4302   -16.869851 
135880000    339.83597    361.11034    -6917.903    6914.8083   -21.274372 
135884000    280.57961    452.17864   -6914.1996    6922.7804   -171.59904 
135888000    385.14798    254.27071   -6936.3663    6949.3011    130.87727 
135892000    422.86198    398.43689   -6957.6385    6936.5739    24.425092 
135896000    209.79628    363.84926    -6965.032    6963.7932   -154.05298 
135900000    334.32853    260.27843    -6983.091    7002.9716    74.050097 
135904000    507.48132    359.02692   -6996.3011    7014.7007     148.4544 
135908000    364.96767    449.82434   -6997.9874    7012.2531   -84.856666 
135912000    178.20227    364.99872   -7024.3368    7034.8018   -186.79645 
135916000    319.92668    444.36892   -7056.8972    7050.8012   -124.44225 
135920000    304.01948    301.67834   -7054.1137    7080.4443    2.3411391 
135924000    385.64324    296.63946   -7091.2088    7105.1322    89.003782 
135928000    243.10214    386.67004   -7109.4115    7130.7617   -143.56789 
135932000    417.89283    260.37336   -7118.7084    7132.3684    157.51947 
135936000    404.81893    360.77778   -7105.5417    7131.1506    44.041152 
135940000    331.38781    433.91088   -7121.4139    7144.3587   -102.52307 
135944000    288.08649    213.98151   -7130.5251    7165.1001     74.10498 
135948000    360.78769    241.57181   -7152.5793    7186.6525    119.21588 
135952000    311.69539    333.16406   -7167.8305     7211.422   -21.468669 
135956000     606.0471    257.34717   -7207.5498    7209.8577    348.69993 
135960000    393.82123    274.76071   -7219.0899    7241.1276    119.06051 
135964000    346.21434    448.26351   -7241.4231    7263.7896   -102.04916 
135968000      263.466    487.28722    -7259.492    7287.6747   -223.82123 
135972000    286.15137    243.26757   -7281.1108      7294.35    42.883804 
135976000    272.52994    377.22148   -7302.6419     7320.382   -104.69154 
135980000      314.811    321.72745   -7339.5396    7365.9216   -6.9164444 
135984000    490.20285    167.02687    -7375.955    7390.9693    323.17598 
135988000    572.81203    195.92106   -7409.5524    7400.3005    376.89097 
135992000    241.37074    284.93815   -7399.4392    7416.1407    -43.56741 
135996000    347.59096    484.48525   -7419.1755    7425.8962   -136.89429 
136000000    308.35474    361.80969    -7426.406    7447.9022   -53.454948 
136004000    369.72569    434.28123   -7446.2765    7431.1763   -64.555548 
136008000    396.46047    224.86076   -7472.2606    7484.7835     171.5997 
136012000      384.302    199.96732   -7476.1109    7495.7502    184.33468 
136016000    377.61207    117.51969   -7505.3144    7519.8062    260.09239 
136020000    465.09515    536.44902   -7536.9671    7532.9979   -71.353877 
136024000    215.76026    472.07719   -7553.1042    7583.2624   -256.31694 
136028000    474.59942    194.94609   -7589.6296    7603.0284    279.65333 
136032000     245.5515    238.59575    -7605.887    7616.3258    6.9557525 
136036000    297.39356    373.10291   -7627.2653    7626.7725   -75.709353 
136040000    246.53924    378.75594   -7634.8012    7655.5567    -132.2167 
136044000    381.84003    425.19318   -7649.6868    7674.5129   -43.353152 
136048000    293.01817    191.70823   -7685.5416    7718.7586    101.30995 
136052000    336.49592    298.99982   -7712.8682    7735.3426      37.4961 
136056000    290.31999     284.7178   -7738.3757    7736.3268    5.6021927 
136060000    343.19438    144.36552   -7721.6155    7741.3702    198.82886 
Loop time of 267.76 on 1 procs for 1600000 steps with 196 atoms

Performance: 645.354 ns/day, 0.037 hours/ns, 5975.499 timesteps/s
99.9% CPU use with 1 MPI tasks x no OpenMP threads

MPI task timing breakdown:
Section |  min time  |  avg time  |  max time  |%varavg| %total
---------------------------------------------------------------
Pair    | 79.229     | 79.229     | 79.229     |   0.0 | 29.59
Bond    | 134.52     | 134.52     | 134.52     |   0.0 | 50.24
Neigh   | 2.3652     | 2.3652     | 2.3652     |   0.0 |  0.88
Comm    | 0.4666     | 0.4666     | 0.4666     |   0.0 |  0.17
Output  | 0.0039108  | 0.0039108  | 0.0039108  |   0.0 |  0.00
Modify  | 49.713     | 49.713     | 49.713     |   0.0 | 18.57
Other   |            | 1.46       |            |       |  0.55

Nlocal:    196 ave 196 max 196 min
Histogram: 1 0 0 0 0 0 0 0 0 0
Nghost:    0 ave 0 max 0 min
Histogram: 1 0 0 0 0 0 0 0 0 0
Neighs:    3886 ave 3886 max 3886 min
Histogram: 1 0 0 0 0 0 0 0 0 0

Total # of neighbors = 3886
Ave neighs/atom = 19.8265
Ave special neighs/atom = 5.87755
Neighbor list builds = 11115
Dangerous builds = 0
unfix 1


# PRODUCTION

fix             1 all nve
fix             hot all langevin ${TThi} ${TThi}  50.0 52804  tally yes
fix             hot all langevin 320 ${TThi}  50.0 52804  tally yes
fix             hot all langevin 320 320  50.0 52804  tally yes
fix             cold all langevin ${TTlo} ${TTlo} 50.0 297859 tally yes
fix             cold all langevin 280 ${TTlo} 50.0 297859 tally yes
fix             cold all langevin 280 280 50.0 297859 tally yes
fix_modify      hot temp Thot
fix_modify      cold temp Tcold


variable        tdiff equal c_Thot-c_Tcold
thermo          4000

dump gigo all atom 40000 dump.cords_xyz.dat
dump_modify gigo scale no
dump vfgigo all custom 4000 dump.velo.dat id vx vy vz fx fy fz

# thermal conductivity calculation
# # reset langevin thermostats to zero energy accumulation
#
compute         ke all ke/atom
variable        temp atom c_ke/1.5/0.0019872

fix             ave all ave/time 100 40 4000 v_tdiff ave running
thermo_style    custom step temp c_Thot c_Tcold f_hot f_cold v_tdiff f_ave

#compute         layers all chunk/atom bin/1d z lower 0.05 units reduced
compute         layers all chunk/atom bin/1d z lower ${dz} units box
compute         layers all chunk/atom bin/1d z lower 4.1310649555631 units box
fix             2 all ave/chunk  100 40 4000 layers v_temp file profile.langevin

dump mydump2 all xyz 40000 prod-coord.xyz
dump_modify mydump2 element C S S

run             32000000
Per MPI rank memory allocation (min/avg/max) = 11.82 | 11.82 | 11.82 Mbytes
Step Temp c_Thot c_Tcold f_hot f_cold v_tdiff f_ave 
136060000    275.18211    343.19438    144.36552           -0           -0    198.82886            0 
136064000    310.10325    391.00019     294.7924   -21.536022    16.092831    96.207797    17.119349 
136068000      273.265    449.70105    196.73795   -22.060983    40.979546     252.9631    27.621147 
136072000    282.71731    316.90243    263.30646   -26.309871    26.790619    53.595971    31.311642 
136076000    310.30321    495.58907    391.51042   -58.405974    46.982077    104.07865    29.244048 
136080000    282.64068    322.02089    335.50249   -62.786499    68.846233   -13.481607    32.521668 
136084000    310.57205    383.35308    392.01144   -80.111527    76.697511   -8.6583562     35.92478 
136088000    291.94435    391.24365     322.0558   -101.71063    94.166401    69.187851    34.726349 
136092000     314.6838    553.38352    184.25212   -114.58412     98.62292     369.1314    34.512597 
136096000    289.81019    522.08022    225.81104   -133.48607    143.03124    296.26918    35.795514 
136100000    283.62122    306.80854    357.60173   -147.80767    145.88144   -50.793189    37.210562 
136104000    282.92238    340.64362     315.6519   -157.58829    158.63459    24.991718    40.520323 
136108000    288.86303    348.06794    447.75349   -186.48054    180.72131   -99.685547    40.479914 
136112000    285.66319    331.94721    278.74796   -210.13105    211.29172    53.199256    41.155862 
136116000    308.56303    337.73952    348.16783   -236.64756    222.77994   -10.428311    40.800494 
136120000    307.21198    410.82322    323.32287    -265.6254    248.27252    87.500347    42.059885 
136124000    269.15304     179.6846    443.39759   -259.91311    274.05793   -263.71299    38.869659 
136128000    293.37313    296.77402     256.3555   -286.77615     271.6261    40.418523    40.589729 
136132000    304.45675    484.31893    228.70993   -307.51287    299.09751      255.609    41.578746 
136136000    250.50673    190.92594    367.59912   -330.43395    336.91395   -176.67318     41.44993 
136140000    292.98929    403.66136    325.63095   -383.14755    372.01966    78.030404    41.518799 
136144000    278.71075    568.19284    224.33557   -396.25631    406.91764    343.85727    42.389795 
136148000    295.50973    423.37596    417.46197   -423.76527    418.86764      5.91399    40.782827 
136152000    294.44276    237.23015    318.49832   -429.50227     424.8196   -81.268168    40.190736 
136156000    257.92716    328.74101    360.26498   -461.63931    457.72242   -31.523969    40.431129 
136160000    285.22462    474.45188    229.34178   -474.75199    472.70867     245.1101    42.198434 
136164000     251.4707    299.59507    447.73335   -477.86894    493.22192   -148.13828     40.62298 
136168000    280.30889     376.2584    200.28156   -509.49434    508.52648    175.97684    40.434371 
136172000     294.0417    399.42898    210.97044   -536.69324     517.0942    188.45854    40.986323 
136176000    291.46231    376.14089    480.83984   -537.72258     540.6723   -104.69895    41.371989 
136180000    286.24579    199.71742    407.20101   -569.08032    590.23703   -207.48359    41.824519 
136184000    271.01281    394.04376    333.01379   -580.24773    597.89544    61.029962    41.134389 
136188000    289.96981    352.74147    292.68124   -619.40319    635.24578    60.060228    41.628308 
136192000    273.90417    435.73092    216.00996   -635.91599    649.97705    219.72097    40.848824 
136196000    301.52924    292.99112    434.98152   -654.19226      655.227    -141.9904    41.269679 
136200000    283.02966    446.26535    408.71087     -701.327    694.02328    37.554489    40.340422 
136204000    277.83887    344.68814    218.49155   -696.89392     706.3089     126.1966    41.014023 
136208000    303.78369    320.46146    445.27167   -722.52194    703.13125   -124.81022    40.879026 
136212000    284.14498    248.31513     190.9433   -722.26449     720.0631    57.371829     41.97233 
136216000    289.37261    432.21635    266.37502   -770.36238    755.06842    165.84133    42.162623 
136220000    298.22814    467.47534    422.42373    -770.5821     781.2577    45.051619    41.642751 
136224000     285.2668    327.21366     248.2188    -785.7785    791.41304    78.994851    41.223565 
136228000    295.26351    485.56008    294.02238   -801.51236    799.28182     191.5377    40.834122 
136232000    260.89081    374.83205    324.96087   -829.86944    837.18574    49.871182     40.99566 
136236000    258.07429    612.41116    299.61078   -848.22941    859.98483    312.80038     40.65276 
136240000    265.89654    269.12361    328.07118     -871.504    867.71579   -58.947565    40.595932 
136244000    259.36979    403.11873    261.44579   -893.20874    906.54769    141.67294    40.810813 
136248000    289.79667    397.94556    423.68984   -941.13532    923.43773   -25.744274    40.587575 
136252000    270.69125    343.16528    227.35579   -957.97768    959.77393    115.80949    40.413934 
136256000    296.73867    318.28714    272.28227   -969.04598    966.47144    46.004877    40.922121 
136260000    295.90994     444.9766    385.08284    -981.9874      984.437    59.893761    40.339191 
136264000    267.20476    371.06601    267.62646    -973.7565    1002.7107    103.43955    39.693959 
136268000    286.92561    362.21258    287.33691   -986.01318    997.57566    74.875672    39.875191 
136272000    278.32648    259.22636    334.07289   -1010.0565    1015.3162   -74.846532     40.09343 
136276000    283.17106    232.37636    680.24367    -1018.544    1032.4298   -447.86731    39.112966 
136280000    282.29208    603.34764    481.20757    -1052.634    1048.6598    122.14006    39.565388 
136284000    292.26793    264.55449    650.47454   -1079.3277     1070.594   -385.92006    39.432235 
136288000    255.05176    591.58488      328.535   -1073.6725     1095.486    263.04988    39.801572 
136292000    267.52374    352.72602    213.01156   -1093.7455    1108.0798    139.71445    40.301923 
136296000    280.11921     337.9223    245.14762    -1116.774    1110.3568    92.774681    40.124488 
136300000    290.00727    526.95311    235.45374    -1136.741      1137.92    291.49937    39.697777 
136304000    293.94861    476.47821    392.62907   -1129.6416    1128.9563    83.849146    39.718825 
136308000    264.59463    180.57839    287.65991   -1120.2463    1152.4613   -107.08152    39.810503 
136312000     301.0701    284.02045     680.3085   -1168.8686    1151.7219   -396.28805    39.278295 
136316000    299.81155    374.33779      446.927   -1190.3077    1170.6797   -72.589213    39.311969 
136320000    277.16406    187.53544    369.35577   -1207.8229     1224.802   -181.82033    39.087555 
136324000     261.3714    434.69991    611.40856   -1236.3767    1247.6796   -176.70865    38.736532 
136328000    285.43448    300.83039    221.22486   -1278.5858    1273.3091     79.60553    38.787622 
136332000     281.8619    490.61042    308.96593   -1304.2457    1315.6927    181.64448    39.157302 
136336000    234.37786    434.08958    237.88543   -1315.7432    1354.4243    196.20415    39.092258 
136340000    280.38153    262.55049    310.40088   -1319.1604    1330.3243    -47.85039    39.360297 
136344000    298.23397    273.30109     369.9552   -1338.6564    1340.3012   -96.654107    39.225847 
136348000    278.29998    388.40301    476.22024   -1371.5835    1370.2013   -87.817232    39.167871 
136352000    279.61607    305.90942    331.09856   -1382.1295    1377.2581   -25.189138    39.320835 
136356000    292.33571      403.091     357.4912   -1387.5934    1393.1065    45.599801    38.908282 
136360000    307.21577    418.05356    405.51596   -1429.1942    1417.2921    12.537598    38.963866 
136364000    261.94124    350.83116    177.18182   -1445.0735    1453.1859    173.64934    39.147436 
136368000    288.97043    607.26319    343.47426   -1461.1725    1444.8333    263.78893     39.52495 
136372000    265.12872    337.66593    481.59706   -1455.8542    1474.2137   -143.93113    39.387301 
136376000     284.0296     223.9643    460.25073   -1469.0769    1476.1232   -236.28643    39.318328 
136380000    276.71782    367.47334    296.29491   -1496.1063    1511.1117    71.178428    39.519609 
136384000    297.47877    367.32905    247.86789   -1522.0404    1527.9381    119.46117    39.721513 
136388000    273.36178    250.75888    215.99947   -1544.7735    1541.6038    34.759402    39.824435 
136392000    337.15429    419.07073     453.3463   -1575.1853    1532.4704   -34.275563    39.406847 
136396000    274.13232    389.71148    548.25712   -1583.9711    1578.5672   -158.54565     39.51805 
136400000    276.28877    424.10971    274.18851   -1592.3099    1598.0923     149.9212    39.671925 
136404000    253.29386    281.37447    424.27581   -1614.9419    1620.0611   -142.90134    39.629616 
136408000    285.62236    151.63038    333.87185    -1657.253    1650.0675   -182.24147    39.467355 
136412000    263.55008    287.87675    281.54121   -1677.7353    1673.8723    6.3355396    39.510547 
136416000    272.79259    344.08235    231.38368   -1706.2276     1703.227    112.69867    39.861546 
136420000    288.82853    305.46549    283.04462   -1701.8751    1704.6699    22.420871    39.373642 
136424000    277.52197    407.57299    447.30362   -1713.3932    1717.5119   -39.730626    39.778158 
136428000    253.93682     375.4645     352.2042    -1721.594    1745.3687    23.260298    39.956883 
136432000    271.52505     338.0391    176.08702   -1750.9085    1757.7028    161.95208    40.317833 
136436000    272.30924    401.29847    442.80839   -1756.9978     1760.095   -41.509922    40.304594 
136440000    289.86231     336.9735    332.62192   -1793.5924     1788.535    4.3515785    39.800076 
136444000    265.91321    359.76706     301.1929   -1802.8331    1805.6218    58.574165    40.192156 
136448000    306.76542    339.34349    304.76703   -1833.2981    1830.8374    34.576462    40.077383 
136452000    278.25974    354.49021    240.64953   -1846.4611    1846.2161    113.84067    40.103284 
136456000    276.06705     359.4121    212.76243   -1841.4693    1861.8873    146.64966    40.222569 
136460000    286.32097    467.23812    599.24466   -1876.4087    1896.9385   -132.00654    39.779465 
136464000    265.00105    275.34607    262.23017   -1896.6439    1906.0483      13.1159    40.047567 
136468000    277.29546    308.63061    463.19748   -1911.5773    1921.7748   -154.56687    40.206388 
136472000    302.34559    454.98619    243.93254   -1951.3323    1938.2247    211.05366    40.204974 
136476000    289.20207    464.14185    349.66495   -1953.2292    1937.3409    114.47689    40.207042 
136480000    285.59871    539.02907    225.58519   -1940.7621    1946.1989    313.44388    40.268445 
136484000     302.5013    334.76381     242.6072   -1962.0053    1949.4948    92.156611    40.248031 
136488000    329.55524    203.11296    678.67971   -1999.8703    1974.9691   -475.56675    40.136268 
136492000    268.19205     323.2267    361.78611   -2027.6441      2030.05   -38.559406     40.36659 
136496000    286.75418    257.97716    673.03936   -2053.5414    2057.0841   -415.06219    40.013868 
136500000    254.97022    335.23746    196.27604   -2077.7405    2089.6993    138.96141    39.824542 
136504000    291.65539    455.25812     332.7102   -2095.8605    2101.3602    122.54792    39.933962 
136508000    263.80012    174.46898    281.81665   -2120.0255    2133.5916   -107.34766    40.078861 
136512000    283.68528     390.8687     321.9258   -2152.1808    2154.6333    68.942897    39.687158 
136516000    270.66265    235.55317    408.44477   -2178.8086    2172.9805    -172.8916     39.36912 
136520000     252.6487    301.53195    414.48405   -2156.7551    2179.5035    -112.9521    39.247735 
136524000    294.93482    723.01552    427.48663   -2194.2177    2194.6495    295.52889    39.530427 
136528000    273.82977    412.82874    315.75638   -2213.1172    2241.8868    97.072353    39.664787 
136532000     269.6523    342.78595    323.01045   -2243.2365    2237.1001      19.7755    39.768639 
136536000    290.50454    260.82589    436.00381   -2261.0664    2239.9769   -175.17792    39.718301 
136540000    285.89579    365.66306    305.39427   -2287.1683    2268.2379    60.268792    39.851287 
136544000    261.25237    242.54622    383.49936   -2302.1266    2313.6433   -140.95314    39.535902 
136548000     293.1214    579.18015    256.04016   -2354.1692    2340.0213    323.13999    39.561754 
136552000    278.14926    437.87405    437.37873   -2369.1335    2369.9309   0.49531303    39.601784 
136556000     269.2305    288.80617    323.81935   -2371.8659    2377.2655   -35.013185    39.038184 
136560000    269.37083    364.32242    250.99019    -2388.364    2410.7834    113.33223    39.130882 
136564000    288.61827    471.41447     246.3539   -2428.9729    2435.2866    225.06057     38.99878 
136568000    272.36104    363.27217    399.07548   -2442.5603    2450.5797   -35.803308     39.04104 
136572000     291.7803     281.6184    322.93775   -2467.9827    2480.7292   -41.319345    38.824475 
136576000    336.46707    499.78059    349.58011   -2527.4032    2479.4197    150.20048    38.690199 
136580000    278.13655    360.22174    350.08156    -2509.682    2517.7351    10.140183    38.677228 
136584000    276.82055    366.07505    214.98731     -2514.91    2525.1205    151.08774     38.91438 
136588000     305.3472    273.33346    408.16667   -2557.8051    2533.1149   -134.83321    39.006645 
136592000    253.54734    429.83658    275.78831   -2555.7483    2555.6225    154.04828    38.982615 
136596000    290.54981    385.53972    298.60958   -2569.6139    2570.4122    86.930142    39.132503 
136600000    280.80005    443.69139    458.43416   -2572.4957    2569.9723   -14.742773    39.102961 
136604000    274.08322    378.59669    360.23766   -2581.1674    2583.7232    18.359027    39.137492 
136608000    261.83499    393.55068    281.36188   -2584.2528    2591.0847     112.1888    39.186884 
136612000    295.55165    480.73824    334.90294   -2601.4643    2592.0503     145.8353    38.836228 
136616000    286.75216    418.52479    430.89681   -2614.3192    2600.4452   -12.372025    38.868536 
136620000    307.14925    380.42413     347.4667   -2627.1187    2608.1031    32.957433    38.922301 
136624000    306.93064    336.67315    509.53686   -2631.9617    2602.6556    -172.8637    38.669758 
136628000    302.70915    399.77088    275.76284   -2637.6341     2628.998    124.00804    38.663045 
136632000    263.33367     507.9063    311.71126   -2661.4035    2669.8754    196.19504    38.251114 
136636000    261.41024    509.35606    280.12305   -2670.7061    2697.2561      229.233    38.368223 
136640000     263.5664    238.81293    332.77837   -2669.6576    2690.6283   -93.965438    38.362414 
136644000    320.00988    388.49265    287.23484   -2728.4607    2708.0608    101.25781    38.304754 
136648000    299.78484    433.56381    343.91353     -2750.13       2737.7    89.650273     38.32666 
136652000    315.75311     513.4843    613.74969   -2757.8254    2748.3991   -100.26539    38.488605 
136656000    286.46046    320.31468    431.12432   -2792.4903    2772.2001   -110.80964    38.465123 
136660000    287.09318    206.08133    468.22513   -2798.1969    2793.5068    -262.1438    38.537651 
136664000    300.48663    244.29676    408.07428   -2827.3776    2814.0307   -163.77752    38.613263 
136668000     310.6915    392.70242    312.72641   -2865.8031     2842.009    79.976011    38.691311 
136672000    315.00015    511.96162    276.75964   -2908.8413    2882.8745    235.20198     38.85619 
136676000    276.26857    189.06308    193.88452   -2913.3485     2900.566   -4.8214426    38.872216 
136680000    255.35558    329.67943    220.57287   -2934.3128    2936.3689    109.10657    38.684616 
136684000     271.3903    278.93076    404.93548   -2970.7242    2965.2619   -126.00472    38.466153 
136688000    281.83522    343.40996    409.78347   -2962.9034    2969.9614   -66.373506    38.406888 
136692000     280.7049    369.19525    288.88133   -2986.1374    2990.7863    80.313916    38.434242 
136696000    282.95846    464.03182      250.074   -3025.4603    3043.1582    213.95782    38.419189 
136700000    265.60623    514.07037    302.76355   -3055.7452    3063.6179    211.30682    38.094596 
136704000    287.97681    239.69791    251.57723   -3067.6679    3055.4767   -11.879325    38.168373 
136708000    298.42862    218.46939    430.13977   -3077.0131    3052.5005   -211.67038    38.177571 
136712000    269.37253    436.13211    230.33357   -3075.4468    3088.0801    205.79854    37.943721 
136716000    272.39641    485.28169    268.09326   -3089.3504    3091.9451    217.18843     38.06913 
136720000    289.08303    319.34219    308.01242   -3109.6824    3118.5241    11.329774    37.912551 
136724000    304.85584    281.04767    395.57387   -3140.8162    3129.5518    -114.5262    37.933103 
136728000    303.22656    486.70241    350.05315   -3164.6506    3150.1348    136.64926    37.864589 
136732000    279.65708    336.12332    375.92743   -3156.1153    3172.0206   -39.804116    37.778047 
136736000    316.08923    172.20477    305.54304   -3203.7843    3183.0807   -133.33826    37.732694 
136740000    278.06814    469.22229    231.19739   -3195.5693    3200.3217     238.0249    37.704038 
136744000    295.54657    332.96401    257.33905   -3218.6958    3207.4113    75.624961    37.723384 
136748000    260.01783    421.22931     283.4233   -3226.2844    3234.6101    137.80601    37.665681 
136752000    286.58561    345.35495    287.98508   -3243.1298    3237.2466     57.36987    37.722465 
136756000    273.30018    239.87226     348.7313   -3260.1589    3266.3959   -108.85904    37.653331 
136760000    289.45062    512.55288    328.82891   -3279.6574    3272.2246    183.72398    37.805805 
136764000    292.45709    263.31858    340.13378   -3319.7772    3302.6718   -76.815194    37.634141 
136768000    291.19804    233.24399    460.21746   -3321.7153    3317.3095   -226.97347     37.77232 
136772000    296.34154     399.3041    419.01987   -3349.6263    3337.0735   -19.715768    37.634058 
136776000    243.71075    353.70689    249.55701   -3368.9774    3386.1747    104.14988    37.573752 
136780000    285.62206    409.10344    249.73273   -3381.0687    3397.5447    159.37072    37.500049 
136784000    302.67801    248.17137    426.99053   -3448.7325    3405.6339   -178.81916    37.508115 
136788000    328.39748    396.40367    429.53434   -3458.1989    3430.4313   -33.130665     37.48998 
136792000    258.40072    284.08138    319.53326   -3485.0178    3476.8263   -35.451882    37.495153 
136796000    291.54686    253.76059    371.06379   -3495.6933    3490.9077    -117.3032    37.524947 
136800000    261.27519    323.13718    234.60298   -3491.1285    3495.6298    88.534202     37.64533 
136804000    262.29961    438.18973    255.82313   -3514.4272    3513.5863     182.3666     37.65837 
136808000    291.53291    394.25605    473.13046   -3500.7851    3509.1153   -78.874413    37.525728 
136812000    274.28672    404.24235    263.17905   -3512.0255    3530.3102     141.0633    37.613265 
136816000    249.02969    254.75971    302.92287   -3521.8012    3541.7734   -48.163156    37.575299 
136820000    298.63125     575.6262    327.61135   -3532.9916    3546.7339    248.01485    37.507612 
136824000    266.27267    241.59733    180.59224   -3556.7477    3560.0823    61.005089    37.785789 
136828000    303.39786    415.01625    352.34386   -3610.6584    3583.5948    62.672384    37.903764 
136832000    281.45854    506.71225    284.30112   -3606.4684    3620.1207    222.41113    37.847827 
136836000    292.43014    477.28989    294.11961   -3636.5842     3628.675    183.17028    37.662703 
136840000    301.96446    465.25768    432.10718   -3664.1001    3655.5806    33.150496    37.694404 
136844000     311.2275    400.06289     336.2658   -3652.0841     3651.633    63.797085    37.756112 
136848000    302.92544    161.48341     206.8163   -3693.2515    3674.1252   -45.332888    37.620729 
136852000    294.30615    265.64596    215.18829   -3690.9001    3688.8575    50.457673    37.734869 
136856000    259.69347    381.01427    530.08717   -3693.2892    3691.0368    -149.0729    37.527839 
136860000    278.35872    454.67557    387.71682    -3691.558     3696.384    66.958756    37.420962 
136864000    294.82123    301.39887    359.60582   -3721.6692    3711.3691   -58.206957    37.596949 
136868000     283.8429     300.5472    200.70596   -3727.3233     3717.413     99.84124     37.52845 
136872000    296.49388    310.37406    303.86042   -3731.0185    3742.4177    6.5136399    37.499629 
136876000     271.2635    354.60604    496.08165   -3746.3601    3753.1791   -141.47561    37.497322 
136880000    248.54189     486.1165    253.68886   -3791.7433    3792.6494    232.42764     37.77702 
136884000    272.70122    166.96782    273.37754   -3791.9945     3803.638   -106.40972    37.703607 
136888000    260.42006    479.00407    359.18392   -3806.0442    3809.1035    119.82014     37.63525 
136892000    289.15629    354.99184    404.64727   -3818.8888    3818.7224   -49.655434    37.625734 
136896000    289.71306    390.38777    491.31772   -3832.6939    3827.2729   -100.92995    37.513209 
136900000     301.4457    302.13336    348.37131   -3859.0137    3840.8657   -46.237947    37.396283 
136904000    265.38138    285.72086    326.86115   -3843.2349    3874.7063   -41.140286    37.341277 
136908000    228.61797    218.85252    301.05432   -3858.0289    3873.8707   -82.201793     37.32436 
136912000    280.19959    367.24751    377.69894   -3906.0097    3896.0948   -10.451427    37.278632 
136916000    265.41068    650.58305     248.5188   -3904.4663    3918.6558    402.06425    37.283337 
136920000    269.44403    247.76113     221.2324   -3919.1137    3916.7314    26.528725    37.397685 
136924000    263.31633    351.62941    487.62154   -3933.4506    3941.1056   -135.99212    37.516839 
136928000    287.40104    472.05624    186.42336   -3954.0917    3937.3212    285.63288    37.659099 
136932000    302.59108    577.88139    377.63483   -3950.2563    3935.1505    200.24656    37.730405 
136936000    310.71729    327.04623    500.90357   -3955.4778    3947.4043   -173.85734     37.76526 
136940000    266.64313    522.91693    268.05028    -3952.234    3966.7685    254.86666    37.900244 
136944000    303.20687    384.39571    360.49986   -3977.7991    3980.0056    23.895845    37.832164 
136948000    285.01633    411.44926    293.30415   -4020.1083    4012.7154    118.14511    37.695376 
136952000    264.14317     552.5071    274.59929   -4012.5252    4032.8522    277.90781    37.574733 
136956000     293.4096    482.42022     213.6021   -4040.3086    4041.6049    268.81813    37.538814 
136960000    271.17655    232.13745    276.72544   -4051.1291    4063.5234    -44.58799    37.606286 
136964000    259.19297    387.54137    234.72479   -4076.1153    4086.9108    152.81659     37.64187 
136968000    256.28382    454.28465    295.01406   -4081.1468    4096.2321    159.27058    37.708802 
136972000    244.16703    395.84123    163.55599   -4100.0001    4126.7532    232.28524    37.860672 
136976000    279.60852    451.00493    283.09693   -4116.5798     4109.624      167.908    37.865747 
136980000    280.82293    407.71184    334.15663   -4115.8337    4108.1295    73.555212    37.785564 
136984000    290.25072    225.63472    284.78828    -4142.874    4140.5379   -59.153555    37.719341 
136988000    265.79599    253.31466    375.08358   -4171.3376    4182.2237   -121.76892    37.496663 
136992000    278.50343    241.15892     401.5634   -4200.7005    4200.1221   -160.40448    37.535903 
136996000    297.01807     471.0887    330.71881   -4223.8478         4225    140.36989     37.25886 
137000000    266.01237    228.63613    416.40849    -4229.015    4238.2561   -187.77236    37.410787 
137004000    243.15664    289.58644    244.80741   -4238.0019    4249.5934    44.779033    37.322605 
137008000    306.15495    259.76965    326.42808   -4249.7843    4233.3565   -66.658431    37.169676 
137012000    261.61663     485.3085    288.79782   -4250.7614    4272.9373    196.51068    37.108992 
137016000     297.6769    333.25967    315.39535   -4288.0416    4272.7384    17.864323     36.95168 
137020000    285.98089     333.7693    254.15407   -4290.8694    4286.2033    79.615228    36.937375 
137024000    308.02494    276.97413    281.89396   -4313.0145    4288.9544   -4.9198331    37.058134 
137028000    291.55846     355.6531    261.99191   -4305.7675    4304.5054     93.66119    37.247982 
137032000    293.37817    396.07006    318.99683   -4336.1235     4332.299    77.073227    37.274782 
137036000    297.63161    317.80131    254.03824    -4354.036    4351.8283    63.763068    37.235789 
137040000    283.26011    308.95192     190.0598    -4376.319    4372.3686    118.89212    37.427708 
137044000     274.3758    361.43862    227.98077   -4371.7696     4385.103    133.45786    37.527484 
137048000    257.25906    398.18745    241.27657   -4413.1651    4430.1403    156.91088    37.580139 
137052000    290.68176    423.50561     433.6655   -4429.4069    4430.6544   -10.159887    37.541413 
137056000    277.86273    398.73683    214.59467   -4437.1398    4447.4712    184.14216    37.516231 
137060000     279.3186    317.50639    361.23101   -4472.1157    4477.3685   -43.724627    37.580488 
137064000    281.65737    373.09523    202.52472    -4509.968    4495.7042    170.57052    37.360784 
137068000    279.40175    257.02703    520.28641   -4499.7593    4502.9225   -263.25939    37.317846 
137072000    279.45018    440.49631    409.31844   -4509.9848    4515.5686    31.177875     37.33193 
137076000    268.74175    186.70284    304.03275   -4514.3704    4533.7115   -117.32991    37.388669 
137080000    242.92741    254.67248    342.04451   -4550.0781    4555.4205   -87.372034    37.536512 
137084000    276.05992    427.55218    390.57008    -4545.731     4556.797      36.9821    37.578046 
137088000    257.76562    361.05804    211.97616   -4561.1915    4585.6561    149.08188    37.804413 
137092000    297.83403    527.26078    261.58558   -4559.9135    4547.6434     265.6752    37.892143 
137096000    263.09215     203.6141    304.49794   -4569.0607    4568.0505   -100.88385    37.807337 
137100000    278.86357     286.4135    332.96748   -4599.9522    4598.3487   -46.553978    37.816676 
137104000    259.98341    220.01301    465.03731   -4604.2253    4616.3686    -245.0243    37.814519 
137108000    301.76591    840.73831    196.06949   -4653.3355    4621.5404    644.66882    37.996746 
137112000    285.43023    520.48803     208.0631    -4674.862    4664.0717    312.42494    38.151494 
137116000    270.80767    579.86524    302.49346   -4680.4919    4684.2204    277.37178    38.224523 
137120000    284.84345    255.03855    284.40327   -4693.6885    4680.2347   -29.364719     38.25755 
137124000     271.2773    196.62289    373.33855    -4681.568    4686.5164   -176.71566    38.368692 
137128000    274.27945    309.01322      395.705   -4684.6526    4709.5404    -86.69178    38.352141 
137132000    290.51746    334.78739    386.21103   -4724.5203     4705.822   -51.423633    38.336771 
137136000    295.76936    491.55592    513.52274   -4748.5508    4733.0115   -21.966824    38.353861 
137140000    299.62227    320.59163    230.51482   -4757.9879    4749.3369    90.076805    38.347591 
137144000    302.66963    282.69065     345.1057   -4771.2639    4740.5384   -62.415055    38.238355 
137148000    280.12547    234.02302    364.49212   -4792.9622    4791.0521    -130.4691    38.252816 
137152000    305.99484    340.32979    398.69374   -4816.2823    4806.7231   -58.363955    38.220742 
137156000    290.85462    393.31627    224.39812   -4843.7499    4828.6765    168.91815    38.302797 
137160000    330.30392    404.25794    570.05101   -4885.2732    4845.8312   -165.79306    38.317482 
137164000    299.66239    239.05673    502.39651   -4904.9499    4880.2682   -263.33978    38.252047 
137168000    291.01594      402.618    301.68907   -4919.3677    4900.4741    100.92892     38.13995 
137172000    291.02881    200.59635    275.32762   -4911.8691    4913.2766   -74.731265    38.222992 
137176000    253.91895    428.63337    296.74305   -4930.4811    4947.7413    131.89031    38.327741 
137180000    278.83053    349.11653    268.48447   -4950.4543     4957.964    80.632062     38.31372 
137184000    288.90739    362.07961    362.39755   -4966.5474    4965.7781  -0.31794162     38.33865 
137188000    269.81478    256.73444    250.66918   -4965.0887    4961.2325    6.0652658    38.379233 
137192000    261.83713     268.7158    383.18075   -4966.6527    4990.2317   -114.46495    38.513719 
137196000     275.5441    371.59009    254.50719   -4985.8415    5009.3233     117.0829    38.525108 
137200000    280.32716    415.17704    438.78276   -4993.1339    4990.0929   -23.605717    38.489928 
137204000     282.2795    178.61439    262.61398   -5017.3727    5015.0158   -83.999588    38.561501 
137208000    304.92139    488.56313    400.63343   -5045.6351     5031.335    87.929699    38.507512 
137212000    298.58467    333.89226    236.60621    -5030.656    5009.5528    97.286053    38.717943 
137216000     300.9487    199.21646    370.48787   -5039.5982    5025.8255   -171.27141     38.71905 
137220000    283.90042    368.22728     376.4069   -5045.6942    5047.3566   -8.1796238    38.663609 
137224000    281.47357    363.90561    416.23134   -5038.9125    5050.2083   -52.325729    38.610101 
137228000    305.87201    459.23999    320.99665   -5050.8781    5032.0314    138.24334    38.451069 
137232000    308.41733    530.20414    366.55105   -5061.9083    5039.9329    163.65309    38.552309 
137236000    284.83981    224.45264    406.69837   -5074.3378    5066.1878   -182.24572    38.543814 
137240000    291.15405    345.23578     403.5445   -5102.7537    5097.0933   -58.308719    38.551497 
137244000      300.768    260.95552    310.33899   -5130.3857    5101.8979   -49.383468    38.492725 
137248000    278.26385     229.0852    356.86047   -5126.6964    5134.4971   -127.77527    38.564105 
137252000    250.42125    320.24823    338.69587   -5142.1407    5171.3889   -18.447638    38.522158 
137256000    259.01328    360.58753    326.72874   -5182.1076    5182.8468    33.858795    38.504147 
137260000    305.61639    629.64942    331.29599   -5227.1089    5210.8515    298.35343    38.453019 
137264000    286.34524    319.59195    392.29914   -5264.7217    5246.8482   -72.707194    38.583741 
137268000    294.21316    233.65162    271.93181   -5263.5458    5270.1155   -38.280194    38.593172 
137272000    250.81255    256.01498    315.58077   -5277.1591    5289.7948   -59.565788    38.493386 
137276000    276.15472    277.58422    288.63783   -5293.5795    5307.6869   -11.053613    38.559802 
137280000    262.46052    392.61374    393.79473   -5305.2657    5336.5842   -1.1809938    38.512032 
137284000    267.93253    282.23197    335.93062   -5313.7855    5313.0621   -53.698653    38.341798 
137288000    273.20288     281.4284    355.16499   -5307.5085    5313.7707    -73.73659     38.47041 
137292000    300.50061    445.89085    189.17548   -5332.7018     5324.307    256.71536    38.455005 
137296000    313.22244    436.28336    388.06555    -5377.397    5342.0232    48.217807    38.336335 
137300000    298.54243    479.63892    243.06547   -5363.7624    5354.3391    236.57345    38.383002 
137304000    292.98491    503.89938    451.83809   -5386.5971    5373.7588    52.061296    38.485031 
137308000    311.25705    293.83963    167.79161   -5390.7673    5362.4178    126.04803    38.552597 
137312000    298.74585    369.97789    353.20782   -5379.8255    5368.4359    16.770073    38.506019 
137316000    297.34504    212.41221    297.35208   -5386.9006    5382.9027   -84.939871      38.4662 
137320000    297.26406    296.75885    441.85376   -5415.0881     5398.608   -145.09491     38.51474 
137324000    272.61858    371.12193    527.64121   -5418.9251    5416.9211   -156.51928    38.531259 
137328000    282.59442    360.85388    487.83176    -5438.091    5438.1472   -126.97789    38.525091 
137332000    282.57959    299.94069    400.16559   -5461.6674    5462.7994   -100.22491    38.576441 
137336000    264.99662     402.0492    266.94054   -5454.3024    5458.9075    135.10865    38.622043 
137340000    293.87718    389.94588    406.83998   -5477.1441    5481.9917   -16.894099    38.602171 
137344000    299.65736    294.69262    201.94022    -5486.891    5490.7001    92.752402    38.625548 
137348000    269.59818    353.61831    238.17715   -5513.2817     5518.187    115.44116    38.743655 
137352000    267.09551    469.18595    333.78758   -5536.2409    5555.8645    135.39837     38.79566 
137356000    288.41624    609.06782    455.91656   -5562.4818    5569.0441    153.15126    38.769027 
137360000    274.33387    373.97434    316.43854   -5612.7562    5595.0087    57.535798     38.74805 
137364000     301.9635    376.26239    239.26863   -5624.2804     5602.035    136.99375    38.741659 
137368000    325.87053    338.91859    311.63713   -5649.6137     5625.419    27.281458    38.783125 
137372000    295.92419    387.56184     217.7371   -5652.8005     5649.421    169.82474    38.615451 
137376000    313.83615    330.52778    386.38226    -5673.588    5656.8859   -55.854478    38.596644 
137380000    275.34631    555.13611    229.55596   -5684.4707       5679.4    325.58014    38.635761 
137384000    276.20014     311.9192    415.18593   -5684.1576    5695.4261   -103.26673    38.556642 
137388000      279.793    180.61704    259.37894   -5709.0889    5709.9086   -78.761892    38.553836 
137392000    254.90999    354.44483    180.30862   -5727.0762    5732.7654    174.13621    38.598266 
137396000    263.27437    261.34158    258.78024   -5722.8842    5741.9494    2.5613432    38.690193 
137400000    286.17827    515.52259    237.14574   -5744.3952    5755.8606    278.37685    38.665708 
137404000    290.52297    301.38539    267.93534   -5749.9357    5733.4061    33.450055    38.637487 
137408000     284.8586    396.87569    242.91264   -5758.2971    5755.7351    153.96305    38.707808 
137412000    277.50559    433.72868    439.46759    -5778.673    5785.5151   -5.7389122    38.763183 
137416000    279.90091     343.8315    397.12642   -5821.8777    5813.3616   -53.294919    38.800596 
137420000    305.15419    348.40761    407.40147    -5853.713    5845.0742    -58.99386    38.860409 
137424000     285.8368    409.72088    346.67931   -5887.6793    5882.8326     63.04157    38.934301 
137428000    324.11912    349.56401    322.57675   -5911.7721      5877.23    26.987262     38.94072 
137432000    296.16008    402.20892    611.79601   -5917.8184    5889.3035   -209.58708    38.872538 
137436000    278.44572    378.06044    211.23272   -5928.8839    5907.9004    166.82772    38.904185 
137440000    276.13915    420.50884    251.11522   -5926.5636    5931.0841    169.39361    39.012619 
137444000    243.26245    152.93398    460.03476   -5926.7716      5938.03   -307.10078    38.906853 
137448000    281.00272    341.37421    309.66215   -5947.1276    5954.6454    31.712066    38.981013 
137452000    322.40575     346.3559    686.86828   -5976.1046    5957.7096   -340.51238    38.971398 
137456000    260.42364    225.98181    399.01819   -5995.9807    5998.2929   -173.03638    39.031968 
137460000    258.47512    243.65412    356.16356   -6000.8164    6022.5728   -112.50944    38.967334 
137464000    294.54505    296.25315    288.65951   -6021.9127    6017.5047    7.5936432    38.931833 
137468000    297.34227      481.682    397.37319   -6036.3352    6026.7314     84.30881    38.949919 
137472000    245.58875      369.666    131.35252   -6075.1855    6090.0997    238.31347    38.980802 
137476000    278.35854     464.3902    330.08776   -6086.7115    6103.6993    134.30244    39.097537 
137480000    274.62078    210.73728    394.85202   -6101.3874    6120.2934   -184.11474    39.082938 
137484000    297.81092    303.18012    367.75753   -6136.7619    6122.0898   -64.577417    39.107119 
137488000    271.10231    447.55191    335.05907    -6155.164    6151.8361    112.49283    39.127095 
137492000     277.6885    325.03511      446.754   -6153.4419    6167.2044   -121.71889    39.130018 
137496000     281.0318    257.82041    456.95684   -6186.7706    6184.2017   -199.13643    39.052581 
137500000    275.68311    623.92653    350.54198   -6184.0264    6198.8696    273.38456    39.070813 
137504000    257.45471    475.99568    321.89409   -6191.6478    6222.2878    154.10159    39.038926 
137508000    296.09259    471.18363     259.4169   -6222.0043    6222.4703    211.76673    39.053697 
137512000    320.21184    512.28183    348.73244   -6226.1091    6209.2701    163.54938    39.076251 
137516000    292.41295    345.24312    283.58643   -6252.9989    6239.6573    61.656684    39.096557 
137520000    255.71949    474.67948    152.80594   -6254.7599    6275.4782    321.87354    39.078207 
137524000    275.19288    364.78701    346.07902   -6278.6323    6291.0276    18.707984    38.982658 
137528000    274.95438    369.30543    295.75965   -6286.7824    6283.8873    73.545781    39.022772 
137532000    291.49864    389.73068    289.18192   -6318.5339    6318.0909    100.54876    38.938144 
137536000     268.0336    289.76599    223.46965   -6332.2287    6331.6076    66.296335     38.95123 
137540000    267.43385    547.90211    135.20231   -6362.6799    6361.4531     412.6998    38.961577 
137544000     327.8877     425.1984    323.59953   -6404.3309    6388.5593    101.59888    38.931256 
137548000    293.15973    383.66689    266.71531   -6424.9233    6412.5474    116.95158    38.944359 
137552000    284.38546    367.34468     466.1564   -6425.2479    6419.7766   -98.811725    38.931827 
137556000     316.2338    275.25634    392.85486   -6471.2453    6444.1718   -117.59852    38.957224 
137560000    309.09922    390.59784    392.48442   -6487.6821    6471.2708   -1.8865788    38.915846 
137564000    277.44663    382.22865    413.61929   -6494.1022    6483.7072   -31.390647    38.950714 
137568000    299.91655    274.52883    243.65414   -6517.3155    6493.4971    30.874694    38.968782 
137572000    282.82857    382.24121    402.05081   -6538.3503    6524.3477   -19.809602     38.88304 
137576000    309.09169    415.64147     374.9186   -6555.1146    6530.6166    40.722871    38.845332 
137580000     293.9319    215.09548    310.48636   -6571.8087    6562.4146   -95.390883    38.866844 
137584000    276.67465    339.31526    171.44025   -6578.0067    6590.7576    167.87501     38.81909 
137588000    260.09239    262.60314    434.10802   -6605.5827    6618.6034   -171.50488    38.847841 
137592000    308.32298    492.80451    236.01029   -6637.3256    6642.9994    256.79422    38.782898 
137596000    281.37597    279.10903    305.89759   -6651.0973    6634.3517   -26.788559    38.715606 
137600000    247.48737     332.3387    306.69639   -6621.8332     6639.803    25.642312     38.68674 
137604000     289.1851    420.74373    464.44701   -6647.4857    6663.1433   -43.703273    38.724402 
137608000     296.7341    259.22713    370.36052   -6691.6297    6680.1742   -111.13339     38.77154 
137612000    274.04536    324.88244    276.56985   -6700.3087    6693.6564    48.312594    38.767181 
137616000    252.49422    262.54357    398.58312   -6723.1451    6723.6598   -136.03955    38.744183 
137620000    324.72235    275.36581    347.63242   -6781.7742    6734.4709   -72.266608     38.70029 
137624000    312.34962    399.92153    446.28951   -6792.9667    6767.6286   -46.367974    38.661137 
137628000    307.57081    626.11861    225.19208   -6821.0925    6796.0959    400.92653    38.657821 
137632000    250.31901    321.04528    283.86361   -6825.1282    6840.1207    37.181664    38.696876 
137636000    270.93716    542.73071    228.57271   -6839.7527    6846.6246      314.158     38.67759 
137640000    283.97586     413.5155    273.99987      -6865.5    6859.5528    139.51563    38.733951 
137644000    269.76644    346.40623    208.82089   -6858.2105    6870.3952    137.58534    38.741003 
137648000    274.03597    477.78272    154.00841   -6868.6689    6876.8811    323.77431    38.744098 
137652000     258.1291    176.71657    363.45016   -6874.3256     6883.934   -186.73359    38.695243 
137656000    307.82071    309.33047    186.09554   -6909.1536    6905.8414    123.23493    38.683589 
137660000    277.03183    435.96851    139.46107   -6925.2953    6911.7261    296.50744    38.701704 
137664000    298.49334    534.26308    414.38701   -6936.1414    6909.1976    119.87607    38.726094 
137668000    283.15528    286.27167    363.83833   -6931.5926    6926.5968   -77.566657    38.707525 
137672000    279.79193    447.52162    331.87684   -6964.8709    6966.0675    115.64478    38.701951 
137676000    301.45076    540.71373    336.65177   -6995.0556     6975.327    204.06197    38.666125 
137680000    275.17011    256.15215    228.27043   -6990.7016    6984.5436    27.881712    38.683492 
137684000      271.323    525.02665    228.82903   -7008.8213    7016.4772    296.19762    38.716026 
137688000    250.34997     289.8677    307.31999   -7023.3992    7026.9374   -17.452289    38.641337 
137692000    279.01988    324.40252    360.84123   -7030.3458    7013.2047   -36.438717    38.649436 
137696000    319.25078    240.85601    378.54864   -7044.1629    7019.5459   -137.69263    38.645715 
137700000    271.19934    213.42849    170.53327   -7051.2826     7066.867    42.895214    38.596566 
137704000    272.71148    394.36617    258.76565   -7053.5394    7047.2344    135.60052    38.618706 
137708000    274.33386     379.3287    400.82577   -7076.6476    7068.1837   -21.497076    38.587099 
137712000    280.19062     455.7838    182.50983   -7079.1514    7070.3724    273.27397    38.666743 
137716000    297.12568    259.45148    425.49743   -7062.2785    7043.1766   -166.04595    38.704335 
137720000    265.03872    427.18061    198.09418   -7074.3721    7080.6826    229.08643    38.697748 
137724000    273.89486    181.87364    451.01058   -7078.9076     7076.721   -269.13695    38.708829 
137728000    277.18554    235.02395    243.69643   -7119.0016    7096.7986   -8.6724763    38.749002 
137732000    268.14083    484.06836    271.79472   -7130.3937    7126.9731    212.27364    38.777336 
137736000    283.86003    375.18422    133.48026   -7172.4003    7156.3074    241.70396    38.789208 
137740000    289.50451    340.58855    310.49662   -7193.3783    7194.6439    30.091931    38.785892 
137744000    282.09215    394.09179    292.56441   -7215.5724    7223.0634    101.52738    38.775848 
137748000    303.13282    363.18244    243.70569   -7237.0463    7226.0892    119.47675    38.800139 
137752000    274.25714    309.83855    308.94057     -7266.84    7265.3273   0.89798607    38.758388 
137756000    296.63896    452.45818    393.72261   -7265.8125    7276.2533    58.735577    38.745662 
137760000    251.34883    227.07423    252.74491   -7275.4372     7284.006   -25.670679    38.764515 
137764000    288.08992    373.28949    175.32017   -7314.5923    7307.0653    197.96932    38.841004 
137768000    288.57973    602.56072    628.24571   -7325.4522    7328.7855   -25.684984    38.831295 
137772000    282.49546    424.73771    365.03557   -7347.2765    7355.4557    59.702144    38.878428 
137776000    290.81393    589.53166    332.60186   -7361.3088    7354.0563     256.9298     38.92843 
137780000    294.27061    281.50887    318.64597   -7402.7329    7397.4659   -37.137108    39.033423 
137784000    281.02525    360.29669    272.28014   -7412.1328      7414.31    88.016557    39.071673 
137788000    309.78062    358.62934    457.06571   -7443.7884    7423.2958   -98.436374    39.054583 
137792000     287.2558    250.60732    390.40192    -7431.737    7412.4912    -139.7946     38.99888 
137796000    292.66635     326.3019    357.99196   -7428.1273    7421.8835   -31.690056    38.967731 
137800000    278.65917    525.94553    221.41024   -7463.4845    7454.3865    304.53529    38.957615 
137804000    269.81138    316.40287     351.9625   -7470.8294    7485.1815   -35.559637    38.970265 
137808000    291.11933    357.77587    278.15812   -7497.9127    7498.9521    79.617752    38.877985 
137812000    265.13626    352.16544    475.03374   -7506.8677    7518.4373    -122.8683    38.808763 
137816000    265.87637    336.59269    307.76986   -7521.2603    7505.4797    28.822836    38.813805 
137820000    281.88782    281.42767     324.4268   -7529.2491    7526.6547   -42.999126    38.900895 
137824000    269.07347     202.8572    240.30584    -7509.822    7527.9562   -37.448638    38.834576 
137828000    301.86091    450.29632    566.37556   -7537.4227    7531.2681   -116.07924    38.859137 
137832000    282.78373    337.44744    275.50414   -7544.1374    7554.7395    61.943297    38.867175 
137836000    248.05639    444.95421    309.34737   -7559.9985    7570.3545    135.60684    38.919615 
137840000    280.48744    267.03163    254.03663   -7591.1357    7587.2136    12.995007    38.923265 
137844000    289.21316    346.05324    267.60767   -7607.7084    7602.1083    78.445567    38.921612 
137848000    286.05807    272.96963    331.31367   -7643.4051    7645.0838    -58.34404    38.911382 
137852000    297.60185    333.31277    363.40256   -7669.8471    7669.8726   -30.089788    38.867606 
137856000    279.11302    185.17844    303.21716   -7673.2611    7681.4986   -118.03872    38.893193 
137860000    269.70283    345.84366    472.95662   -7707.7468    7711.6193   -127.11296    38.905388 
137864000    310.59262    271.32376    265.44227   -7726.3064    7705.8575    5.8814918    38.863787 
137868000    288.20756    399.68963    147.26144   -7718.2292    7718.9287     252.4282    38.951554 
137872000    292.45103    575.61587    239.47191    -7740.261    7737.1495    336.14396    39.032949 
137876000    263.53796    291.37746    231.35921   -7756.4919    7770.7727     60.01825    39.025859 
137880000    269.22566    310.03372    229.11267   -7802.4604    7800.2742    80.921042    38.988348 
137884000    283.11246    399.00864    350.64526   -7825.6274    7825.8778    48.363379    38.947452 
137888000    268.16361    356.45181    396.45551   -7839.3234    7857.9779     -40.0037     38.92303 
137892000    294.79049    248.75105    292.29489   -7883.0334     7875.104   -43.543838    38.928966 
137896000    307.77626    267.74331    156.43354   -7886.2895    7878.0201    111.30977    38.950703 
137900000    271.26897    354.69304    212.12997   -7924.6152    7906.5425    142.56307    38.924213 
137904000    294.59489    308.71363    353.10323   -7926.6911    7913.5826   -44.389596    38.876254 
137908000    286.48105    381.54344    213.52004   -7933.3289    7934.2794     168.0234    38.917285 
137912000    272.71895    365.48232    344.07656   -7938.4296    7944.4577    21.405755    38.843633 
137916000    306.33528    417.49096    343.77734   -7987.8427    7964.2007    73.713628     38.82953 
137920000    290.71207    379.05837    409.79142   -7999.4827    7982.6544   -30.733045    38.826035 
137924000    259.00156      422.564    287.63704    -8004.837    7999.3929    134.92696    38.890038 
137928000    272.64091    563.00965    243.87922   -7983.1471     7994.662    319.13043    38.906056 
137932000    302.23621    437.16783    301.96364   -8004.2497     7982.067    135.20419    38.974783 
137936000    301.14181    351.45522    652.91993   -8037.0939    8016.8173   -301.46471    38.870739 
137940000    283.06439    303.80483    216.90927   -8052.4477    8059.4075    86.895565    38.913113 
137944000    278.51008    541.22066    439.49396   -8071.4334    8081.8918     101.7267    38.879618 
137948000    302.72521    343.44782    496.40077   -8099.3457    8101.8539   -152.95295    38.864529 
137952000    268.97552    315.28768     348.4251   -8115.5573    8102.9868   -33.137416    38.913255 
137956000    310.62971    501.19225    303.49119   -8140.3067    8136.2434    197.70106    38.973119 
137960000    299.41832    427.54469    244.87826   -8136.1162    8140.8856    182.66643    38.954815 
137964000    274.23718    372.26859    224.43146   -8141.8074    8149.5611    147.83713    39.022415 
137968000    302.97148    518.52658    416.15299   -8167.1568    8163.8083    102.37359    39.030672 
137972000    312.86927     433.5609    332.89255    -8187.591    8166.0853    100.66835    39.026605 
137976000     271.3027    435.08674    228.24563   -8201.3254    8200.0064     206.8411    39.009897 
137980000    307.75445    313.37121    404.47158   -8217.9306    8204.3214   -91.100373    39.028625 
137984000    321.73084    487.88852    337.64011   -8213.1797    8198.8402    150.24841    39.041272 
137988000    271.39758    400.52385    337.59422   -8221.3823    8233.3297    62.929627    38.980896 
137992000    301.15424    384.87023    343.21625   -8254.3421    8223.0966    41.653978    38.982758 
137996000    284.54676    447.52976    369.41936   -8267.1541    8266.5298    78.110402    38.996241 
138000000    260.99006    499.30541    258.24542   -8293.6123    8296.6867    241.05999    38.964327 
138004000    266.58463     161.1664    275.83636   -8305.6652    8324.0278   -114.66995     38.92514 
138008000    291.86848    386.20653    228.61607    -8340.849    8328.3806    157.59046    38.927472 
138012000    275.56332    275.77508    346.34941   -8371.0253    8349.1013   -70.574326    38.886243 
138016000    264.87931    288.45293    163.99698     -8370.88    8381.6568    124.45595    38.872479 
138020000    275.57241    337.17305    196.14282   -8397.7378    8408.8719    141.03023    38.934466 
138024000    289.34592    366.43405    184.08597    -8419.075    8405.3189    182.34808    38.928983 
138028000    293.42376    412.10298    331.59921   -8424.5296    8429.2646     80.50377    38.928143 
138032000    302.46468    350.54224    261.35756   -8457.9812    8434.4076    89.184684    38.945398 
138036000    308.58064    431.81039    324.67231   -8470.7137    8446.9489    107.13807    38.909207 
138040000    277.68637    315.52892    452.08515   -8476.0564    8500.1127   -136.55623    38.856278 
138044000    252.70175    341.43663    334.81913   -8491.4713    8503.2529    6.6174981    38.832471 
138048000    287.19081    520.15409    493.45264   -8518.5421    8520.6174     26.70145    38.905295 
138052000    261.19422    167.79714     197.7244   -8527.8027    8543.7097   -29.927267    38.810758 
138056000    307.61022     376.4521    457.45662   -8546.5413    8532.0482   -81.004519    38.826487 
138060000    315.32615    403.98792     381.7729   -8567.7236    8550.4862    22.215013    38.832744 
138064000    271.62231    291.32617    454.05662   -8593.3354    8580.6755   -162.73045    38.793681 
138068000    296.44371    680.26137    216.23672   -8629.7868    8597.9316    464.02466    38.782554 
138072000     306.8512    393.66805    428.19042   -8649.8234    8625.4199    -34.52237    38.833954 
138076000    273.74725    249.56484    259.99368   -8635.2654    8646.4161   -10.428841    38.760496 
138080000     250.0126    172.33931    239.61965   -8661.3318    8685.7928   -67.280336     38.81913 
138084000    277.86438    338.55108    385.97067   -8688.6514    8693.4761   -47.419594    38.790702 
138088000    259.92984    434.16624    298.78991   -8701.9068    8705.1173    135.37633     38.70781 
138092000    329.58256    348.92244    305.19866   -8745.3531    8695.1113    43.723774    38.680534 
138096000    298.57246    363.39771    296.38953   -8753.8878    8732.8408    67.008184    38.677098 
138100000    303.86007    550.42323    467.91248   -8773.2544    8771.3913    82.510749    38.695903 
138104000    254.46647    318.80676    358.02604   -8787.5839    8794.8088   -39.219281    38.669369 
138108000    285.47488    347.08226     247.9629   -8797.6006    8805.5423    99.119358    38.758907 
138112000    274.99081    231.38994    559.86903   -8815.0693    8811.2294   -328.47909    38.752235 
138116000    273.27567    412.87079    281.08957   -8826.1854    8826.3387    131.78122    38.769793 
138120000    301.51475    230.72795    403.49468   -8845.9123    8840.7769   -172.76673    38.803191 
138124000     291.5133    402.64268    218.02085   -8885.5158    8878.6994    184.62183    38.894132 
138128000    296.91185    447.79879    356.21879   -8901.3749    8889.9058    91.579997    38.928297 
138132000    290.32333    203.33879    445.37365   -8906.6862    8910.7901   -242.03486    38.865885 
138136000    278.27325    362.44606    453.97787   -8935.7705    8927.8412   -91.531809    38.853793 
138140000    271.37636     607.4819    179.77128   -8955.1628    8957.0423    427.71062    38.885661 
138144000    284.00076    278.37915    325.79541   -8978.0341    8972.1026   -47.416261    38.924941 
138148000    301.76181    327.92203    414.99836   -9012.6533    8994.4969   -87.076332    38.922831 
138152000    306.48812    265.81504    170.46287   -9047.1988    9022.9508    95.352174    38.857095 
138156000    262.04848    306.62355    146.66275    -9029.607    9037.2428     159.9608    38.890197 
138160000    303.63433    441.92124    230.18726   -9051.3657    9036.0714    211.73398    38.869797 
138164000    305.67319    781.63814    237.05355    -9073.593    9049.1883    544.58459    38.928458 
138168000    267.30016    298.57186    410.89624   -9067.3722    9077.9418   -112.32438    38.951797 
138172000    271.19965    479.47698    217.07063   -9108.7929    9127.7668    262.40634    38.974639 
138176000    306.87909    589.39352     274.3939   -9141.1643    9137.7375    314.99963    38.961838 
138180000    246.78319    307.81006    355.41532   -9153.7893    9174.3097   -47.605255    38.973963 
138184000    287.08507    275.00905     212.2118   -9184.6028     9182.648    62.797248    38.968198 
138188000    320.06753    578.81447    278.22696   -9242.3945    9226.0452    300.58751    38.931222 
138192000    274.71396    205.88604    374.32777   -9221.9373    9231.5164   -168.44172    38.986545 
138196000    287.57087    408.32313    270.44422   -9252.7912    9246.0702    137.87891    39.020569 
138200000    261.05181    416.32606    180.58386   -9271.9358    9288.1919     235.7422    39.024133 
138204000    262.88558    294.28552    191.35231   -9260.0811    9293.6192    102.93321    39.100605 
138208000    268.93448    327.80308    144.21586   -9274.6835    9287.2723    183.58722    39.182594 
138212000    276.11289    478.23888    193.06966   -9295.4548    9287.9097    285.16922    39.218428 
138216000    296.15547    477.00405    313.07481   -9304.9158    9288.5948    163.92924    39.194294 
138220000    284.61175    452.51561    371.38818   -9330.0639    9332.7263    81.127435    39.183467 
138224000    287.29795    462.25727    347.68443   -9348.8719    9361.3899    114.57284    39.213596 
138228000    291.45495    248.03659    395.62762   -9383.6888    9376.4218   -147.59103    39.265021 
138232000    274.13006    334.79458    222.33486   -9382.8417    9390.8818    112.45972    39.307365 
138236000    254.76337     221.6799     569.2662   -9387.6167    9420.9704    -347.5863    39.323419 
138240000    258.48869    458.72622    236.47246   -9441.4159    9450.1894    222.25376    39.353934 
138244000    317.04576    500.98199    406.22959    -9462.503    9452.7355    94.752395    39.416511 
138248000    276.63098    529.03773    359.81837   -9508.8896    9493.5928    169.21936    39.417798 
138252000     309.6342    439.86657    398.06009   -9528.4015    9510.2279    41.806481    39.392305 
138256000    300.97679    363.98515     359.0339   -9527.9705    9515.3776    4.9512513    39.442276 
138260000    310.66349    658.73866    364.78944   -9555.3381     9533.207    293.94922    39.479179 
138264000    269.24154    349.99632    292.44739   -9564.5595    9556.3875    57.548931    39.452411 
138268000     271.8235    405.90435    280.53207   -9600.7015    9597.5727    125.37228    39.484493 
138272000    282.23721     481.4884    295.69299   -9614.9649    9613.2695    185.79541    39.355762 
138276000    266.75419    544.34964    286.40134   -9630.2611    9645.8836     257.9483    39.302173 
138280000    286.31952    344.82586    438.03768    -9670.719    9680.6684   -93.211827    39.285334 
138284000    290.04264    180.90451    480.34373   -9711.0449    9690.5907   -299.43922    39.235328 
138288000    275.86454    363.76934    289.37464   -9710.8543    9718.4212    74.394702    39.206041 
138292000    280.85163    403.42929    378.13618   -9706.9548    9705.3284    25.293108    39.185297 
138296000    279.35757    356.56348    432.05231   -9739.2457    9735.3699   -75.488837    39.152141 
138300000    278.14103    336.13031    318.06951   -9722.0649    9742.6003    18.060797    39.095119 
138304000    252.66223    307.85066    383.18229    -9730.977    9741.2314   -75.331627    39.073398 
138308000    293.43878    372.27426    450.93557    -9756.662    9745.3356   -78.661309    39.055574 
138312000    278.83935    477.98548    276.72145   -9773.9383    9785.4259    201.26403    39.014841 
138316000    246.11079    350.12698    245.49223   -9790.6523    9831.0796    104.63475    39.050924 
138320000    280.35544    304.53042    346.45695   -9832.0114    9843.5854   -41.926528    39.082963 
138324000    291.58338    330.61239    311.01989   -9853.2468    9856.2335    19.592494     39.12329 
138328000    266.23082    466.44627    184.84019   -9894.4717    9895.9992    281.60609     39.08339 
138332000    291.95412    498.67811    385.79183   -9907.1064    9889.3165    112.88629    39.119232 
138336000    298.12115    329.07815    466.85341   -9903.5292     9906.006   -137.77525    39.041211 
138340000    267.70745    431.23361     251.5608   -9919.4453    9923.7542    179.67281     39.00891 
138344000    295.68042    373.62153     221.6524   -9953.9995    9931.1844    151.96913    39.006166 
138348000    290.65586    270.42332    366.42754   -9966.2899    9962.4617    -96.00422    39.041086 
138352000    256.25426    325.23692    269.35667   -9979.3402    10010.634    55.880251    39.018115 
138356000    261.72603    251.74734    169.68457   -9992.7906     10018.39    82.062774    38.989178 
138360000    277.52578    373.54448    197.90654   -10025.549    10032.923    175.63795     38.96926 
138364000    276.50155    356.32017    171.25965   -10029.408    10042.418    185.06052    38.921811 
138368000    275.57049    182.70396    462.20946    -10067.23    10054.462    -279.5055    38.914486 
138372000    311.50702    459.90921     309.8915   -10092.327    10075.954    150.01771    38.877964 
138376000    270.09594    405.96744    460.84408   -10101.394    10101.379   -54.876638     38.88461 
138380000    312.32821    270.27515    494.95908   -10117.629    10106.454   -224.68393    38.818052 
138384000    284.32824    396.43657    300.99674   -10124.058    10123.849    95.439823    38.770817 
138388000    287.66085    168.96947    473.70201   -10154.219    10133.474   -304.73255    38.831576 
138392000     282.9343    351.99303    299.74767   -10173.182      10173.7    52.245358    38.776992 
138396000    260.95546    343.84197    237.35239   -10194.996    10200.164    106.48958    38.797503 
138400000    262.80716    301.95107    223.10037   -10187.777    10213.461    78.850704    38.818369 
138404000    251.20621    182.05487    256.61784   -10229.992    10228.814   -74.562971    38.861781 
138408000    265.40836    283.45855    365.00647   -10227.545    10241.549   -81.547925    38.864621 
138412000    237.42368    355.61585    292.85068    -10246.51    10256.076    62.765163    38.833171 
138416000    278.87882    341.67478     270.7463    -10250.11    10270.912    70.928482    38.790166 
138420000    277.10645     394.8843    405.93557   -10291.551    10285.911   -11.051275    38.783772 
138424000    283.82572    308.24655    322.72185   -10339.151    10320.776   -14.475297     38.75212 
138428000    294.27529    228.52056    231.19831   -10362.936    10350.329   -2.6777533    38.773412 
138432000    278.41486    319.68795    295.29114   -10394.455    10391.198    24.396814     38.78524 
138436000    301.62476    392.87584     386.5221   -10427.177    10418.963    6.3537445    38.794827 
138440000    300.64297    631.88721    278.27089   -10457.954    10435.807    353.61632      38.7448 
138444000    280.96652    335.46272    374.50315   -10455.018    10458.024   -39.040428    38.735986 
138448000    303.02144    403.69008    324.08156   -10475.669    10478.347     79.60852    38.680581 
138452000    274.80324    150.73779    156.23036   -10503.515    10495.278   -5.4925732    38.639449 
138456000    269.41706    196.16369    228.22318   -10501.419    10517.877   -32.059485    38.639597 
138460000    290.46599    314.56308    329.22378   -10535.795    10521.416   -14.660705    38.574553 
138464000      260.905    303.89785    241.04804   -10544.565    10550.882    62.849813    38.585586 
138468000    285.24295    344.82223    352.06832    -10562.43    10572.848   -7.2460872    38.596457 
138472000    269.53292    418.16986    297.21615   -10573.119    10589.933    120.95371    38.657921 
138476000    275.08813    318.54728    218.73977   -10590.227    10594.023     99.80751    38.651935 
138480000    307.81697    435.61769    418.66018   -10653.473    10613.073    16.957507    38.638365 
138484000     303.2382    457.37379    313.35226    -10663.12    10649.884    144.02153    38.618279 
138488000    314.53328    242.45994    317.34101   -10680.742    10662.937   -74.881071    38.643192 
138492000    284.67441    440.72731    202.55995    -10718.34    10697.648    238.16736    38.737234 
138496000    291.95344    254.23667    305.59026   -10727.207    10728.468   -51.353596    38.692668 
138500000    321.43619    460.79927    262.66512   -10754.787    10739.478    198.13414    38.682884 
138504000    271.26902    287.35306    278.09831   -10773.885    10777.083    9.2547536    38.680513 
138508000    281.52981    255.80531    170.10334   -10790.831    10806.699    85.701965    38.653383 
138512000    281.07345    222.92353    522.75656   -10809.652    10813.653   -299.83303    38.593374 
138516000    292.51866    381.61484    405.28159   -10812.867    10811.979   -23.666748    38.556836 
138520000    269.52019    263.85639    194.14582   -10829.493    10840.493    69.710566    38.561389 
138524000    276.58836    281.29873    331.27902   -10841.094    10842.216    -49.98029    38.542731 
138528000    284.84715    257.23408     194.3278   -10872.048    10874.471    62.906272    38.477328 
138532000    272.95871     169.6192    315.67159   -10898.504    10907.037   -146.05239    38.486712 
138536000    293.34812    240.55429    248.59436   -10916.534    10908.803   -8.0400742    38.444669 
138540000    284.33807     475.7879    245.79763   -10949.984    10950.978    229.99026    38.403135 
138544000    296.80576    341.78743    243.91895   -10997.429    10982.767    97.868474    38.382524 
138548000    248.97491    229.66326    333.18155   -10992.696    11017.154   -103.51829    38.417309 
138552000    272.20771    208.58253    491.88282   -11016.009    11030.074   -283.30029    38.444359 
138556000    285.91887    461.41978    260.30384   -11054.559    11055.406    201.11594     38.49917 
138560000    257.16363    581.55944    252.43036    -11065.89    11078.691    329.12908    38.532094 
138564000    272.91409    303.74216    206.96561    -11067.31     11075.73     96.77655    38.498973 
138568000    266.04846    283.92294       235.27   -11087.249    11089.498    48.652937    38.562184 
138572000    272.82241    315.81335     211.0386   -11089.514    11099.165    104.77475    38.585697 
138576000    272.92165    395.77684     386.1839   -11089.221     11099.72    9.5929455    38.539196 
138580000    282.14193    473.68409    348.95149   -11116.106    11104.895     124.7326    38.569803 
138584000    281.77754    421.52764     345.8335   -11139.763    11131.225    75.694136    38.584822 
138588000    288.62984    392.69995    283.58789   -11152.285    11145.103    109.11207    38.645441 
138592000    279.11268    231.89471     334.9004   -11183.901    11177.724   -103.00569    38.618769 
138596000    297.24442    279.25543    217.36613   -11202.771    11193.338    61.889301    38.564254 
138600000    283.38624    522.98214    293.65229   -11199.364    11213.696    229.32985    38.542211 
138604000    286.69264    351.24712    369.52304   -11218.575    11224.091   -18.275926     38.47293 
138608000     274.5402    461.46565    335.42264   -11228.016    11239.741      126.043    38.530034 
138612000    267.78088    434.71577    278.85289   -11229.178    11259.965    155.86288    38.479044 
138616000    281.47427    345.56446    340.21057   -11278.252    11280.198    5.3538946    38.473961 
138620000     286.6008    235.64548    406.27765   -11278.496    11286.677   -170.63216    38.488584 
138624000     298.9904    353.78776    261.85105   -11292.459    11289.648    91.936711     38.51802 
138628000    272.88203    441.54224    142.26087   -11317.424    11330.133    299.28137    38.506868 
138632000     301.8031    416.26858    395.42133   -11360.611    11362.933    20.847242     38.55852 
138636000    274.79877    528.48017    324.12613   -11355.817    11387.825    204.35404    38.563526 
138640000    280.68616    378.86088    238.68626   -11366.679     11384.36    140.17462    38.579147 
138644000    279.09066    331.09464     291.6281   -11391.092    11394.255    39.466541    38.612808 
138648000    249.74089    400.02247    321.01534   -11390.903    11415.515    79.007135    38.537333 
138652000    284.74692    224.04347       400.55   -11391.493     11419.73   -176.50653    38.529628 
138656000    278.35726    466.00329    378.00441   -11453.357    11434.576     87.99888    38.535154 
138660000    279.70915    227.01261    291.05661   -11474.294    11453.455   -64.044001    38.562205 
138664000     287.1685    281.92664    212.87344   -11486.815    11483.955    69.053204    38.554965 
138668000    296.73548    441.84844    404.80918   -11509.217    11488.249    37.039259    38.519978 
138672000    289.33935    198.06665    196.43825   -11513.975    11500.672    1.6283926       38.464 
138676000    300.73508    272.95119    249.42377   -11560.606    11537.874    23.527415    38.428722 
138680000    281.81779    328.11371    364.39211   -11534.641    11518.921   -36.278402    38.403731 
138684000    284.48436    275.15704    272.22901   -11554.244    11569.514    2.9280392    38.453109 
138688000    273.95749    286.05452    341.90762   -11578.318    11594.192   -55.853105    38.451879 
138692000    252.39454    268.32331    259.37678   -11580.829    11602.203     8.946535    38.377794 
138696000     269.9568    284.41549    294.59762   -11610.773    11631.284   -10.182128    38.385521 
138700000    304.73788    410.54518    263.33606   -11625.809    11616.836    147.20912    38.351231 
138704000    296.50262    422.33346    336.65525   -11640.098    11641.767    85.678208    38.357419 
138708000    271.10899    377.52402    341.32135   -11674.211    11669.832    36.202672    38.309817 
138712000    296.37857    310.15199    434.46373   -11698.991    11696.176   -124.31173    38.287838 
138716000    276.87095    247.98077    345.93574   -11704.658    11715.543   -97.954978     38.27483 
138720000    269.65942    239.91167    258.67356   -11753.409    11760.277   -18.761886    38.278952 
138724000    294.30025    276.90896    259.19434   -11789.811    11780.946    17.714624    38.264722 
138728000    277.44023    482.03008    314.79107   -11830.676    11815.711    167.23901    38.276264 
138732000    291.02395    474.95898    328.85054   -11842.673    11839.787    146.10844    38.207544 
138736000    269.25889    228.12731    428.94914   -11854.353    11859.615   -200.82183    38.265041 
138740000    284.26665    261.94475    305.48584   -11857.039    11863.271   -43.541086    38.260795 
138744000    287.63372    338.13767     330.1603   -11884.298    11876.401    7.9773724    38.263741 
138748000    282.78613    515.81658    429.91601   -11913.848    11918.253    85.900571    38.253792 
138752000    276.02944    318.24313    258.24369   -11919.167    11935.615     59.99944    38.232286 
138756000    314.71114    410.29082    272.02974   -11956.283    11941.701    138.26108    38.190418 
138760000     275.0002    311.17941    516.43457   -11946.132    11945.095   -205.25517    38.180295 
138764000    277.92915    369.56138    380.86724   -11955.296    11941.919   -11.305853    38.122197 
138768000    273.45975    371.64982     294.2275   -11979.498    11982.566     77.42232    38.149996 
138772000    274.44316    270.31846    260.68297   -11976.523    11977.592    9.6354892    38.089399 
138776000     289.4011    506.51537    341.20332   -11998.794    11989.567    165.31205    38.117799 
138780000    274.12644    141.85375     377.0478   -12018.246     12013.23   -235.19405    38.064232 
138784000    261.30264    193.64036    409.78701   -12013.855    12032.473   -216.14666     38.03729 
138788000    278.76369    237.44894     197.7591   -12031.632    12022.186    39.689846    38.012338 
138792000    279.06647    312.65829    647.67131   -12047.607    12044.019   -335.01302    37.962079 
138796000    298.69908    363.09425    271.37931   -12082.843    12075.967    91.714934    38.006367 
138800000    286.66771      195.815    258.55327   -12100.471    12098.828   -62.738267    38.019231 
138804000     258.2756    319.60412    282.59347   -12109.246    12132.113    37.010641    37.965584 
138808000    278.35415    324.84313    281.83645   -12131.555    12144.528    43.006686    37.965486 
138812000    311.60329    390.19854    353.42894   -12171.139    12145.226    36.769594    37.968845 
138816000    283.69114    278.94703    212.27103   -12164.954    12172.867    66.675994    37.965698 
138820000    282.38044     436.2062    253.23694   -12173.048    12165.011    182.96926     37.93068 
138824000    260.11065    221.22353    342.37356   -12197.684    12207.905   -121.15003    37.970885 
138828000    271.02082     425.8048     310.1607   -12203.006    12215.713     115.6441    37.941411 
138832000    284.00881    384.41555    261.54152    -12247.97     12241.75    122.87404    37.952141 
138836000    284.50035    217.79555    298.32578    -12287.21     12272.79   -80.530232    37.958214 
138840000    289.20928     511.5724     259.4732   -12352.045    12330.082     252.0992    37.922871 
138844000    302.15315    427.24037    313.55248   -12385.902    12353.706    113.68789    37.887932 
138848000    251.09199    450.74925     154.3804   -12380.896    12397.697    296.36884    37.880027 
138852000    286.12248    352.33824     456.0848   -12411.794    12407.255   -103.74656    37.909392 
138856000    292.54508    238.41253    355.06514   -12428.922    12424.935   -116.65261    37.918284 
138860000    276.74324     399.8409    370.91843   -12454.401     12455.21    28.922473    37.911423 
138864000    283.12834    365.64943    328.88445   -12441.715    12437.423    36.764974    37.938385 
138868000    310.31812    279.77941    430.27592   -12474.771    12472.266   -150.49651    37.944044 
138872000    279.06485    318.21474    304.83837   -12481.565     12487.95    13.376371    37.923225 
138876000    295.92914    331.98433    296.27507   -12494.211    12487.649    35.709266    37.965398 
138880000    248.51803    402.53616    284.53991    -12510.58    12517.294    117.99625    37.984298 
138884000    293.08656    185.76184    275.72257   -12521.128    12517.349   -89.960727    37.997575 
138888000    305.68418    293.29086    226.31302   -12544.864    12538.172     66.97784    37.961338 
138892000    305.00638    632.87989     268.3853   -12549.507    12539.765    364.49459    38.005539 
138896000    285.11306    437.52801    282.67855   -12577.897    12585.013    154.84946     38.00495 
138900000    268.83576    365.17812    419.29533   -12584.646    12593.332   -54.117209    38.001558 
138904000    281.64949    250.66788    222.73698   -12603.777    12599.084    27.930903    38.001908 
138908000    254.47175    381.06904    249.56137   -12627.199    12629.397    131.50767    37.991374 
138912000     290.2002    246.66392    556.20873    -12640.08     12634.16    -309.5448    37.996185 
138916000     310.6167    695.21546     265.8191   -12672.135    12652.191    429.39635    37.993898 
138920000    266.97209    333.95318     306.1615   -12661.093    12671.071    27.791674    37.992273 
138924000    248.08366    286.89571    266.00985   -12664.773    12681.264    20.885858    37.983372 
138928000    261.32064    263.90782    278.60601   -12692.977    12709.993   -14.698185    37.994007 
138932000    277.16418     543.3622    240.49641   -12706.813    12714.237    302.86578    37.992876 
138936000    227.72656    118.71091    300.63183   -12712.164    12735.909   -181.92092    37.987488 
138940000    278.37951    489.92837    200.06374    -12746.36    12766.029    289.86463    37.973444 
138944000    281.08248    368.63874    256.66054    -12767.57    12763.402     111.9782    38.004607 
138948000    254.18655    200.58842    384.22465   -12760.264    12773.704   -183.63624    38.002176 
138952000    250.05197    248.39064      379.277   -12780.666    12818.959   -130.88636    38.003203 
138956000    248.47693    200.15873    361.76014   -12800.112    12824.974   -161.60141    37.992614 
138960000    282.10205    308.55115    218.67543   -12808.313    12815.095    89.875717    37.986696 
138964000    277.28305    488.36118    318.33059    -12820.03    12819.955    170.03059    37.948588 
138968000    258.12747    254.00037    222.72112   -12831.327     12838.16    31.279253    37.971926 
138972000     255.6946    343.48603    337.06185   -12833.707    12836.642    6.4241799    38.030442 
138976000     298.9558    388.05124    282.73376   -12856.577    12856.187    105.31747    37.953119 
138980000    278.77239    366.07748     211.7041   -12868.808    12869.526    154.37338    37.919811 
138984000    283.70365    454.66718    280.87988   -12891.716    12892.394    173.78731    37.927232 
138988000    269.40441     348.7328    336.24033   -12918.914    12933.236    12.492467    37.933311 
138992000     282.8405    259.91977    412.72485   -12946.171    12942.142   -152.80508    37.916042 
138996000    276.17162    341.37134      202.526   -12970.342    12960.591    138.84534    37.902232 
139000000    282.24901    377.74375    233.84655   -12978.301    12987.481     143.8972    37.879429 
139004000    276.31085    302.98634    413.55281   -12989.206    12999.451   -110.56647    37.846842 
139008000    267.91563    257.70677    520.25897    -13007.82    13003.331    -262.5522    37.839592 
139012000    288.92797    348.78102    324.16851   -13007.536     12994.52    24.612509    37.852042 
139016000    324.54749    461.47172     420.7758   -13038.134    12999.144    40.695921    37.846862 
139020000    287.77348    430.10428    253.10989   -13052.658    13041.135    176.99439    37.821934 
139024000    275.42294    392.97044    338.01434    -13067.83    13079.489    54.956098    37.858875 
139028000    287.41034    235.40818    325.39578   -13088.265    13096.481     -89.9876    37.863681 
139032000    280.27524    355.29463    304.19868   -13118.132    13121.732    51.095955    37.818597 
139036000    293.67134    296.83817    488.22315   -13125.445    13135.241   -191.38498    37.797795 
139040000    261.64614    329.56157    309.72012   -13142.144    13159.107    19.841454    37.791196 
139044000     269.4537    199.96926    276.46839   -13171.356    13181.496   -76.499125    37.756956 
139048000    261.64964    368.91655    329.85258   -13182.341    13188.433    39.063972    37.758106 
139052000    289.84815    251.35519    448.11841   -13214.635    13229.738   -196.76322    37.768784 
139056000    292.89574    448.31378    354.57639   -13261.379    13242.986    93.737388    37.790583 
139060000    282.65109    399.56234    390.92936   -13277.573    13265.213    8.6329851    37.773083 
139064000    268.71236    326.26968    394.34064    -13278.71    13275.581   -68.070952    37.752212 
139068000    267.32591    412.62309    388.65033   -13260.612    13267.893    23.972754    37.731015 
139072000    286.17482    560.94146    171.15986   -13282.731    13279.031     389.7816    37.766518 
139076000    256.87865    207.60946    145.63058   -13290.506    13323.844    61.978878    37.751162 
139080000    250.14765    343.51824     267.0911   -13333.826    13340.262    76.427136    37.770982 
139084000    313.06924    336.53321    401.19089   -13380.733    13371.172   -64.657685    37.755995 
139088000      266.012     319.1061    294.17651   -13409.024    13418.879    24.929594    37.718942 
139092000    258.79102    299.97298     395.3992   -13426.345    13434.987   -95.426221    37.716575 
139096000    288.39087    353.10958    516.72062   -13461.074    13451.581   -163.61104    37.693919 
139100000    277.27393    323.08781    279.96785   -13478.914    13484.605    43.119951    37.671394 
139104000    306.01849    286.33704    364.60796   -13500.222    13486.387   -78.270924    37.677087 
139108000    256.71487    422.00808    323.61157   -13497.389    13509.841    98.396504    37.642661 
139112000    274.35841    419.46512    381.17541   -13521.766    13530.213    38.289711    37.671996 
139116000    279.88914    340.51606    263.28077   -13573.544    13564.236    77.235287    37.695681 
139120000    267.95118    309.87991    423.59687   -13582.142    13594.066   -113.71696    37.700627 
139124000    272.99753    368.47839    357.08319   -13611.175    13608.011      11.3952    37.689766 
139128000    296.12446    364.90123    264.43668   -13622.756    13608.011    100.46454    37.650878 
139132000    282.87156    270.35313    267.86683   -13616.739    13638.071    2.4862961    37.706418 
139136000    315.16681    538.43115    451.95818   -13645.218    13643.687    86.472968    37.674396 
139140000    300.66856    368.81919    260.87559   -13693.591    13681.867    107.94361    37.659185 
139144000    302.74809    391.69588    351.23622   -13718.497    13692.028    40.459657    37.675739 
139148000    281.60172    563.92726    168.31534   -13726.323    13717.666    395.61191    37.703796 
139152000    310.44389     504.8924    281.01695   -13753.074    13740.433    223.87545    37.690388 
139156000    290.33763    464.65813    313.35515   -13782.939    13780.531    151.30297    37.713923 
139160000    274.80311     298.2204    253.39474   -13794.766    13800.964    44.825664    37.709655 
139164000     268.5406    410.29484    329.35962   -13801.434    13810.197    80.935218     37.69638 
139168000     296.8439    516.44787    381.53901   -13814.726    13808.372    134.90887      37.7286 
139172000    285.56097    409.03086    414.46057   -13802.843    13812.495   -5.4297097    37.702241 
139176000    284.79627    361.53966    501.83496   -13806.825    13807.548    -140.2953    37.633492 
139180000    264.51032    256.56851    321.26157   -13815.917     13838.65   -64.693065    37.606013 
139184000    267.98129    239.68499    452.65868   -13854.195    13867.712   -212.97369    37.547827 
139188000    274.15347    409.49514    303.86994   -13884.337    13886.193    105.62521    37.559359 
139192000    287.57355    510.96544    248.91122   -13886.099    13890.493    262.05422    37.575117 
139196000    280.27071    312.28426    257.45341   -13907.034    13904.285    54.830847     37.55415 
139200000    291.63745    437.05938     492.8778    -13920.04    13906.167   -55.818415    37.539383 
139204000    259.56611    278.37884    303.78961   -13912.968    13920.107   -25.410769    37.514854 
139208000     284.6555    376.81154    301.28068    -13947.81    13940.997    75.530866    37.466959 
139212000    312.67926    359.85308    230.69819   -13985.666    13981.373    129.15489    37.452455 
139216000     288.6425     342.1402    263.72428   -13990.615    13982.372     78.41592    37.451267 
139220000    282.02245    401.50414    329.86768   -13997.994    13976.486    71.636463    37.509338 
139224000    262.67088    207.72101     343.5191   -13983.398    14000.337   -135.79808    37.511005 
139228000    260.21845    349.55935    254.48584   -14012.244    14005.941    95.073509    37.499703 
139232000    276.12227    159.38791    398.65228   -14024.823    14018.494   -239.26438    37.513439 
139236000    266.13345     339.8724    358.85398   -14026.325    14043.852   -18.981588    37.526591 
139240000    291.35689    467.80762    465.85603   -14045.777    14052.654    1.9515893    37.594194 
139244000    257.17596    323.31212    311.60929   -14070.593    14083.695     11.70283    37.591914 
139248000    275.92073    360.71552    482.25986   -14084.496    14077.608   -121.54433    37.582166 
139252000    296.41281    314.53819    222.70768   -14110.925    14101.748    91.830509    37.643873 
139256000    282.35956    444.56663    409.70018   -14104.091    14110.182     34.86645    37.633595 
139260000    304.37575    259.11372    167.33613   -14130.232    14122.808    91.777588    37.641924 
139264000    293.71474    339.91105    276.51768   -14150.311      14149.5    63.393365    37.694246 
139268000    321.08285    394.67014    419.38421   -14163.496    14147.232   -24.714071     37.66571 
139272000    269.39065    429.03245    297.54614   -14151.796    14171.211    131.48631    37.646424 
139276000    292.31714    510.82237    388.36777   -14202.064     14191.53     122.4546    37.699536 
139280000    268.44079    433.85472     232.1484   -14226.395    14218.009    201.70632    37.688398 
139284000    283.15613     399.8546    247.36474   -14251.134    14261.926    152.48985    37.679663 
139288000    251.32233    388.30937    221.46285   -14252.707    14272.657    166.84651    37.701715 
139292000    265.97628    414.90958     418.0655   -14265.845     14281.85   -3.1559159    37.711395 
139296000    260.96269    316.48946     276.6235   -14290.832    14308.212    39.865961    37.782203 
139300000    284.85569    551.46791    185.86665   -14300.537    14319.549    365.60126    37.811267 
139304000     256.0135    220.09893    203.29938     -14308.5    14324.848     16.79955    37.841791 
139308000    301.81028    440.65847    463.30041   -14349.026    14341.825   -22.641934    37.861133 
139312000    264.10793    319.54202     310.4429   -14343.878    14350.175      9.09912      37.9192 
139316000    285.43849    330.13263    270.77012   -14372.602    14370.997    59.362511    37.950123 
139320000    287.24866    603.85512    347.72881   -14403.142    14404.838     256.1263    37.963143 
139324000    303.61998    255.36801    358.35594   -14430.693    14423.769   -102.98794    38.004824 
139328000    284.74228    311.68867    260.67776   -14416.226     14432.34    51.010911    37.997327 
139332000    280.03582    380.64536    220.12678   -14452.958    14435.569    160.51859    38.010995 
139336000    307.10894    796.16153    416.55969   -14490.934    14464.992    379.60185    38.014805 
139340000     293.8769    304.62576    404.53739    -14491.14    14480.312    -99.91163    38.000013 
139344000    276.26113    241.10783    323.82078   -14496.048    14497.288   -82.712946    38.005108 
139348000    260.59707    475.54308    221.80594     -14497.8    14500.921    253.73714    38.015229 
139352000     287.3579    358.40105    334.26684   -14503.986    14496.366    24.134216    38.017159 
139356000      278.934    228.26785    332.58845   -14519.364    14514.578    -104.3206    37.996418 
139360000    289.99936    452.34971    427.27062   -14549.737     14555.96     25.07909    38.026996 
139364000    332.66805    290.98171    375.19321   -14568.041    14533.484   -84.211502    38.010316 
139368000    294.37684    638.61519    317.68979   -14567.036    14541.055    320.92539    38.018635 
139372000    290.24844    349.37776    219.15727   -14580.208    14569.561    130.22049    38.035513 
139376000    262.35892    457.02992    190.69382   -14594.203    14576.353    266.33611    38.021224 
139380000    279.22713    355.34306     294.9397   -14610.662    14597.673     60.40336     37.99455 
139384000    269.88515    423.35134    235.82025   -14647.069    14647.733    187.53109    37.951522 
139388000    292.01161    275.25616    339.85161   -14664.548    14661.655   -64.595456    37.939168 
139392000    291.06101     443.6956    414.50316   -14681.085    14680.881    29.192434    37.942646 
139396000    249.97243    353.84753    145.60048    -14684.51    14703.269    208.24705    37.949039 
139400000    262.82202    287.88452    381.96671    -14681.12    14691.842   -94.082195    37.973619 
139404000    272.37914    272.95375    270.94233   -14717.684     14727.49    2.0114198      37.9874 
139408000    265.05481    229.86052    311.21585   -14746.592    14752.881   -81.355326    37.960812 
139412000    284.11437    325.57393    333.27605   -14778.765    14777.686   -7.7021149    37.949907 
139416000    295.69114    416.50932    468.62571   -14814.808    14806.683   -52.116382    37.990797 
139420000    301.24231    436.47719    402.90831   -14842.956    14839.666     33.56888    37.941838 
139424000    257.74123    379.79021      420.587   -14839.381    14847.148    -40.79679    37.904012 
139428000    298.89662    415.79564    311.31634   -14856.568    14849.316     104.4793    37.921403 
139432000    296.62733    391.73728    576.46752   -14893.798    14881.797   -184.73024    37.863983 
139436000    261.67129     381.7801    342.71471   -14880.368    14892.951     39.06539    37.890036 
139440000    262.92128    301.11414    212.98079   -14897.107    14916.434    88.133358    37.884822 
139444000    275.41669    280.36711    374.29315   -14899.231    14899.181   -93.926041    37.871267 
139448000    271.76391    253.82604    230.89342   -14892.122    14907.013    22.932619    37.837082 
139452000    272.27668    418.06082    242.00696   -14914.726    14926.512    176.05386    37.850914 
139456000    284.94397    376.11703    535.84726   -14931.071    14922.219   -159.73022    37.843714 
139460000    281.39095    206.03841    293.35064   -14949.673    14945.001   -87.312229    37.862455 
139464000    292.91791    618.44013     295.3725   -14961.103        14954    323.06763    37.883217 
139468000     296.4316    314.30489    343.99746   -14998.216    14969.017    -29.69256     37.89161 
139472000    287.81442    216.10626    205.82752   -15004.272    14999.138    10.278736    37.895628 
139476000    242.16964    386.50157    222.24423   -15009.382    15038.988    164.25733    37.924298 
139480000    263.37395    245.87988     368.0373   -15026.475    15047.439   -122.15743    37.936338 
139484000    269.27496    326.07719    268.72872   -15067.976    15063.724    57.348471    37.920609 
139488000    290.87933    427.78384    330.12737   -15096.868    15080.592    97.656465    37.949982 
139492000    267.75497    317.51066    465.56988   -15109.605    15126.365   -148.05922    37.952165 
139496000    259.18474    287.51401    250.75379   -15119.312    15144.808    36.760215    37.988586 
139500000    272.51817     393.5109    310.17854   -15141.106     15162.03    83.332361    37.963833 
139504000    283.31437    551.41727    238.93642   -15182.698    15192.133    312.48085    37.957041 
139508000    334.57928    528.13302     374.9757   -15217.316    15188.745    153.15732    37.979548 
139512000    278.11069    249.10458    578.74621    -15204.34    15211.038   -329.64163    37.957138 
139516000    290.71428    342.56769    633.81178   -15247.559    15237.408   -291.24409    37.950984 
139520000    280.46002    406.36719    544.03442   -15256.103    15256.465   -137.66724    37.926106 
139524000    279.10671    440.21105    329.24125   -15297.364    15287.564     110.9698    37.904433 
139528000    310.31181    477.67214    401.08666   -15329.787    15290.828     76.58548     37.88906 
139532000    282.75037     391.4976    300.67715    -15320.82    15316.959    90.820449    37.915358 
139536000    305.38544    748.08232    206.89994   -15332.577    15312.932    541.18237      38.0007 
139540000     280.6592    265.68289    341.43386   -15337.645    15332.656   -75.750968     38.01163 
139544000    289.90111    392.44456     347.2958   -15337.549    15348.397    45.148758    37.989439 
139548000    262.56973     351.9485    285.39431   -15351.156    15368.883    66.554182    37.968525 
139552000    314.76697    264.66063    610.07541   -15390.824    15373.268   -345.41478    38.001635 
139556000    281.26325    233.29572     183.7256   -15425.675    15416.893    49.570126    37.995033 
139560000    268.83596    316.28934      394.629   -15409.792    15413.748   -78.339661    37.981975 
139564000    295.37066    337.15824     356.5554   -15449.825    15441.756   -19.397154    37.969356 
139568000    268.73462    394.84467    143.82507   -15472.947    15478.935    251.01961    37.991675 
139572000    306.70614    389.72965    255.01871   -15490.342    15479.918    134.71095    38.012843 
139576000    270.26379    315.46103    343.97281   -15502.906    15519.757   -28.511786    38.036477 
139580000     290.9222    368.78419     313.1017   -15548.844    15549.894    55.682494    38.023738 
139584000    278.66275     259.0776    289.64824   -15560.735    15557.815   -30.570634    38.025662 
139588000    259.87594    388.11063     186.5124   -15558.161     15578.05    201.59823    38.015615 
139592000    301.93421    438.00651    360.08752   -15600.041    15577.404    77.918988    38.002347 
139596000    269.95556    511.88492    305.53235   -15608.045    15608.676    206.35257     38.01615 
139600000    274.02962    412.59559    326.21279   -15607.022     15609.19    86.382797    38.009558 
139604000    291.09093    316.86045    280.19506   -15668.343    15651.052    36.665397    38.001973 
139608000    325.54294    516.35093    476.15523   -15679.113    15661.454    40.195696    38.026795 
139612000    288.71761    340.06597    305.88968   -15698.531    15673.102    34.176289    38.002986 
139616000    319.03605    322.12495    362.34227   -15727.629    15706.542   -40.217315    38.008181 
139620000    285.08603    431.61255    186.84878   -15749.326    15743.268    244.76377    38.031156 
139624000    284.12051    249.50671    255.25742   -15772.153    15768.131   -5.7507093    38.028248 
139628000    289.77197     271.3718    372.40755   -15804.825    15794.838   -101.03575    38.059983 
139632000    299.37262    257.13425    480.67647   -15831.432    15829.215   -223.54222    38.056354 
139636000    275.72335    311.44255    234.00204   -15856.403    15860.051    77.440511    38.067323 
139640000    267.24484    444.65626    424.60796   -15861.858    15888.724    20.048304    38.096694 
139644000     281.2837    570.31796    259.30258   -15898.286    15906.526    311.01538    38.104121 
139648000    271.09923    376.51233    254.52709   -15937.127    15929.075    121.98523    38.069581 
139652000    283.10344    620.26615     297.4306   -15956.917      15951.1    322.83555    38.085312 
139656000    286.40932    477.76222    213.65745   -15977.295    15958.586    264.10477    38.129445 
139660000    286.49574    232.18021    180.99618   -15976.145    15968.067    51.184031     38.10354 
139664000    277.60138     547.9242    111.47626   -16029.786    16015.158    436.44794     38.06631 
139668000     293.6518    367.29211    444.85405   -16057.115     16035.93   -77.561935    38.073249 
139672000    321.19344    477.41119    227.45571   -16060.147    16033.582    249.95548     38.08488 
139676000    302.52193    269.21327    282.91178   -16060.382      16048.7   -13.698508    38.073727 
139680000    299.22271    467.13909    291.67701   -16063.846    16058.063    175.46208    38.081104 
139684000    300.31943    491.05949    242.80142   -16082.589    16072.565    248.25807     38.06923 
139688000    287.09175    550.23173    337.99991    -16107.91    16109.967    212.23183    38.035949 
139692000    312.10175    390.42153    331.16987   -16126.769    16101.381    59.251657    37.992924 
139696000    286.70477    232.33473    325.81164   -16133.698     16117.86    -93.47691    37.988385 
139700000    309.16368    291.63241    236.23947   -16152.357    16143.077    55.392944    37.967654 
139704000      268.641    551.17483    218.74028   -16167.975    16169.442    332.43456    37.981331 
139708000    320.67849    543.93481    195.57112    -16239.46    16214.639    348.36369    38.012915 
139712000    294.97525    322.05441    456.22054   -16242.531    16252.459   -134.16613    37.994018 
139716000    292.11257    583.04164    291.34829   -16278.752    16277.282    291.69335    37.975565 
139720000    300.75482    377.62468    378.87282   -16309.606     16295.79   -1.2481401    37.927351 
139724000    253.00158     225.6933    367.27453   -16293.233    16324.486   -141.58123     37.91858 
139728000     279.6199    232.67529    385.88351   -16330.569    16317.823   -153.20823    37.984813 
139732000    294.34549    482.99937     238.9855   -16362.556    16343.979    244.01387    38.002224 
139736000    286.72741    310.29975    245.90562   -16357.012    16370.646    64.394125     37.96828 
139740000    308.44288    448.58006    281.39146   -16387.146    16370.843     167.1886    37.980667 
139744000    306.58845    354.96572    328.76505    -16401.41    16385.852    26.200675    37.982141 
139748000    260.22461    268.82661    190.90664   -16412.884    16422.643    77.919972    37.987504 
139752000    275.14051    203.18545    414.63486   -16452.948    16454.157   -211.44942    37.972291 
139756000    323.29801    676.52321    140.25371   -16504.142    16478.293     536.2695    37.971627 
139760000    298.49504    340.94763    353.15901   -16522.126     16478.23   -12.211384    37.957824 
139764000    307.74955     301.9505    330.05825   -16532.025    16516.694   -28.107752    37.950086 
139768000    301.80189    344.59606    260.64926   -16565.255    16557.091    83.946799    37.939768 
139772000    310.85169    288.54903    308.67202   -16574.358    16567.494   -20.122992    37.918914 
139776000    300.56994    283.65804    293.57231   -16553.447    16557.672   -9.9142673    37.910346 
139780000    285.60169    273.63476    367.70405   -16556.338    16555.973   -94.069297     37.89544 
139784000    309.34906    693.68795    375.68227   -16609.936    16586.442    318.00568      37.9215 
139788000    293.21168    413.99006    425.80717   -16611.637    16604.898   -11.817112    37.871826 
139792000    286.01825    288.68683    263.77646   -16631.355    16631.289    24.910366    37.882402 
139796000    292.05688    364.81047      314.573   -16655.248    16661.196    50.237468    37.886241 
139800000    326.34172    253.46277     587.9683   -16697.946    16671.639   -334.50553    37.876916 
139804000    291.21493    424.32451    209.90557   -16721.712    16721.754    214.41894    37.874176 
139808000    283.90208      325.918    283.46278   -16749.174    16736.417    42.455225    37.862209 
139812000    270.04884    403.69356    356.96542   -16745.675    16749.246    46.728141    37.857249 
139816000    338.50103    642.93913    390.88938   -16803.589    16758.754    252.04975    37.828546 
139820000    281.52697    384.50076    182.35795   -16808.664    16802.369    202.14281    37.821957 
139824000    289.09808    175.14796    428.29663   -16823.529    16812.913   -253.14867    37.839035 
139828000    298.16161     415.9558    289.93036   -16844.871    16821.945    126.02545    37.826702 
139832000    275.33272    170.93925    255.22607   -16850.307    16853.708   -84.286822    37.815404 
139836000    290.99508    322.99472    258.15438   -16884.012    16871.651     64.84034    37.814791 
139840000    290.57221    251.75435    245.38314   -16907.158     16898.58     6.371206    37.776587 
139844000    283.07227    334.27804    306.94643   -16929.074     16912.14    27.331611    37.819037 
139848000    282.91559    497.48882    382.52065   -16942.443    16954.747    114.96817    37.867674 
139852000    273.00233    178.73237    449.83996   -16973.486    16981.137   -271.10759    37.881768 
139856000    283.74034    192.25028    346.04477    -17002.77    16998.804   -153.79449    37.868766 
139860000     277.5253    199.67855    400.12239   -17010.711    17013.315   -200.44384    37.854482 
139864000    280.95535    355.19903    455.03292   -17027.714    17030.908    -99.83389    37.814624 
139868000    294.35464    419.32446    318.90094   -17054.475    17047.504    100.42352    37.839608 
139872000    281.58847    290.38532    427.45818   -17048.342    17053.655   -137.07285    37.868888 
139876000    257.46194    215.83177    283.35169   -17065.205    17077.975    -67.51992    37.802795 
139880000    264.71023    268.25854    381.69387   -17074.731    17110.213   -113.43533    37.817419 
139884000    281.94862    265.27585    416.46799   -17097.848    17115.128   -151.19214    37.801367 
139888000    283.27082    408.12265    338.01948   -17117.436    17116.901    70.103169     37.79858 
139892000    293.05216    515.67803    334.59239   -17135.413    17133.098    181.08564     37.83412 
139896000    262.87485    356.35417    256.96344   -17154.144    17158.496    99.390724    37.818597 
139900000    301.31213    416.02749    350.02486    -17189.86     17184.99    66.002631    37.812714 
139904000    283.95465    485.21081    288.44812   -17209.806    17202.365    196.76269    37.782083 
139908000    281.07121    374.65871    322.31382   -17225.089    17221.074    52.344887    37.791467 
139912000     291.3046    380.51639    289.38826   -17232.977    17223.333    91.128134    37.789183 
139916000    294.72346    485.94259     250.0455    -17234.26    17225.597    235.89709    37.810158 
139920000    272.78675    530.22266    345.44621   -17241.546    17242.752    184.77645    37.774168 
139924000    274.17797    237.25256    196.18321   -17234.772    17245.964    41.069353    37.766945 
139928000    265.75187    343.66048    320.06444   -17283.238    17289.924     23.59604    37.766331 
139932000    287.61533    379.98204    303.10334   -17305.998    17315.722    76.878697    37.741191 
139936000    244.09815    212.55628    454.80217   -17319.002    17347.791   -242.24589    37.734515 
139940000    291.48443    169.01261    351.16112   -17354.609    17350.091   -182.14851    37.753036 
139944000    269.76716    399.39351    271.35778   -17367.916    17380.869    128.03573    37.751952 
139948000    282.93153    510.70209    338.59697   -17409.869    17409.032    172.10512    37.761631 
139952000    282.04034    608.36413    259.27866   -17445.104    17440.595    349.08548    37.732296 
139956000    323.73118    429.06385    315.12328   -17478.034    17466.975    113.94057    37.745217 
139960000    285.38806     407.1404    220.65503   -17460.837    17468.048    186.48537    37.771857 
139964000    287.32888    315.84335     416.1445   -17483.975    17485.777   -100.30115    37.760215 
139968000    303.21124    365.06747    474.71071   -17536.833    17495.077   -109.64324    37.802868 
139972000    313.46093    563.30261    439.50671   -17540.312    17509.658    123.79591    37.770816 
139976000    268.85994    541.99227    360.51235   -17553.614    17546.114    181.47992     37.77723 
139980000    312.66118    311.37067    292.90297   -17581.299    17552.186    18.467694    37.739975 
139984000    259.36174    280.56583    306.23837   -17574.749    17584.704   -25.672547    37.747344 
139988000    283.17987    480.94569    317.61167   -17608.739    17593.899    163.33403    37.748162 
139992000    271.78344    369.63127    376.09669   -17637.667    17637.106   -6.4654192    37.752193 
139996000    293.93707    332.92738     190.3931   -17658.946    17646.664    142.53428    37.792838 
140000000     269.1207    384.32501    231.44727   -17681.358    17686.538    152.87774    37.830411 
140004000    287.96321     385.4724    549.59886   -17695.558    17688.172   -164.12646    37.800524 
140008000    289.79091    350.51277    358.73391   -17711.814    17721.215   -8.2211421    37.791799 
140012000    263.20961    334.01541    227.73317   -17730.003    17746.769    106.28224    37.793446 
140016000    299.05208     604.6685    289.34499   -17777.734    17751.211    315.32351    37.818497 
140020000    298.61586    642.47261    287.66872   -17750.356    17739.311    354.80388    37.892106 
140024000    291.45009    327.52607    173.61834   -17750.298    17748.529    153.90773    37.892099 
140028000    276.47616    423.90683    270.37294    -17782.98    17786.316    153.53389    37.858825 
140032000    289.09839    364.82823    427.10054   -17807.031    17794.642   -62.272311    37.867009 
140036000      289.012    166.85311    206.67578   -17805.133    17802.347   -39.822669    37.818459 
140040000    285.71328    390.68012    260.55536   -17799.322    17799.433    130.12476    37.797007 
140044000    278.88068    388.69979    153.53677   -17818.069    17805.566    235.16302    37.811032 
140048000    285.04229    437.85831    297.29826   -17844.489    17834.434    140.56005    37.800155 
140052000    269.96728    227.54193    286.69073    -17845.03    17842.602   -59.148805    37.822783 
140056000    286.21361    354.24609    379.69618   -17879.117    17881.229   -25.450092    37.782307 
140060000    291.45249    518.09982    326.80914   -17945.248    17937.995    191.29068    37.741606 
140064000    271.65708    271.52121    247.20991   -17952.346    17966.558    24.311297    37.739796 
140068000     276.8812    354.13302    420.31226   -17981.091    17986.697   -66.179236    37.755191 
140072000    332.62331    219.30341    353.48949   -18057.162    18020.374   -134.18608    37.785096 
140076000     291.6056    345.35317    286.26487    -18037.59    18023.665    59.088303    37.792376 
140080000    285.92528    465.18122    196.00978   -18073.792    18058.366    269.17143    37.830695 
140084000    273.43846    298.35166    286.80298   -18052.872    18055.274    11.548689    37.803488 
140088000    269.83593    530.14174    244.25376   -18055.552    18062.136    285.88798    37.783402 
140092000     287.5714    468.43408    579.92765   -18089.623    18089.271   -111.49358    37.780191 
140096000    275.67325    194.33434    289.74854   -18103.381    18101.222   -95.414204    37.807667 
140100000    280.68317    402.06535    250.43558   -18128.677    18135.637    151.62977    37.756181 
140104000     301.9907    351.49797    409.95318   -18147.922    18143.708   -58.455212    37.730589 
140108000    322.14557     402.4786    388.96524   -18195.586    18164.972    13.513353    37.736126 
140112000    283.51413    199.14595    223.16047   -18179.088    18174.664   -24.014528    37.733519 
140116000    285.18524     550.8653    217.10781   -18210.788    18211.959    333.75748     37.67304 
140120000    288.09859    348.87694    533.91653   -18225.597    18239.568   -185.03959    37.647261 
140124000    279.26817    199.25949    165.56141   -18230.729    18233.079    33.698087    37.639148 
140128000     295.0122    358.87355    182.49402   -18266.625    18245.635    176.37953    37.631199 
140132000    282.43215    214.69845    426.16282    -18271.77    18286.208   -211.46436    37.617419 
140136000    286.67051    303.53374    455.31819   -18302.824    18301.523   -151.78446    37.604443 
140140000    271.71999     346.4269    308.85868   -18296.741    18303.791    37.568211     37.62501 
140144000    266.89526    372.32956    197.99215   -18310.903    18331.445    174.33742    37.672701 
140148000    275.72109    297.82258    295.66652   -18354.576    18372.431    2.1560651    37.644812 
140152000    280.81805    527.21447    349.03922   -18383.504     18399.51    178.17524    37.671437 
140156000    283.33967    398.40322    464.84479   -18420.408    18429.695   -66.441577    37.687986 
140160000    297.19268    256.95584    295.38501   -18452.453    18458.696   -38.429174    37.687993 
140164000    277.35904    268.47541    298.09787   -18456.718    18477.531   -29.622458    37.698186 
140168000    267.04654    284.97712    333.55648   -18473.616    18483.508   -48.579359    37.674376 
140172000    269.85864    645.10005    247.09076   -18501.496    18508.516    398.00929     37.74997 
140176000    272.45456    403.75898    168.56966   -18511.149    18513.476    235.18932    37.730321 
140180000    269.77358     297.6713    250.98327   -18509.249    18516.942    46.688033    37.751766 
140184000    287.95032    400.76304     222.3728   -18528.584    18536.907    178.39024    37.785182 
140188000    289.29044    368.98823    280.03581   -18534.918    18537.221    88.952417    37.792889 
140192000    274.91585     317.9839    180.52561    -18523.49    18526.137    137.45828    37.785913 
140196000    254.44007    295.19005    234.79534   -18527.604    18533.082    60.394713    37.802611 
140200000      280.607    385.62391    377.63547   -18553.149    18551.839    7.9884439    37.785049 
140204000    299.95544    417.94484     421.7354   -18583.007    18565.483   -3.7905587    37.789437 
140208000    279.75153    254.31292     339.2949   -18580.002    18594.581   -84.981979    37.745231 
140212000    273.04928    374.46593    310.15883   -18599.128     18615.39    64.307101    37.749709 
140216000    284.67703     217.6404    299.64852   -18609.259    18614.988   -82.008126    37.707455 
140220000    259.54869    383.07931    294.91433   -18646.462    18659.243     88.16498    37.682257 
140224000    253.08954       420.43    274.75104   -18680.733    18691.619    145.67895    37.680207 
140228000    303.97611    382.24742    340.83798   -18678.835    18666.947    41.409438    37.666902 
140232000    299.38141    276.83763    421.82648   -18682.836    18694.045   -144.98885    37.658166 
140236000    249.21531    259.88632    250.25781   -18715.167    18725.377     9.628518    37.683316 
140240000    308.49291    385.32023    228.03446   -18735.725    18710.007    157.28578    37.741628 
140244000    298.37374    338.07039    479.73236    -18755.74    18751.101   -141.66197    37.759726 
140248000    292.37899    325.26402     238.0078   -18807.495    18789.246    87.256214    37.803751 
140252000     299.2643    483.85701    300.59009   -18801.416    18782.499    183.26692    37.785572 
140256000    288.36354    312.66445    212.19918    -18823.15    18816.072    100.46528    37.792941 
140260000    283.64659    408.06316    280.28583   -18841.854    18844.556    127.77733    37.813321 
140264000     279.5124     280.8157    390.71959   -18866.986    18862.564    -109.9039    37.806017 
140268000    289.69877    448.26913    335.71242   -18886.978    18894.453    112.55671    37.793614 
140272000    304.77155    389.61768    457.22068   -18949.579    18916.696      -67.603    37.774552 
140276000    323.51494    232.81574    319.90266   -18958.969     18931.63   -87.086919    37.798629 
140280000    299.76796    359.14103    323.55923   -18981.991    18966.279    35.581797    37.789098 
140284000    286.07304    364.84635    386.57943   -18998.674    18993.721   -21.733079    37.774828 
140288000    287.15222    276.86822    389.13655   -19026.835    19015.616   -112.26834    37.776449 
140292000    304.19241    319.34858    416.17825   -19048.808    19051.852   -96.829668     37.77302 
140296000    300.15777    273.38154    257.84946    -19077.63    19063.975    15.532082    37.792302 
140300000    288.95698    335.01154    359.40604   -19093.343    19096.004   -24.394503    37.791966 
140304000     267.6091    342.11916    352.15456   -19108.479    19138.142   -10.035399    37.830122 
140308000    270.12753    244.50477    233.44309   -19144.534    19140.521    11.061672    37.805068 
140312000    299.58478    446.38329    363.52478   -19168.501    19145.853    82.858508     37.81661 
140316000    276.34539    480.06567    379.56912   -19169.191    19177.096    100.49654    37.813259 
140320000    284.14953    276.03859    450.41235   -19187.621    19178.835   -174.37376    37.788544 
140324000    283.83033    422.62306    512.81488   -19191.051    19174.887   -90.191819     37.78566 
140328000    266.22827    289.04809    395.62507   -19202.901    19204.226   -106.57698     37.80949 
140332000    285.84296    299.97459    316.26723   -19252.766     19245.41   -16.292635    37.821731 
140336000    282.08841    217.67095    398.72888   -19265.393    19258.019   -181.05793    37.811141 
140340000    271.40941    297.72226    309.90295    -19273.05    19274.673   -12.180691     37.82329 
140344000    303.90977    386.55734    507.42421    -19290.77    19274.157   -120.86687    37.821135 
140348000    274.38032    215.19762    289.92557   -19307.325    19310.355    -74.72795    37.802028 
140352000    276.73012    354.63873     360.6075   -19316.786    19323.668   -5.9687645    37.810241 
140356000    299.28851    275.29908     323.3236   -19357.453    19338.627   -48.024524    37.788492 
140360000    261.40832    446.77871    240.78275   -19349.699    19354.415    205.99596    37.770938 
140364000    282.43249    346.41853    287.71873   -19363.628    19354.847    58.699795    37.778547 
140368000    289.88725     218.7634    233.93452   -19370.363    19376.029   -15.171117    37.798208 
140372000    283.96289    205.16391    193.84416   -19383.463    19401.123    11.319747    37.793427 
140376000    274.52787    454.32695    321.92319   -19427.094    19435.218    132.40375    37.801508 
140380000    272.17736    225.74646     305.2925   -19463.254    19473.388   -79.546041    37.776381 
140384000    286.48509    470.60648    316.89286   -19484.271    19494.079    153.71362    37.776681 
140388000    284.22916    391.43973    278.13252    -19486.07    19480.965    113.30721    37.733465 
140392000    253.88555    527.45074    375.77638   -19484.002    19499.638    151.67436    37.757355 
140396000     262.2528    459.72326    293.86142   -19497.415    19511.931    165.86185    37.731738 
140400000    284.76738    299.00813    486.77792   -19533.087    19528.078   -187.76979    37.717244 
140404000    283.45374    486.31838    409.33719   -19534.515    19545.502    76.981196    37.747889 
140408000    284.68751    352.58559    299.46458   -19530.249    19529.995    53.121006    37.735185 
140412000    304.43383    298.54935     462.4195   -19545.792    19533.978   -163.87014     37.74532 
140416000    287.01353    193.13545    251.83843   -19534.574    19553.596   -58.702976    37.763348 
140420000    298.90338    381.40734    147.96697   -19569.985     19572.91    233.44037    37.741297 
140424000    277.99296    306.28795    292.88515   -19595.371    19585.575    13.402792    37.769942 
140428000    310.09524    295.04997     404.1963   -19618.608    19603.304   -109.14633    37.759108 
140432000    298.84711    226.70353    487.55165   -19647.311    19629.266   -260.84811    37.765611 
140436000    287.68262    563.16611    159.99953   -19669.125    19652.601    403.16658    37.798007 
140440000    287.55739    403.91923    401.72487   -19684.966    19673.054    2.1943593    37.788146 
140444000    292.79303    340.14011    311.60504   -19708.388    19693.802     28.53507    37.780225 
140448000    300.30554    343.21062    329.90418   -19735.939    19713.446    13.306444    37.784759 
140452000    308.29756    274.51753    318.91736   -19771.005    19752.009   -44.399835     37.79078 
140456000    275.10969    305.92195    247.67138   -19765.326    19763.722    58.250568     37.80502 
140460000    313.27078    316.47565    391.58251   -19783.616    19778.022   -75.106868    37.797482 
140464000    297.16385    239.02225    383.79091   -19815.821     19794.33   -144.76866    37.796523 
140468000    326.47293    706.21747    556.85697   -19842.544    19812.845     149.3605    37.803767 
140472000    253.93586    250.31684    249.72133   -19847.892    19848.243   0.59550832    37.825469 
140476000    290.41807    491.54303    206.98272   -19875.081    19873.161    284.56031    37.854297 
140480000    355.72752    609.91772      356.953   -19919.441    19874.011    252.96471    37.855113 
140484000    274.73755    384.54277    231.35163    -19914.65    19898.752    153.19114    37.873638 
140488000    284.64825    240.18711    212.03217   -19934.971     19948.35    28.154938    37.859592 
140492000    246.54876     229.5601    272.73974   -19957.071    19964.837   -43.179641     37.87818 
140496000    277.06214      302.098    453.03931    -19974.38    19980.206   -150.94131    37.905282 
140500000    254.33702    282.64153    274.64508   -19981.033    20012.234    7.9964522    37.886407 
140504000    292.64924    443.85469    411.30521   -20020.174    20015.158    32.549485    37.848869 
140508000    299.88437     273.5079    501.59196   -20018.398    20026.962   -228.08406    37.885575 
140512000    263.72667    249.75866    245.57716   -20029.237    20041.706    4.1814945    37.893391 
140516000    279.84009    330.15991    398.97283   -20053.156    20051.209   -68.812927     37.87438 
140520000    260.97866    303.19199    271.52311   -20048.142    20064.692    31.668888    37.897838 
140524000    284.02949    252.71968    208.04836   -20081.631    20079.436    44.671319    37.911107 
140528000    262.15727    384.07117    354.58706   -20098.137    20110.764    29.484104      37.9417 
140532000     292.0222    401.12082    398.80818   -20118.622    20123.691    2.3126397    37.954112 
140536000    295.66327     224.1959    436.17172   -20154.563    20140.181   -211.97581    37.960869 
140540000    270.50854    381.96755    246.52229   -20158.629    20159.099    135.44525    37.974475 
140544000    266.10887    443.00287    314.34078   -20150.362    20156.581    128.66209    37.979491 
140548000    289.87955    409.59897    321.41352   -20165.803    20153.864    88.185448    37.988984 
140552000    285.24103    125.14429    356.81809   -20172.905    20164.871   -231.67379    37.983372 
140556000    302.26837    352.25486    594.71996   -20189.281    20169.919    -242.4651    37.967422 
140560000    270.24428    116.63801    371.39221   -20194.539    20216.264    -254.7542    37.963109 
140564000    281.57037    445.50573    317.74139   -20231.412    20230.536    127.76433    37.960193 
140568000    251.34539    363.77621     243.5843   -20244.743    20243.351    120.19191    37.957341 
140572000    291.77279    239.29248    235.87982   -20268.676    20260.968    3.4126523    37.934799 
140576000    296.71018    294.02545    249.35025   -20314.042     20300.44    44.675202    37.937509 
140580000    250.45886     298.6593    261.55694   -20333.617    20349.484    37.102364    37.926177 
140584000    253.55396    265.80243    218.84528   -20356.497    20363.742    46.957158    37.917042 
140588000    243.14676    200.04514    236.18847   -20365.999     20382.69   -36.143333    37.908653 
140592000    266.54134    455.01834    282.21511   -20392.164    20378.548    172.80323    37.900403 
140596000     283.3459    296.07447    358.35223   -20410.118     20392.44   -62.277761    37.906293 
140600000    289.63203    452.41155    407.73039   -20417.277    20393.781    44.681161    37.910812 
140604000    310.48459    378.23923    386.74869   -20450.774    20425.697   -8.5094614    37.906319 
140608000    288.20115    593.79913    232.49072   -20467.495    20454.211    361.30841    37.885245 
140612000    314.99311     281.5527    367.10638   -20481.808    20453.491   -85.553683    37.877924 
140616000     254.1623    333.48177     270.6156   -20474.664    20512.106    62.866174    37.886579 
140620000     282.0982    388.39339    343.86153   -20532.049    20530.547    44.531854    37.900205 
140624000    271.13052    369.32036    397.13269   -20557.152    20563.183   -27.812326    37.925803 
140628000    315.54857    393.79531    491.15436   -20611.386     20576.14   -97.359055    37.945773 
140632000    312.61178    204.18351    374.03398   -20625.401    20594.697   -169.85046    37.923914 
140636000    272.83911    496.55209     274.8563   -20623.574    20626.628    221.69578    37.958101 
140640000    273.91193    505.65146    203.33417   -20652.315    20657.383    302.31729    37.948723 
140644000    280.76626    257.09273    329.92276    -20686.39    20684.914   -72.830035    37.918207 
140648000    298.62199    583.24173    321.18923   -20711.937    20704.032    262.05251    37.900643 
140652000    304.30271    489.80469    546.86562   -20728.326    20728.011   -57.060931    37.921342 
140656000    290.53031    345.58436    244.33015   -20759.545    20746.334    101.25421    37.913472 
140660000    287.04864     212.2941    262.93456   -20747.697    20734.722   -50.640459    37.903596 
140664000    294.45086    352.10329    314.22146   -20768.857    20777.978     37.88183     37.92621 
140668000    256.36131     413.9324    404.25719   -20780.947    20795.468    9.6752183    37.939141 
140672000    276.28525    357.07616    469.23581   -20809.654    20812.862   -112.15965     37.94249 
140676000    297.77829    306.97323    327.03248   -20826.024     20797.09   -20.059256    37.921181 
140680000    291.56651    291.91789    274.36587   -20834.648    20818.697     17.55202    37.921476 
140684000    296.33695    326.64615    286.90312   -20834.702    20825.215    39.743023    37.924103 
140688000    290.72859    388.99212      414.017   -20866.347    20839.007   -25.024881     37.90316 
140692000    291.76949    413.55012    285.14582   -20866.008    20874.048     128.4043    37.882497 
140696000     286.6673    433.61792    402.19962   -20899.836     20898.33    31.418296    37.855758 
140700000    296.81343    219.97206     364.6604   -20917.002    20904.215   -144.68835    37.887622 
140704000    301.96833    406.08819    260.29752   -20958.673    20953.666    145.79067    37.910738 
140708000    303.52057    481.27156    384.34817   -20975.865    20948.531    96.923395    37.950339 
140712000    305.73229    245.36865    294.07434   -21011.577    20991.416   -48.705689    37.957115 
140716000    302.51566    478.63847     315.3442   -21020.065     20994.53    163.29427    37.953448 
140720000    285.82266    322.31462    214.78127    -21022.12    21026.509    107.53335    37.944912 
140724000    287.66088    309.92442    287.61868   -21019.532    21030.379    22.305742    37.921623 
140728000    296.70689     556.2123    250.23368   -21038.216    21046.354    305.97861    37.903786 
140732000    274.49085     440.0305    349.34498   -21054.489    21065.927     90.68552    37.878446 
140736000    273.25043    259.51871     388.9042   -21064.951    21071.626    -129.3855    37.841368 
140740000    258.93583    404.48098    340.20579   -21049.175    21067.574     64.27519    37.846495 
140744000    330.05593    570.70916    282.53614   -21100.882    21074.847    288.17302    37.852997 
140748000    329.59546    564.01083    368.25406   -21096.234    21075.922    195.75677    37.799847 
140752000    291.68301    298.20046       404.49   -21110.313    21096.528   -106.28954    37.801043 
140756000    269.64916    306.97987     299.4593    -21093.31    21112.612    7.5205759    37.826344 
140760000    258.00252    280.20825    551.51354   -21113.535    21139.697   -271.30529    37.836252 
140764000    251.05541     280.2985    253.33983   -21135.046    21158.162    26.958675    37.839173 
140768000    306.07104    508.44616    357.57779   -21166.562    21166.322    150.86837    37.841343 
140772000    291.05416    308.87882    253.78639   -21198.525    21200.078    55.092435    37.807196 
140776000    259.37679    162.43561    209.45747   -21211.508    21222.579   -47.021855    37.802394 
140780000    296.09415    417.00386    309.31733   -21247.775    21226.531    107.68653    37.809589 
140784000    285.34573    605.93719    437.58058   -21248.007    21253.421    168.35661    37.841444 
140788000    273.50289    385.66622    289.28101   -21279.026    21291.849    96.385214    37.823459 
140792000    266.44582    447.78253    302.42775   -21303.508    21312.887    145.35478    37.823209 
140796000    274.75161     371.5993    375.04963   -21325.804    21321.326    -3.450326    37.839377 
140800000    303.29276    395.25892    300.73789   -21353.762      21345.2    94.521031    37.812728 
140804000    280.29686    401.49992    148.45506   -21387.899    21386.534    253.04486    37.789391 
140808000    285.74014    364.08521     201.5633   -21395.627    21386.185    162.52191    37.769601 
140812000    307.33458    423.05164    378.87883    -21409.37    21393.185    44.172817    37.800003 
140816000    297.61672    256.48173    393.66385   -21416.127    21414.546   -137.18211    37.795707 
140820000    276.01134    377.61463    232.53897   -21433.504    21424.604    145.07566    37.811034 
140824000    279.29689    269.08641    462.00949   -21424.189    21413.362   -192.92307     37.80975 
140828000    273.75388    183.08274    339.30609   -21440.504    21410.927   -156.22336    37.796108 
140832000    313.20899    247.68312    266.98848   -21454.417    21428.551   -19.305365    37.791605 
140836000    293.15268    323.39177    341.37644   -21449.149    21444.427   -17.984665      37.8243 
140840000    283.42508    500.20925    312.41859   -21490.836    21491.535    187.79066    37.800803 
140844000    302.28862    587.33199    226.06853   -21525.915    21502.564    361.26347    37.783641 
140848000    290.33091    389.67343    421.01124   -21528.506    21514.784    -31.33781    37.779409 
140852000    284.86816    406.01037    381.83127   -21551.704     21542.48    24.179091    37.766978 
140856000    260.70735    447.09797    166.65309   -21551.488    21551.374    280.44488    37.748014 
140860000    269.73046    396.25908     273.4858   -21569.858    21568.123    122.77328    37.770504 
140864000    315.03168    325.43316    433.92937   -21575.782    21559.421   -108.49622    37.780474 
140868000    284.55455    327.54299    187.60174   -21586.029    21571.654    139.94125    37.800871 
140872000    285.36558    348.05769    212.05329   -21578.026    21579.266     136.0044      37.8044 
140876000    301.97807    328.02384    380.21075   -21601.126    21565.408   -52.186914    37.800669 
140880000    266.16905    437.52903    291.83188   -21589.404    21600.468    145.69715     37.79724 
140884000    272.82935    705.51072    310.48897   -21617.936    21624.633    395.02175    37.765783 
140888000    290.27931    345.56412    243.75708    -21631.42    21644.932    101.80704    37.746939 
140892000    293.13348    407.95361    333.56308   -21644.904    21660.696    74.390525    37.758509 
140896000    282.08102    406.99182    298.37386   -21668.575      21660.7    108.61797     37.76172 
140900000    306.06947    415.74213    444.36039   -21695.295    21683.032   -28.618255    37.768674 
140904000    289.00243    310.83867    310.21842   -21734.217    21716.379    0.6202515    37.763356 
140908000    292.75722    209.13738    398.79056   -21730.746    21737.999   -189.65317    37.767013 
140912000    279.42076    276.69503    346.89195    -21761.81    21754.869    -70.19691    37.789508 
140916000    270.17224    321.95772     435.1066   -21790.697    21766.818   -113.14888    37.786874 
140920000    292.14765    383.52668    256.31836   -21791.849    21794.352    127.20832    37.801899 
140924000    301.68305     426.4277    232.17798   -21816.633    21810.055    194.24972    37.825659 
140928000    290.94421    361.48129    345.10819   -21821.236    21814.731    16.373096    37.844099 
140932000    289.38602     415.9083    279.76997     -21854.7    21841.873    136.13833    37.864865 
140936000    297.94837    367.53548    303.19243   -21880.367    21866.056    64.343044    37.860417 
140940000    296.47095    260.06483    373.50305   -21883.642    21887.051   -113.43822    37.876327 
140944000    301.38222    156.67562    375.35525   -21900.706    21887.857   -218.67963     37.90107 
140948000    274.05649     321.9073    287.66003   -21938.808    21922.206    34.247268    37.903085 
140952000    280.29838    465.31578    364.16453   -21934.408    21932.765    101.15125    37.951568 
140956000    302.02179    320.66193    462.20563    -21947.46    21934.528    -141.5437    37.931665 
140960000    265.62785    387.07695    379.21024    -21955.42     21971.89    7.8667109    37.899242 
140964000    253.00225    439.50116    379.08881   -21970.629    21979.368    60.412351    37.901797 
140968000    284.13932    119.55822    242.58166   -21996.138    21983.361   -123.02344    37.902323 
140972000    278.42798    356.18623    289.34966   -21999.567    22005.997    66.836571    37.905965 
140976000    270.65449    320.20698    197.96632   -22030.167    22022.864    122.24066    37.913323 
140980000     252.9121    422.62859    496.22436     -22029.1    22022.191   -73.595778    37.911168 
140984000    301.31362    283.12561    286.34767   -22055.211    22054.932   -3.2220622    37.899126 
140988000    280.12156    296.39948    291.13204   -22072.887    22080.694     5.267436    37.867043 
140992000    291.94728    331.72512    340.15021   -22115.703    22094.342   -8.4250894    37.851756 
140996000    285.58064     345.3159    228.67712   -22108.168    22104.468    116.63878    37.848088 
141000000    271.22365    333.78084    346.66427   -22112.554    22105.163   -12.883431    37.865981 
141004000    256.32296    299.56409    223.20024   -22107.608    22128.972     76.36385    37.836891 
141008000    294.42642     281.8871    247.29096   -22124.136    22115.928    34.596132    37.840003 
141012000    259.64264    274.49618    234.78899    -22123.74    22138.734    39.707195    37.839914 
141016000    250.02906    244.28076    232.25938   -22139.001     22156.47    12.021382    37.846701 
141020000    262.16818    266.62733    350.09384   -22161.657    22168.027   -83.466509    37.842438 
141024000    298.11439    614.99796    162.45035   -22223.718    22213.209     452.5476    37.871005 
141028000    271.19134    251.55297    297.63507   -22234.864    22232.028   -46.082091     37.86308 
141032000    306.59007    356.56719    511.07434   -22268.919    22252.346   -154.50714    37.893106 
141036000    281.31487    275.38343    435.81089   -22287.267    22283.639   -160.42746    37.902656 
141040000    253.18888    288.79565     160.5692   -22324.742    22338.076    128.22645    37.930936 
141044000    280.33736    238.81221    299.72955   -22339.813    22328.747   -60.917338    37.920885 
141048000    283.69543    483.17667    260.15826   -22347.941    22351.516    223.01841    37.938613 
141052000    264.71518    338.78504    242.70866   -22341.578    22366.172    96.076379      37.9294 
141056000    290.29929    384.24261    334.80968   -22376.195    22385.934    49.432933    37.939296 
141060000    268.96583    364.11153    212.16537   -22382.904    22378.093    151.94616      37.9531 
141064000    276.28127    490.60167    344.60932   -22377.923    22376.972    145.99235     37.95056 
141068000    254.20472    293.05606    384.52426   -22375.333    22399.639   -91.468199    37.957419 
141072000    316.48784    341.44774    329.90421   -22426.006    22396.352     11.54353     37.96059 
141076000    279.29324    277.21831    371.02705   -22421.753    22415.058   -93.808742    37.927918 
141080000    300.53801    421.27006    447.80168   -22445.397    22436.694   -26.531622    37.918012 
141084000    256.36472     309.7473    284.85185   -22449.953    22463.255    24.895444     37.87932 
141088000    292.63045    340.41205    409.84207   -22492.733    22473.206   -69.430023    37.850106 
141092000    311.62236    387.53699    457.81653    -22511.19     22484.79   -70.279535    37.875495 
141096000    256.68041    280.34763     200.2865   -22506.848    22513.853    80.061124    37.884531 
141100000    291.90512    235.12939    353.29571   -22527.256    22522.796   -118.16632    37.862316 
141104000    257.59207    330.20803    249.19137    -22550.31    22567.725    81.016655    37.853803 
141108000    280.44895    384.96644    241.91223   -22549.002    22566.476    143.05421    37.898423 
141112000    302.67066    304.62373    361.01682   -22575.467    22566.695    -56.39309    37.899285 
141116000    275.89847    366.12999    542.49464   -22581.979    22603.383   -176.36465    37.902522 
141120000    265.31267    204.13203    327.62792   -22597.007    22604.457   -123.49588    37.893379 
141124000    294.89093    290.77471    228.83129   -22656.093    22634.652    61.943426      37.9071 
141128000    303.42623    359.62859    287.76004   -22661.871    22655.577    71.868558    37.874064 
141132000    274.31154    315.28322    178.83551   -22670.518    22671.615    136.44771    37.860893 
141136000    282.79265    327.75677    233.71107   -22688.379    22688.932    94.045701    37.862173 
141140000    273.89992    352.88903    310.55781   -22672.825    22693.628    42.331214    37.897818 
141144000      293.353    242.80456    301.21205   -22701.217    22703.766   -58.407495    37.870043 
141148000    251.95182    336.68296     187.8038   -22699.806    22712.414    148.87916      37.8539 
141152000    285.77972    374.58564    367.39731   -22729.136     22717.55    7.1883313    37.858618 
141156000    264.17971     293.4929    309.34587   -22746.987    22763.275   -15.852966     37.85675 
141160000    269.00914    174.68103    378.37801   -22765.124    22785.106   -203.69698    37.847458 
141164000     282.2564    475.46507    575.77523   -22788.427    22801.787   -100.31017    37.813958 
141168000    269.73715    396.94264    272.72707   -22827.801    22824.957    124.21557    37.818424 
141172000    260.93316    335.68334    197.37206   -22830.986    22834.465    138.31128    37.841412 
141176000     305.1619    336.36148    239.71201   -22843.893    22828.522    96.649471    37.898604 
141180000    289.58787    322.10878    402.20082    -22840.03    22846.396   -80.092039    37.899869 
141184000    305.44676    480.49375    298.38806   -22864.224    22860.022    182.10569     37.91845 
141188000    311.80841    358.52344    328.65419   -22901.375    22868.672    29.869245     37.88701 
141192000    302.10299    378.29739    327.52026   -22909.688    22888.693    50.777137    37.876437 
141196000    287.30308    407.78117    267.40742   -22923.544    22919.706    140.37375    37.874277 
141200000    292.68109    185.75663    480.13038   -22943.575    22933.902   -294.37375    37.899299 
141204000    258.27057    567.03879    262.19263   -22954.123    22966.687    304.84616    37.902355 
141208000    278.20023    316.21607    609.22168    -22960.93    22980.959   -293.00561    37.920091 
141212000    317.42546    202.47599     337.4967   -23011.466    23002.819   -135.02072    37.901494 
141216000     285.5944     511.5728    386.10153   -23003.908    23019.026    125.47127    37.885189 
141220000    296.46945     265.3098    226.09949   -23034.907    23022.819    39.210304    37.903036 
141224000    253.61189    388.29446    408.87942   -23042.649    23055.578   -20.584959    37.925128 
141228000    279.52896     298.6898    445.69788   -23068.588    23072.385   -147.00808    37.914707 
141232000    288.42354    405.73563    401.44552   -23088.248     23087.99    4.2901121    37.893309 
141236000    283.13089    315.18154    285.49628   -23114.404    23117.907    29.685256    37.901558 
141240000    264.24935    306.67914    249.42057   -23130.842     23149.42     57.25857    37.906289 
141244000    284.47065    825.83432    373.58649   -23139.319    23141.038    452.24783    37.934483 
141248000    283.57326    315.68374    157.92166   -23157.934    23152.389    157.76208    37.965107 
141252000    295.45822    507.28311    329.85481   -23185.158    23174.297     177.4283    37.935442 
141256000    280.31046     323.8086    380.54207   -23194.751    23184.363   -56.733468    37.945377 
141260000    283.71519    153.96181    412.23015   -23212.084    23211.075   -258.26834    37.941706 
141264000    270.53431    258.04877    254.81431   -23206.192    23203.807    3.2344646    37.953136 
141268000    301.27896    408.29624    314.86196   -23241.537    23232.933    93.434282    37.931564 
141272000    283.04059    427.54636    305.56442    -23268.48    23256.951    121.98194    37.940355 
141276000    292.82266    369.14064      450.887   -23303.683    23286.958    -81.74636    37.957352 
141280000    285.86907    370.56905     228.5314   -23329.443    23327.186    142.03766    37.963004 
141284000    311.88972    427.61408    319.04738   -23346.267    23336.584     108.5667    37.949532 
141288000    287.51588    247.62279    265.67322   -23383.067    23369.708   -18.050428     37.92946 
141292000    287.65163    377.25889    295.75216   -23404.349    23389.491    81.506733    37.937122 
141296000    280.29583    321.52427    389.21169   -23399.974    23411.204   -67.687425    37.933072 
141300000    294.24065    209.66053    380.30551   -23441.719    23429.953   -170.64497    37.944492 
141304000    276.18083    195.21505    155.59898   -23468.206    23475.253    39.616079    37.944148 
141308000    307.77792    291.58027    266.57996   -23509.076    23473.579     25.00031    37.947765 
141312000    288.15615    392.94578    268.72869   -23523.532    23508.675    124.21709    37.944643 
141316000     316.2506    304.37691    272.87626   -23571.364    23526.672    31.500655    37.921838 
141320000    289.46144    352.06023    391.00595   -23586.208    23573.192   -38.945712    37.929938 
141324000    278.88089    247.07947    275.23616   -23617.376    23600.594   -28.156691    37.918706 
141328000    322.45533    352.18079    398.51822   -23665.053     23639.09   -46.337424     37.94397 
141332000    308.84083     436.7312    329.69453   -23685.447    23678.383    107.03667    37.961276 
141336000     291.6018    184.73598    362.26335   -23694.897    23684.252   -177.52736    37.956996 
141340000    293.27791    488.58657    325.40981   -23703.764    23698.265    163.17676    37.974453 
141344000    285.16646    480.78404    254.21624   -23726.804    23733.168     226.5678    37.971805 
141348000    274.52958    451.25011    387.38212   -23726.738    23734.727    63.867991    37.984969 
141352000    277.94382    383.55075    280.67064   -23745.129    23751.232    102.88012    37.990229 
141356000    312.73779    375.78529    250.98168   -23786.587    23763.244     124.8036    38.028016 
141360000    305.68201    420.51682    397.91131   -23776.547    23769.932    22.605508     38.03407 
141364000    296.65672    432.46401    304.91528   -23808.022    23799.349    127.54873    38.028373 
141368000    316.44882    344.83349    399.46192   -23836.248    23800.212   -54.628432    38.012522 
141372000    299.95757    303.27517    384.80384   -23833.815    23816.557   -81.528668    38.046249 
141376000     283.0548    153.04912    334.70719   -23831.709    23832.896   -181.65807    38.034452 
141380000    257.46382    237.35911    296.43312   -23826.255    23851.763   -59.074005     38.05075 
141384000    256.95483    130.38145    126.27257   -23859.311     23863.51    4.1088838    38.062398 
141388000    311.20933    409.49535    546.27816   -23896.459    23884.217   -136.78281    38.092591 
141392000    294.11638    355.30363    366.99454    -23927.21    23906.723   -11.690915    38.107029 
141396000    288.65871    279.90021    411.59434   -23940.655     23946.17   -131.69413    38.087158 
141400000    259.16357     280.4767    402.99624   -23937.165    23946.088   -122.51953    38.091471 
141404000    304.24068    566.84952    252.22544   -23961.641    23957.383    314.62408    38.115543 
141408000     301.1931    335.01924    411.90059    -23998.53    23993.666   -76.881345    38.138224 
141412000    298.03762    457.98374    420.56658   -24023.371    23997.838    37.417161    38.134425 
141416000    265.62058    422.41804    323.18494   -24028.508    24042.313    99.233095    38.124363 
141420000    261.32842    535.09162      222.809   -24038.934    24054.561    312.28262    38.132168 
141424000    264.57488    293.30284    363.12625   -24047.291    24059.151   -69.823412    38.148248 
141428000    257.37355    373.69203    262.98265   -24059.826    24076.719    110.70938    38.150348 
141432000      274.659    291.48239    375.51562   -24056.943    24077.667   -84.033231    38.156188 
141436000    277.25948    306.97909    250.92047   -24073.207    24079.028    56.058619    38.141546 
141440000     297.5499    415.64217    290.75342   -24106.434    24081.006    124.88875    38.151908 
141444000    312.26531    399.47419    332.60488   -24129.046     24101.38     66.86931     38.13514 
141448000    267.40395    251.15663     326.8072   -24116.558    24132.293   -75.650568    38.086617 
141452000    281.48596    390.67705    436.47856     -24146.9    24149.646   -45.801508    38.093572 
141456000    291.02332    260.66639    396.24858   -24170.796     24160.43   -135.58219    38.090825 
141460000    284.98076    246.12779    284.22073   -24178.854    24161.222   -38.092937    38.094373 
141464000    269.22735    259.69625    525.95781   -24182.563    24199.632   -266.26156    38.088905 
141468000    276.59966    276.49661    460.97289   -24198.481    24205.859   -184.47628    38.100797 
141472000    248.93949     384.6747    333.27682   -24231.099     24253.93    51.397877    38.100185 
141476000    270.56911    239.17085    388.39207   -24247.757    24267.976   -149.22121     38.05986 
141480000    301.05693    207.66204    649.85512   -24260.419    24259.259   -442.19309    38.035787 
141484000     273.4785    261.14633    587.90538   -24281.604    24295.804   -326.75905    38.021238 
141488000    300.20008    288.44252    273.29464   -24310.102    24300.426    15.147881    38.011557 
141492000    280.15425    257.01181    286.00189   -24319.636    24317.152   -28.990075    38.032754 
141496000    260.33907    295.54283     236.4203   -24307.392    24341.245    59.122523    38.032166 
141500000    279.74156    316.25332     329.2086    -24354.31    24357.865   -12.955275    38.033452 
141504000    297.27555    366.45506    436.91672   -24376.782    24371.988   -70.461661    38.006762 
141508000    267.85861     317.4133    383.66582   -24381.637    24386.246    -66.25252    37.996284 
141512000    327.37003    473.10645    483.65247    -24422.95    24399.826   -10.546015     37.98575 
141516000    282.65486    625.16142    400.12427   -24441.727    24431.708    225.03715    37.984401 
141520000     310.4616    312.72991    718.22618   -24451.936     24435.78   -405.49627    37.990426 
141524000    269.09043    439.48437     231.2639   -24472.548    24476.355    208.22047    38.011461 
141528000    289.85984    365.99695    403.14211    -24472.42    24480.644    -37.14516    38.009764 
141532000    268.58658    300.12422    249.13401   -24503.801    24512.772    50.990213     38.00746 
141536000    300.62735    284.40264    482.39593    -24540.31    24517.663   -197.99329    37.978873 
141540000    279.98141    234.27524    221.09981   -24547.792    24547.777    13.175428      37.9849 
141544000    262.67153     338.4399    312.23833   -24595.265    24593.375    26.201571    37.985842 
141548000    297.31938    609.59393    352.52506   -24650.408    24626.809    257.06888    37.979636 
141552000      287.747    328.10788    478.61251   -24679.165    24666.135   -150.50463    37.975234 
141556000    269.52706    357.65488     370.8794   -24689.715    24700.684   -13.224526    37.971591 
141560000    290.11049    374.63856    266.16548   -24710.564    24700.278    108.47308    37.950557 
141564000    273.15746    324.26267    243.28005   -24738.267    24745.648    80.982621    37.939182 
141568000    312.75013    402.55077    296.87156   -24755.029    24742.838    105.67921    37.933868 
141572000    248.49663    226.92014    288.36747   -24754.109    24776.855   -61.447324    37.908397 
141576000    297.86934     307.8834    208.55996   -24790.024    24799.329    99.323439    37.926971 
141580000    250.67252    504.20114    260.47267   -24803.799    24809.554    243.72847    37.930089 
141584000    295.35552    279.26261    342.74968   -24827.882    24813.283   -63.487062    37.921133 
141588000    315.31083    291.90575    364.09551   -24842.891    24824.938   -72.189767    37.905357 
141592000     281.4871    533.63641    185.23171   -24852.439    24863.746     348.4047    37.916351 
141596000    282.93119    380.21108    311.96693   -24883.435    24858.813    68.244157    37.919522 
141600000    274.03123    348.65249    301.85207   -24866.268    24890.755    46.800414    37.947002 
141604000    277.80268    315.22219     234.5032   -24908.849    24899.341    80.718989    37.930098 
141608000    280.72146    481.68453    320.76976   -24919.308    24904.472    160.91477    37.914896 
141612000    285.07616     465.9309     311.4805   -24933.136    24938.198     154.4504    37.909245 
141616000    277.20503    185.20561    374.14669   -24961.458    24954.186   -188.94108    37.901765 
141620000    290.91077    157.66859    378.40148   -24980.674    24972.319   -220.73289    37.911076 
141624000    311.15758    354.00793    387.49908   -25014.466    24998.375   -33.491148    37.894635 
141628000    261.27205    365.52861    292.16886   -25000.062    25017.101    73.359759    37.890867 
141632000    267.96041    277.91656    480.08428    -25032.36    25025.481   -202.16771    37.881758 
141636000    268.49352    277.19389     260.7097    -25067.23    25060.834    16.484194     37.86884 
141640000    290.78255    394.40172    256.72515   -25080.958    25089.638    137.67658    37.886846 
141644000    292.28396    390.59708    355.39924   -25113.858    25097.184    35.197833    37.881404 
141648000    282.63652    399.19255    252.70492   -25128.479    25125.151    146.48763    37.892976 
141652000    301.66889    397.40895    477.29031   -25170.017    25136.138   -79.881359    37.880959 
141656000     283.8531    336.56008    490.42378   -25181.204    25174.431    -153.8637    37.868458 
141660000    295.99874    296.20646    136.48918   -25189.158    25181.881    159.71729    37.891065 
141664000    280.82151    321.99733    260.01058   -25208.099    25200.569    61.986749    37.866439 
141668000    276.18945    201.88365    242.28753   -25231.068    25231.239   -40.403879    37.868979 
141672000    279.50274    220.55801    285.10197   -25238.034    25234.494   -64.543967    37.889095 
141676000    262.06297    305.23758    219.95164   -25238.973    25271.022    85.285936    37.896082 
141680000    279.98786    410.74407    344.05837   -25272.963    25274.823    66.685703    37.874744 
141684000    277.69503    492.42867    293.84927   -25285.668    25281.935     198.5794    37.895612 
141688000    293.32659    182.19112    309.91989   -25301.542    25305.353   -127.72877    37.880786 
141692000     298.9233    242.96503    232.43877   -25331.112    25328.026    10.526254    37.887346 
141696000    258.39303    229.60252     210.9366   -25324.981    25343.677     18.66592    37.857226 
141700000    254.50416    263.55581    216.61927    -25365.03    25388.202    46.936538    37.860649 
141704000    291.15682    568.75312     309.5542   -25396.032    25397.069    259.19892     37.85211 
141708000    307.26872    474.64952    182.58599   -25428.028    25421.638    292.06353    37.851577 
141712000    262.09718    349.94582    380.50101   -25452.283    25472.366   -30.555192    37.829447 
141716000    284.32746    371.50973    361.75545   -25474.702    25463.805    9.7542805    37.838959 
141720000    314.72074     615.7191    228.20297   -25514.169    25475.778    387.51613    37.876325 
141724000    288.53129    369.93819    325.90495   -25510.774    25506.438    44.033244    37.872965 
141728000    288.41123    539.73443    135.76937   -25520.149     25506.48    403.96506    37.862786 
141732000    272.44711    259.65059    228.55958   -25519.465    25525.786    31.091011    37.864772 
141736000       289.36    602.28076    269.32564   -25542.579    25535.792    332.95512    37.880935 
141740000    276.14144    361.09212    341.22766   -25548.467    25533.527    19.864466    37.875296 
141744000    295.41579    332.94407    195.16053   -25568.934    25571.806    137.78355    37.875902 
141748000    284.71208    371.68171    456.45058   -25595.962    25597.553   -84.768869    37.891939 
141752000     288.9019     291.6274    314.18151   -25617.885    25607.989   -22.554118    37.882613 
141756000    298.67526    319.43886    460.33389   -25639.873    25624.422   -140.89503    37.883013 
141760000    285.36935    300.83775    283.00126   -25660.746    25648.059    17.836486       37.872 
141764000    269.74539    348.68191    340.64177   -25674.956     25686.77    8.0401472    37.872067 
141768000    256.28615    250.36319     292.9025   -25673.633    25701.511   -42.539312    37.894874 
141772000     286.1432    461.77931    239.87856   -25701.159    25694.528    221.90075    37.888167 
141776000    290.24078    272.97374    239.19902   -25730.302     25711.93    33.774718    37.898068 
141780000    265.04573    345.27791    275.92843   -25737.521     25742.17    69.349478    37.901833 
141784000    299.55487    417.98594    301.37495   -25765.537    25745.648    116.61099    37.902911 
141788000    286.01197    356.78585    317.78901   -25775.126    25773.753    38.996837     37.89781 
141792000    284.10192    345.81292    307.47016   -25803.775    25785.701    38.342761    37.904839 
141796000    291.56016    351.16024    372.05446   -25803.101     25793.68   -20.894224      37.8875 
141800000    273.50794    267.43554    198.34654   -25802.733    25810.279    69.089001    37.889807 
141804000    294.79788    447.56372    216.71816   -25802.408    25811.506    230.84556    37.866736 
141808000    289.76933    218.63962     514.9963   -25832.295    25832.275   -296.35667    37.871348 
141812000    307.51236    642.17633    289.38519   -25853.934    25854.024    352.79114    37.856547 
141816000    279.71296    488.30455    256.84585   -25859.143    25868.447    231.45871    37.844094 
141820000    304.84472    428.01817    265.21864   -25897.697    25870.005    162.79953    37.861056 
141824000    292.73191    568.70214    298.42223   -25908.765    25914.533    270.27991    37.867878 
141828000    253.44614    344.81924     294.0303   -25928.675     25941.32    50.788945    37.853093 
141832000    286.31093    235.63332    460.19467   -25986.532     25973.34   -224.56135    37.840259 
141836000    301.60332     313.2358    358.75724    -26011.02    26002.712   -45.521433    37.825874 
141840000    311.84771    229.56812     379.0628   -26038.323    26030.544   -149.49468    37.823257 
141844000    306.12055    265.55638    236.78149    -26046.41    26024.984    28.774895    37.815503 
141848000    266.72037     427.8732    208.25929   -26054.285    26056.938     219.6139    37.806194 
141852000    273.69258    213.59005    258.16538   -26075.077    26077.886   -44.575334    37.802551 
141856000    302.84511     345.0715    388.92534   -26123.356    26098.217   -43.853841    37.806418 
141860000    305.43828    395.34134    363.78822   -26139.826    26125.402    31.553121    37.829987 
141864000     293.8184    329.62174    136.54856   -26140.441    26138.516    193.07317    37.807514 
141868000    250.26501    598.77085     255.0741   -26134.406    26163.916    343.69676    37.795855 
141872000    267.07667    370.92016     351.2742   -26161.254     26166.67     19.64596    37.789018 
141876000    263.07598    434.73742    464.05444   -26182.261    26176.775   -29.317021      37.7931 
141880000    272.75049    460.88585    384.20571   -26192.144    26201.439    76.680138    37.786458 
141884000    287.67379    399.62573     302.6544   -26202.399    26199.822    96.971327     37.77948 
141888000    251.04058    182.90402    325.76958   -26226.908    26254.976   -142.86556    37.773686 
141892000    324.22065     492.5975    387.50901   -26275.864     26255.11    105.08849    37.779229 
141896000    305.90856    516.82841    457.67065   -26292.447    26284.553    59.157755    37.788199 
141900000    282.28552    248.38573    405.29692   -26312.071    26309.579   -156.91118    37.778157 
141904000    277.15995    483.09946    246.14507   -26337.838    26349.369     236.9544    37.777793 
141908000    273.66934    396.96709    369.73333   -26357.878    26366.091    27.233766    37.787895 
141912000    295.20173    453.08254    520.22271   -26397.917    26382.722   -67.140171    37.784165 
141916000    310.15087    459.36749    312.95418    -26427.15    26408.011    146.41331    37.783897 
141920000    299.46961    301.22587    399.12512   -26443.918    26422.716   -97.899255     37.79648 
141924000    282.10337     204.1139     329.6166   -26474.002    26466.427    -125.5027    37.802684 
141928000    295.18118     321.1218    279.55931   -26484.372    26477.413    41.562484    37.790314 
141932000    274.18174    330.11896    250.88477   -26494.986    26490.438    79.234195    37.781881 
141936000    288.72846    431.72324    245.98926   -26549.514    26542.773    185.73398    37.753947 
141940000    292.67134    215.91373    516.41455   -26570.088    26557.198   -300.50082    37.755257 
141944000    264.32866    252.16278    397.54426    -26557.71    26569.145   -145.38148    37.732979 
141948000    299.18399    258.89391    320.57297   -26581.567    26576.561   -61.679064     37.73389 
141952000     275.9623    388.87278    350.54811   -26602.516     26606.48    38.324669    37.720392 
141956000    258.62374    356.21236    192.01452   -26610.862    26618.189    164.19784    37.734555 
141960000    271.14343    274.60264    463.72182   -26644.653    26642.077   -189.11918     37.75385 
141964000    309.30156    355.65078     283.2504   -26674.087    26657.459    72.400382    37.744427 
141968000    289.57608    177.68335    259.28801   -26701.411    26678.926   -81.604664    37.748423 
141972000      321.805    367.90225    274.44585   -26732.061    26692.341      93.4564     37.75432 
141976000    307.09009    498.36229    231.00746   -26743.449    26726.521    267.35484     37.77586 
141980000    299.13541    414.79447    203.51888   -26785.838    26776.789    211.27559    37.780377 
141984000    262.76293    147.92659    220.95379   -26762.399    26789.772   -73.027197    37.783752 
141988000    278.58412    372.42224    372.24279   -26818.037    26804.955    0.1794538    37.777624 
141992000      299.183    390.10617    248.65023   -26843.619    26824.217    141.45594    37.766224 
141996000    298.10197    362.86777    249.75338   -26831.513    26832.656    113.11439    37.737499 
142000000    306.49232    255.39045    328.89653   -26846.367    26819.201   -73.506077    37.728124 
142004000    307.60929     366.7136    176.01254    -26857.38    26833.757    190.70106    37.727839 
142008000    276.19316    287.57163     294.5345    -26857.71    26854.407   -6.9628758    37.747287 
142012000    305.93355     304.1149    440.78934   -26872.447    26875.563   -136.67444    37.753288 
142016000    268.03238    243.23468    320.95356   -26886.666    26921.051   -77.718878    37.759568 
142020000    259.51283    226.32928    248.60289   -26901.204    26930.931   -22.273602    37.749933 
142024000    293.12868    210.88206    190.07151   -26936.511    26928.138    20.810553    37.753818 
142028000     273.3061    306.03802     274.7137   -26937.717    26945.862     31.32432    37.749758 
142032000    282.42164     364.6969    359.59138   -26951.149    26957.321    5.1055194    37.738282 
142036000    289.47768    272.68823    377.55635   -26972.537    26967.134   -104.86811    37.715403 
142040000    277.22108    285.18738    217.75635   -26989.633    26993.654    67.431026    37.737841 
142044000    256.51258    299.91395    175.70124   -27035.597    27039.169    124.21271    37.722392 
142048000    339.12028    364.09634    248.31318   -27061.533    27039.084    115.78316    37.720036 
142052000    291.58536    520.71796    478.40556   -27065.735    27080.221    42.312396    37.715354 
142056000    303.30084    511.05793    325.31457   -27097.781    27105.962    185.74336    37.722533 
142060000    281.09429    267.80023    218.26665   -27123.975    27121.127    49.533583    37.748101 
142064000     271.4684    251.44759    302.52946   -27147.865    27141.634   -51.081875    37.750698 
142068000     253.2577    425.84188    281.73574   -27160.042    27175.762    144.10614     37.73856 
142072000    256.96803    402.20928    150.26385    -27152.66     27169.68    251.94544    37.763354 
142076000    277.32466    570.60131    343.17611   -27152.867    27160.772     227.4252    37.775808 
142080000     280.0003    385.12683      321.776   -27173.042    27157.677    63.350829    37.813084 
142084000     307.4465    472.44622    317.38182   -27193.262     27166.75    155.06439    37.770767 
142088000    275.44087    436.07372    172.00788   -27190.681    27190.188    264.06584     37.77404 
142092000     283.2436    307.28346    503.29448   -27211.805    27227.473   -196.01102    37.752094 
142096000    284.11816    400.93169     452.1826   -27239.457    27243.126   -51.250909    37.760428 
142100000    287.65965    297.78276    149.50573   -27263.028    27253.463    148.27703    37.769359 
142104000    264.79942    444.41697    210.09635   -27266.016    27297.974    234.32062     37.78545 
142108000    260.72203    264.99705    221.51276   -27264.852    27288.405    43.484291    37.776436 
142112000    258.59061    370.46609    276.91802   -27291.204    27315.181    93.548075    37.759455 
142116000    266.52082    387.16635    364.17929   -27304.528    27323.884    22.987053    37.762727 
142120000     291.8635    250.78225    263.84999    -27333.04    27334.948   -13.067747    37.758729 
142124000     309.4389    379.42668    338.08259   -27385.988    27362.869     41.34409     37.76947 
142128000    286.27192    343.62354    239.86731   -27382.239    27387.046    103.75624    37.748961 
142132000    279.46973    420.09931    216.23575   -27397.328    27407.239    203.86356     37.74023 
142136000    247.85802     291.3167    188.45492   -27416.651    27431.283    102.86177    37.737324 
142140000    293.19913    568.41981    344.83038   -27435.871    27420.816    223.58943    37.736223 
142144000    293.39281    452.53408    285.59627   -27441.467    27441.519    166.93781    37.765336 
142148000    290.51231      410.834    455.19613   -27455.114    27442.412   -44.362134    37.776357 
142152000    298.41474    162.60379    380.83518   -27471.094    27465.718   -218.23139    37.761547 
142156000    276.52401    308.19583    461.65958   -27457.738    27475.187   -153.46374    37.742767 
142160000    295.03053    429.86565    363.90651   -27480.526    27471.206    65.959145    37.727697 
142164000    272.38356    295.82625    351.13758   -27481.453    27467.088   -55.311328    37.728137 
142168000    269.82579    424.74195    395.94771    -27500.63    27511.864    28.794246    37.735911 
142172000    274.44686    433.01048    333.72455   -27505.278    27508.072    99.285925    37.735361 
142176000    260.45883    267.85347    288.99305   -27533.273    27522.718   -21.139578    37.735847 
142180000    309.26925     419.1641    307.50479    -27546.98    27532.825    111.65931    37.699304 
142184000    266.36886    503.77663    287.90876   -27557.395    27574.181    215.86787    37.721869 
142188000    298.89744    292.94415    189.04542   -27598.029    27589.024    103.89873    37.744387 
142192000    279.85322    375.27939    274.87442   -27612.078    27626.866    100.40497    37.744607 
142196000    274.43693    354.37253    294.17732   -27635.624    27646.825     60.19521     37.72136 
142200000    275.74233     262.8984    397.75422    -27648.92    27651.958   -134.85582    37.732094 
142204000    273.39745    302.89527    384.73014   -27694.383    27701.793   -81.834875    37.724888 
142208000    302.10682    236.66309     461.3553   -27732.953    27720.512   -224.69221    37.717644 
142212000    276.93742    500.29276    267.78282   -27730.763    27727.168    232.50994    37.696365 
142216000    290.93968    349.11068    164.61972   -27743.258    27731.666    184.49096    37.698954 
142220000    288.87289    446.65785    422.39786   -27733.557    27733.379    24.259982    37.685869 
142224000    302.91463    275.64559    224.58102   -27765.038    27762.233     51.06457     37.68224 
142228000     274.4217    389.56026    327.23059   -27766.089    27783.171    62.329665    37.697731 
142232000    267.14069    242.86342    451.99475   -27791.062    27814.854   -209.13133    37.698325 
142236000    253.33848    238.27795     405.4294   -27825.273    27834.834   -167.15145     37.70264 
142240000    285.99767    182.64058    302.69045   -27857.289    27849.636   -120.04987    37.701398 
142244000    270.83353    341.07037    509.80195   -27873.478    27886.631   -168.73158    37.681058 
142248000    260.71602    271.20953    399.59466   -27890.622    27916.933   -128.38513     37.69377 
142252000    263.97642    430.50614    415.82719   -27918.908    27921.879     14.67895    37.683534 
142256000    264.53572     447.2549    324.14531   -27963.742    27963.691    123.10959    37.679403 
142260000    293.27789    517.22052    364.44394   -27984.737    27987.897    152.77659    37.693745 
142264000    272.58918    320.13026    161.45956     -28012.6    28006.841     158.6707    37.708083 
142268000     279.5792    417.03923    405.30702   -28025.807    28027.407    11.732205    37.681652 
142272000    262.19081    340.15668     276.6523   -28042.998    28066.145    63.504371    37.664198 
142276000    261.53275    330.27449    323.11723   -28058.327    28073.915    7.1572598    37.665573 
142280000    257.08719    298.13531     363.5711    -28075.68    28093.609   -65.435785    37.663576 
142284000    263.06972    340.80144    212.13876    -28106.38    28132.141    128.66268    37.660571 
142288000    284.83486    268.92652    292.50666   -28133.343    28131.847   -23.580144    37.651095 
142292000     278.8721    401.59883    441.11564   -28144.153     28147.68   -39.516812    37.632091 
142296000    284.96354    674.45791    279.25578   -28158.227    28149.691    395.20213    37.653358 
142300000    275.04279    358.67305    218.80434   -28149.863    28164.228    139.86871    37.662474 
142304000    271.65989    389.45597    406.68782   -28166.324    28174.872    -17.23185    37.655182 
142308000    269.00867    116.71696     276.6772   -28210.684    28207.668   -159.96024     37.64623 
142312000    274.23455    252.26228    184.65416    -28221.57    28221.379    67.608121    37.639305 
142316000    277.92965    241.83341    361.22048   -28246.827    28241.612   -119.38707    37.635463 
142320000      268.376    333.63017     264.9546   -28293.919      28294.1     68.67557    37.654363 
142324000    266.68467     364.7869    302.37949   -28294.901    28302.887    62.407415    37.672981 
142328000    283.46201    144.29203     211.9995   -28323.143    28310.832   -67.707477    37.671432 
142332000    280.77687    296.70792    230.81759   -28331.176    28339.142    65.890334    37.681625 
142336000    278.29101    617.75605    376.57826   -28368.976    28351.484    241.17779    37.681162 
142340000    286.86987    198.60695    205.47081   -28382.887     28374.16   -6.8638588    37.660286 
142344000    303.22679    278.59149    416.18693   -28402.311    28386.044   -137.59543    37.658075 
142348000    293.07528    396.82324     232.7241   -28409.927    28417.443    164.09914    37.644715 
142352000    251.00208    257.50152    276.06687    -28423.32    28437.009   -18.565349    37.644814 
142356000    283.25348    282.27768    450.30268   -28439.462     28444.34     -168.025    37.625354 
142360000    272.34569    462.90421    248.16606   -28461.958    28470.928    214.73815    37.636005 
142364000    282.04102    250.88741    403.52205     -28470.2    28476.333   -152.63465    37.631825 
142368000    293.99935    252.55516    267.79874   -28495.027    28490.091   -15.243582     37.61518 
142372000    263.11006    269.61427    256.66189   -28524.751    28538.254    12.952383    37.609164 
142376000     275.4959    257.28097    319.59507   -28527.653      28543.6   -62.314098     37.60728 
142380000    276.13223    582.67233    218.10879   -28546.091    28557.366    364.56354    37.599156 
142384000     290.3636    412.26686    327.28806   -28584.955    28594.371    84.978801    37.587308 
142388000    250.77032    246.20626    353.89955   -28583.974    28598.018   -107.69329    37.547254 
142392000    297.82181    420.05042    357.09795   -28591.722    28573.291    62.952472     37.55918 
142396000    285.57096    274.31515    238.73258   -28618.164    28607.457     35.58257    37.570246 
142400000    250.20189    252.41254    248.22427   -28633.144    28654.986    4.1882705    37.589649 
142404000    267.16033    398.94233    337.26855   -28645.237    28661.705    61.673783    37.599737 
142408000    263.30566     320.7167    177.47356   -28700.123    28702.475    143.24314    37.597792 
142412000    328.07966    334.66755    468.32876   -28741.055    28694.001    -133.6612    37.616877 
142416000    310.16138    440.24095    370.95682   -28757.103    28723.265    69.284136    37.623916 
142420000    290.24054    436.07539    328.05375     -28768.4    28746.187    108.02165    37.626102 
142424000    271.52418    400.27832    303.21026   -28787.392    28791.421    97.068055    37.632157 
142428000    295.15464     432.0521     217.2678   -28811.346    28809.776     214.7843    37.629039 
142432000    285.70309    383.18635    174.12837   -28835.771    28837.239    209.05797    37.635293 
142436000    306.84074    369.15104    300.33776   -28857.752     28828.68    68.813278     37.61859 
142440000    282.27504    346.52178     316.4747    -28862.27    28853.251    30.047083    37.617197 
142444000    277.12041    187.97699    248.90947    -28889.37    28881.361   -60.932474    37.632865 
142448000    297.92577    287.15217    229.49427   -28932.592    28919.547    57.657897    37.645791 
142452000    286.35738    344.79686    471.04618   -28935.374    28931.409   -126.24932    37.609165 
142456000    275.34156    331.23993    326.47154   -28961.369    28947.002    4.7683861    37.585412 
142460000    311.16794    443.03107    633.20368   -28973.171    28960.916   -190.17261        37.59 
142464000    278.36354    411.23281    273.18633   -28975.523    28987.199    138.04648    37.581709 
142468000    275.97683    198.44242     326.1249   -28993.852    29002.527   -127.68248      37.5852 
142472000    298.15671    376.50092    439.21739     -29020.8    29011.645   -62.716467    37.574931 
142476000    266.45234    290.43561    170.72918   -29039.905    29051.264    119.70643    37.585168 
142480000    306.02417    437.18439    213.75235    -29053.06    29050.869    223.43204    37.585985 
142484000     260.4511     281.8464    306.47369    -29057.13    29076.966   -24.627291    37.593306 
142488000    264.15038    287.72061    316.10665    -29090.22    29094.163   -28.386047    37.616283 
142492000    311.50256    244.32712    326.17635   -29119.088    29091.325   -81.849228    37.632074 
142496000     307.9194    266.40638     175.2816   -29134.483      29127.9    91.124774    37.648743 
142500000    298.15305    389.21952    637.89268   -29127.861    29111.483   -248.67316     37.62545 
142504000    304.13455     338.3146    414.68654   -29135.919    29120.132   -76.371945     37.62202 
142508000    279.70977    255.14062    451.42212   -29146.338    29144.737   -196.28149    37.598957 
142512000    291.40405    308.16572    430.75873    -29164.19     29182.85   -122.59301    37.605178 
142516000    251.11053    341.44044    245.08329   -29173.279    29207.602     96.35715    37.612399 
142520000    258.71504    292.20296    197.33294   -29174.734    29205.907    94.870022    37.585117 
142524000    311.10576    302.35786    413.48479   -29194.833    29181.268   -111.12694    37.565983 
142528000    276.82468    273.91897    688.82328   -29188.059    29206.345   -414.90431     37.56046 
142532000    259.89857    222.31488     256.5183    -29213.88    29243.202   -34.203422    37.534468 
142536000    282.03106    323.47884    179.71887   -29241.435    29249.494    143.75997    37.534304 
142540000    289.12816     356.6707    427.83458   -29252.402     29265.74   -71.163877    37.539275 
142544000    296.24026    312.70293    468.42839   -29271.729    29269.417   -155.72546    37.534117 
142548000    283.75716    468.96648    212.57092   -29296.891    29281.937    256.39557    37.533959 
142552000    281.56128    322.73868    326.28667   -29340.773    29344.244   -3.5479857    37.519947 
142556000    267.41589    343.16356    372.92419   -29333.829    29335.664   -29.760636    37.523257 
142560000    277.10225    202.68849    342.19198   -29361.069     29357.56   -139.50349    37.523191 
142564000    245.96087    333.53404     284.1434   -29357.132    29386.505    49.390643    37.524889 
142568000    243.20338    183.06945    160.90347   -29360.872    29386.976    22.165981    37.486565 
142572000    295.49906    320.74766    306.22786   -29403.483     29395.92    14.519802    37.477849 
142576000     267.2674    181.64724    210.71825   -29434.132    29450.859    -29.07101     37.47094 
142580000    264.20032    556.13309     255.6916   -29462.354    29476.171    300.44148    37.485378 
142584000    270.46982    345.64114     232.0177     -29491.2    29520.165    113.62344    37.516728 
142588000     251.2581    226.17338    305.98707   -29520.724    29530.117   -79.813692    37.504255 
142592000    277.50233    293.42145    287.08106   -29557.378     29555.15    6.3403902     37.48947 
142596000    314.98673    375.63771    358.75777   -29593.053    29581.287    16.879934    37.496258 
142600000    302.63965    396.48843    253.35248   -29629.802    29628.236    143.13595    37.506122 
142604000    263.69647    296.80391    143.22416   -29636.742     29669.61    153.57975     37.52046 
142608000     272.4362    298.15952    447.86943   -29647.855    29672.008   -149.70991    37.519519 
142612000    239.51033    423.99461    370.98885   -29679.585    29704.866    53.005757    37.542081 
142616000    282.21586    445.45016    293.47168   -29702.106    29724.554    151.97848    37.532945 
142620000    292.86766    431.72767    404.65153   -29703.857    29694.834    27.076137    37.545214 
142624000    299.00334     203.4561    237.56371   -29730.193    29722.785   -34.107611    37.524254 
142628000    278.12649    323.93665    277.69977   -29733.196    29748.756    46.236874    37.511264 
142632000    277.79465    482.42958    289.78951   -29767.767    29770.389    192.64006     37.53863 
142636000    262.23511    301.11572    292.54689   -29788.127    29799.536    8.5688337    37.535595 
142640000     286.6055     266.6916     321.2322   -29796.214    29809.621   -54.540596      37.5339 
142644000    256.93258    357.70397    466.02434   -29810.513    29849.064   -108.32037     37.52328 
142648000    306.60698    326.01791    184.27912   -29856.575    29842.743    141.73879    37.542269 
142652000    281.93881     327.3069    178.45488   -29870.377    29857.505    148.85202    37.549739 
142656000    299.01014     400.2348    278.79197   -29891.827    29887.026    121.44283    37.539096 
142660000    277.95576    479.77597    286.91064    -29903.77    29903.729    192.86533    37.557934 
142664000    289.27407    265.94352    232.19765   -29913.105    29909.114    33.745873    37.584794 
142668000    289.61749    295.86734    353.07379   -29959.193    29940.675   -57.206446    37.591308 
142672000    273.29271    210.48191    113.81054   -29976.436    29980.669    96.671369    37.576654 
142676000    274.49664    375.07181    297.01252   -30010.075    30018.546    78.059288    37.570125 
142680000    296.99953    309.69565    371.40294   -30054.644    30046.953   -61.707289    37.575091 
142684000    251.82834    255.24048    279.08027   -30062.836    30077.746   -23.839796    37.575243 
142688000    270.33836    368.08347    383.41224   -30093.783    30105.269   -15.328773    37.579627 
142692000    271.94907     318.5077    341.68052   -30109.686    30126.938   -23.172823    37.571428 
142696000    284.53758    221.76073    318.53994    -30136.48    30144.998   -96.779202    37.566052 
142700000    292.08577    293.11267    343.53183   -30163.468    30166.344    -50.41916    37.566144 
142704000    246.55432    568.79803    187.28712   -30181.898    30203.707    381.51091    37.557089 
142708000    309.17674    400.50378       350.07   -30196.737    30200.769    50.433783     37.56796 
142712000    299.25705    286.84273    280.75739   -30220.205    30210.098    6.0853413    37.558969 
142716000    276.69979    560.82956    356.53827   -30258.244    30248.849    204.29129    37.557663 
142720000    317.19724    364.64436     542.8381    -30278.85    30256.184   -178.19374    37.555376 
142724000    275.48817    279.73859    212.50372   -30287.734    30273.722    67.234873    37.560706 
142728000    274.81679    597.58712    311.37755   -30285.006    30292.959    286.20957     37.56238 
142732000    304.04939    378.19114    340.47201   -30316.871    30310.466    37.719132    37.559675 
142736000    288.41506    486.79694    440.20624    -30334.34    30333.075      46.5907    37.570688 
142740000    268.09555    424.69923    349.98537   -30356.801    30379.779     74.71386    37.574262 
142744000    279.97901    350.64189     342.0453   -30411.836    30409.756    8.5965882     37.59106 
142748000    293.07972    417.76222    534.50841   -30418.881    30408.342   -116.74619    37.578959 
142752000    257.18596    488.29732    171.62532    -30428.29    30440.475      316.672    37.588065 
142756000    261.87421    315.71119    217.70113   -30433.436    30451.457    98.010061    37.595771 
142760000    305.28162    411.55477    220.76366   -30463.471    30442.586    190.79111    37.588644 
142764000     274.6655    416.29257    378.21965   -30450.801    30448.834    38.072914    37.596251 
142768000    294.28438    193.08765    304.60928   -30471.958    30458.797   -111.52164    37.586302 
142772000    283.73206    341.23817     200.7492   -30500.751    30489.072    140.48898    37.588534 
142776000     251.9788    289.46976    341.09711   -30494.317    30519.556   -51.627348    37.584687 
142780000     271.1268    344.94564    377.79668   -30523.436    30536.967    -32.85104    37.585366 
142784000    300.05271    519.49963    362.41777   -30551.867    30541.749    157.08185    37.595266 
142788000    277.11477      306.608    309.15173   -30576.144    30574.107   -2.5437267    37.570146 
142792000    301.31531    290.42387      281.008     -30586.1    30592.171    9.4158694    37.553817 
142796000    290.50376    282.16724    212.31344   -30603.822    30587.403    69.853797    37.556405 
142800000    296.56108    340.15931    301.76903   -30629.421    30622.191    38.390281    37.535141 
142804000    265.07445    490.03899    334.89127   -30635.755    30657.552    155.14771    37.553182 
142808000    294.26298    422.23743    396.67535   -30657.216    30658.131    25.562083    37.556942 
142812000    304.11463    393.96234    409.09122   -30694.744    30668.561   -15.128878    37.559559 
142816000    343.51377    545.45644    581.69062   -30734.403    30680.101   -36.234176    37.566835 
142820000    271.42102    368.48517    227.59667   -30733.217     30735.09     140.8885    37.579618 
142824000    242.53315    362.65445    275.18161   -30751.508     30776.52    87.472842    37.578562 
142828000     304.9282    340.93739    518.86793   -30797.192    30775.449   -177.93054     37.56761 
142832000      262.652    192.53499    218.26039   -30769.429    30784.156   -25.725391    37.572747 
142836000    280.60407    412.47806    395.34599   -30796.042    30815.129    17.132066     37.56311 
142840000     314.0513    558.20417    187.60976    -30855.87    30848.431    370.59441    37.543712 
142844000    280.54147    388.29561    244.00948   -30869.062    30850.581    144.28613    37.552321 
142848000    262.82894    313.68701    360.14963   -30879.025    30892.038    -46.46262    37.539754 
142852000    291.29817    417.74256    180.42726   -30907.349    30922.296     237.3153    37.556057 
142856000    296.43046    428.81782    182.23189   -30932.301     30924.86    246.58594     37.56535 
142860000    241.77022    251.27278     301.1068    -30928.58    30966.648   -49.834019    37.571511 
142864000    269.90482    389.74027    293.27863   -30955.431    30971.546     96.46165    37.572585 
142868000    282.28692    475.48475    236.41431    -30981.58    30985.386    239.07044    37.583402 
142872000    295.28758    281.16323    282.77247   -30992.651    30997.551   -1.6092464    37.587073 
142876000    300.79333    344.47892    369.40287   -31016.877    31027.377   -24.923954    37.592245 
142880000    289.79847     557.6938    254.24055   -31034.822    31046.769    303.45325    37.599829 
142884000    280.28244    413.81398    323.18785   -31049.087    31051.421    90.626131    37.588693 
142888000    277.99876    299.84144    339.91375    -31060.21    31068.184   -40.072314    37.583315 
142892000    279.60153    342.15752    449.38797   -31089.221    31094.736   -107.23046    37.596436 
142896000    283.65048    501.69291      428.525   -31128.009    31131.869    73.167914    37.581495 
142900000    287.30961     364.8002    236.63556   -31148.872    31144.928    128.16464    37.571804 
142904000    295.71772    426.15557    359.61055   -31170.449    31160.434    66.545013    37.556991 
142908000    288.98607    176.71611    206.36279   -31195.862    31202.784   -29.646681    37.574609 
142912000    270.88732    268.74574    197.94362   -31231.849      31244.8    70.802118    37.586374 
142916000    299.68344    311.47748    474.85932   -31276.331    31259.393   -163.38185    37.556534 
142920000    287.92243     336.5778    247.63613   -31285.695    31293.282    88.941665    37.547539 
142924000    270.07732    427.19545    161.14154   -31289.457    31305.074    266.05391    37.554837 
142928000    292.38194    397.99563    206.67153   -31325.355    31322.189     191.3241     37.55929 
142932000    299.77453    416.25679     391.6577   -31356.678    31341.265     24.59909    37.548451 
142936000    268.18667    419.64041    362.21512   -31349.615     31356.41    57.425298    37.565871 
142940000     254.8304    335.40147    229.94785   -31347.213    31381.515    105.45362    37.572103 
142944000    292.24042    562.91973    219.18738   -31379.388    31375.844    343.73235    37.556677 
142948000    273.39101    231.64317    468.09264   -31384.244    31387.654   -236.44948    37.526251 
142952000    305.34393    333.69017    507.32056   -31390.074    31390.355    -173.6304    37.545473 
142956000    291.57448    176.27152    282.84641   -31412.748    31415.563   -106.57489    37.562698 
142960000    280.98486    304.54654    400.95974   -31421.827    31424.767   -96.413199     37.59071 
142964000    277.82895    621.03957    391.07942    -31443.08    31434.391    229.96016    37.597601 
142968000     270.4181     314.9022    397.81352   -31456.274    31465.485   -82.911322     37.60209 
142972000    233.99648    268.59208    403.22969   -31459.074    31479.931   -134.63761    37.586999 
142976000     280.6509    364.02199    458.04386   -31479.329    31477.702   -94.021871    37.575305 
142980000     278.8779    336.66341    169.61638   -31477.049    31492.405    167.04704     37.56195 
142984000    257.14343    404.94803    287.37387   -31474.001    31506.557    117.57416    37.576565 
142988000    255.69336    317.39211    488.63821   -31491.975     31499.19    -171.2461    37.586242 
142992000    268.80122     409.1272    335.35197   -31535.989     31523.38    73.775233    37.584633 
142996000    275.24666    225.47775    256.12701   -31548.044    31559.402   -30.649264    37.575503 
143000000    265.89621    513.80105     364.4017    -31564.98    31576.795    149.39935    37.580265 
143004000    280.65897    250.40198    297.84394   -31607.105    31600.599   -47.441959    37.567088 
143008000    287.27544    352.06277    356.72404   -31622.671    31632.586   -4.6612744    37.556762 
143012000    293.91518     338.8965    170.47826    -31632.78    31643.021    168.41823    37.542164 
143016000    244.91812    357.54164    302.03743   -31633.784    31637.283    55.504206    37.552793 
143020000    290.85563    333.98087    333.96437   -31647.865    31643.206  0.016497917    37.525988 
143024000     289.8614     358.5589    303.72536   -31644.295    31650.244    54.833543    37.497273 
143028000    289.66698      471.688    283.29676   -31679.683    31676.817    188.39124    37.528729 
143032000    277.13364    284.38792    213.97225   -31685.216    31687.215    70.415675    37.530898 
143036000    283.54169    294.52236    401.97645   -31702.048    31714.309   -107.45409    37.541607 
143040000    303.54447    412.40886    361.39637   -31766.141    31739.483    51.012486      37.5501 
143044000    281.81473    555.31456    433.77191   -31779.045    31790.587    121.54266    37.544956 
143048000    278.49405    193.68804    378.61574   -31797.869    31813.471    -184.9277    37.537268 
143052000    269.62603    484.49914    430.50733   -31799.805    31829.926    53.991806    37.540829 
143056000    286.46342    451.67805    189.78522   -31851.568    31855.378    261.89283    37.556842 
143060000      263.935    309.89862     225.3496    -31867.83    31884.789     84.54902    37.563699 
143064000    293.53356    415.00119    387.90248   -31888.808    31874.569    27.098714    37.567488 
143068000    313.15458    370.24083    413.24424   -31887.924    31872.991   -43.003405    37.554972 
143072000    293.81032    367.56477    310.33903   -31912.966    31907.524    57.225737    37.571016 
143076000     326.3115    414.40501    406.65733   -31927.114    31911.175    7.7476817    37.554055 
143080000    290.49067    228.31557    264.18673   -31932.826    31944.099   -35.871166     37.55378 
143084000    291.23144    328.73787    294.42615   -31950.822     31964.94    34.311717    37.565134 
143088000    298.50166    283.37118    445.27144   -31990.675    31992.291   -161.90027    37.556998 
143092000    283.01163    250.25557    306.53548   -32011.583    32005.776   -56.279907    37.548898 
143096000    303.08247    466.57692    287.97339   -32060.553    32044.151    178.60353     37.54068 
143100000    287.99871    259.08443    305.25653    -32064.61    32072.683   -46.172097    37.528461 
143104000    273.69641    330.34483    302.70647   -32072.207    32069.205    27.638369    37.527085 
143108000    297.63855    260.91824    437.77221   -32088.281    32082.254   -176.85396    37.527479 
143112000    291.06608    380.46892    377.09461   -32114.076    32111.759    3.3743066    37.513783 
143116000    281.56889    291.99135    236.71773   -32130.986    32134.603    55.273617    37.524253 
143120000    301.93743    506.75903    308.41096   -32158.203    32152.062    198.34807    37.515969 
143124000    280.98857     454.0589    371.27844   -32171.156     32170.19    82.780461    37.525817 
143128000    271.26969    349.58232    339.01605   -32204.035    32201.716    10.566278    37.540463 
143132000     276.7033    383.93109    274.60127   -32209.295    32219.986    109.32983    37.551814 
143136000    265.56673    300.04316    373.09668   -32198.744    32225.036   -73.053518      37.5653 
143140000    269.45111    256.48123    328.64722   -32218.378     32238.42    -72.16599    37.558533 
143144000    269.52426    346.19292    433.60144   -32241.599    32236.364   -87.408518    37.560067 
143148000    285.76494    387.89557    372.56933    -32256.21    32266.788    15.326246    37.556783 
143152000    282.77839    398.45251    253.32419   -32288.323     32275.01    145.12832    37.544246 
143156000    269.68529    258.39809    277.99805    -32275.61    32288.978   -19.599962    37.515825 
143160000    275.66402    315.10928    384.24517   -32323.877    32325.578   -69.135889    37.521157 
143164000    283.64162    439.75301    345.64426   -32365.013    32347.593    94.108754    37.530937 
143168000    297.48985     359.0863    648.01197   -32387.226    32392.263   -288.92567    37.538499 
143172000    281.57705    237.05159    379.97144   -32403.684    32415.199   -142.91985    37.549992 
143176000     286.0572    291.38854    280.07352   -32416.484    32398.244    11.315026    37.521945 
143180000    283.51229    390.95994    435.18482   -32423.295    32421.308   -44.224883     37.50587 
143184000    262.21077    243.34182    310.36348   -32430.922    32441.892    -67.02166     37.52026 
143188000    276.47457    210.58877    206.35965   -32462.012    32464.865    4.2291205      37.5242 
143192000    258.11034    496.09831    289.03988   -32470.124    32481.433    207.05843    37.535288 
143196000    261.40695    289.02018    287.62664   -32462.636     32482.71    1.3935378    37.532287 
143200000    298.78739    450.70397    255.96077   -32493.392    32489.955     194.7432    37.547635 
143204000    262.95251    358.46749     275.5148   -32527.791    32542.296    82.952696    37.541918 
143208000    255.50057    385.08933    286.36029   -32541.333    32569.246     98.72904    37.539638 
143212000    270.14395     397.5565    207.03458   -32585.587    32607.132    190.52191    37.549236 
143216000    272.55047    327.49324    339.17535   -32598.623    32622.842   -11.682105    37.524674 
143220000    280.34061    368.60636    247.73112    -32615.83    32635.104    120.87524    37.515733 
143224000    272.62248    309.03146    439.72044   -32629.582    32641.032   -130.68898    37.494637 
143228000    279.30792    220.30748    279.90976   -32662.676    32666.292    -59.60228    37.509714 
143232000     272.3218    391.08134     242.3011   -32668.113     32692.19    148.78024    37.503191 
143236000    286.66769    331.78168    363.77253   -32682.454    32684.104   -31.990854    37.497023 
143240000    284.69116    250.74473    651.96473   -32664.556    32673.306   -401.22001    37.497933 
143244000    271.68615    268.59188      352.275   -32701.154     32710.62   -83.683115     37.49827 
143248000    275.65371    492.61134     363.7658   -32723.085    32726.509    128.84555    37.514151 
143252000    304.68381    456.75151    377.93937    -32732.67    32736.006    78.812142    37.528783 
143256000    312.60824    247.96976     656.9345   -32738.326    32729.141   -408.96473    37.527678 
143260000    310.14561    460.49612    312.03252   -32744.863    32721.618     148.4636    37.544779 
143264000    287.49113     271.3848    365.66789   -32763.863    32745.515   -94.283086    37.529825 
143268000    312.28373    519.49077    216.80526   -32781.478    32767.173    302.68551    37.542975 
143272000    324.55856    615.97008    271.23973   -32819.963    32788.965    344.73035    37.535069 
143276000    291.11981    427.40331    329.64629   -32831.405    32821.596    97.757016    37.538757 
143280000    276.03575    262.73227    336.10341    -32829.46    32847.938    -73.37114    37.532968 
143284000    311.07743    503.78667    246.18207   -32885.273    32889.569    257.60459    37.531045 
143288000    300.91468    525.24229    169.65811   -32914.297    32915.003    355.58418    37.535193 
143292000    307.97911    280.81981    388.04394    -32915.49    32910.622   -107.22414    37.517514 
143296000    274.85243    258.36899    318.33954   -32937.655    32942.723   -59.970555    37.514286 
143300000    265.07324    363.65008    539.55442    -32932.42    32964.335   -175.90434    37.531194 
143304000    271.57413    348.61304    407.28791   -32959.228    32992.918   -58.674869    37.545252 
143308000    262.22045    408.34923    362.22009   -32994.735    33007.778    46.129137    37.568044 
143312000    304.16714    676.42528    409.27537   -33031.859    33027.209    267.14991    37.586419 
143316000    283.76057    401.66828    343.48428   -33039.583     33039.04    58.184007    37.581072 
143320000    302.05983     455.2565    236.33114   -33064.121     33061.46    218.92536    37.571322 
143324000    297.97107     334.3896    423.37556   -33076.913    33061.934   -88.985959    37.583236 
143328000    275.64847    554.13494    320.65546   -33093.654    33094.722    233.47947    37.591409 
143332000    283.78241    468.35158    382.82584   -33103.853    33113.739    85.525743    37.577878 
143336000    258.62549    270.83853    179.10247   -33102.405    33125.615    91.736064     37.58444 
143340000    298.50881    304.46519    266.70579   -33128.784    33123.845    37.759397    37.582616 
143344000    281.39092    435.37421    240.93654   -33128.111    33142.014    194.43767    37.593624 
143348000    268.98072    376.10984     300.6247   -33143.446    33158.188    75.485138    37.576423 
143352000    259.95901    381.58817    361.98088   -33160.223    33178.958     19.60729     37.56448 
143356000    280.87593    302.39153     201.6875   -33184.645    33197.735    100.70403     37.54702 
143360000    280.45647    226.89097    179.28275   -33191.903    33194.114     47.60822    37.582394 
143364000    288.71178    712.02644    520.30116   -33208.483    33226.669    191.72528     37.58747 
143368000     262.0543     237.3614    308.09517   -33238.673    33243.253    -70.73377    37.586099 
143372000    291.32554    407.69046    325.70006    -33255.68    33269.506    81.990405    37.601331 
143376000    250.93924    299.89637    272.43278   -33263.551     33302.08    27.463593    37.583846 
143380000    272.22474    372.24511    405.87231    -33309.21    33315.797   -33.627194    37.595533 
143384000    275.62785    341.80298    357.87425   -33322.209    33321.075   -16.071268    37.587899 
143388000    271.88045    371.57211    287.69252   -33306.933    33330.825    83.879593    37.596628 
143392000    267.50325    476.71915    382.14686   -33357.135    33360.761    94.572298    37.575926 
143396000    272.16458    317.03208    245.21244   -33373.644    33389.417    71.819635     37.57923 
143400000    285.16196     225.9174    275.98215   -33409.548    33393.717   -50.064755    37.592996 
143404000    284.65543    333.71146    174.33999   -33425.709     33422.08    159.37146    37.604216 
143408000    301.43893    275.09403    391.11973   -33465.388    33444.249    -116.0257    37.599673 
143412000    267.98198    489.82847    230.43964   -33479.511    33494.009    259.38884    37.618678 
143416000    277.45137    242.02188    237.50654   -33513.743    33511.853    4.5153393    37.617564 
143420000    279.37128    359.03059    319.29222   -33526.333    33540.227    39.738368    37.601818 
143424000     290.1994     436.6275    353.58002   -33543.483    33566.834    83.047476    37.616455 
143428000    251.52191    271.85002    292.75394    -33560.57    33567.388    -20.90392    37.611168 
143432000    321.61134    700.47043    380.85193   -33608.413    33590.268     319.6185    37.633122 
143436000     294.7425     388.0275    401.80668   -33619.452    33615.362   -13.779179    37.629709 
143440000    300.27202    502.23594    365.25796   -33614.011    33602.797    136.97798    37.631328 
143444000    301.68895    224.41451    373.07658   -33593.046    33580.169   -148.66207    37.601642 
143448000    307.10887    300.57417    282.93962   -33636.156    33624.698     17.63455    37.600071 
143452000    301.53047    354.55505     564.9035   -33648.186    33619.851   -210.34845    37.592654 
143456000    291.41377    277.73592    423.51171   -33667.056    33664.446   -145.77578    37.595612 
143460000    294.61807    297.36138    303.59352   -33693.638    33675.496   -6.2321385     37.59708 
143464000    257.75894    277.67009    381.62694   -33712.572    33725.226   -103.95684    37.598031 
143468000    269.93854    303.81253    332.88707   -33739.178     33732.74   -29.074538    37.613016 
143472000     276.7138    252.26097    242.77186   -33762.022    33779.136    9.4891044     37.61538 
143476000    285.86698    486.47738    392.73056   -33777.013    33791.468    93.746821    37.602113 
143480000    287.57352    365.62284    442.65336   -33784.163    33796.933   -77.030519    37.622483 
143484000     302.7189    299.46399    315.43816   -33859.353    33848.069   -15.974172    37.620606 
143488000    300.92129    387.33327    302.45044   -33869.577    33861.816    84.882831     37.62201 
143492000    299.68475    190.10878     435.1336    -33877.39    33877.989   -245.02482    37.621318 
143496000    266.87743    337.95189    341.91549   -33870.076     33891.83   -3.9635984    37.625988 
143500000    263.10715    311.45434    414.61171   -33881.003    33881.421   -103.15737    37.596154 
143504000    288.06793     497.6444       301.04   -33895.241    33896.274    196.60441    37.607508 
143508000    311.52726    332.35745    367.97953   -33905.178    33890.917   -35.622088    37.596881 
143512000    315.73249    452.10159    346.80385   -33911.176    33908.889    105.29774    37.598454 
143516000    263.99866    151.64706    230.37446   -33922.644    33941.621   -78.727394    37.596899 
143520000     280.0104    286.67765     348.9467   -33957.349    33971.615    -62.26905    37.589213 
143524000    291.38083    482.32719    173.34177   -33967.211    33980.586    308.98543    37.601116 
143528000    287.94206    266.45704    362.91239   -33976.036    33989.195   -96.455346     37.59352 
143532000    276.09368    248.68032    170.94998   -33993.095    34007.216    77.730341    37.595671 
143536000    276.72294    347.36945    330.47897   -34019.926     34025.75    16.890481    37.598342 
143540000    306.58792    390.98473    420.71585   -34061.175    34043.362   -29.731121    37.607634 
143544000    298.13611    331.47218    379.18346   -34054.452    34047.839   -47.711285     37.61729 
143548000     287.7147    249.24696    327.10615   -34077.579    34057.983   -77.859194    37.626239 
143552000    260.78743    427.52122    253.88801   -34102.584    34109.499    173.63321    37.642256 
143556000    283.67923    278.31337    394.71042   -34121.402    34122.628   -116.39705    37.625342 
143560000    282.01058    324.56714    246.18729   -34151.362    34151.435    78.379857     37.60722 
143564000    284.75027    392.70863    297.27268   -34190.702    34195.152    95.435945    37.614022 
143568000    287.29694    358.63038    253.49004   -34207.304    34209.419    105.14035    37.615133 
143572000    291.03747     467.9544     349.6206   -34208.317    34221.689    118.33379    37.625345 
143576000    283.56303    210.32416    251.91422   -34235.869    34237.476   -41.590056    37.622722 
143580000    300.53639    305.39508    301.18033   -34249.454    34229.737    4.2147513    37.639709 
143584000    299.69397    595.88692    454.36654   -34256.021    34258.704    141.52038     37.63497 
143588000    294.24324    426.53321    547.16274   -34261.006    34261.308   -120.62953    37.645838 
143592000     271.5934    266.47912    366.87644   -34241.276    34261.662   -100.39732    37.659247 
143596000    293.89466      252.863    271.88864   -34275.922    34260.411    -19.02564    37.654562 
143600000    286.25259    505.70946    367.51726   -34273.801    34273.696     138.1922    37.639474 
143604000    285.01905    534.73883    258.41717   -34281.537    34280.794    276.32167     37.66095 
143608000    250.18902    409.44899    267.69373   -34296.098    34307.991    141.75526    37.652429 
143612000    271.18505    474.94786    264.64496   -34292.487    34315.346     210.3029    37.664653 
143616000     308.6417    350.62696    444.93686   -34327.623    34304.187   -94.309898    37.665414 
143620000    278.56145    339.43407    309.99245   -34360.588    34350.683    29.441622    37.659008 
143624000    278.30437    563.76984    335.22456   -34368.342    34371.666    228.54528    37.660106 
143628000    276.17873    325.00096    324.57147   -34384.423    34393.965   0.42949026    37.671125 
143632000    300.61367     300.5039    349.80249   -34408.962    34407.239    -49.29859    37.674271 
143636000    299.79636    317.46515    341.46398   -34412.777    34413.714    -23.99883    37.664343 
143640000    246.71194    489.24862    307.30899   -34439.771    34442.368    181.93963    37.659091 
143644000     281.6924    327.78843    583.69156   -34447.924    34444.177   -255.90313    37.636011 
143648000    284.60832    256.82918    492.71488   -34489.064    34471.368    -235.8857    37.629693 
143652000    276.22638    396.67429    318.13214   -34483.088    34487.769    78.542151    37.632032 
143656000    305.96878    533.80763    292.66271   -34492.352    34479.568    241.14492    37.621279 
143660000    267.91574    309.35054    301.79601   -34510.244    34504.281    7.5545261    37.628513 
143664000    298.23851    332.24237    291.08036   -34531.096    34521.405    41.162005    37.636468 
143668000    285.44181    321.56188    415.69194   -34561.149    34551.162   -94.130061    37.638544 
143672000    282.62136    228.60193     319.8479    -34580.64    34580.475   -91.245977    37.623554 
143676000    260.39124    305.44947    170.77548   -34598.141    34606.735    134.67399    37.604902 
143680000    271.97732    435.92582    289.48441   -34629.108    34627.007    146.44141    37.607863 
143684000    317.71823    281.78521    279.49779   -34677.421    34647.746     2.287419    37.602964 
143688000     302.0751    296.72435    337.16749   -34686.039    34677.242   -40.443138    37.589754 
143692000    280.78506    185.29872    404.29975   -34698.181    34715.755   -219.00104    37.586762 
143696000    286.14143    479.31268      353.772   -34736.292     34740.71    125.54068    37.578685 
143700000    266.28616    406.21741    240.74799   -34739.888    34750.139    165.46942     37.58377 
143704000    290.73146    294.74999    434.53178   -34778.131    34775.816   -139.78179    37.586722 
143708000    338.23629    338.00594    341.24308   -34797.097    34769.439   -3.2371435    37.563401 
143712000    297.57936    402.32874    372.68122   -34827.789    34811.644    29.647521    37.564089 
143716000    312.93868    509.80742    356.01012   -34835.288    34820.875    153.79729    37.559915 
143720000    281.41698    382.12586    310.82432   -34854.142    34855.103    71.301541    37.556396 
143724000    267.10089    402.51165    295.69803    -34839.64    34856.504    106.81362    37.534443 
143728000    290.76089    475.51362    342.12992    -34890.17    34864.189     133.3837    37.519998 
143732000    273.64062    177.68321    267.34662   -34886.906    34903.437   -89.663412    37.524814 
143736000    281.89008    392.65132    270.71858   -34906.325    34915.641    121.93275    37.530333 
143740000    301.86136    278.47397    438.95071   -34928.148    34915.954   -160.47674    37.537716 
143744000    265.04844    305.72553    179.04559   -34935.465    34957.665    126.67994    37.540363 
143748000    304.45212     342.0293    344.21881   -34979.658    34976.683   -2.1895078    37.542511 
143752000    300.72007    469.55132     389.7859   -34997.835    34965.434     79.76542    37.550138 
143756000    284.48391    352.39421     488.0597   -35019.222    35003.882   -135.66549    37.549872 
143760000    293.23249    350.15795    402.33211   -35033.928    35031.176   -52.174159    37.553549 
143764000    290.86457     315.4532    270.66454   -35038.222    35044.252    44.788664    37.539696 
143768000    277.43276    221.40834    291.92147   -35046.282    35056.608   -70.513138    37.526454 
143772000    270.07568    417.37276     506.5359   -35063.289    35085.769   -89.163134    37.504392 
143776000    271.21895    249.03221    297.26367   -35094.144    35110.782   -48.231459    37.498508 
143780000    259.95131    243.33007    403.07618   -35116.438    35145.755   -159.74611    37.483716 
143784000    289.90994      253.412    197.37842   -35152.351    35142.242    56.033582    37.486984 
143788000    285.75514    315.26248    375.32254   -35167.718    35189.968   -60.060061    37.470915 
143792000    306.52667    427.59937    463.40641   -35213.849    35198.753   -35.807039    37.478248 
143796000    271.44957    452.27648    237.10761   -35208.643    35222.379    215.16888    37.465707 
143800000    275.28859    235.98322    330.45999   -35232.204    35231.374   -94.476771    37.465096 
143804000    316.26279    349.63195    409.48496   -35242.274    35220.046   -59.853018    37.476938 
143808000    283.23754    449.63309    219.99188   -35264.732     35244.66    229.64121    37.505128 
143812000    289.85303    421.12101    333.40952   -35281.427     35275.62    87.711489    37.494267 
143816000    305.60708    493.21148    512.99561   -35283.413    35271.628   -19.784131      37.5057 
143820000    296.23881    263.42606     377.5019    -35311.18    35300.872   -114.07585    37.502388 
143824000    254.55043    211.71366    242.65898   -35321.035    35330.542   -30.945319    37.510623 
143828000    272.08836    427.32161    260.41932   -35366.669    35361.399    166.90229     37.52003 
143832000    300.21213    357.38462    471.37728    -35375.49    35378.959   -113.99266    37.517546 
143836000    294.05012    426.31952    365.56201   -35399.872    35384.448    60.757508    37.528587 
143840000    273.60864     398.7517    382.75081   -35405.836    35431.126    16.000889    37.519098 
143844000    290.96069    423.79488    369.34153   -35429.358    35432.311    54.453353    37.498997 
143848000    288.89702    591.83823    296.37841    -35455.61    35455.385    295.45982    37.507314 
143852000     249.2739    325.28659    338.69785   -35429.615     35457.77   -13.411262    37.502495 
143856000    305.67906    392.08176    327.18784   -35475.746    35455.344    64.893925    37.494028 
143860000    272.44385     357.1739    238.01993   -35515.392    35523.501    119.15397    37.494218 
143864000    282.99815    344.45686    328.00126   -35537.564    35528.132    16.455608    37.501429 
143868000    272.55682    416.77958     506.8079   -35527.466    35533.821   -90.028321     37.50103 
143872000    279.36586    185.22253    332.00519   -35548.685    35542.932   -146.78266    37.501921 
143876000    302.73936    385.69763    399.51642   -35588.086    35567.938   -13.818792    37.507574 
143880000    289.75705    371.76895    375.17256   -35570.998    35577.683   -3.4036064     37.51614 
143884000     260.6327     464.2534    287.60886   -35586.596    35601.136    176.64454    37.524601 
143888000    280.76014    441.72717    416.91115   -35598.143    35617.664    24.816022    37.507645 
143892000    245.50448    210.03894    213.17612    -35605.29     35641.89   -3.1371828     37.51703 
143896000    282.73505    310.43045    315.80384   -35627.337    35625.257   -5.3733896    37.516861 
143900000    295.99367    432.06049    289.54501    -35654.44    35645.577    142.51548    37.526551 
143904000    298.74139    500.62591    372.31348   -35677.803    35670.575    128.31243    37.541932 
143908000    280.09634    499.03659    387.64083   -35684.042    35698.032    111.39577    37.567398 
143912000     268.0464    244.79274    487.83474   -35710.819    35723.317   -243.04199    37.556697 
143916000    292.23432     276.8959    233.25471   -35732.589    35723.093     43.64119    37.566541 
143920000     286.8267    428.10233    374.60227   -35738.725    35738.398    53.500059    37.550255 
143924000     297.4927    502.50543    290.68626   -35763.353    35738.294    211.81917     37.55832 
143928000    294.91932    401.21041    361.43665   -35762.202      35759.1     39.77376    37.560263 
143932000     298.4209    407.35737    271.21248    -35784.48    35784.112    136.14489    37.540394 
143936000    250.20283    246.20216    293.03515   -35783.478    35803.942   -46.832996    37.545939 
143940000    284.38782    303.54178    264.95318   -35791.955    35794.768    38.588595    37.533241 
143944000     289.4112      257.284    285.56725    -35805.76    35808.121   -28.283257    37.536377 
143948000    285.06917    529.02744    239.56271   -35828.511    35810.398    289.46473    37.520331 
143952000     295.6228     426.8348    335.20709   -35833.696    35815.507    91.627716    37.516122 
143956000    283.87996    253.18478    353.03819   -35847.073    35836.887   -99.853413    37.527841 
143960000    302.10059    350.25135    586.09397   -35852.501    35848.467   -235.84261    37.515624 
143964000     301.5122    475.09345    457.52826   -35870.566    35856.295    17.565183    37.505704 
143968000    304.77646    372.29506    185.61355   -35891.486    35871.782    186.68151    37.500927 
143972000    301.03352    383.97467    421.51694   -35908.627    35886.117   -37.542277    37.508666 
143976000    253.14199    283.75737    243.03319   -35891.497    35880.925    40.724181    37.505052 
143980000    308.05829    278.34732     432.9529   -35917.185    35903.169   -154.60558    37.495754 
143984000     262.5543    481.55794    434.45326   -35936.141    35930.699    47.104676    37.499541 
143988000    282.96466    330.83563    391.53235   -35965.751     35964.03   -60.696717     37.49666 
143992000    277.64209    329.64946    139.25144   -35989.645    35996.623    190.39803    37.509071 
143996000    279.92766    169.38512    318.98747   -36002.248    36026.553   -149.60235    37.510757 
144000000    279.12019    406.52301    327.94459   -36013.895     36018.45    78.578416    37.506902 
144004000    287.52195    523.71559    247.79529   -36049.866    36047.359    275.92029    37.524511 
144008000    289.08427    180.93201    238.16868   -36068.925    36061.156   -57.236666    37.515678 
144012000    296.52718    304.49229    363.77586    -36129.53    36119.403   -59.283568     37.52955 
144016000    274.01602    199.53805    403.13002   -36139.267    36140.557   -203.59197    37.542452 
144020000    354.17361    374.93197     501.9355   -36194.388    36156.219   -127.00353    37.542298 
144024000    267.60213    218.13297    259.56089   -36200.832    36205.091   -41.427921    37.516265 
144028000    270.60974    411.43861    327.67898   -36231.261    36247.309    83.759634    37.530076 
144032000    266.81313    475.67114    354.20833   -36264.278    36273.701    121.46281    37.507057 
144036000    288.32644    303.57551    237.73518   -36272.625    36281.815    65.840335    37.503242 
144040000    287.94652    271.04667    286.71264   -36288.394    36292.481   -15.665964    37.514748 
144044000    273.74274     362.0998    282.83599   -36280.385     36296.89    79.263809    37.507773 
144048000    271.72347    470.47322    295.19248   -36293.713    36311.941    175.28074    37.512503 
144052000    271.26656    482.95962    284.19215   -36318.453    36342.672    198.76747    37.532412 
144056000    281.09502    675.69956    353.65184    -36348.02     36345.48    322.04771    37.549718 
144060000    284.00881    365.48066    349.49966   -36365.139    36367.494    15.981004     37.55886 
144064000    268.10117     707.9162    256.31964   -36401.013    36411.635    451.59656    37.561497 
144068000    296.66551    218.67904    277.75083   -36430.873    36431.358    -59.07179    37.548253 
144072000    292.42079    299.91179    405.31595   -36460.111    36464.901   -105.40417    37.536798 
144076000    262.45162    302.87049    228.61729   -36470.416    36479.544    74.253206    37.524664 
144080000    276.41297    231.07576    184.97426   -36500.459    36508.233    46.101503    37.530606 
144084000    266.84636    345.59806    321.60207   -36531.539    36531.552    23.995997    37.537606 
144088000    260.53848     354.8695    174.52284    -36537.06    36558.011    180.34667    37.529898 
144092000    276.30601    231.81376    289.01047   -36554.348    36567.503   -57.196714    37.529807 
144096000    311.56496    396.55672    220.87985   -36575.506    36567.987    175.67687    37.537674 
144100000    264.96748    333.43099    275.63179   -36590.847    36588.405    57.799202    37.532913 
144104000    273.15449    203.66743    181.32131   -36609.717    36619.956    22.346119    37.532225 
144108000    314.82379    342.28086    339.39693   -36664.504    36632.572    2.8839285      37.5206 
144112000    293.96441    324.06237     350.4367   -36656.768     36653.32   -26.374324    37.506104 
144116000     263.2006      301.873    391.93697   -36670.506    36671.842   -90.063968    37.511308 
144120000    290.37886    321.31744    273.54615    -36705.17    36708.035    47.771297    37.519082 
144124000    278.64961     373.6905    275.71994   -36749.735    36755.425    97.970557    37.548769 
144128000    274.24494    251.22635    165.64176   -36769.221    36748.133     85.58459    37.565284 
144132000    289.23814    308.66885    400.69319   -36766.275    36752.649   -92.024337    37.558877 
144136000    265.16615     244.7265    232.07966   -36777.271    36782.901    12.646835    37.554201 
144140000    305.72308    219.06151    424.62076   -36774.879    36787.619   -205.55925    37.548886 
144144000    298.93164     439.7727    154.95911   -36836.457     36810.86    284.81358    37.560598 
144148000    309.07711    489.53913    376.60237   -36818.813    36805.834    112.93675    37.546036 
144152000    286.18404    268.16486    356.48731   -36840.137    36830.941   -88.322444    37.561607 
144156000    285.49087    351.40944    299.43238   -36865.866    36866.613    51.977056    37.565652 
144160000    293.65327    390.52556    289.53564   -36876.288    36884.829    100.98992    37.565674 
144164000    277.28461    380.01626    372.35879   -36878.544    36894.527    7.6574693    37.558492 
144168000    256.09751    427.62407    222.78638    -36908.81    36935.828     204.8377    37.560756 
144172000    291.35713     370.4318    350.86078    -36935.17    36936.879    19.571012     37.54225 
144176000    276.23944    443.94387    149.26484   -36965.311    36965.948    294.67903    37.540336 
144180000    284.58165    201.44266    386.40464   -36990.661    36991.131   -184.96198    37.517394 
144184000    316.98196    508.45932    347.73844   -37021.529    36998.183    160.72087     37.52064 
144188000    286.09495     407.4035    306.52235   -37035.878    37027.974    100.88115    37.520208 
144192000    282.60251    560.57682    347.46007   -37047.898    37044.764    213.11675    37.518215 
144196000    301.47204    536.96989      352.656   -37068.023    37067.179     184.3139    37.511553 
144200000    281.15647    507.46445    380.88556   -37079.673    37067.196     126.5789    37.497409 
144204000     294.9311    466.34731    288.08458   -37089.458    37081.954    178.26273    37.492086 
144208000    288.14237    455.15922    600.44523   -37116.979    37121.395   -145.28601    37.505711 
144212000    283.16968    434.51878    301.69883   -37149.979     37155.21    132.81995    37.496259 
144216000    279.16785     438.1638     370.3409    -37158.02    37167.809      67.8229    37.509949 
144220000    283.26266    365.86411    345.60441   -37169.974    37194.235    20.259695    37.497748 
144224000    283.46149    524.66592    399.72813    -37205.01    37218.596    124.93779    37.523159 
144228000    252.22586    414.87142     271.5461   -37232.768     37237.77    143.32532    37.530978 
144232000    303.20216    339.24373    407.42306   -37254.974    37242.159   -68.179333    37.528681 
144236000    288.88625    230.82422       368.57    -37269.69    37274.044   -137.74578    37.537504 
144240000    278.29339    323.70424     163.2844   -37292.541    37295.259    160.41984     37.55479 
144244000      306.223    450.46198    273.50009   -37343.579    37327.623    176.96189    37.552737 
144248000    296.06589    273.76399    375.51797   -37355.401    37350.725   -101.75398    37.551515 
144252000    283.08104    537.75985    392.88742   -37382.165    37380.654    144.87243     37.56212 
144256000    282.15288    395.47633    126.81105   -37389.885    37383.542    268.66528    37.568537 
144260000    296.02937    267.48059    343.15735   -37382.578    37397.941   -75.676761    37.554301 
144264000    256.70972    261.89838    187.34467   -37407.423     37422.19    74.553713    37.543619 
144268000    273.51123    318.13724    250.72457   -37442.635    37446.125    67.412677    37.546935 
144272000    266.66488    340.99895    322.98608   -37485.577     37494.69    18.012871    37.558764 
144276000     273.1097    295.78199    275.50201   -37482.776    37482.971    20.279979    37.565192 
144280000    261.04277    345.96977    252.52025   -37461.603    37483.088     93.44952    37.547496 
144284000    272.98214    507.18419    194.98534   -37487.489    37495.628    312.19885    37.554542 
144288000    281.06596    312.72976    294.96207   -37511.032    37518.335     17.76769    37.553565 
144292000    260.87137    244.84747    313.27794   -37512.185    37545.215   -68.430471    37.555223 
144296000    281.08468    522.42743    325.64705   -37553.527    37559.101    196.78038    37.564973 
144300000    300.03918    463.29486    378.02184   -37580.534    37578.003    85.273017    37.580653 
144304000    275.99012    364.27658    551.55532   -37612.394    37608.792   -187.27874    37.585224 
144308000    284.96991    453.41976    312.35753   -37597.944    37599.155    141.06223     37.59916 
144312000    278.53749     550.1827    444.84819   -37609.454    37608.339    105.33451    37.594887 
144316000      256.664    264.84184    213.59191   -37595.228    37623.122     51.24993    37.604959 
144320000     303.3356    392.15847    411.84466   -37612.641    37605.327   -19.686194     37.58955 
144324000    246.35088     256.8133     342.7304   -37614.528    37623.889   -85.917102    37.573349 
144328000    272.86824    298.89376    249.28913   -37637.954    37660.744    49.604629    37.568233 
144332000    313.95603    563.62106    304.13809    -37677.68    37657.399    259.48297    37.574643 
144336000    283.24476    569.48521    386.32249   -37658.921     37673.36    183.16272    37.584772 
144340000     282.4314    258.92385    355.58694   -37668.386    37668.414    -96.66309    37.573913 
144344000    248.58546    244.46018     210.0337    -37704.99    37694.983    34.426483    37.562974 
144348000    264.99865    380.17491    413.43421   -37705.987    37718.274   -33.259306    37.556014 
144352000     258.7824    649.91568    256.51502   -37712.926    37728.787    393.40067    37.561661 
144356000    307.13742    364.60845    402.27881   -37735.091    37736.248   -37.670364    37.567015 
144360000    288.71311    394.06116    339.27787   -37747.448    37757.855    54.783282    37.566512 
144364000    275.50411    371.67789    267.40235    -37785.71    37789.836    104.27555    37.552893 
144368000    276.82864     229.1934     238.7642    -37799.38    37810.435   -9.5707977    37.535478 
144372000    278.74344    330.21004    287.14372     -37840.6    37841.618    43.066322    37.517217 
144376000    285.94417    356.02824    357.91759   -37884.809    37875.539   -1.8893554    37.511724 
144380000    265.83467    278.74134    357.64705   -37882.513    37898.391    -78.90571    37.518767 
144384000    254.89828    430.34654    183.91121   -37909.169     37922.26    246.43533    37.507632 
144388000    289.06565    209.86802    230.90899   -37956.074    37947.342   -21.040966    37.525837 
144392000    282.12447    229.32119    317.92876   -37955.225    37961.622   -88.607567    37.517154 
144396000    267.53887    314.14991     269.1303   -37972.869    37980.562    45.019609    37.526471 
144400000    289.19493    672.15433    230.77848    -37985.37    37989.352    441.37585    37.533487 
144404000    309.87746    355.02728    595.65771   -38001.329    37991.475   -240.63043    37.528538 
144408000    280.33717    316.41157     213.9287   -38030.187    38016.735    102.48287    37.521757 
144412000    263.05818    293.30747    317.35511    -38024.63    38039.095   -24.047644    37.527544 
144416000    278.98063    392.29105    393.25209   -38028.881     38037.31  -0.96103507    37.524352 
144420000    240.28851     244.7638    213.42171   -38031.688    38068.223    31.342084     37.51734 
144424000    273.09825    289.91803    318.10005   -38061.457    38069.417    -28.18202    37.518608 
144428000    305.21375    639.55799    288.27712   -38094.462    38068.038    351.28087    37.516806 
144432000    316.01996    359.69303    351.08882   -38096.556    38075.215    8.6042088    37.517837 
144436000    270.50183    227.17299    375.90224   -38083.029    38098.188   -148.72925     37.49425 
144440000    277.06122    308.98354    258.53961    -38102.83     38118.27    50.443926    37.487865 
144444000    297.60672    521.22154     328.8278   -38157.232    38162.174    192.39374    37.490073 
144448000    309.42091    566.90123    342.44118   -38187.935    38195.562    224.46005    37.494229 
144452000    309.44279    407.41214    295.96439   -38211.719    38193.011    111.44775    37.485641 
144456000    262.54307    319.31949    416.55306   -38196.067    38211.567   -97.233571    37.493814 
144460000    269.80635    405.22311    303.10011   -38192.237    38207.593    102.12299    37.502439 
144464000    259.15523    331.65304     263.2496   -38180.993    38218.493    68.403441    37.492157 
144468000    275.39873    297.34525    351.59448   -38216.953    38225.235    -54.24923     37.47404 
144472000    289.91129    402.13709    527.59509   -38259.837    38245.626   -125.45801    37.467122 
144476000    283.17605     222.5875    418.39058   -38270.292    38275.072   -195.80307    37.455458 
144480000    304.21716    564.28094    295.98498   -38317.593    38315.574    268.29596    37.450479 
144484000    289.13009    383.04215    310.75977   -38328.331    38326.128    72.282384    37.457187 
144488000    278.95125    391.78845    306.76716   -38353.102     38354.67    85.021297    37.458079 
144492000    282.70942    193.98048    280.81384   -38352.432    38367.636   -86.833356    37.464203 
144496000    260.22349    495.49236    264.82014   -38372.323    38382.363    230.67222    37.461664 
144500000    296.11789    229.73396    274.23744   -38390.792      38379.3   -44.503479    37.480052 
144504000    268.53791    245.78579    255.44501   -38383.047    38385.595   -9.6592195    37.480662 
144508000     264.2173    280.49744    476.96095   -38402.201    38410.832   -196.46352    37.469597 
144512000    284.25245    432.90403    223.55583   -38413.795    38433.821     209.3482    37.477865 
144516000    262.07172    191.12712    269.51576   -38432.847    38438.188   -78.388631    37.489891 
144520000    286.78528    367.26556    369.18872   -38439.797    38430.262   -1.9231609    37.496464 
144524000    267.35391    303.45805    328.36015   -38454.727    38448.446   -24.902095    37.493615 
144528000    258.56793    427.91935    298.27455   -38471.233    38490.168    129.64479    37.486104 
144532000    274.19714    521.39828    443.89513    -38477.31    38493.826    77.503154    37.497249 
144536000    284.50317    371.40214    240.85435   -38500.167    38480.788     130.5478    37.519995 
144540000    297.85966    277.67047    401.67116   -38524.684    38517.503   -124.00068    37.526102 
144544000     289.3695    292.23858    177.00169   -38538.188    38533.485    115.23689     37.52678 
144548000    275.44439    435.19033    381.30851   -38566.022    38579.135    53.881822    37.528298 
144552000    280.71077    337.03013     365.7887   -38588.351    38607.726   -28.758576    37.528382 
144556000     248.6065    370.47624    333.09171    -38627.31    38637.502    37.384539    37.549631 
144560000    290.98439     311.9881    406.01789   -38647.076     38644.18   -94.029787    37.527616 
144564000    266.32742    386.20776    377.66846    -38652.65    38652.596    8.5393013    37.545158 
144568000    318.65735    363.72272    405.84626   -38664.217    38655.851    -42.12354     37.54103 
144572000    301.57651    348.18095    175.76644   -38678.536    38676.032    172.41451    37.542915 
144576000    265.05657    431.63951    330.88072    -38690.66    38689.181    100.75879    37.529808 
144580000    277.64493    218.67466    445.99277   -38731.491    38732.338   -227.31811    37.533956 
144584000    272.20417    570.70731    370.15296   -38737.118    38756.155    200.55436      37.5296 
144588000    273.89527    261.83134    285.95444    -38767.38    38780.178   -24.123104    37.519272 
144592000     303.4005    363.37681    494.75236   -38808.108     38788.81   -131.37555    37.511555 
144596000    272.10966    226.12113    247.20524   -38809.617    38813.771   -21.084113    37.505776 
144600000    289.43521    321.88516     726.7835   -38824.788    38818.848   -404.89834    37.506626 
144604000    287.55532    535.41961    351.15547   -38870.359    38861.228    184.26414    37.500546 
144608000    295.58625    411.13207    345.41864   -38884.198     38886.59    65.713431     37.50472 
144612000    275.15072    395.44848    240.80883   -38886.767     38902.78    154.63966    37.513915 
144616000    293.16343    239.66595    555.39372   -38896.765    38886.372   -315.72777    37.532496 
144620000    324.11915    588.42947    485.56477   -38917.979    38891.369     102.8647    37.534876 
144624000    287.67621    248.42685    471.01787   -38922.865    38913.281   -222.59102    37.534592 
144628000    322.76549    317.86401    409.70768   -38956.863    38937.356   -91.843676    37.540219 
144632000    287.25759    319.45339     225.7584   -38974.445    38964.802    93.694989    37.544947 
144636000    292.17161    336.63649    221.59436   -38988.666    38975.653    115.04213    37.541483 
144640000    309.79494    409.52664    274.67192   -39032.794    38998.374    134.85472    37.544435 
144644000    295.27035    472.78065     407.3036   -39025.991    39019.511    65.477053    37.539627 
144648000     297.4704    439.02711    301.81717   -39046.583    39039.938    137.20994     37.54555 
144652000    269.48725    286.14792    259.94076   -39033.043    39042.962    26.207163    37.553206 
144656000     264.4977    379.46472    252.02572   -39063.057    39065.206    127.43899    37.539963 
144660000     329.6002    149.68701    407.71888   -39124.499    39082.967   -258.03187    37.537445 
144664000    268.66532    255.95679    277.08182   -39133.196    39124.936   -21.125028    37.520862 
144668000    279.03494    195.24423    379.19377   -39153.043    39161.749   -183.94955    37.527183 
144672000    286.24144    293.19647    386.68775   -39179.517    39173.028    -93.49128    37.524779 
144676000    306.55728    324.71025    336.78045   -39229.109    39223.836   -12.070202    37.528805 
144680000    285.78274     265.0738    351.46649   -39229.399    39230.931   -86.392689    37.541948 
144684000    283.76328    322.14866     220.2362   -39273.987    39264.762    101.91246    37.537057 
144688000     262.2274    309.36656    304.74619   -39259.039    39273.196    4.6203637    37.519534 
144692000      270.039    404.29291    169.88332   -39299.858    39320.866    234.40959    37.513707 
144696000    270.69943    449.43587     474.0568   -39332.463    39316.069   -24.620925    37.513896 
144700000    297.84901    427.06469     347.1352   -39368.087    39359.577    79.929484    37.507248 
144704000    293.31019    317.24112    387.38323   -39383.559     39393.92   -70.142105    37.506581 
144708000    290.03838     182.7674    641.62029   -39400.399    39395.375   -458.85288    37.480865 
144712000    266.77753    304.35787    326.33931   -39391.122    39411.325   -21.981437    37.479266 
144716000     282.1477    370.43994    170.05648    -39419.38    39429.935    200.38346    37.479364 
144720000    258.47271    269.18201    257.11795   -39429.235    39444.308    12.064058    37.453687 
144724000    296.89408    214.62437    366.40007   -39435.065    39443.617   -151.77571    37.462006 
144728000    259.68533     291.4007     394.8075   -39462.523    39485.855    -103.4068    37.471327 
144732000    274.86852    407.90907    274.72189   -39502.052    39498.888    133.18718    37.462164 
144736000     281.2575    366.88865    367.71495    -39516.05    39503.225  -0.82629126    37.468957 
144740000    263.94416    348.57179    301.76714   -39537.731    39523.317    46.804648    37.460863 
144744000      284.867    390.30309    360.27368   -39564.905    39570.479    30.029412      37.4671 
144748000    266.16427    286.64967    256.07713   -39583.019     39590.72     30.57254    37.473443 
144752000    282.75279    280.77523    457.03406   -39605.912    39602.746   -176.25883    37.480917 
144756000    301.53477    307.40971    300.14297   -39621.624    39602.235    7.2667423      37.4768 
144760000    282.62468     375.1113    299.10009   -39613.497    39623.529    76.011207     37.47173 
144764000    284.47133    390.99419     268.6557   -39659.174    39656.557     122.3385    37.487587 
144768000     306.3169    436.94758     315.9555   -39684.004    39674.046    120.99208    37.498865 
144772000    293.87716    338.28002    320.83983   -39698.711    39680.672    17.440199    37.506877 
144776000    302.45944    309.45986    458.69606   -39701.624    39680.066    -149.2362    37.502831 
144780000    299.82494    400.55925    212.57558   -39713.953    39692.865    187.98367    37.504703 
144784000    299.70289    332.59345     206.3046   -39701.107    39693.281    126.28884    37.510221 
144788000    293.08566    301.23828    314.13291   -39745.643    39729.377   -12.894627    37.523856 
144792000    259.24514     228.7708    261.16588   -39738.763    39756.118   -32.395083    37.520247 
144796000    294.34003    199.71274    277.25886   -39763.131    39771.937   -77.546118    37.508976 
144800000    305.56115    812.23178    567.21701   -39810.158     39802.26    245.01477    37.528749 
144804000    303.23588    532.48311      311.416    -39842.34    39826.632    221.06711    37.534629 
144808000    288.67185    367.15497    402.98493   -39849.051    39859.538   -35.829966    37.525163 
144812000    300.64524    291.42714    311.68683   -39876.731    39868.972   -20.259682    37.553253 
144816000    303.61446    552.32382    419.31705   -39881.112    39872.439    133.00677    37.557469 
144820000    294.37398    237.25997     283.9432   -39865.046    39868.603   -46.683233    37.537677 
144824000    241.05124    318.57778    207.86898   -39890.212    39907.077    110.70881    37.543038 
144828000      287.153    272.64103    329.84308   -39929.928    39918.372   -57.202043     37.53686 
144832000    264.89813    347.84959    331.16306    -39922.43    39938.755    16.686524    37.528506 
144836000    263.95107    482.73554    277.05662   -39922.681    39934.688    205.67892    37.540603 
144840000    298.17026    254.04828    219.03721   -39949.564    39940.357    35.011076    37.528316 
144844000     265.4818    341.51147    268.64785   -39948.076     39970.13    72.863619    37.517882 
144848000    258.61968    394.49929    175.27885   -39978.664    39997.191    219.22044    37.515021 
144852000    273.03891     155.8126    384.40213   -39978.992    40010.026   -228.58952    37.501734 
144856000    287.85448    336.39541    421.57887   -39995.113    39997.902   -85.183463    37.480911 
144860000    283.12952    413.40299    571.25172   -40028.256    40032.857   -157.84873    37.480459 
144864000    272.45632    323.46976    305.54644   -40052.698    40057.539     17.92332    37.484354 
144868000    272.94309    414.04475    240.01926   -40076.765    40094.277    174.02549    37.469152 
144872000     246.4545    186.60342    253.54538   -40097.047    40105.648   -66.941956    37.475288 
144876000    306.89257    355.50753    374.17811   -40118.399    40104.686   -18.670581    37.478469 
144880000    279.79743    257.33676    458.83683   -40161.977    40151.898   -201.50007    37.485645 
144884000    287.75999    366.40021    271.64193    -40171.36    40167.286    94.758283    37.477183 
144888000    304.97788    553.41955    338.40827   -40204.014    40199.185    215.01128       37.485 
144892000    278.81532    449.75469    329.02724    -40235.42    40216.731    120.72745    37.488872 
144896000    272.94245    300.16557    301.04708   -40227.679    40244.249  -0.88150741    37.483576 
144900000    279.51937    275.99562    412.09761   -40253.403    40275.801   -136.10199    37.483786 
144904000    294.69543     435.9831    348.41032   -40280.923    40277.429    87.572782    37.503313 
144908000    272.99306    274.80067    340.17278   -40328.887      40331.6   -65.372105    37.500762 
144912000    262.61785     435.0928    237.18824   -40356.321    40356.499    197.90456    37.518621 
144916000    295.93705    414.77673    337.03453   -40389.083    40375.327    77.742199    37.528241 
144920000    274.71316    445.15968    336.87791   -40417.485    40411.255    108.28176    37.524412 
144924000    259.91998    341.94149    417.51419   -40423.829    40437.992   -75.572696    37.502402 
144928000    282.73056    249.21927     246.0237   -40426.755      40437.5    3.1955749    37.503893 
144932000    271.67699    496.54653    290.05194   -40462.941    40460.053    206.49459    37.507565 
144936000    303.93524     494.1742    499.45944   -40511.015    40499.062   -5.2852409    37.495143 
144940000    270.01694    352.56636     134.0347   -40513.566    40525.128    218.53166    37.506233 
144944000    266.31365    210.32348    523.82893   -40535.248    40544.292   -313.50545    37.499245 
144948000    300.93188    324.35001    291.75872   -40602.763    40590.857    32.591297    37.496444 
144952000     262.4242    311.75324    403.18629   -40601.998    40614.811   -91.433052    37.495939 
144956000    301.63968    477.18215    392.05847   -40621.775    40618.357    85.123677    37.500215 
144960000    277.61022    333.32919    306.00226   -40635.284    40641.138    27.326935    37.496318 
144964000    306.00547    534.62752    434.26148   -40657.728    40648.118    100.36603    37.497127 
144968000    301.50314     611.1103    304.79306   -40679.889    40685.183    306.31724    37.503467 
144972000    274.39235    474.43266    215.73157   -40723.885    40728.993    258.70109    37.509399 
144976000    274.83569    356.74069    412.38164   -40764.595    40767.572   -55.640942    37.500486 
144980000    301.88999     233.4507    326.19846   -40764.528    40757.548   -92.747765    37.509499 
144984000     278.4763    391.38398    503.03967   -40757.459    40790.477   -111.65568    37.493794 
144988000    297.50718    504.00599    364.12835   -40771.427    40794.758    139.87765    37.503265 
144992000    283.01791    279.56458     279.2511   -40797.821     40798.45   0.31348521    37.497183 
144996000    261.32866      400.699    415.65567   -40815.321    40827.842   -14.956678    37.503445 
145000000    293.76174    277.23064    350.87613   -40849.014    40859.649   -73.645487    37.488421 
145004000    271.45879    345.60357     273.0455   -40867.502    40879.486    72.558075    37.466017 
145008000    293.02071     369.1085    483.44573   -40882.244    40882.673   -114.33724    37.453132 
145012000    289.46155    495.12294     283.0087   -40899.485    40899.251    212.11424    37.443147 
145016000    273.18299    384.15789    497.20756   -40903.837    40896.834   -113.04968    37.445007 
145020000    266.74541    452.85804     301.1654   -40927.318    40947.394    151.69264    37.447231 
145024000    263.85775     544.9254    211.98534   -40949.974    40977.106    332.94006    37.443305 
145028000    290.51173    540.65537    385.61474   -40980.522    40976.696    155.04063     37.43863 
145032000    285.79008    234.90452    303.48404   -40986.475    40979.451   -68.579515    37.433033 
145036000    277.12429    405.10702    307.54016   -41004.277     41002.05    97.566859    37.431399 
145040000    288.36317    519.02341    359.68602   -41036.208    41041.797    159.33739    37.409002 
145044000    290.05949     429.0862    313.73976   -41015.229    41023.991    115.34644    37.405225 
145048000    265.06691    154.17634    278.53196   -41029.217    41028.494   -124.35562    37.406827 
145052000    266.93897    317.73204    399.30679   -41037.402    41033.091   -81.574747    37.404845 
145056000    278.30975    231.71928    306.03721   -41049.294    41046.993   -74.317929    37.400145 
145060000    296.81768    364.56754    296.70588   -41089.948    41077.552    67.861658    37.401584 
145064000    287.95636    194.00625    357.79738   -41089.592    41092.583   -163.79112    37.407502 
145068000    269.66065    306.63689    354.60818   -41093.803    41109.889   -47.971294    37.397844 
145072000    273.43416    244.40787     278.4147   -41110.605    41137.979    -34.00683    37.390246 
145076000    302.96768    426.80485    277.88851    -41156.89    41145.781    148.91634    37.406717 
145080000     297.7195    370.57331    328.20875   -41191.363    41187.855    42.364556      37.4095 
145084000    258.82211    466.67278    415.13481   -41214.366    41217.824    51.537971    37.416802 
145088000    277.26888    270.08687    312.39936   -41227.078    41238.752   -42.312497    37.426423 
145092000    287.61908    470.58235    376.25747   -41261.304    41253.626    94.324881    37.412281 
145096000    285.91824    377.10841    391.39211   -41285.865    41275.034   -14.283706    37.420493 
145100000    287.82996    559.49273    266.53803    -41312.69    41302.272    292.95471      37.4361 
145104000    269.91211    361.58611    216.10798   -41304.385    41326.577    145.47813     37.43603 
145108000    274.68996    297.72576    279.12273   -41331.112     41318.78    18.603029    37.433736 
145112000    301.94839    502.67147     342.3153   -41343.391     41335.77    160.35617    37.429418 
145116000    302.60916    344.80325    445.15277   -41392.758    41362.305   -100.34952    37.436835 
145120000    291.10178    416.11743    296.55707   -41415.525    41390.848    119.56036    37.442296 
145124000    273.40805    277.57009    544.59919   -41392.003    41389.594    -267.0291    37.439571 
145128000    277.25361    277.70274    411.23532   -41423.185    41432.908   -133.53257    37.450473 
145132000    291.64973    530.36095    291.23671   -41471.566    41471.253    239.12424    37.453069 
145136000    272.64937     312.1869    272.95542   -41497.932    41508.694    39.231482    37.437526 
145140000    252.98317    252.50297    432.72448    -41513.35    41533.153   -180.22151    37.427575 
145144000    244.42141    338.59204    311.79625   -41550.451    41561.244    26.795791    37.419396 
145148000    276.64715    267.21151    368.41214   -41585.023    41582.596   -101.20063    37.412621 
145152000    252.52262    430.70873     167.3817   -41625.929    41642.999    263.32703     37.39994 
145156000    279.67195    404.28339     235.8453   -41652.929    41650.748    168.43809    37.388272 
145160000    266.79666    416.50679    339.05706   -41686.293    41679.442    77.449722    37.381288 
145164000    270.63332    387.34097    341.92495   -41692.266    41698.363    45.416019    37.376126 
145168000    297.96862    500.03513    194.99788   -41704.626    41702.239    305.03725    37.376899 
145172000     268.3592    261.42174    240.46669   -41695.388    41726.972    20.955053    37.366636 
145176000    264.76625    386.87187    240.54064   -41729.358    41726.954    146.33123    37.373929 
145180000    276.11456    447.32099    222.67856   -41733.944    41742.966    224.64243    37.381414 
145184000      287.293    285.41597    309.56251   -41736.025    41730.618   -24.146534    37.381138 
145188000    262.80226    126.46376    256.93513   -41719.034    41741.641   -130.47138    37.368744 
145192000    306.54701    315.88564    450.67778   -41742.235    41749.643   -134.79214    37.375091 
145196000    292.88715    426.90446    369.94206   -41759.789    41760.021    56.962398    37.385903 
145200000    246.69663     535.9569    282.92758   -41767.693    41787.726    253.02932    37.370072 
145204000    287.75552    369.03083    434.48953    -41797.09    41806.254    -65.45869    37.364501 
145208000    255.41079    208.87948    295.10152   -41797.364    41816.131   -86.222039    37.358358 
145212000    254.52829    259.56933    271.35895   -41820.086    41837.159   -11.789622    37.365367 
145216000    287.85694    307.59438    365.35453   -41830.226    41839.996   -57.760147    37.355856 
145220000     283.7459    466.91679    313.32064   -41844.017    41851.659    153.59615    37.371619 
145224000    326.87448    568.69672    287.60306   -41858.883    41848.791    281.09366    37.350945 
145228000    263.81963    330.54487    319.16372   -41869.239    41883.592    11.381157    37.360986 
145232000    296.54809    621.78109    262.63235   -41885.212    41897.867    359.14874    37.367255 
145236000    282.48532    339.95675    323.28813   -41892.736    41909.266    16.668615    37.365777 
145240000    261.23586    293.53657      301.358   -41900.793    41919.426   -7.8214353    37.371262 
145244000    275.61235    322.60576    322.96787   -41925.056    41931.836  -0.36211227    37.367266 
145248000    289.24815    557.00271    343.54753   -41944.535    41932.485    213.45519    37.365484 
145252000    302.36179    441.02423    383.17642   -41953.656    41955.313    57.847802    37.360084 
145256000    305.07193    467.87175     436.2529   -41985.592    41968.764     31.61885      37.3652 
145260000    259.62393    301.74022    338.68297   -41978.308    41987.611   -36.942744    37.388146 
145264000    270.14791    410.55131     310.8431   -42017.183    42016.498    99.708207    37.397656 
145268000    241.14348    316.46102    337.87629   -42008.485    42027.806   -21.415266    37.391638 
145272000    259.76245    479.68848    299.35857   -42022.773    42043.944     180.3299    37.382758 
145276000    318.30083    272.11819    388.15244   -42060.202    42055.515   -116.03425     37.36685 
145280000     276.9814    474.16007    264.44043   -42078.372    42082.238    209.71964    37.373329 
145284000     283.6418    336.91313    253.01279   -42083.704    42094.187    83.900335    37.371343 
145288000    293.58417    219.68857    420.75458   -42112.937    42103.409     -201.066    37.375729 
145292000    286.15048    399.05938    317.11911   -42127.596    42142.778    81.940275    37.380198 
145296000    299.71186    334.86213    200.45305    -42157.51    42168.505    134.40908    37.397516 
145300000     275.1125    358.58303    437.49879   -42197.605    42183.214   -78.915764    37.394526 
145304000    278.93567    455.99093    229.67846   -42199.721    42209.728    226.31247    37.405612 
145308000    296.49031    326.64538    390.91594   -42212.553    42197.632   -64.270563     37.40599 
145312000    276.44787    309.03739    352.67472    -42219.97    42224.784   -43.637337    37.403517 
145316000    303.15348    517.51645    279.56444   -42258.271    42241.726    237.95201    37.409715 
145320000    273.70172    399.44794       263.04   -42267.398    42288.138    136.40795    37.409213 
145324000    248.10867    353.00025    348.81487   -42298.866    42322.015    4.1853872    37.402697 
145328000    240.83838    178.93719    374.72143   -42325.291    42357.183   -195.78424    37.414657 
145332000    319.36224    427.26864    422.33805   -42400.963    42367.179    4.9305834    37.410007 
145336000    262.24619    320.84288     189.3057   -42393.399    42405.444    131.53718    37.402084 
145340000    313.17814    289.41776    406.36108   -42419.116    42386.005   -116.94333    37.397518 
145344000    286.86861    172.53319    463.25606   -42451.324    42452.462   -290.72286    37.405173 
145348000    307.42703    306.15792    237.67397   -42462.556    42463.889    68.483948    37.415582 
145352000    283.76652    430.17788    394.22215   -42466.006    42461.618    35.955726    37.414516 
145356000    278.55713    503.33154    303.35613   -42481.944     42483.35     199.9754    37.417024 
145360000    264.93105    339.49582    251.79331   -42473.102    42490.432    87.702511    37.423455 
145364000    263.19335    457.28452    223.34743   -42505.807    42521.933    233.93709    37.422927 
145368000    255.22296     401.6066    356.91704    -42532.63    42542.306     44.68956    37.405667 
145372000    271.53204    195.71403    289.56012   -42533.671    42548.995   -93.846092    37.393173 
145376000    313.52865    489.33357    381.08266   -42571.488    42567.619    108.25091    37.393283 
145380000    277.14206    261.55077    362.88256   -42584.033    42597.713   -101.33179    37.389901 
145384000    261.49661    365.52577    385.08489   -42610.197    42620.936   -19.559116    37.381181 
145388000    293.62094    260.48166    335.03885   -42656.814    42644.161   -74.557186     37.38595 
145392000    313.84941    377.22206      320.318   -42676.258    42655.987     56.90406    37.375272 
145396000    279.18332    177.91381    248.66845    -42666.06    42670.638   -70.754643    37.365153 
145400000    294.25917    388.27128    286.66035   -42679.091    42683.135    101.61092    37.363409 
145404000    284.90209    426.68173     261.3345   -42658.311    42669.284    165.34723    37.367287 
145408000    279.53656    244.65053    125.38778   -42683.029    42679.773    119.26275    37.371736 
145412000    281.59073    364.22977    291.15498   -42708.327    42716.943    73.074787    37.370164 
145416000    308.59515    477.48412    372.56248   -42735.931    42727.327    104.92164    37.363184 
145420000    273.48121    340.04889    359.33338   -42733.871    42730.736   -19.284492     37.35992 
145424000     269.8319     369.2952    365.95379   -42735.806    42744.891    3.3414017    37.361201 
145428000    275.05048     502.1151    211.68404   -42755.671    42762.512    290.43106    37.366971 
145432000    271.53777    335.47234    265.07949   -42768.352    42774.205    70.392852    37.372565 
145436000    279.24401    318.87802    483.37876   -42786.807    42792.626   -164.50075    37.379154 
145440000    258.40285    306.36024    145.61936   -42798.999    42814.149    160.74088    37.384103 
145444000    283.97524    314.59154    359.38826   -42810.702     42818.47   -44.796724    37.392124 
145448000    302.24788    384.04742    488.07454    -42857.45    42853.838   -104.02711    37.384203 
145452000    309.89189    246.86073     258.4113   -42896.759    42891.655   -11.550567    37.373364 
145456000    287.45746    334.45926    327.56821   -42938.014    42915.416    6.8910516    37.367772 
145460000    294.13284    319.14153    230.37758   -42964.644    42969.452    88.763958    37.363377 
145464000    302.70509    412.35494    327.41195   -42978.413    42968.054    84.942984    37.351834 
145468000    286.66183    314.46963    498.99275   -42986.187    42984.302   -184.52312    37.349042 
145472000    254.65987     240.9813    325.55402   -42980.062    42979.242   -84.572713    37.338756 
145476000     275.6191    335.05467    279.78534   -42954.545    42993.551    55.269328    37.334356 
145480000    267.23411    429.21145    352.44917   -42986.877    42993.472    76.762274    37.325448 
145484000    270.58581    383.26824    505.77254   -43003.955    43015.005    -122.5043    37.347048 
145488000    295.84376    413.58274    328.68566   -43011.099    43019.809    84.897088    37.354779 
145492000    301.56285    386.24466    450.92438   -43034.164    43025.414    -64.67972    37.341754 
145496000    293.16262    491.15812    212.70986   -43053.828     43038.88    278.44826     37.32564 
145500000    294.49441    279.81631    317.33647   -43054.693    43052.817   -37.520159    37.334055 
145504000    260.53855    343.31955     122.9108     -43071.9    43083.429    220.40875    37.332024 
145508000    258.73236    336.16331    263.04304   -43073.717    43086.111     73.12027    37.331634 
145512000    300.22547    495.27904    302.48058    -43112.71    43094.147    192.79846    37.357141 
145516000    334.08165    733.51224     341.4479   -43117.052    43107.569    392.06434    37.352552 
145520000    289.57748    282.58183    415.78803   -43127.433    43120.432    -133.2062    37.344772 
145524000    293.15178    208.66693    355.26853   -43132.783     43116.75    -146.6016    37.343165 
145528000    260.89224    329.22569     348.0787   -43141.118      43154.6   -18.853009    37.341454 
145532000     281.1664    254.46938    448.24262   -43200.303    43207.507   -193.77324    37.315175 
145536000    248.31936     262.2599    200.62007   -43229.639    43229.914    61.639837    37.309372 
145540000    272.54274    342.06389    373.28646   -43244.499    43246.181   -31.222576    37.308232 
145544000     266.7861    420.90725    247.66811   -43252.718    43269.207    173.23914    37.315015 
145548000    291.28711    544.52753    297.26618   -43274.709    43273.394    247.26135    37.320398 
145552000    255.01688    322.46024    249.25742   -43275.072    43297.084     73.20282      37.3268 
145556000    283.92069    193.73618    363.50226   -43319.298    43329.528   -169.76608    37.319519 
145560000    285.83652    272.39203    226.28912   -43362.822    43375.239    46.102911    37.314137 
145564000    291.28579    335.91908    351.92583   -43392.433    43394.227   -16.006748    37.321116 
145568000    324.15931     338.8944    257.45148   -43413.699    43391.458    81.442922    37.327009 
145572000    306.68631    281.39851    310.86881   -43403.032    43383.598   -29.470305    37.329305 
145576000    293.56105    292.89769    271.06406   -43396.928    43386.689    21.833628    37.314124 
145580000    288.19355    297.78136    321.95292   -43409.356    43413.305   -24.171558    37.326501 
145584000    302.23645    508.38994    353.11531   -43440.647    43439.951    155.27463     37.32917 
145588000    299.72506    269.71194    201.25659    -43464.05    43461.263    68.455357     37.32133 
145592000    253.53952    401.29162    197.95767    -43479.06    43496.216    203.33394    37.305509 
145596000    270.29818    534.66685    315.35406   -43481.426    43493.009    219.31278     37.29203 
145600000    276.77238    353.03928    359.97369   -43498.314    43515.174   -6.9344097    37.305383 
145604000    295.57206    424.65586    361.80656   -43519.003    43524.991    62.849296    37.304365 
145608000    258.71548    287.50167    171.32194   -43548.326    43556.841    116.17973    37.301705 
145612000    280.94839    500.81887     384.6888    -43550.72    43569.872    116.13006    37.301874 
145616000    299.14189    479.72795    340.43089   -43588.813    43593.282    139.29706    37.287511 
145620000    267.99429    385.83914    277.31902   -43597.859    43616.921    108.52012    37.283741 
145624000     292.6924    352.09817      255.389   -43594.779    43594.447    96.709174    37.260201 
145628000    334.34882    445.82751    581.90409   -43605.432    43585.676   -136.07658    37.269748 
145632000    290.70743    354.01418    444.43387   -43639.019    43631.175   -90.419689    37.265301 
145636000    289.24218    454.18909    299.37742   -43640.266    43646.703    154.81167    37.263191 
145640000    286.62819     338.7161    360.22929   -43644.569    43649.309   -21.513187    37.264365 
145644000    272.46265    460.88485    199.68522   -43679.313    43666.118    261.19963    37.257495 
145648000    315.94782    514.53019    387.00284   -43704.023    43685.356    127.52734    37.255836 
145652000    265.69973    302.04954    233.61155    -43734.67     43736.97    68.437994    37.273699 
145656000    287.88643    237.71187     401.8121   -43744.576    43745.674   -164.10023    37.279188 
145660000    328.55699    357.27005    594.11235   -43762.291    43742.312    -236.8423    37.276172 
145664000    274.89678    233.87896    256.99124   -43764.813    43769.813   -23.112273    37.274212 
145668000     304.1262    341.72121    387.11202    -43779.92    43784.473    -45.39081    37.272112 
145672000     292.0735    423.54462    455.79574   -43776.786     43761.98   -32.251113     37.28725 
145676000     294.6053    400.22058    235.43265   -43793.164     43789.53    164.78793    37.283356 
145680000     295.2624    412.02631    435.46798   -43800.563    43800.244   -23.441673    37.290805 
145684000    308.53688    416.25763    392.91734   -43838.972    43817.803    23.340288    37.283334 
145688000    275.42918     662.3976    269.49412   -43847.485    43851.154    392.90347    37.287862 
145692000    269.85926    218.18022    316.62448   -43860.848    43874.439   -98.444262    37.297268 
145696000    272.98867    283.68667    280.22349   -43866.262    43883.298    3.4631775    37.315069 
145700000    287.04796    434.78154    176.26871   -43877.746    43880.386    258.51283    37.326647 
145704000    281.93766    192.31822    479.43441   -43904.473     43917.71   -287.11619    37.320773 
145708000     243.5757    190.82046    149.04154   -43927.103    43962.693    41.778923    37.322321 
145712000    262.87816    263.67232    322.65517   -43953.884     43977.69   -58.982853    37.319785 
145716000    297.23552    416.25453    293.24617   -44003.911    44010.215    123.00836    37.310215 
145720000     274.0558    555.17831    420.36961   -44029.149    44051.333     134.8087    37.303654 
145724000    287.18001    640.13678    191.76839   -44055.416    44064.837    448.36839    37.305624 
145728000    260.72669    261.63389     261.2093   -44081.388    44105.535   0.42459068    37.297112 
145732000    265.63315    179.21816    331.15255   -44104.689    44141.543   -151.93438    37.284972 
145736000    302.73621    330.90777    379.88953   -44113.705    44109.111   -48.981754    37.293765 
145740000    320.99937    543.74886    555.99845   -44164.529    44141.888   -12.249597     37.30033 
145744000    267.50907    246.04298    157.38933   -44181.377    44194.556    88.653656    37.304793 
145748000    332.60067    287.22451    296.86045   -44211.269    44187.351   -9.6359396    37.313313 
145752000    270.83263    306.24395    335.66086   -44217.738    44218.402   -29.416915    37.327891 
145756000    284.47427    310.58093    223.68739   -44217.713    44231.991    86.893543    37.317611 
145760000    300.86216    267.08676    351.81032   -44242.651    44232.958   -84.723556       37.317 
145764000    257.07608    515.22147    423.31205    -44261.56    44279.307    91.909417    37.316573 
145768000    292.16582    339.00756    462.45018   -44288.347    44301.378   -123.44262    37.311873 
145772000    291.33071    500.39594    251.50939   -44333.938     44327.61    248.88655    37.324734 
145776000    268.10467    202.75777    291.73832    -44332.96    44339.246   -88.980549    37.336249 
145780000    261.79414    423.66674    301.92335   -44340.497    44354.669    121.74339    37.353257 
145784000    266.86025    252.47007    253.64529   -44353.806    44383.793   -1.1752162    37.357697 
145788000    248.11276    215.41238      211.143   -44377.235    44407.504      4.26938    37.355492 
145792000    307.12714    191.19676    426.28883   -44424.479    44411.694   -235.09208    37.348251 
145796000    324.77462    316.60819    320.20732   -44443.233    44423.199   -3.5991286    37.320303 
145800000    296.41788    357.91186    455.45106   -44451.122    44457.934   -97.539198    37.332537 
145804000    267.36743    243.34555    204.51861    -44464.72    44483.085    38.826936    37.353613 
145808000    317.93528    469.47112    382.73309   -44486.465    44481.982    86.738025    37.358172 
145812000    295.19167    850.07624    338.61684   -44519.173    44506.419    511.45941    37.357763 
145816000    292.72113    335.30146    411.89962   -44537.729    44534.533   -76.598163    37.377257 
145820000    273.30751    344.41211    214.36623   -44559.758    44571.019    130.04588    37.383955 
145824000    279.21122    419.43357    160.17546   -44579.858    44584.173    259.25811    37.370893 
145828000    304.78945    485.76753    355.89652   -44600.704    44596.716    129.87101    37.370763 
145832000    262.06378     385.8098      240.355   -44607.959    44625.693    145.45481    37.359855 
145836000    284.29244    338.90485    368.05967   -44626.163    44633.093   -29.154818    37.354014 
145840000    309.60891     526.8279    255.13732   -44651.017    44637.259    271.69059    37.362448 
145844000    311.04594    437.05685    261.57728   -44682.691    44654.012    175.47958    37.373929 
145848000     313.3249    415.27613    267.12619   -44696.699     44666.25    148.14994    37.365532 
145852000    303.60161    428.94248     452.2131   -44689.811    44684.037   -23.270623     37.38203 
145856000     270.9649    400.50748     312.5915    -44706.66    44708.785     87.91598    37.381863 
145860000    276.12962    291.80409    253.03643   -44706.643    44703.674    38.767659     37.38179 
145864000    273.41499    215.80783     360.9105   -44723.456    44724.576   -145.10267    37.394872 
145868000    246.06273    186.57788    227.16413   -44731.146    44759.425   -40.586251    37.385808 
145872000    282.71932    262.15028    233.05684   -44752.395    44765.121    29.093439    37.384165 
145876000    270.59204     417.2973    410.07003   -44760.306    44787.981    7.2272694    37.389186 
145880000    285.79207    270.00674    409.73458   -44790.152    44791.447   -139.72784    37.403669 
145884000    287.41274    405.39778    364.77855   -44796.538    44810.763    40.619234    37.409774 
145888000    286.44975    153.22062    281.23575   -44811.509    44818.615   -128.01513    37.415851 
145892000    265.22737    420.07396    279.92461   -44866.606    44860.184    140.14935    37.415744 
145896000    280.12512     301.9505    274.74046   -44878.424    44895.202    27.210036    37.422321 
145900000    275.30743    209.76067    575.47202   -44904.624    44927.055   -365.71135    37.425007 
145904000    289.51205    332.13609    438.59976   -44914.181    44932.316   -106.46367    37.427444 
145908000    281.00679    353.23009    378.46455   -44937.151    44953.571   -25.234459    37.437917 
145912000     271.4491    227.39465    284.27087   -44972.377    44975.892   -56.876216    37.436257 
145916000    294.78977    292.54953    381.16053   -45001.624    44998.786   -88.610996    37.433709 
145920000    271.01597    251.18856    253.41375   -45021.126    45039.388   -2.2251877    37.445946 
145924000    282.77945    332.12375       381.43   -45068.521    45067.806   -49.306244     37.45082 
145928000    295.83864    356.70578    232.45202   -45077.824     45063.75    124.25375    37.457829 
145932000     247.1634    301.65739    275.52061   -45071.577    45088.783    26.136786     37.46792 
145936000    257.46788    336.47716    312.56638   -45097.427    45126.808    23.910788     37.47409 
145940000    264.73685    273.12781    217.88708    -45137.49    45160.344    55.240731    37.459796 
145944000    271.88439    378.78904    416.23891   -45166.047    45173.537   -37.449863    37.470714 
145948000    262.46703    403.00776    278.30195   -45178.981     45203.28    124.70581    37.460987 
145952000    293.01565    352.45578    253.86572   -45200.584    45204.549    98.590061     37.44956 
145956000     276.5181    291.80225    259.01973   -45196.058    45211.731    32.782521    37.446631 
145960000    273.58001    424.18735    305.40123   -45225.852    45231.392    118.78611    37.439358 
145964000    280.86304    160.24646    437.75012   -45270.987    45281.288   -277.50366    37.422513 
145968000    271.61712    331.42048     181.8705    -45305.63    45307.521    149.54998    37.408646 
145972000    288.32476    222.16118    272.28583   -45328.865    45330.123   -50.124649    37.419811 
145976000    273.83944     311.5156    353.29628   -45338.091    45366.898   -41.780683    37.432591 
145980000    260.49471    184.57094    450.75141    -45337.03    45366.723   -266.18046    37.419157 
145984000    292.61064    436.73304     282.3872   -45353.613    45354.994    154.34583    37.428514 
145988000    259.27695    289.37689    306.65319   -45354.745     45377.73   -17.276294    37.425612 
145992000    273.41775    350.74952    234.50562    -45372.43    45386.197     116.2439    37.422176 
145996000    316.65064    528.16492    288.09926   -45428.289    45418.659    240.06567    37.428454 
146000000    295.81188    386.94815    298.50902   -45447.219    45442.541    88.439124    37.412305 
146004000    270.54236    302.11204     454.6308    -45471.71    45497.382   -152.51876    37.401627 
146008000    312.36492    466.84198    700.02358   -45495.439    45490.152    -233.1816    37.388486 
146012000    282.23761    388.33688     236.3506   -45521.292    45518.163    151.98628    37.388153 
146016000    266.15609    214.91492    222.80831   -45530.817    45555.076   -7.8933826    37.383924 
146020000     310.6343    364.92908    353.83911   -45574.007    45554.621    11.089968    37.371953 
146024000    292.30181    229.61092    343.84871   -45549.761    45548.362    -114.2378    37.386907 
146028000    284.50247    605.40987    235.61192   -45595.108    45604.192    369.79795    37.384677 
146032000    277.37154    188.44545    338.06414   -45599.295    45609.721   -149.61869    37.390871 
146036000    254.79637    388.24788    275.37563   -45615.688    45634.954    112.87225    37.399415 
146040000    281.52474    354.32298     445.3344   -45625.095     45643.01   -91.011416    37.382365 
146044000    280.47703    270.72964    371.13381   -45662.657    45672.793   -100.40418    37.364814 
146048000    284.52461    220.81516    508.77027   -45669.073    45673.057   -287.95511    37.369472 
146052000      266.855    226.22201    259.23209   -45698.312    45725.841   -33.010088    37.381692 
146056000    288.30789    320.42855    321.19378   -45713.223    45701.215  -0.76522956    37.388755 
146060000    290.63246    274.23875    412.00347   -45717.575    45707.828   -137.76472    37.381601 
146064000    319.37617    395.65191    497.21308   -45736.013    45704.982   -101.56118    37.383347 
146068000    279.19906    421.55256    252.12091    -45732.63    45746.377    169.43165    37.371131 
146072000    265.51298    377.35139    350.50872   -45747.316    45766.091    26.842671    37.379727 
146076000    255.84071    389.28676    135.30699   -45751.685    45787.208    253.97976    37.371735 
146080000    272.98324    306.14634    283.13924    -45764.36    45788.479    23.007099    37.373442 
146084000    272.41299    284.50226    460.30018   -45763.541    45794.612   -175.79793    37.353188 
146088000    290.92448    557.00943    497.85427     -45793.3    45798.037    59.155159    37.330821 
146092000    275.81725    238.45111    350.42769   -45776.868     45786.81   -111.97659    37.327785 
146096000    284.48308    323.04028    265.48458   -45791.354    45788.537    57.555696    37.334412 
146100000    309.31306    278.62556    412.35061   -45800.373    45783.853   -133.72506    37.344497 
146104000    273.23962    219.15608    246.11938   -45803.687     45814.41   -26.963301    37.344702 
146108000    288.01667    436.11351    290.25335   -45832.482    45842.295    145.86016    37.343793 
146112000     272.7815    398.69935     276.3625   -45840.123     45861.88    122.33685    37.330234 
146116000    249.21392    224.92123    207.42993   -45851.109    45877.267    17.491301    37.334262 
146120000    265.52732    196.56312    288.15285   -45874.337      45889.5   -91.589732    37.326644 
146124000    269.75501    383.05563    225.70369   -45876.043    45900.568    157.35193    37.323441 
146128000    320.54549    338.96972    648.64576   -45908.222    45898.072   -309.67604    37.332056 
146132000     300.6475    220.09848      224.853   -45945.444    45929.647   -4.7545264    37.342902 
146136000    325.04049    397.11432    279.05152   -45963.273    45925.303     118.0628    37.341454 
146140000    324.43151    368.99516    547.47624    -45982.57    45963.495   -178.48108    37.346579 
146144000    271.17714    412.31846    275.34779   -45995.862     46008.12    136.97067    37.344154 
146148000    264.56974    347.55384    166.31848   -46024.138    46049.177    181.23536    37.362923 
146152000    290.41374     235.2093     272.4876   -46044.903    46048.343   -37.278306    37.362721 
146156000    274.58619    417.71902    472.36748   -46068.908    46076.053   -54.648458    37.362655 
146160000    270.89834    273.95848    401.75658   -46086.064     46103.43   -127.79809    37.364973 
146164000    292.29907    294.20487     411.7428   -46099.018    46098.035   -117.53793    37.372392 
146168000    287.87233     309.1999    323.60708   -46125.494    46123.842   -14.407176    37.361982 
146172000    299.23557    179.83518    480.77674   -46134.873    46128.062   -300.94155    37.355636 
146176000    274.05447    399.02089     542.9317   -46135.461    46150.409   -143.91081    37.360467 
146180000    279.72971    346.53673    239.92431   -46160.682    46171.506    106.61242    37.359456 
146184000    290.84028    278.38875    470.63684   -46201.961    46206.943   -192.24809    37.360096 
146188000    290.36663    327.63845    390.71584   -46226.669    46249.298   -63.077389    37.365811 
146192000     285.0419    324.80278    296.27723   -46272.667    46272.204    28.525553    37.365794 
146196000    249.13742    314.15512    169.33645   -46290.485    46295.007    144.81867    37.367885 
146200000    290.76167    354.38231    341.43037   -46302.078     46321.65    12.951941     37.36181 
146204000      276.791    364.28363    312.01478   -46328.168    46348.132    52.268845    37.371591 
146208000    261.22165    342.00056    359.91791    -46341.86    46351.503   -17.917355    37.367751 
146212000    279.79559    339.19303    346.90104   -46363.624    46373.403   -7.7080111    37.352962 
146216000     249.1142    270.20646    140.04336   -46365.681    46402.274     130.1631     37.35974 
146220000    282.10215    180.96019    494.39817   -46389.121    46414.311   -313.43798    37.355462 
146224000    254.07343    460.91709    199.22603   -46442.716    46450.297    261.69107    37.357272 
146228000     306.2545    363.39324    248.25401   -46461.556    46463.831    115.13923    37.369243 
146232000    282.73857    413.45996    313.08147   -46456.323    46459.089    100.37849    37.361878 
146236000     272.7857    619.97028      220.661   -46489.901    46488.714    399.30928    37.360619 
146240000    242.22939    318.02449    184.25311   -46510.568    46531.355    133.77137    37.358817 
146244000      279.498    306.59268      448.175   -46541.626    46543.457   -141.58232    37.374555 
146248000    280.07552    352.40413    178.15535   -46565.153    46539.875    174.24878    37.374624 
146252000    270.03085    316.27208    295.48611   -46541.071    46548.519    20.785972    37.382177 
146256000    310.18867    259.77366    471.44482   -46551.702    46537.757   -211.67116    37.383621 
146260000    275.05906    354.42661    296.57623   -46563.812    46563.957    57.850382     37.39838 
146264000    298.17803    386.17165    283.88469   -46590.912    46591.649    102.28697    37.397551 
146268000    263.36624    318.37929    382.12956   -46604.449    46608.142   -63.750266    37.401273 
146272000     288.3808    314.04548    179.28653   -46624.024    46628.596    134.75895    37.403662 
146276000    257.67715     336.9288    131.86713   -46631.916    46649.499    205.06167    37.392997 
146280000    282.45552    232.34149     368.6812   -46664.456    46673.296   -136.33971    37.388791 
146284000    292.11185    339.97771    373.41541   -46684.725    46698.338   -33.437695    37.395688 
146288000    283.22269    308.29528    240.84279   -46690.599    46698.337    67.452486    37.393022 
146292000    318.06112    317.49634    354.44691   -46713.185    46690.253    -36.95057    37.391188 
146296000    264.63513    259.83689    238.03075   -46717.164    46705.674    21.806141    37.397283 
146300000    296.40715    255.24891    232.91335   -46740.019     46734.25    22.335566    37.380428 
146304000    278.46933    300.13598    273.47291   -46752.255    46771.132    26.663077    37.377041 
146308000    298.19403    368.43748    123.61017   -46799.636    46798.668    244.82731    37.382486 
146312000    276.80436    450.34483    364.41366   -46798.327    46806.545    85.931171    37.395962 
146316000    284.12206    271.87429    320.44058   -46812.028    46815.047   -48.566297    37.402534 
146320000    307.53886    364.42624    274.31538   -46824.504    46827.976    90.110859    37.391723 
146324000    318.52764    466.17367    308.86932   -46848.168     46839.38    157.30435     37.40229 
146328000    280.24409    285.42219    276.88967   -46867.017    46874.177    8.5325283    37.394527 
146332000     299.4843    620.00726    568.76938    -46889.78    46880.008    51.237881    37.393655 
146336000    304.91733     239.7841    428.30489   -46900.499    46889.263   -188.52079    37.401951 
146340000    262.22666    474.95507    268.71064   -46908.757    46916.808    206.24443    37.392895 
146344000    299.39541    308.30721    298.34991   -46922.067    46912.498    9.9573062    37.384927 
146348000    282.37123    276.03816    197.65528   -46923.083     46948.63    78.382882    37.374595 
146352000    248.63951    246.66865    210.98875    -46958.06    46987.832    35.679906    37.393287 
146356000    281.70513    403.21449    385.13126   -46974.176    46990.691     18.08323    37.398062 
146360000    273.47177    282.19685    369.17835   -46972.431    46995.938   -86.981493    37.396503 
146364000    280.42972    375.37297    332.63638   -47001.105    47000.312    42.736586    37.388181 
146368000    263.37836     251.5931    364.52075   -47016.046    47031.878   -112.92765    37.385436 
146372000    288.19866    624.79775    176.26149   -47060.119    47068.534    448.53626    37.388261 
146376000    281.88814       120.08    299.24243   -47075.198    47075.099   -179.16243    37.396544 
146380000    279.34075    323.50054    495.09598   -47077.668     47070.81   -171.59545    37.387695 
146384000    292.56598    376.45768    389.13333   -47089.913    47088.422   -12.675647    37.396199 
146388000    305.91865    643.43605    308.05338   -47110.144    47098.813    335.38267    37.399925 
146392000    283.01471    348.92067    265.23733   -47146.101    47145.931    83.683341    37.394935 
146396000    300.37924    309.62791    577.42555   -47176.497    47164.058   -267.79765    37.392915 
146400000     280.7876    231.14188    256.72811   -47202.935    47200.745   -25.586225    37.401897 
146404000    277.37016    332.31604      285.118   -47206.907    47225.403    47.198041    37.407995 
146408000    281.55668    470.53309    312.85659   -47230.823    47235.648     157.6765    37.410196 
146412000    281.29646    444.37466    345.01831   -47246.137    47235.422    99.356342    37.410441 
146416000     260.4182    264.10957    310.05328   -47247.068    47265.526   -45.943707    37.417693 
146420000    283.64806    301.63912    611.03945   -47245.306    47263.493   -309.40033    37.411976 
146424000    286.71553    635.04207    125.30822   -47260.312    47279.936    509.73385    37.414799 
146428000    279.52302    305.73718    428.19188   -47252.354    47261.758    -122.4547    37.415722 
146432000    283.58888    288.87832    297.05053   -47285.051    47267.561    -8.172215    37.407667 
146436000    268.57308    264.74518    204.45739   -47312.335    47331.567    60.287783    37.396931 
146440000    279.50164    429.43831    176.90701   -47324.638    47340.928     252.5313    37.402951 
146444000    270.24176    393.57803     156.3899   -47320.459    47330.825    237.18812    37.397565 
146448000    281.22278    447.70688    208.57751   -47328.336    47335.059    239.12937    37.394386 
146452000    308.36831    277.53109    390.83389   -47356.316    47362.699    -113.3028    37.394927 
146456000    294.85487    332.69738    419.20121   -47390.047    47401.385   -86.503827    37.381604 
146460000    294.16234    523.48499    251.52209   -47439.329    47435.549     271.9629    37.374865 
146464000    317.47223    361.24865    336.94671   -47459.593    47450.032    24.301941    37.386157 
146468000    292.29455    359.77921    442.88649    -47461.17    47468.277    -83.10728    37.374831 
146472000    268.78116    395.02662    304.03203   -47464.161      47499.4    90.994589    37.377169 
146476000    290.84634    212.86002    234.01427   -47504.466    47513.472   -21.154244    37.387355 
146480000    280.16571     334.4656    410.13836   -47521.301    47542.348    -75.67276    37.411243 
146484000    290.87424    247.18963    566.62414   -47533.864    47553.446   -319.43451     37.39731 
146488000    296.70973    381.81722    278.91264   -47537.421    47537.729    102.90458    37.393905 
146492000    292.17192    385.44763    222.33172   -47562.275    47573.092    163.11591    37.413656 
146496000     260.4591    546.23861    252.90225   -47578.572    47608.139    293.33636     37.40476 
146500000    269.07228    336.94443     284.2169    -47584.41    47591.276    52.727531    37.409492 
146504000    268.02654    500.03167    364.19926   -47608.337     47630.93    135.83242    37.403901 
146508000    286.40514    732.48037     245.7128    -47627.91    47651.988    486.76757    37.418097 
146512000    270.92546    206.55485    388.82291   -47648.391    47662.804   -182.26805    37.410405 
146516000    271.68446    314.78202    266.89989   -47656.361    47668.351    47.882133    37.402787 
146520000    307.83463    489.28077    271.23077   -47687.854    47689.629       218.05    37.410776 
146524000    293.87027    661.95624    410.75681   -47692.702    47699.868    251.19943    37.434169 
146528000    263.54115    367.11373    410.14468   -47701.085    47724.553   -43.030955    37.431431 
146532000    290.21326    320.54025     250.6196   -47743.982    47750.644    69.920649       37.436 
146536000    282.35659    311.06896     180.8302   -47748.016    47763.374    130.23877    37.442109 
146540000    281.41118    418.06613    223.78213   -47772.722    47777.874      194.284    37.455564 
146544000    279.21585    385.81843    315.49705   -47803.571    47819.894    70.321384    37.455221 
146548000    290.45629    536.96938    316.48537   -47827.478    47826.617    220.48401    37.462578 
146552000    291.50975    568.21915    358.14877   -47847.027    47834.408    210.07038    37.469634 
146556000    300.80301    428.74117    340.02421   -47853.617    47846.096    88.716961    37.472102 
146560000    283.95975    419.27536    277.84778   -47874.203    47869.934    141.42757     37.45974 
146564000    298.33418     349.3292     222.3097   -47882.376     47880.99    127.01951    37.458748 
146568000    264.61022    151.38549    310.05354   -47896.029    47904.074   -158.66806    37.459629 
146572000    256.90709    132.65963    318.65319   -47901.056    47922.393   -185.99356     37.45003 
146576000    261.37015    326.58567    188.11206   -47943.801    47964.167    138.47361    37.452713 
146580000     282.0569    374.12209    396.28789   -47986.417    47992.061     -22.1658    37.445724 
146584000    268.85408     420.7103    277.39971   -47999.235    48000.998    143.31059    37.438579 
146588000    302.78776    308.72253    394.57843   -48027.306    48006.894   -85.855904    37.429657 
146592000    299.98023    358.57194    149.50956   -48054.655    48045.326    209.06239    37.440282 
146596000    252.33923     350.7777    285.36182   -48078.968    48106.759    65.415882    37.434776 
146600000    269.62958    357.84299    338.40141   -48116.749    48123.087    19.441581    37.422045 
146604000    282.04301    342.02684     301.9131   -48136.352    48139.107    40.113742    37.423912 
146608000    283.41218    423.16824    341.57923   -48158.832    48158.834    81.589004    37.421268 
146612000    260.66563    396.05916    312.62198   -48175.028    48192.182    83.437186    37.414878 
146616000    287.34135    249.58899      339.969   -48192.986    48181.802    -90.38001    37.389128 
146620000    251.49358     434.3697    185.19262    -48203.76     48222.58    249.17708    37.371074 
146624000    303.45173    368.17917    449.82448   -48224.565    48216.922   -81.645313    37.369645 
146628000    318.48489    288.24974    284.17767   -48250.442    48235.933    4.0720702    37.384787 
146632000    261.25075    165.19591    300.61008   -48267.117     48282.37   -135.41417    37.373007 
146636000    288.17114     346.2785    412.57314   -48254.522    48260.483   -66.294644    37.363284 
146640000    273.14293    429.94834    265.22689   -48253.355    48270.405    164.72145    37.360475 
146644000    276.22805    355.18576    210.43406   -48278.084     48281.56     144.7517    37.359994 
146648000    279.38777     238.9092    326.14762     -48314.1    48335.555    -87.23842    37.373231 
146652000    262.87638    389.57502    364.04617    -48318.87     48334.63    25.528849     37.38568 
146656000    266.82517    478.94896    454.13041   -48312.535    48335.235     24.81854    37.389068 
146660000    299.16566    315.12873    285.31934   -48330.675    48325.214    29.809395    37.387715 
146664000    256.77365    434.98086    260.90846   -48352.884    48382.781     174.0724    37.379082 
146668000    277.98056    219.58886    167.83905    -48375.15    48399.663    51.749816    37.373787 
146672000    288.69363    338.97226    302.16281   -48412.018    48408.118    36.809452    37.366177 
146676000    262.43222    156.93265    259.35291   -48421.567    48430.061   -102.42026    37.370621 
146680000    269.87988    601.83528    207.85703   -48453.383    48482.739    393.97824    37.376976 
146684000    283.66697    413.37637    298.63025   -48474.991    48487.257    114.74612       37.379 
146688000    294.14649    337.26727    356.61158   -48493.176    48503.345   -19.344313    37.392163 
146692000    274.63793    369.45905    441.54261   -48495.798    48512.082    -72.08356    37.379354 
146696000    321.20622    365.48245    391.35297   -48545.557    48528.273   -25.870525    37.377324 
146700000     256.1961    360.96039    254.05201   -48547.632    48570.591    106.90838    37.375576 
146704000    260.83083    194.30416    205.81119    -48557.08     48566.97   -11.507032    37.383972 
146708000    269.47306    346.47862    206.00079   -48530.447    48545.429    140.47783    37.383844 
146712000    295.74357    415.10717     388.2723   -48574.331    48573.509    26.834869    37.372787 
146716000    262.08605    395.74294    198.81036   -48581.039    48608.235    196.93258     37.37886 
146720000    283.99323    405.75007    427.54248   -48617.886    48618.998   -21.792409    37.386422 
146724000    289.32857    257.66437     351.2886   -48647.095    48654.643   -93.624227    37.382313 
146728000    287.36389    443.05339    519.51704   -48673.512    48686.423   -76.463652     37.37384 
146732000     311.5461    300.73334    248.59698   -48717.196    48683.919    52.136362    37.387316 
146736000    323.83963    298.26798    307.17128   -48717.133    48686.452   -8.9033048    37.394675 
146740000    260.90351    312.64003    270.80243   -48709.942    48733.708    41.837597    37.375663 
146744000    264.46488    370.07746    151.78396   -48730.467    48736.336     218.2935    37.380418 
146748000    282.87844    248.75025    201.29014   -48748.764    48744.194    47.460107    37.387898 
146752000    260.83075    336.33769    255.67601   -48740.813    48763.039    80.661679    37.378733 
146756000    309.02137    358.37591     327.6591   -48759.674    48768.134    30.716808     37.38809 
146760000    273.44678    407.88318    375.22524    -48783.65    48794.854    32.657938    37.381213 
146764000    285.79694    355.44945    313.01656    -48799.03     48813.15    42.432885    37.372336 
146768000    277.41913    280.67443    343.82663   -48809.682    48825.211   -63.152198    37.358004 
146772000    279.62635    232.65565    326.54356   -48834.131    48840.273   -93.887907    37.354469 
146776000    263.64834    354.09215    302.07881   -48838.117    48871.692    52.013347    37.345155 
146780000    258.66891    427.86371    323.72375   -48853.405    48894.788    104.13996    37.348589 
146784000    290.42047    312.18924    235.58103   -48901.918    48907.522    76.608204    37.352287 
146788000    262.58341    405.69762    315.67157   -48888.219    48924.632    90.026051    37.359911 
146792000    285.30627    495.76291    279.59664   -48920.072    48909.981    216.16628    37.370059 
146796000    243.33978    265.64218    283.59178   -48886.987    48924.684   -17.949602    37.388502 
146800000    280.53919    389.79041    246.43119   -48910.813    48921.337    143.35923    37.391927 
146804000    264.64064    378.25502    272.18556   -48929.968    48953.251    106.06946    37.390999 
146808000     292.6916    365.14458    385.27845    -48969.49    48971.152   -20.133875     37.37931 
146812000    282.34889    440.03642    359.58844   -48976.606     48991.11    80.447977    37.384989 
146816000    285.42425    232.26243    257.40696   -49005.265    48999.235   -25.144527    37.375512 
146820000    280.42038    286.45951    315.74153   -49025.038    49031.188   -29.282019     37.36755 
146824000    307.15076    377.92603    150.03686   -49047.784    49040.788    227.88917     37.37481 
146828000    258.33419    299.25553     203.0955   -49053.881    49065.536    96.160036    37.372247 
146832000     257.8679    204.96849    467.70908   -49088.544    49099.935   -262.74059    37.374686 
146836000    269.71462    413.90864    270.54994   -49094.572    49093.389    143.35869    37.380484 
146840000    279.65773    329.82312    203.97043   -49118.176    49128.817    125.85268    37.384119 
146844000    286.25779    496.37283    324.90839   -49146.489    49139.356    171.46445    37.377765 
146848000    285.26745    500.02443    269.61708   -49144.723     49154.94    230.40735    37.368577 
146852000    284.36265     389.0459    297.81658   -49171.973    49167.616    91.229321     37.36901 
146856000    292.56953    330.83508    178.33857   -49206.695    49208.463    152.49651    37.376378 
146860000    258.22155     353.1585    349.19844   -49219.988    49242.278    3.9600513    37.387647 
146864000    258.04461    186.62909    407.64648   -49238.424    49264.507   -221.01739    37.388313 
146868000    280.02178    213.21976    305.97281   -49262.679    49276.386   -92.753051    37.379985 
146872000    290.47134    494.78395    416.56736   -49291.528    49287.331    78.216595    37.367571 
146876000    279.94278    381.27607    272.73181   -49307.479    49310.997    108.54426    37.379484 
146880000    284.39708    405.24901     390.1731   -49347.946    49325.731    15.075912     37.37834 
146884000    264.52292     335.6524    203.69972   -49353.753     49370.25    131.95268    37.379989 
146888000    275.84391    483.48258    270.67183   -49372.458    49384.516    212.81075    37.377978 
146892000    276.25638    413.59132    430.53929   -49387.144     49407.88   -16.947966    37.368968 
146896000    284.12396    269.70663     351.0837   -49428.732    49431.295   -81.377068    37.371613 
146900000    291.41355     205.5914    484.45002    -49474.14    49467.506   -278.85862    37.363293 
146904000    310.96692    627.63155    305.07413   -49495.181    49486.295    322.55742    37.370945 
146908000    280.43999     314.0972    355.21786   -49501.061    49508.855   -41.120661    37.359373 
146912000    289.38063    355.51098    328.37613   -49503.899    49508.881    27.134853    37.370092 
146916000    286.77882     469.8688    379.95841   -49533.616    49550.505    89.910389    37.354909 
146920000    283.26456    248.16388    459.93485   -49542.476    49558.932   -211.77097      37.3487 
146924000    290.72879    289.15094    195.96299   -49588.153    49589.079    93.187947    37.348117 
146928000    299.26609    341.73179    457.20799   -49603.064    49598.637    -115.4762    37.361328 
146932000     283.4483    284.03604    275.46493   -49626.693    49611.698    8.5711084    37.355738 
146936000     266.5502    531.48921    219.79583   -49634.965    49635.098    311.69338    37.361514 
146940000    260.34671    382.06006    220.75526    -49632.15    49653.152     161.3048    37.358464 
146944000    269.78097    459.28509    284.21144   -49630.202    49639.899    175.07366     37.35175 
146948000    274.63285    452.84539    390.54697   -49666.094    49672.012    62.298417    37.356242 
146952000    311.87944    373.19988    276.47411   -49687.702    49679.451    96.725769    37.362898 
146956000    272.31155    470.46682    295.78322   -49694.724    49697.818    174.68361    37.374001 
146960000    290.82718    417.65661    394.93646   -49711.198    49710.412    22.720151    37.374532 
146964000    284.55174    365.75624    166.08841   -49723.265    49725.289    199.66783    37.366841 
146968000    258.28037    473.29553    393.55986   -49743.726    49771.103    79.735678    37.359364 
146972000    287.15534    515.82208    252.63236    -49762.42    49773.601    263.18972    37.347428 
146976000    299.35336    462.35742    400.66858    -49789.73    49774.891     61.68884    37.353191 
146980000    310.24318    362.12405    354.42775   -49782.899    49768.429    7.6963013     37.34675 
146984000    292.15532    244.37013    466.47523   -49777.551     49798.93    -222.1051     37.33832 
146988000    292.64764    245.46226    165.49488   -49826.162    49830.733    79.967379      37.3297 
146992000    282.24397     324.5447    142.61208   -49858.987    49857.381    181.93262    37.338797 
146996000    272.87926    258.88929    337.77524   -49876.679    49870.745   -78.885951    37.336186 
147000000    276.80301     288.7006    240.86306   -49880.653    49884.167    47.837535    37.344393 
147004000    277.32667     464.6945    227.91529   -49898.292    49928.196    236.77921    37.350535 
147008000    269.89414    235.63823    231.82841   -49919.961    49934.398    3.8098175    37.332813 
147012000    279.57163     477.6382    460.74078   -49916.669    49923.887    16.897414     37.33287 
147016000     287.7299     496.9389     183.1802   -49914.906    49930.865     313.7587    37.343017 
147020000    306.92963    442.36102    175.67332   -49947.545    49938.571     266.6877    37.355895 
147024000    269.52993    286.27111       326.89   -49955.859     49976.76   -40.618888    37.349466 
147028000    283.07851    419.54229    462.17347   -49983.385    50006.829   -42.631181     37.35466 
147032000    276.66467    361.30483    287.50638   -50015.413    50017.718    73.798457    37.366064 
147036000    281.57663    325.58378    372.92997    -50039.16    50050.809   -47.346189    37.373835 
147040000    289.59684    397.21332    481.74798   -50071.323    50071.654   -84.534667    37.363629 
147044000    270.50669     501.9304    246.55836   -50082.958    50102.315    255.37204    37.363189 
147048000    295.69043    379.50111    417.89427   -50106.033    50102.517   -38.393163    37.372787 
147052000    265.57626    237.63138    192.31799   -50136.304    50157.229    45.313393    37.375014 
147056000    332.53939    586.35481    323.22846   -50184.061    50153.152    263.12636    37.373658 
147060000     274.5603    322.10998    302.66375   -50174.221    50190.573    19.446232      37.3568 
147064000    279.82611    479.57768    283.82371   -50192.947    50202.603    195.75397    37.345527 
147068000     286.8394    415.82094    328.40188   -50231.136    50231.103    87.419061    37.335816 
147072000    268.95696    389.45963    362.90679   -50256.287    50282.339    26.552837     37.33347 
147076000      279.991     433.3878    314.35014   -50252.641     50253.38    119.03766    37.335903 
147080000    290.24885    303.91666    258.25544   -50275.791    50260.814    45.661227    37.333435 
147084000    287.03696    340.99888    463.89115   -50284.029    50297.268   -122.89227    37.327752 
147088000    267.72016    256.33266    356.09862    -50289.12    50308.893   -99.765963     37.32933 
147092000     292.1214    428.83038    238.09006   -50306.207    50304.896    190.74031    37.317253 
147096000     306.8157    343.00656    255.53888   -50332.521    50318.775    87.467682    37.320942 
147100000    246.06876    610.08769    173.88173   -50333.473    50354.062    436.20596    37.330071 
147104000    268.12335    493.02489    408.66388   -50331.688    50354.364     84.36101    37.324304 
147108000    275.11481    253.15648    226.19682   -50370.947    50369.736     26.95966    37.322716 
147112000    294.87122    316.52141    385.29989   -50380.294    50373.159   -68.778479    37.302576 
147116000    282.84894    490.03513    296.20311   -50412.582     50410.45    193.83202    37.304289 
147120000    252.13923    239.54853    337.68134   -50412.911    50428.881   -98.132803    37.301726 
147124000    270.61285    283.43856    288.82151   -50434.488    50437.608   -5.3829424    37.294125 
147128000    282.91066    353.60731    545.02648   -50464.206    50472.891   -191.41917    37.292978 
147132000    275.38577    658.96322    389.00668   -50492.475    50496.129    269.95653    37.296287 
147136000    300.46064     829.5979    315.81063    -50533.94    50525.604    513.78727    37.301201 
147140000     280.0013    389.56949    243.58893   -50534.792    50534.616    145.98056     37.29892 
147144000    274.51214    549.46988    321.61332   -50545.561    50552.279    227.85657     37.31241 
147148000    306.34538    312.12992     329.3285   -50574.977    50565.617   -17.198575    37.315414 
147152000     282.2213    446.06159    197.72053   -50584.456    50592.585    248.34106    37.330234 
147156000    296.65694    402.15774    218.59804   -50602.017    50611.074    183.55971    37.324595 
147160000    302.85493    445.69948    427.44956   -50630.202    50640.278    18.249916    37.324114 
147164000    313.41029    562.09521    374.22188    -50672.93    50654.967    187.87333    37.317395 
147168000    271.51351    480.73823    359.46763   -50682.914     50694.36     121.2706    37.319029 
147172000    265.26745    338.95816    242.49534   -50722.113    50731.628    96.462821    37.313818 
147176000     289.6383    454.21449     401.4114   -50741.778    50746.337    52.803099    37.297282 
147180000    286.49516    368.43314    171.11357   -50758.667    50761.308    197.31957     37.29824 
147184000    305.05042    477.75101    325.82091   -50787.318    50762.656    151.93009    37.307944 
147188000    278.90888    348.32536    530.67616   -50801.301    50801.278    -182.3508    37.307454 
147192000    309.61935    211.55017    241.75418   -50836.886    50802.955   -30.204008     37.29724 
147196000    307.98268    557.64402     291.2885   -50860.442    50833.615    266.35552    37.313454 
147200000    304.21939    446.01685    378.51475   -50878.199    50865.984    67.502106    37.322416 
147204000     290.3545    121.53221     251.2022   -50874.689      50864.4   -129.66999    37.315562 
147208000    265.96524    197.74847    296.16423   -50904.538    50913.079   -98.415758    37.323946 
147212000     268.4997    411.39646    312.05024   -50909.264    50930.869     99.34622    37.325755 
147216000     285.2926    587.36487    173.54567   -50930.771    50944.519     413.8192    37.332675 
147220000    294.57475    510.56638    408.38443     -50940.6     50922.23    102.18195    37.335942 
147224000    290.77736    449.46389    216.30889   -50950.339    50948.168      233.155    37.345146 
147228000     264.4512    477.11869    255.97306   -50954.112    50967.244    221.14563    37.343728 
147232000    258.48335    233.10096    282.64525   -50993.101    51012.714   -49.544286    37.336989 
147236000    281.95916    362.90296    310.35536   -51014.308    51024.322    52.547592    37.337133 
147240000     293.4187    377.50401    482.87103   -51015.461    51013.605   -105.36702    37.341837 
147244000    272.57887    413.43019    488.43827   -51026.495    51061.358   -75.008087    37.336925 
147248000    280.50062    385.13693    259.32697   -51049.493    51064.636    125.80996    37.334043 
147252000    273.13397     251.0773    151.41382   -51069.836    51074.694    99.663484    37.320687 
147256000    299.70988    543.00023    425.87799   -51085.724    51076.769    117.12224    37.318363 
147260000    289.01893    464.45633    281.53485   -51096.725    51090.464    182.92149    37.322975 
147264000    294.60334    423.69825    355.09791   -51078.369    51081.251    68.600336    37.329159 
147268000    291.98712    339.39034      350.014   -51137.991        51115   -10.623659    37.327862 
147272000    281.57993    330.75218    256.62864   -51144.135    51151.681     74.12354    37.308799 
147276000    285.83263    320.57647    497.44004   -51194.252    51187.959   -176.86356    37.314212 
147280000    332.49927    469.57971    376.86168   -51240.196     51202.07    92.718028    37.308485 
147284000     293.1407    354.30304    470.18873   -51246.246     51236.83   -115.88569    37.296507 
147288000    301.39485    493.79897    277.97972   -51253.984    51254.686    215.81925    37.294193 
147292000    291.12882    310.50222    446.13653   -51283.963    51271.465   -135.63431    37.298752 
147296000    288.61008    309.38145    414.37068   -51281.729    51289.292   -104.98923    37.287332 
147300000    277.55391    278.58835    344.08264   -51301.043    51316.494   -65.494292    37.287047 
147304000      305.818    371.86565    229.29526   -51331.191    51316.736    142.57039    37.301621 
147308000    295.39565    408.35639    266.40531    -51335.03    51323.851    141.95108    37.309673 
147312000     314.5309    533.88344    383.39607   -51363.591    51344.203    150.48737    37.320797 
147316000    276.67014    278.36379    307.38535    -51370.55    51370.087   -29.021565    37.306471 
147320000    311.50828    444.98224    369.71449   -51399.066    51392.956    75.267746    37.315895 
147324000    292.85315    466.15894    273.12001     -51415.5    51417.592    193.03893    37.319359 
147328000    299.02743    465.05763    474.21184   -51438.454    51445.603   -9.1542075    37.318291 
147332000    287.85754    310.89625    454.97827   -51470.612    51474.427   -144.08202    37.317523 
147336000     249.7978    210.66658    260.38191   -51476.689    51494.818   -49.715334    37.331299 
147340000    255.96013    454.76276    170.02462   -51481.226    51484.768    284.73814    37.348211 
147344000      271.292    430.53765    192.38298   -51476.408    51509.348    238.15467    37.348654 
147348000    263.87601    168.97298    230.42985   -51511.825    51522.913    -61.45687    37.361488 
147352000    307.26403    372.74958    315.77867   -51528.021    51526.389    56.970903    37.367136 
147356000    302.81352    346.02984    338.42021   -51559.268     51548.49    7.6096295    37.375863 
147360000    275.09913    245.32431    359.06686   -51581.974    51582.661   -113.74255    37.368477 
147364000    284.27583    633.18236    370.04068   -51602.056    51602.185    263.14167    37.375089 
147368000    282.27172    263.61832     198.7246   -51611.955    51610.961    64.893721    37.379682 
147372000    263.17301     183.0149    264.08952   -51615.113    51627.722   -81.074625    37.381092 
147376000    248.21117     506.2813    324.65453   -51609.142    51648.226    181.62678    37.373048 
147380000    290.42514    470.97641    396.08333    -51649.95     51651.12    74.893072    37.376496 
147384000    264.95251    290.42548    356.15663   -51653.752    51685.139   -65.731145    37.384105 
147388000    267.13835    363.88375    264.32861   -51672.944    51684.698    99.555141    37.397584 
147392000    284.79544    375.28417    406.59472   -51684.816     51702.68   -31.310552    37.399871 
147396000    284.12617    320.11617    319.88098   -51699.834    51709.224   0.23519094    37.399401 
147400000    261.82344    405.26722    181.99954   -51701.895    51728.863    223.26768    37.401396 
147404000    253.99457    408.81589    230.89454   -51729.662    51758.738    177.92135    37.406802 
147408000    293.05309    291.98672    276.38742   -51735.422    51747.588    15.599298    37.411896 
147412000    291.12675    369.15997    354.42961   -51749.657    51753.256    14.730359    37.414734 
147416000    288.24192    556.05109    238.24757   -51758.636    51768.677    317.80352    37.419133 
147420000    267.71742    307.98511    361.57752   -51773.613    51785.929   -53.592408     37.40658 
147424000    281.56872    320.92943     305.1806   -51790.924    51813.473    15.748832    37.399133 
147428000    287.98086    482.99549    183.24234   -51834.749    51840.869    299.75314    37.408838 
147432000    269.69124    285.03988    349.80348   -51841.442    51850.239   -64.763593    37.408914 
147436000    287.61415    362.09334    304.05816   -51852.915    51849.884    58.035182    37.415046 
147440000    286.94233     284.0498    399.31195   -51855.928     51853.62   -115.26214    37.426249 
147444000    254.08672    177.13183    321.27316   -51858.287    51869.204   -144.14133    37.419782 
147448000    247.76223    450.85227    191.32455   -51880.343    51905.485    259.52772    37.420401 
147452000    292.92194    487.60167     290.9233   -51895.681    51901.422    196.67836    37.421293 
147456000    261.21307    419.03778    240.82062   -51903.664    51933.238    178.21716    37.432287 
147460000    269.99115    416.91769    253.73591   -51944.539    51945.938    163.18178    37.424646 
147464000    262.76406     456.4384    302.53396   -51950.863    51958.954    153.90444    37.428753 
147468000    286.63189    416.02857    179.05344   -51966.813    51983.217    236.97513    37.417008 
147472000    260.37004    234.55454    414.33791   -51966.764    52001.473   -179.78337    37.423455 
147476000    305.85382    390.78142    536.23592   -52031.279    52009.151   -145.45449    37.442414 
147480000    305.37843    329.95292    321.06408   -52017.495    52020.835    8.8888425    37.432908 
147484000    315.58619    476.14862    667.33416   -52050.214    52036.952   -191.18554    37.434094 
147488000    284.35746    291.42375    389.58352   -52064.131    52064.945   -98.159763    37.434722 
147492000    276.33458    357.52007    237.44352   -52090.942      52093.6    120.07655    37.443974 
147496000    272.44328    318.68514     212.7511   -52090.718    52108.335    105.93404    37.445708 
147500000    278.07718    258.68176     185.0189   -52126.579    52127.377    73.662857    37.438484 
147504000    314.98116    277.31714    330.05158   -52143.768    52132.967   -52.734447    37.444327 
147508000    271.17893    461.76148    363.71852   -52151.254    52174.825    98.042961    37.446555 
147512000     306.9454    271.94723    334.34497   -52184.926    52188.252   -62.397736    37.445262 
147516000      281.039    498.36016    272.34329   -52204.319    52197.802    226.01687     37.44035 
147520000    288.21681     278.0109    315.96038   -52231.043    52225.355   -37.949475    37.443947 
147524000    278.73858    460.62707    269.72713   -52263.976    52267.542    190.89994    37.446189 
147528000    280.79397      260.005    338.52335   -52280.261    52298.699   -78.518352     37.43885 
147532000    286.19364    318.84334    421.01206   -52293.455    52291.302   -102.16872    37.430913 
147536000    269.75985    257.47152    347.13041   -52306.844    52310.634   -89.658888    37.431768 
147540000    305.43984    221.76361     271.0404   -52353.226    52351.742   -49.276796    37.432499 
147544000     283.4787    421.38204    601.45478   -52350.622    52350.979   -180.07274    37.426973 
147548000    286.94819    360.88932    345.42982   -52328.713    52351.089    15.459506    37.411613 
147552000    290.53458    473.63398     266.6465   -52324.039     52340.27    206.98748    37.412936 
147556000    278.13916     327.1818    284.40932   -52331.729    52339.008    42.772479    37.411659 
147560000    282.64256    421.67018    223.43538   -52350.715    52345.876     198.2348    37.417858 
147564000    286.83376    484.90679    199.26707   -52357.924    52358.228    285.63971    37.438722 
147568000    271.52275    191.17092    340.10685   -52361.189    52377.385   -148.93593     37.42943 
147572000    301.75081    624.77194    287.12306   -52393.776    52371.962    337.64888    37.451675 
147576000    284.81257     361.2984    509.95138   -52383.507    52393.515   -148.65298    37.440595 
147580000    260.81452    318.18717     301.3535   -52403.004     52421.67    16.833669    37.428042 
147584000    275.37783    276.20267    335.87092   -52413.161    52425.271   -59.668255    37.437291 
147588000    263.50367    321.18432    459.73435   -52436.002    52436.313   -138.55003    37.439416 
147592000    267.74976    242.35847    212.22253    -52428.99    52445.044    30.135939    37.441392 
147596000    251.61662    384.56433    338.75492   -52428.013    52454.365    45.809407    37.440968 
147600000    279.15103    268.99917    220.76095   -52437.112    52464.506    48.238223    37.440704 
147604000    279.49709    373.53841    326.06762   -52466.722    52453.666    47.470791     37.43965 
147608000    310.58695    405.15069    303.81747   -52503.223    52487.115    101.33322     37.44152 
147612000    285.59782    314.60922    227.02553    -52507.72    52512.646    87.583694    37.422399 
147616000    298.45123     373.3168    357.48819   -52543.501    52527.404     15.82861    37.420146 
147620000    282.70628    280.40079    222.53879   -52540.992    52552.571    57.861997    37.417375 
147624000    293.17683    263.61929    255.45941   -52562.113    52563.636    8.1598831    37.417533 
147628000    297.55028     349.4591    404.83544   -52590.022     52574.89   -55.376344    37.419422 
147632000    266.09283    236.12968    362.48873   -52607.845    52611.353   -126.35905    37.418736 
147636000    291.29305    488.55253    373.56417    -52652.56    52641.016    114.98836    37.432207 
147640000    320.19788    362.85009    249.77446   -52676.751    52654.726    113.07563    37.422985 
147644000    308.31801    414.76295    422.89574   -52700.163    52686.067   -8.1327848     37.42094 
147648000    284.04884    258.86968    185.36106   -52728.433    52743.285    73.508627    37.424482 
147652000    277.77866    340.34441    195.49328   -52767.624    52764.074    144.85113    37.423681 
147656000    308.23439    420.73969      321.337   -52802.044    52798.591    99.402695    37.425252 
147660000    282.76661    419.14586    232.16414   -52799.225    52797.997    186.98172    37.427316 
147664000    263.80952    252.62372    284.88771   -52793.691    52803.567   -32.263984    37.416719 
147668000    269.89949    232.74926    256.86113   -52797.186     52808.56   -24.111873    37.412566 
147672000    282.59601    451.73959    234.52895   -52821.552    52845.816    217.21065    37.405441 
147676000    298.41087    343.33397    521.91206   -52847.435    52859.175   -178.57809    37.399189 
147680000    302.19772    248.78041    318.17288   -52863.246    52868.612   -69.392468    37.399624 
147684000    283.05882    403.62148    351.75334   -52862.696    52863.795    51.868132      37.3954 
147688000    315.67351    459.27831    177.54358   -52889.881    52887.358    281.73473    37.393147 
147692000     260.3341    303.15582    199.19987   -52905.575    52919.521    103.95596    37.398648 
147696000    275.58534     336.7994     279.1428   -52906.493    52927.267    57.656605    37.388601 
147700000     310.5047    257.33227    378.71347   -52958.653      52925.2    -121.3812    37.383397 
147704000    259.84018    253.45552    326.04234   -52957.981     52994.06    -72.58682    37.388044 
147708000    303.82418    511.53398    244.48963   -53027.931    53008.174    267.04436    37.399504 
147712000    295.57837    204.30892    381.44131   -53044.018     53051.26   -177.13239    37.384536 
147716000    276.11815    235.17307    283.91788   -53090.912     53094.48    -48.74481     37.38372 
147720000    273.20868    442.42352    190.63816   -53101.304    53114.756    251.78536    37.390387 
147724000    286.25687    421.25906    251.00055   -53125.384    53124.502    170.25851     37.39601 
147728000    282.17801    487.63532    259.23223   -53144.389    53155.828    228.40308    37.399679 
147732000    281.82596    233.89895    260.32665   -53135.675    53151.884     -26.4277    37.387905 
147736000    272.09726     388.2768    231.41246   -53159.812    53182.668    156.86433    37.402562 
147740000    271.77627    199.50569    356.75608   -53179.642    53205.334    -157.2504    37.394238 
147744000    273.38098    260.41827    347.62711   -53226.751    53233.954   -87.208838    37.400697 
147748000    277.29322    324.91624    300.74135   -53228.125    53246.719    24.174887    37.406944 
147752000    287.54286      400.656    163.45857   -53254.064    53260.728    237.19743    37.428588 
147756000    309.82968    553.71101     288.8246   -53282.743     53279.13    264.88641    37.434344 
147760000    260.18175    211.91319    312.75449   -53243.457    53263.497   -100.84129    37.431155 
147764000    263.34683    378.77915    182.98566   -53260.363    53271.065    195.79349     37.44239 
147768000    304.32425     433.3648    302.98167   -53291.102    53282.512    130.38314    37.433697 
147772000    271.00236    479.76752    331.45867   -53267.964    53277.507    148.30885    37.436574 
147776000    291.93303    277.09358    321.84089   -53292.196    53312.163   -44.747311    37.433957 
147780000    326.56477    518.77677    374.68414    -53344.26    53313.277    144.09263    37.426152 
147784000    280.39347    479.43789    184.84316   -53343.055    53344.871    294.59474    37.431033 
147788000    282.00448    473.06015    362.53748    -53365.17    53374.866    110.52267    37.438146 
147792000    262.77983    390.67764    281.92873   -53382.703    53404.689    108.74891    37.443013 
147796000    247.15521    408.99499    354.76601   -53395.658    53425.639    54.228979    37.439883 
147800000    287.12787    416.95559    250.70175   -53438.197    53432.443    166.25384    37.422365 
147804000    305.23493     452.6256    394.50981   -53434.573    53441.339    58.115791    37.418656 
147808000    283.56375    176.87498    353.75181   -53458.918     53465.93   -176.87684    37.428675 
147812000    287.12414    289.11441     435.1394   -53461.735    53467.728   -146.02499     37.43332 
147816000    278.28318    566.97585    220.71548   -53470.654    53472.132    346.26037    37.452054 
147820000    292.35452    256.71466    284.17667   -53475.405    53466.108   -27.462008    37.445009 
147824000    280.12052    413.00909    387.29705   -53490.899    53507.591    25.712039    37.446845 
147828000    265.60187    242.11953    189.19039   -53513.691    53515.034    52.929139    37.445415 
147832000    278.27525     360.2121     122.2504   -53530.919      53525.4     237.9617    37.433258 
147836000    289.64561    305.79695    409.32459   -53586.887      53578.5   -103.52765    37.426133 
147840000    285.29548    362.91228    343.47924   -53597.526    53603.382    19.433033    37.429305 
147844000    292.22064    636.91601    264.62923   -53622.278    53612.104    372.28678    37.434101 
147848000    295.55881     182.1433    390.78714   -53648.305    53640.594   -208.64384    37.428286 
147852000    292.48832     444.7737    416.67179   -53671.255    53666.892    28.101913    37.411051 
147856000    279.38584    474.76545    289.07856   -53714.685    53713.489    185.68689    37.416485 
147860000    292.20703    198.82278    439.94839   -53702.524    53730.462   -241.12561    37.417817 
147864000     261.8193    257.36838    373.76991   -53737.161     53748.13   -116.40154    37.428734 
147868000    326.04628    418.45342    224.59266   -53761.005    53747.769    193.86076    37.426144 
147872000     270.5278    598.57622    295.01495   -53772.226    53765.168    303.56128    37.417493 
147876000    250.88166    359.32439    293.41954   -53776.888    53797.949    65.904845    37.422125 
147880000     292.6289    403.73298    315.53824   -53806.365     53809.85    88.194738    37.415389 
147884000    290.80214    475.87468    296.36129   -53832.085    53843.314    179.51339    37.417194 
147888000    259.39892    428.40401    334.90777   -53844.888    53872.762    93.496242    37.404433 
147892000     310.5525    501.43407    360.81915   -53899.009     53884.93    140.61492    37.400955 
147896000    307.39642    334.57576    532.82753   -53926.115    53913.675   -198.25177    37.402243 
147900000    273.41242    384.73717    293.81324   -53940.494    53958.341     90.92394    37.395166 
147904000    283.56429    345.85948     156.5765   -53960.664    53964.301    189.28298    37.407159 
147908000    285.44808    491.31196    369.82374   -53953.522    53966.076    121.48822    37.404858 
147912000    276.61673    284.68504    280.69794   -53946.999    53964.857    3.9870944    37.404215 
147916000    257.50134    282.09021    292.09504   -53952.845    53966.482   -10.004833    37.404311 
147920000    310.71237    299.45898    333.89112   -53996.235    53990.232   -34.432137    37.396249 
147924000    268.14931    304.52469    257.52305    -53984.34    53994.334    47.001644    37.400722 
147928000     308.4975    387.21982    405.72662    -54017.38    54009.984   -18.506793    37.400476 
147932000    276.89808    573.63396    291.31455   -54028.602    54044.785    282.31942    37.406064 
147936000    276.24833    242.11152    342.77533    -54050.21    54050.723   -100.66381    37.420944 
147940000    263.09983     309.9793    435.06093   -54050.541    54087.292   -125.08162    37.417939 
147944000    293.99452    491.33499    285.35246   -54105.612    54108.639    205.98252    37.422911 
147948000    280.86004    282.03815    263.93509    -54106.89    54119.686     18.10306    37.426088 
147952000    257.97159    397.23501    284.43951   -54104.296    54119.497     112.7955    37.422099 
147956000    274.27398    344.12261    415.00273   -54097.356    54106.148   -70.880123    37.433953 
147960000    301.12213    296.01599    187.02963   -54129.303    54130.089    108.98636    37.440693 
147964000    271.99566    530.35516    192.13765   -54143.574     54147.92    338.21751    37.442704 
147968000    271.45502    336.61099    227.24471   -54125.146    54143.346    109.36628    37.454663 
147972000    288.14651    410.54513    117.57329   -54155.674    54152.851    292.97184    37.460886 
147976000    309.38327    276.99862    255.64564   -54179.605    54177.279    21.352975    37.462412 
147980000    261.62976    383.24768    315.71706   -54184.411    54190.485    67.530622     37.46362 
147984000    294.18651     351.8725    268.29506   -54184.454    54205.235    83.577433    37.463283 
147988000    256.80583    315.30083    243.96222   -54198.125    54208.106    71.338616    37.459808 
147992000    261.71154    261.85812    347.10266   -54231.724    54251.291   -85.244541    37.463121 
147996000    296.91902    361.03408    350.96933   -54282.107    54284.274    10.064759    37.466487 
148000000    273.36052     300.0044    377.51176   -54284.211    54292.338   -77.507368    37.478564 
148004000    282.49389    297.56055    410.25608   -54316.988    54323.316   -112.69554    37.486837 
148008000    293.33754    489.15151    257.43648   -54333.946    54332.184    231.71502    37.487932 
148012000    278.97586     284.9576    353.87777   -54357.772    54363.999   -68.920173     37.47655 
148016000    252.41036    322.15698    369.39571   -54370.416    54384.535   -47.238736    37.463354 
148020000    311.02299    496.91091    475.18911   -54401.077     54399.83    21.721797    37.467926 
148024000    290.39771    475.04615    132.27094   -54431.509    54433.141    342.77521     37.47374 
148028000    249.63784    135.15897    184.42943   -54431.473    54470.181   -49.270456    37.480491 
148032000    288.08426    420.84876    263.62318   -54467.491    54476.706    157.22558    37.465492 
148036000    306.87141    397.46749    294.20277   -54494.601    54485.847    103.26471    37.464702 
148040000    293.90485    284.65161    248.39039   -54525.188    54515.858    36.261217    37.475033 
148044000    296.66707    371.59588    174.44746   -54529.309    54536.865    197.14841    37.472996 
148048000    258.87353    377.97714    260.56833   -54523.104    54551.234    117.40881    37.468837 
148052000    297.70701     310.8703    406.66016   -54539.561    54543.573   -95.789859    37.463903 
148056000    313.44235    444.28742    301.07113   -54567.267    54563.403     143.2163    37.458874 
148060000    262.65739    287.46268    293.61004   -54595.786    54596.755   -6.1473515     37.46043 
148064000    310.70501    408.75023    379.56905   -54637.248    54610.405     29.18118    37.465874 
148068000    300.06654    389.86732    263.18706   -54640.649    54642.654    126.68026    37.472938 
148072000    326.40773    467.01862     255.5341   -54677.827    54674.004    211.48453    37.476977 
148076000    282.25652    449.78668    213.13268   -54679.251     54696.94      236.654    37.484575 
148080000    277.94211    444.47946    322.96078   -54693.796    54712.188    121.51868    37.478465 
148084000    325.08289    403.82319    398.83635   -54726.909    54697.236    4.9868402    37.496514 
148088000      279.186     333.5786    263.15209   -54741.729    54736.009    70.426513    37.500214 
148092000    274.28506    366.39089    392.14818   -54761.483    54776.959   -25.757284    37.486299 
148096000    257.29871    319.95647     170.0754   -54779.083    54802.825    149.88107    37.494343 
148100000    315.81853    349.17772    205.26858   -54818.281    54813.136    143.90914    37.500945 
148104000    310.17179    215.06697     262.7036   -54812.787    54813.147   -47.636631    37.504375 
148108000    285.40797      322.491    326.88693    -54830.66    54828.602   -4.3959288     37.50629 
148112000    262.81695    441.00942    213.64709   -54831.834    54865.323    227.36233    37.513918 
148116000    258.22929     327.4628    182.55671   -54840.946    54877.364    144.90609    37.503537 
148120000     292.7848    260.55229    203.90976   -54863.979    54857.916    56.642526    37.506035 
148124000    297.67188    428.03216    232.02312   -54904.563    54880.448    196.00904    37.526847 
148128000    281.25509    364.25228     303.7582   -54920.532    54929.186    60.494078    37.547293 
148132000    284.02797    382.55402    275.93098   -54955.592    54957.284    106.62303    37.553636 
148136000    291.18548    262.51659    290.01716    -54980.56    54986.173   -27.500572    37.548331 
148140000    280.98768     381.6394    376.87907    -55009.04    55006.641    4.7603361    37.545009 
148144000    285.00367    412.15513    190.89722   -55044.498    55042.999    221.25791     37.55397 
148148000    287.68444    273.29112    243.36487   -55056.911    55070.607    29.926258    37.554302 
148152000    289.08145     410.0424    219.43175   -55083.348    55084.063    190.61066    37.563057 
148156000    282.87083       484.82    342.94947   -55109.387    55106.226    141.87053    37.562183 
148160000    246.30983    382.60515    292.17287   -55101.819    55134.418    90.432284    37.571999 
148164000     281.3375    172.41789    408.13139   -55150.408    55152.827    -235.7135    37.572839 
148168000    277.92261    514.18145    230.07176    -55160.28    55168.187    284.10969     37.57532 
148172000    277.74526    412.90963    361.38948   -55149.396    55169.162    51.520159    37.579341 
148176000    300.78944     322.3013    334.82281   -55176.335    55179.879   -12.521513    37.572182 
148180000    290.67193    479.03615    405.33776   -55189.067    55206.223    73.698382    37.576633 
148184000    267.80867    420.48877    221.65129   -55195.232    55217.986    198.83748    37.562183 
148188000    274.83324    200.27321     340.7292   -55208.914    55217.412   -140.45599    37.557089 
148192000    304.74669    385.90173    343.19703   -55225.586    55230.046    42.704709    37.581962 
148196000    306.83746    294.24244    299.48583   -55229.725    55226.439   -5.2433905    37.568617 
148200000    289.52344    241.22053     231.5643   -55268.279     55272.77    9.6562299    37.569764 
148204000    276.63488    297.11731    202.58844   -55274.779    55297.341    94.528872    37.567517 
148208000    306.46091    627.05533    278.19534   -55304.551    55299.256    348.85999    37.566892 
148212000    272.19628    410.03242    142.22576   -55325.659    55342.519    267.80666    37.581205 
148216000    266.46533    215.88323    234.16987   -55342.144    55367.341   -18.286641     37.58661 
148220000    283.84091    244.55657     305.3254   -55374.282    55383.104   -60.768825    37.576236 
148224000    302.06826     384.0985    388.19698   -55399.292    55386.638   -4.0984742    37.583126 
148228000    292.91783    400.38902    390.38185   -55425.424    55431.937    10.007174    37.577245 
148232000    273.98111    346.58517    363.61042   -55432.919     55458.24   -17.025255    37.574356 
148236000     291.6796    410.11003    259.01481   -55495.458     55477.17    151.09522    37.569875 
148240000    275.38388    296.70727    309.36415   -55498.504    55493.244   -12.656878    37.562502 
148244000    277.07454    471.23243    187.82699   -55509.229    55514.534    283.40544    37.559933 
148248000    286.19891     473.7331    321.78615   -55507.063    55521.501    151.94695    37.550659 
148252000    270.89635    340.88573    296.68352   -55534.792    55545.656     44.20221    37.559996 
148256000    279.29191    201.76079    338.34652   -55539.378    55558.693   -136.58573      37.5641 
148260000    298.02686     471.2814    516.60073   -55558.247    55542.607   -45.319337    37.547945 
148264000    278.48803     312.8153    232.86775   -55547.227    55556.712    79.947557    37.562176 
148268000    295.69767    277.02108    174.65406   -55565.258    55564.499    102.36702    37.558348 
148272000    319.67664    334.82721    360.58889   -55585.388    55578.073   -25.761682    37.562284 
148276000    298.46286       341.15    421.70501   -55624.347     55608.57   -80.555016    37.555207 
148280000    260.99561    273.05429    230.68954   -55632.983    55642.721     42.36475    37.559724 
148284000    279.65548    449.34757    336.90201    -55647.89    55668.705    112.44556    37.562262 
148288000    288.86251    378.42467    370.77505   -55678.498    55688.671    7.6496245    37.556982 
148292000     281.6591    416.55989    363.36394   -55717.679    55725.992    53.195946    37.549547 
148296000    306.79704    405.26483    377.21922   -55768.455    55761.649    28.045606    37.539056 
148300000    283.71283    296.19779     174.7357   -55777.024    55781.329    121.46208    37.538518 
148304000    285.47868    366.84803    366.64292   -55813.669    55802.568   0.20511119    37.524225 
148308000    327.17665    389.52897    324.32011   -55858.151    55831.553    65.208854    37.528722 
148312000    327.51998    467.03818    158.90499    -55866.42    55845.016    308.13319    37.536753 
148316000    274.73329    367.89445    258.67064   -55859.911    55879.383    109.22382    37.544182 
148320000    293.88351    370.62277     442.7839   -55892.172    55893.425    -72.16112    37.561684 
148324000    281.26956    323.21729    284.71689   -55894.642    55899.474    38.500401    37.570502 
148328000    279.37991     385.0282    350.54773   -55913.456     55906.52    34.480471    37.570841 
148332000     282.5359    261.97881    367.04467   -55925.227    55935.328   -105.06586    37.570293 
148336000    274.75552    266.45643    252.72269    -55929.32    55956.329    13.733739    37.577556 
148340000    279.53724    327.59821    425.37582   -55962.723    55969.131   -97.777612    37.582132 
148344000    273.87032    355.73427    449.94391   -55981.261    55988.656    -94.20964    37.583868 
148348000    292.28815    360.91505    299.63596   -56000.497    56018.689    61.279089    37.585391 
148352000    282.03931    398.36702    261.72512   -56017.137    56043.324    136.64191    37.590282 
148356000    292.59131    372.67036    329.96544   -56022.389    56007.453    42.704923    37.588441 
148360000     299.8517     403.9444    353.06763   -56044.073    56018.071    50.876768    37.587371 
148364000    302.91318    138.42351    272.43511    -56024.03    56040.125   -134.01161    37.592831 
148368000    264.56491    345.38459    274.47907   -56038.849    56061.768    70.905522    37.585484 
148372000    300.36284    498.66804    358.44425   -56045.911    56050.258    140.22379    37.588244 
148376000    315.89354     333.0489    523.57399    -56076.24     56053.57   -190.52509    37.590705 
148380000    263.65179    308.20847     496.7851   -56063.258    56085.023   -188.57663    37.587811 
148384000    268.49799    299.16482    302.99215    -56096.84    56116.574   -3.8273306    37.582826 
148388000    277.83402    431.02954    429.60431   -56152.219     56155.68    1.4252358    37.584065 
148392000    261.00212    354.79197    365.66619   -56162.917    56178.695   -10.874216    37.583013 
148396000    273.23727    500.71183     210.6138   -56190.614     56197.51    290.09803    37.584076 
148400000    264.35462    342.31183     334.5192   -56216.373    56229.347    7.7926297    37.575403 
148404000    313.14615    419.33591    318.00077   -56257.403    56252.816    101.33515    37.579822 
148408000     291.4493    380.09341    470.90852     -56255.2    56249.501   -90.815113    37.579257 
148412000    283.19753    406.30299    364.41062   -56264.404    56271.825    41.892371    37.583752 
148416000    291.97918    218.11177     393.4523   -56299.603    56305.297   -175.34053    37.579705 
148420000    270.66019    316.02578    241.86824   -56314.475     56326.15    74.157541     37.57366 
148424000    289.91252     204.2834    434.31511   -56316.547    56331.307   -230.03171    37.573433 
148428000    251.88506     262.3857    431.50588   -56315.789    56348.052   -169.12017    37.576009 
148432000    297.15179    216.69785     373.3433   -56337.467    56345.123   -156.64545    37.589551 
148436000    303.36347      517.254    257.85313   -56378.485    56386.774    259.40087    37.596776 
148440000    283.16513    317.20341    214.16518   -56398.288    56418.955    103.03823    37.592153 
148444000    280.10909    311.40796    227.78118   -56443.305    56457.613    83.626777    37.591909 
148448000    281.35437    555.89582    417.55297   -56479.567    56494.672    138.34285     37.58842 
148452000    266.04989    176.49717    139.04625   -56496.866    56510.782     37.45092    37.594114 
148456000    303.44587    612.08424     354.0126   -56538.297    56529.508    258.07164    37.593256 
148460000    299.70158    308.29845    363.55799   -56556.851    56557.128    -55.25954    37.605664 
148464000    280.71372    440.32537    228.61378   -56568.895    56577.037    211.71159    37.621433 
148468000    258.67385    258.17828    341.35155   -56603.029    56613.808   -83.173272    37.609814 
148472000    271.31372    396.53859    410.47328   -56611.818    56633.968   -13.934687    37.608407 
148476000    267.37938    419.72594    177.31707   -56628.452    56650.954    242.40887    37.596076 
148480000     276.7045    410.05766    243.20891   -56646.079    56642.593    166.84875    37.588109 
148484000    278.15328    491.69389    227.52828     -56674.2    56679.226    264.16561    37.583524 
148488000     262.9464    396.56678    398.06813   -56680.274    56712.111   -1.5013489    37.598355 
148492000    249.69339     274.7152    190.45473   -56711.351    56739.798     84.26047    37.605526 
148496000    263.38365     223.3407    417.11266   -56716.696    56729.669   -193.77195    37.612429 
148500000    267.01906    287.13773    313.29856   -56745.193    56769.755   -26.160826    37.610007 
148504000    280.56698    451.68446    547.39931    -56771.23    56769.351   -95.714856    37.605932 
148508000    315.66535     385.6386    261.43267   -56816.042    56780.899    124.20593    37.614376 
148512000    310.09088    455.01563    204.24145   -56828.429    56817.057    250.77418    37.619356 
148516000    295.02563    224.78068    586.49973   -56826.924    56840.759   -361.71905    37.617028 
148520000     277.5212    331.53816    382.66879   -56869.605    56885.968   -51.130628    37.616065 
148524000    284.39791    323.98879    274.19099   -56909.032     56918.44    49.797796      37.6126 
148528000    300.87225    640.21413     318.9677   -56932.974    56931.875    321.24643    37.623519 
148532000    258.67035    416.90116    306.04184   -56912.433    56948.787    110.85932    37.632415 
148536000      297.536    477.74583    250.69904   -56932.902    56945.353    227.04679    37.635562 
148540000    292.34462    432.26145    333.33181   -56943.533    56949.318    98.929633    37.632018 
148544000    289.16603    264.50062    240.55549   -56944.126    56952.126    23.945128    37.640915 
148548000    290.14049    269.38378    353.49747   -56982.018    56971.144   -84.113694    37.658672 
148552000    287.71273     285.8817     288.9256   -56994.263    56973.721   -3.0439095    37.652961 
148556000    267.42061    282.64453    350.03014   -57008.082    57025.795   -67.385608    37.654662 
148560000    280.72482    248.31626    355.21988   -57054.892    57051.614   -106.90363    37.662394 
148564000    292.93614    289.44009    313.37088   -57071.835    57065.742   -23.930789    37.666214 
148568000    311.92422    286.68235    562.97787   -57070.225    57074.665   -276.29553    37.665501 
148572000    284.00559    400.83899    170.10481   -57084.377    57088.859    230.73418     37.67225 
148576000    309.53514    657.86374    184.80255   -57111.108    57104.027    473.06119    37.671162 
148580000    281.00917    639.58214    353.68719   -57113.668    57117.818    285.89495     37.68961 
148584000    283.25759    281.00485    424.87469   -57144.711    57154.826   -143.86983    37.695394 
148588000     310.8673    321.68493    400.04733   -57158.087     57161.62   -78.362392    37.691328 
148592000     252.2179    444.33338    229.71343   -57140.411    57167.152    214.61994    37.676456 
148596000    291.13863    427.43256    327.10465   -57171.536    57171.893    100.32791    37.679797 
148600000    302.48084    447.09194    369.37284   -57200.864    57222.199    77.719096    37.671612 
148604000    268.07173    409.99199    341.48315   -57225.898     57245.14    68.508837    37.673598 
148608000    269.19513    300.22052    321.02919   -57220.786    57251.282   -20.808669    37.682805 
148612000    261.13754    296.30667    382.83614   -57230.545    57263.052    -86.52947    37.685123 
148616000    301.56679     248.1848    440.46348   -57260.146    57269.643   -192.27869    37.685855 
148620000    277.48025    276.95846    329.82578    -57281.78    57295.613   -52.867317     37.68153 
148624000    295.34054    351.84203     374.5994   -57281.429     57294.11   -22.757371    37.675723 
148628000    277.16046    289.99436    400.18054   -57315.143     57331.29   -110.18618    37.675336 
148632000    238.50966    241.19793    371.36986   -57339.904    57390.404   -130.17193    37.666199 
148636000    275.35667    385.74405    325.60662   -57386.029    57406.495    60.137437    37.665777 
148640000    291.10734     479.1483    274.94926   -57415.851     57428.09    204.19904    37.666779 
148644000    285.67875    346.28389    280.98916   -57412.673    57434.774    65.294727     37.66306 
148648000    298.89535    383.84134    328.41362   -57431.745    57447.981    55.427722    37.661087 
148652000     271.2227    250.46879    258.68012   -57435.189    57446.868   -8.2113286    37.660886 
148656000      280.241    371.00411    357.39229   -57449.568    57449.554    13.611825    37.665963 
148660000    276.29901    226.35378    475.35307   -57444.875    57458.057   -248.99929    37.659913 
148664000    290.97158    211.78558    394.77878   -57449.803    57470.365    -182.9932    37.665851 
148668000     303.1452    468.22045    360.71561     -57515.4    57509.333    107.50485    37.665199 
148672000    278.33932    320.13455    228.98402   -57534.265    57548.079    91.150536    37.664834 
148676000    298.34843    444.57602    281.00006   -57540.915    57541.133    163.57596    37.657919 
148680000     281.7776    428.81129    168.32794   -57552.638    57557.399    260.48335     37.66049 
148684000    259.07782    219.64938    330.17396   -57549.684    57583.132   -110.52458    37.655112 
148688000      278.213    450.34752    349.45359   -57575.928    57591.827    100.89393    37.652267 
148692000    297.91849    515.29129    404.71917   -57617.429    57610.324    110.57212    37.665866 
148696000    279.69807    326.07118    297.26067   -57639.749    57642.791    28.810513    37.669165 
148700000    284.80164    332.08016    276.25885   -57658.145    57673.816     55.82131    37.677973 
148704000    287.01377    238.52884    252.72806   -57685.373    57689.556   -14.199217    37.676779 
148708000    288.25272    449.94842    365.85657    -57701.45    57714.195    84.091854    37.682339 
148712000     275.8876    258.37839    449.23668   -57703.086    57722.407   -190.85829    37.685489 
148716000    263.36771    426.37893    259.67674   -57729.167    57747.615    166.70219    37.682062 
148720000    290.23478     406.4336    444.23344   -57772.808    57766.464    -37.79984    37.692754 
148724000    267.92407    506.44107    296.57426   -57770.821    57779.367     209.8668    37.685634 
148728000    270.12061    567.48913    225.00926    -57795.27    57806.425    342.47987    37.681511 
148732000    282.92228    365.79328    250.30138    -57825.33     57819.26     115.4919    37.670753 
148736000    289.85219    307.22498    267.64787   -57839.331     57837.03    39.577106    37.675317 
148740000    275.36135     210.5644    235.79083   -57856.458     57859.22   -25.226422    37.675909 
148744000    276.80518    367.38414    264.54381   -57880.206    57886.293    102.84033     37.68335 
148748000    276.84911    585.14245    336.60332   -57902.614    57913.543    248.53913    37.688182 
148752000    268.79964    327.18646    256.88839   -57885.573    57907.895    70.298061     37.68707 
148756000     286.3951     430.5421    216.87887   -57915.784    57922.928    213.66323    37.675998 
148760000    288.96933    447.92373    349.97576   -57934.298    57945.688    97.947979    37.688148 
148764000    267.69661    281.14302    423.04162   -57956.383    57971.769    -141.8986    37.677627 
148768000    280.72668    365.61925     195.3819   -57963.777    57983.452    170.23736    37.675007 
148772000    277.59359    446.00608    219.87931   -58020.561    58032.678    226.12677    37.674191 
148776000    285.79239    528.80843    372.33801   -58032.724    58037.253    156.47042    37.671381 
148780000    278.73346     421.0732    280.04256   -58035.085    58057.114    141.03064    37.682717 
148784000    297.11827    414.09635    326.04126   -58052.974    58065.803    88.055094    37.687764 
148788000    288.03665    336.95745    197.07504   -58090.482     58076.06    139.88241    37.700585 
148792000    287.36377    279.91393    472.57822   -58080.571    58099.772   -192.66429    37.696793 
148796000    250.58285    279.95736    344.99448   -58100.196    58127.671   -65.037122     37.70661 
148800000    296.00101     355.4852     418.2848   -58135.728    58142.723   -62.799606    37.714761 
148804000    286.17835    294.42905    418.70436   -58149.572    58154.537   -124.27532    37.708986 
148808000    276.04448    412.17288    345.17006   -58169.888    58182.852    67.002817    37.702314 
148812000    275.55399    369.40919    474.26038   -58200.687    58207.053   -104.85118    37.691931 
148816000    282.77376    736.05286     292.7932   -58218.413    58222.389    443.25966    37.700138 
148820000    268.55246    451.68303    452.81517   -58229.936    58243.403   -1.1321413    37.709279 
148824000    291.73458    397.85628    365.25921    -58232.19    58244.214    32.597072    37.705669 
148828000    266.16489    414.07602    487.76451   -58251.385    58273.761   -73.688487    37.711849 
148832000    278.68255    321.96872    219.00265   -58289.107    58323.125    102.96607    37.705496 
148836000    257.92892     371.6243     237.4512   -58307.977      58331.4     134.1731    37.705856 
148840000    285.66488    556.30161    486.89597   -58340.243    58367.813    69.405639     37.71187 
148844000    274.32334    300.16418    276.27801   -58369.356     58389.58    23.886162    37.707471 
148848000    270.11985    306.03389    442.86958   -58375.645    58404.481   -136.83569    37.710599 
148852000    285.32688    629.66106    244.85517   -58425.465     58441.52    384.80589    37.706901 
148856000    266.33647    482.27615      340.032   -58436.714     58449.54    142.24414    37.704407 
148860000    300.43439    326.22497    743.30334   -58455.589    58458.801   -417.07836    37.718757 
148864000    289.11884    436.15376    379.07683   -58473.367     58480.22    57.076936    37.709025 
148868000    277.82939    465.75237     267.4314   -58484.855    58512.322    198.32097    37.700729 
148872000    282.57871    487.36433    197.28318   -58509.242    58508.614    290.08115    37.705347 
148876000    277.89828    290.42408    476.73004   -58510.926    58519.062   -186.30596    37.706463 
148880000     296.0339    318.37324     464.9649   -58536.718    58557.732   -146.59165    37.701092 
148884000    286.25077    385.79759    255.13373   -58569.128     58572.28    130.66385    37.697204 
148888000    296.26423    249.07336    410.54376   -58577.486    58568.629    -161.4704    37.700047 
148892000    301.56136    224.36154    202.16902   -58590.308     58593.75    22.192514    37.701185 
148896000    273.18023    324.59578    252.37217    -58622.51    58638.169    72.223612    37.694848 
148900000    276.51835    452.47944    201.72214   -58644.455    58665.271     250.7573    37.695482 
148904000    291.93314    312.52831     338.8394   -58668.381    58681.277   -26.311091    37.682749 
148908000    275.73796    339.20187    318.70485   -58689.206    58705.408    20.497019    37.685819 
148912000    286.31781    273.24621     335.8626   -58707.448    58726.011   -62.616397    37.696891 
148916000    293.30605    594.66906     202.2361   -58724.548    58719.048    392.43295    37.692095 
148920000    258.38937    507.90761    328.28834   -58712.281    58736.669    179.61926    37.689469 
148924000    282.77965    519.55711    340.82818    -58729.07    58761.236    178.72894    37.693027 
148928000    274.51951    418.98592    278.66052   -58730.212    58762.299    140.32541    37.689717 
148932000    274.10368    455.07178    227.84025    -58760.38     58782.55    227.23153    37.691961 
148936000    291.71506    291.01395    257.92861   -58763.716    58780.001    33.085345    37.696792 
148940000        313.7    421.40963    493.26093   -58804.928    58788.946   -71.851297    37.699464 
148944000    246.01901    407.33808     288.1801     -58827.1    58852.419    119.15798    37.705691 
148948000    262.96506    287.58654    347.19835   -58842.486    58865.752   -59.611804    37.708591 
148952000    284.70673    430.51025    350.45353   -58860.536    58880.614    80.056718    37.712844 
148956000    291.12667    469.67495    321.35687   -58880.298    58890.604    148.31808    37.707488 
148960000     266.5254    380.10018    334.67428   -58898.441    58911.483    45.425905    37.704669 
148964000    292.12306    439.44747    254.50339   -58943.206    58939.516    184.94409    37.719982 
148968000    307.71003    333.05563      389.122   -58958.458    58958.364   -56.066365    37.718167 
148972000    289.86724    321.66672    358.47474   -58961.378    58974.324   -36.808014    37.710108 
148976000    275.42913     340.9541    271.68419   -58985.169     58994.99     69.26991    37.704396 
148980000    266.99922     393.8009    421.82209   -58998.206        59012   -28.021195    37.709537 
148984000     302.1079    513.90926    320.17003   -59053.521    59044.563    193.73924    37.715283 
148988000    316.88397    583.93106    297.90434   -59058.772    59063.978    286.02671    37.717025 
148992000    287.80835    410.73056    334.31176   -59068.842    59077.252    76.418796    37.726552 
148996000    262.27932    377.20787    295.95341   -59061.659    59088.102    81.254462    37.725143 
149000000    279.62921    286.22284     193.9019   -59088.815     59100.37    92.320934    37.729833 
149004000    294.20751    319.08045    489.72482   -59109.147    59123.909   -170.64437     37.71694 
149008000    290.80666    384.79102     321.1907   -59128.733    59126.078    63.600319    37.714521 
149012000    255.47425    488.18486    329.72722   -59134.196    59155.741    158.45764    37.715234 
149016000    275.25641    243.60726    190.15589    -59165.73    59188.533    53.451369    37.714631 
149020000    277.20663    326.82428    364.50956    -59182.62     59175.15   -37.685275    37.712861 
149024000    279.27087    399.06468    363.91653   -59176.007    59182.174    35.148145    37.712437 
149028000    268.89971    481.82255    312.99753   -59178.258    59183.525    168.82502    37.705967 
149032000    290.43472    303.42892    414.90508   -59201.329     59192.59   -111.47616    37.716348 
149036000    272.73801    277.34717    253.56581   -59203.102    59225.721    23.781361    37.708114 
149040000    286.56616    354.33985    200.51945   -59224.383    59229.327     153.8204    37.703976 
149044000    262.99782    288.93881     247.3958   -59203.366     59234.58    41.543004    37.700211 
149048000    277.04713    415.62838    238.51976   -59231.391    59221.832    177.10863    37.704413 
149052000    259.16769    207.62464    361.23831   -59214.202    59249.448   -153.61367    37.705829 
149056000    324.08284    423.34909    456.88892   -59269.813    59253.786   -33.539836    37.702314 
149060000    287.62417    271.81558    381.32083   -59272.113     59264.68   -109.50525    37.695069 
149064000    288.36266    356.94362    331.43554   -59281.491    59290.258    25.508072    37.692182 
149068000    311.70426    317.91446     541.8528   -59293.508    59284.129   -223.93834    37.699191 
149072000    282.53518    369.50427    249.42436   -59314.965    59327.108     120.0799    37.693372 
149076000     292.9041    213.42663    257.96099   -59315.136    59334.005   -44.534367     37.68085 
149080000    307.10493    253.68001     442.6409   -59342.017    59347.737    -188.9609    37.684965 
149084000    290.41609    369.73901    398.52526   -59377.752    59375.787   -28.786252    37.685939 
149088000    246.01229    257.75798     234.6701   -59390.608    59428.106    23.087883    37.685037 
149092000    254.03639    225.25969     220.4366   -59430.656    59449.237    4.8230868    37.697034 
149096000    261.37392    320.56029    373.84872   -59445.115    59461.961   -53.288428    37.691233 
149100000    286.92526    232.94903     304.6528   -59462.677    59478.131   -71.703771    37.691736 
149104000    279.41137    270.93833    238.34693   -59491.957     59507.11    32.591396    37.697081 
149108000    282.60691     342.5754    315.86547     -59493.2    59506.923    26.709922    37.705044 
149112000    282.80343    145.61324    207.90793   -59503.798    59513.686   -62.294694    37.706895 
149116000    283.87171    233.22088    324.72646   -59521.157    59535.614   -91.505577    37.699021 
149120000    297.51714    465.62142    237.97247    -59547.28     59547.67    227.64895    37.691587 
149124000    316.57045    294.17618    362.55723   -59550.349    59542.771   -68.381056    37.682528 
149128000    296.92623    440.09548    599.30077   -59559.429    59570.007   -159.20529    37.688008 
149132000    301.67736    617.08773    406.45461   -59598.033    59590.154    210.63312    37.687753 
149136000    275.13017    435.17838     286.2946   -59601.816    59627.061    148.88379    37.683527 
149140000    278.38973    386.05808    345.55517   -59617.329    59640.147    40.502909    37.687524 
149144000    273.44509    340.83446    273.49705   -59641.653    59670.502    67.337409    37.694287 
149148000    273.87932    449.83908    266.44468   -59669.393    59678.198    183.39439    37.682017 
149152000    287.43473    331.04717    356.10149    -59687.91    59693.672   -25.054318    37.687349 
149156000    291.53949    349.77136    480.17697   -59710.878    59695.737   -130.40561    37.687461 
149160000    287.15842    422.22022    355.76967   -59711.273    59707.826    66.450551    37.691333 
149164000    287.41449    482.89264    194.07247   -59722.192    59728.349    288.82017    37.690998 
149168000     323.2244    497.44208    311.11992   -59751.881    59741.444    186.32217    37.685329 
149172000    260.51992    311.18001    434.22099   -59765.139    59767.403   -123.04098    37.682668 
149176000    324.59155    237.14502    243.47401   -59815.136    59801.415   -6.3289953    37.673073 
149180000    276.27987    512.30363    217.63933   -59827.392    59839.553     294.6643    37.679037 
149184000    281.15294    289.32843    333.56519   -59838.019    59854.339   -44.236755     37.67081 
149188000    284.89699    534.31101    292.09432   -59856.808    59880.561     242.2167     37.66899 
149192000    274.72334    333.26046     292.1498   -59889.332    59878.804     41.11066    37.682218 
149196000    291.14547     263.3424     306.2264   -59925.533    59930.368   -42.884002    37.691322 
149200000    310.21242    327.62514     329.2416   -59932.576    59934.381   -1.6164528    37.687411 
149204000    301.01227    324.87583    214.58549   -59971.875    59968.417    110.29034    37.700222 
149208000    312.64349    516.42885    348.12062   -59999.739    59980.728    168.30824    37.705138 
149212000    274.80055    210.60585    363.72058   -59984.235    59975.841   -153.11473    37.710295 
149216000    267.43446    296.61064    334.31652   -60013.702    60029.672   -37.705883    37.705179 
149220000    270.00473     381.8073    287.64667   -60036.932     60072.71    94.160628    37.704114 
149224000    277.56032    365.20292    317.36464   -60059.037    60066.684    47.838274    37.703354 
149228000    273.75494    585.62978    355.61209   -60066.393    60077.526    230.01769    37.697731 
149232000    296.69028    383.50633    187.63968   -60082.788    60073.898    195.86664    37.704733 
149236000    277.81015    266.62011    449.88178   -60091.038    60082.804   -183.26167    37.701632 
149240000    254.95119    303.78364    335.61897   -60124.832    60133.539   -31.835333    37.717626 
149244000    275.20452    377.02339    548.32971    -60138.67    60158.272   -171.30632    37.713386 
149248000    288.12256    435.87094    371.13037   -60167.755     60153.09    64.740571    37.718593 
149252000    278.27627    430.78743    296.20325   -60170.954    60186.858    134.58418    37.728883 
149256000    261.04122    315.21038    330.32843   -60170.662     60187.31   -15.118049    37.718662 
149260000    266.08837    461.01438    337.04292    -60196.99    60200.212    123.97146    37.714373 
149264000      278.198    167.77169    378.11186   -60185.811    60218.579   -210.34018    37.713415 
149268000    280.93973    205.01827    407.09201   -60225.051    60228.738   -202.07373    37.708995 
149272000    282.12753    380.67381     370.8261   -60259.501    60267.324    9.8477144    37.703275 
149276000    289.20868     659.0472     322.3987   -60288.999    60287.577     336.6485      37.7143 
149280000    332.42152    453.58796    441.09502   -60307.642    60287.173    12.492944    37.703739 
149284000    270.93046    186.54436    312.60142   -60308.347    60335.066   -126.05706    37.706132 
149288000    298.31585     477.3169    236.58862   -60356.226    60344.516    240.72828    37.706745 
149292000     263.4157    244.64617    282.71488   -60367.174    60388.689   -38.068711    37.697033 
149296000    309.02614    560.62437    395.31379   -60404.953    60392.259    165.31059    37.701401 
149300000    274.20357    200.15556    439.30148   -60404.244    60414.005   -239.14592     37.70729 
149304000    312.65343    436.93429    215.93927   -60431.331    60426.105    220.99502     37.70662 
149308000    312.39343    203.73387    307.06433   -60457.802    60450.454   -103.33047    37.703142 
149312000     271.7661    351.55702    257.58751   -60483.339    60510.849     93.96951    37.698778 
149316000     268.1426    383.03075    291.30284    -60511.24     60533.63    91.727905    37.706453 
149320000    297.88677    387.06947    248.93251   -60547.393    60550.922    138.13696    37.697109 
149324000    281.06162    454.35709    265.52431   -60550.359    60554.657    188.83278    37.705961 
149328000    287.26826    322.50149    550.13485   -60568.758    60569.566   -227.63336    37.701413 
149332000    296.89278    491.51059     468.4704   -60597.048    60588.907    23.040187    37.696807 
149336000    285.03613    489.16055    389.63419   -60594.495    60626.991     99.52636    37.702921 
149340000    261.69671    312.47647    225.92893   -60618.694    60635.421    86.547533    37.702498 
149344000    316.15071     536.7987    288.41287   -60663.423    60646.967    248.38583    37.700294 
149348000    292.42424    388.95098    185.81197   -60672.257    60680.474    203.13901    37.704694 
149352000    296.04021    428.12846    452.17808   -60689.168    60690.194   -24.049621    37.691868 
149356000    292.96557    473.35236    243.50814   -60703.191    60710.436    229.84422    37.695326 
149360000    301.90441    288.10818    328.56675   -60704.376    60710.941    -40.45857    37.700698 
149364000    287.46523    306.02648    392.48462   -60706.206      60717.2   -86.458138    37.693841 
149368000     276.6912    483.73748    398.04058   -60709.386    60719.651    85.696901    37.700794 
149372000    291.73324    591.89475    251.96305   -60742.314    60753.859     339.9317    37.712561 
149376000     274.4703    315.38777    251.54846   -60740.452    60754.783    63.839311    37.709366 
149380000    291.18899    456.63215    179.03609   -60762.617    60787.427    277.59606    37.718232 
149384000    269.62334    358.19761    413.29788   -60802.868    60818.905   -55.100268    37.721056 
149388000    258.18546    400.36526     311.4698   -60814.213    60837.517    88.895467    37.721367 
149392000    281.92114    320.72679    462.55078   -60833.948     60858.07     -141.824    37.719048 
149396000    289.81963    482.73475    214.54467   -60861.543     60862.53    268.19008    37.712305 
149400000    300.74009    472.11979    177.04131   -60867.114    60868.155    295.07848    37.705788 
149404000     284.9119    507.97529    261.52221   -60883.365    60901.452    246.45308    37.709897 
149408000     243.3916    269.61671    160.01041   -60899.084    60927.025     109.6063    37.701069 
149412000    277.29207    288.41985    353.53196   -60945.285     60964.78    -65.11211    37.693858 
149416000    303.15645    296.77619    392.51496   -60956.242    60971.069   -95.738772    37.694645 
149420000    262.25959    211.92412    253.12418   -60968.042     60992.27   -41.200058    37.698642 
149424000    318.98729    377.81711    523.24447   -60999.593    60991.037   -145.42735    37.691895 
149428000    263.26088    246.75751    277.97943   -61000.632    61004.874   -31.221913    37.686181 
149432000    277.07948    245.60881    331.72592   -61029.818    61020.041    -86.11711    37.680955 
149436000    292.21846    389.13514    560.89651   -61045.224    61063.275   -171.76136    37.685272 
149440000    278.55667    472.08109    194.98722   -61073.275     61098.66    277.09388    37.682046 
149444000    278.33241     541.7474     282.7676   -61107.339    61123.555    258.97979      37.6795 
149448000    277.74106    287.97471    419.46385   -61124.247    61153.247   -131.48914    37.677633 
149452000    280.97795    247.45945    323.51002   -61127.488    61157.999   -76.050569     37.68336 
149456000    275.82799      263.286    217.85972   -61172.312    61183.187     45.42628    37.694438 
149460000    256.03461    203.96428    393.42585   -61154.347    61198.799   -189.46157    37.683439 
149464000    265.94696    509.08573    237.01422   -61176.419    61199.929    272.07151    37.680462 
149468000    283.46903    357.65399    338.18667   -61163.285    61179.985    19.467319    37.681777 
149472000    304.65603    289.78046    513.13723    -61200.08    61203.944   -223.35677    37.678411 
149476000    293.23331    261.00378    372.68955    -61206.75     61211.75   -111.68577    37.675202 
149480000     287.5794    313.98311    307.54518   -61224.401    61219.164    6.4379251    37.660516 
149484000    318.12461    249.16773    317.27553   -61254.701    61237.642   -68.107798    37.659381 
149488000     318.1848    259.66063     387.3263   -61277.815    61265.235   -127.66567    37.662636 
149492000    275.30543    291.14177    296.70382    -61268.08    61305.454   -5.5620576    37.660716 
149496000    251.63668    217.87101    396.84553   -61271.938    61291.429   -178.97451    37.661095 
149500000     277.5361    327.77605    327.58984   -61315.631    61308.742     0.186208    37.656276 
149504000     294.6877    524.38269    303.68628   -61329.797    61331.804    220.69641    37.657106 
149508000    270.77579    308.38489    327.08663   -61342.254    61354.437    -18.70174    37.647357 
149512000    303.95308    291.95767    235.79877   -61388.073    61365.932    56.158892    37.650285 
149516000    290.49011    548.23146    284.04243   -61398.595    61394.464    264.18903    37.653157 
149520000    290.81754    513.30154    287.43306   -61416.995    61406.551    225.86848    37.663124 
149524000    313.23086    423.45618    518.12046   -61444.902    61425.846   -94.664286    37.664307 
149528000     305.1062     458.3852    365.11989   -61443.704    61438.834    93.265318    37.658359 
149532000    287.06486    292.56973      224.351   -61455.986    61458.923    68.218728    37.656768 
149536000    308.29351    363.66031    465.98748   -61500.562     61487.73   -102.32717    37.649491 
149540000     295.1975    353.46152     385.9222   -61497.133     61489.09   -32.460676    37.641705 
149544000    292.82077    395.07512    205.76514   -61492.888    61500.588    189.30998    37.648995 
149548000    316.47308    550.16124    252.14551   -61536.989    61521.235    298.01573    37.649233 
149552000    267.99763     302.4392     286.9988   -61540.804    61551.943    15.440402    37.646882 
149556000    295.83314    342.61748     254.5578   -61545.696    61554.297    88.059677    37.647624 
149560000    296.78043    290.27352    344.57264   -61555.366     61548.51   -54.299125    37.655582 
149564000    280.38965    260.73235    327.73611   -61562.392    61572.112   -67.003754    37.645492 
149568000    276.69774    280.48679    274.16039   -61588.545    61601.035    6.3264039    37.650232 
149572000    265.42066    464.22909    428.83237   -61588.765     61601.95     35.39672    37.656603 
149576000    257.72116    321.12464    279.18216   -61609.391    61638.966    41.942475    37.665913 
149580000    267.67733    509.83849     256.9689    -61630.86    61659.508     252.8696    37.675006 
149584000    265.92646    240.50264    381.27103   -61659.002    61677.936   -140.76839    37.673043 
149588000    274.42977     497.3632    173.67688   -61670.749    61677.992    323.68632    37.661575 
149592000    276.10166    544.61417    253.05112   -61683.153    61691.694    291.56306    37.663906 
149596000    263.72277     370.2501    177.63379    -61719.75    61724.737    192.61631    37.666943 
149600000    289.18672    343.04527    490.79722   -61753.809    61763.526   -147.75195    37.676582 
149604000    275.55778    408.72931    256.77409   -61777.785    61797.901    151.95522    37.679513 
149608000    276.16063    224.27907    292.76513   -61820.851    61830.001   -68.486068    37.675051 
149612000     287.0811    477.37637    332.73238   -61855.684    61857.396    144.64399    37.678278 
149616000    290.96872    395.04478    439.55274   -61843.697    61840.747   -44.507965      37.6675 
149620000    248.52539    263.41936    244.46907   -61830.247    61854.195    18.950292    37.658648 
149624000    255.95461    178.67927    262.46238    -61840.15    61878.501   -83.783113     37.65474 
149628000    268.94074    258.86404    446.21631   -61851.947    61881.861   -187.35227     37.65146 
149632000    277.99889    440.98588    448.43083   -61884.897    61908.287   -7.4449502     37.64911 
149636000    263.91955    317.51451     327.4926   -61913.655    61938.045   -9.9780884    37.648295 
149640000    271.99886    329.49149    268.13233   -61961.606    61947.438    61.359161    37.654771 
149644000    268.52277    407.03846    211.69116   -61943.849    61978.103     195.3473    37.647043 
149648000    278.97688    300.10222    191.21193   -61946.937    61966.823    108.89029    37.653373 
149652000     251.5664    370.03046     246.0361   -61979.283    61996.113    123.99435    37.651969 
149656000      289.464    322.13151    323.15691    -61995.38    62014.219   -1.0253999    37.644833 
149660000    269.78467    307.63824    276.09493   -62024.983     62061.61     31.54331    37.657015 
149664000    269.62615    328.73681    198.17911   -62033.856     62056.41     130.5577    37.666095 
149668000    292.35357    314.37632    318.78333   -62053.858    62058.648   -4.4070166    37.656396 
149672000    257.76683    201.47435    461.92293    -62071.89    62086.351   -260.44859    37.654055 
149676000    278.26164    314.83078    209.55999   -62084.136    62112.371    105.27079    37.656474 
149680000    250.37053    389.49986    183.97289    -62118.24    62149.364    205.52697    37.661106 
149684000    267.35768    302.82806    477.32384   -62140.904    62167.261   -174.49578     37.65591 
149688000    271.42619    344.76178    215.97505   -62174.814    62199.201    128.78673    37.648736 
149692000     309.1238    304.09681    335.23149   -62204.976    62208.991   -31.134671    37.650861 
149696000    281.74198    301.25261    277.56038   -62222.911    62246.783    23.692227    37.639534 
149700000    259.38935    430.87465    380.43718   -62232.177    62260.686    50.437469     37.63675 
149704000     269.7326    296.91079    367.81053   -62259.628    62286.826   -70.899736    37.637044 
149708000    271.35366    251.69763    467.92216   -62279.343    62291.576   -216.22453    37.634622 
149712000    300.26892    310.68011    262.88306   -62291.522    62286.672    47.797045    37.626445 
149716000    276.08562    410.20257     193.0518   -62307.722     62324.61    217.15077    37.630461 
149720000    275.22092    593.81894    344.48372    -62308.17    62327.177    249.33521     37.62624 
149724000    271.02059    301.98754    266.73098   -62320.315    62344.798    35.256553    37.625464 
149728000    277.27844    315.86264    309.08199   -62322.702    62350.227    6.7806413    37.628292 
149732000    269.25858    272.73908    391.50856   -62367.105     62391.46   -118.76948    37.629082 
149736000    303.67681    547.33122    488.19487   -62396.932    62396.276    59.136347    37.631899 
149740000    282.53513    378.17088    431.44407    -62405.23     62415.24   -53.273191    37.643234 
149744000    280.03788    393.68884    384.12684   -62435.015    62441.931    9.5619971    37.646524 
149748000    281.26178    468.29559    227.07093   -62440.351     62450.66    241.22465    37.646106 
149752000    272.70704    636.62302    200.68445   -62451.691    62486.041    435.93857    37.632601 
149756000    262.21688    167.27261    331.34248   -62461.809    62503.625   -164.06987    37.627708 
149760000    285.66495    540.41381    268.98873    -62491.54    62501.008    271.42507    37.638108 
149764000    270.90328    269.76084    299.63336   -62495.813    62513.425   -29.872516    37.640201 
149768000    304.59315    310.10376    312.49266     -62510.1    62519.862   -2.3888967    37.629738 
149772000    271.87222    424.18505     357.6532   -62519.833    62552.627    66.531858    37.623579 
149776000    258.58217    291.15878    174.55622   -62514.341    62536.041    116.60256    37.632409 
149780000    281.88403    328.79213    373.66909   -62534.945    62540.082   -44.876961    37.640201 
149784000    289.95811    276.84891    342.53797   -62553.809     62562.93   -65.689064    37.642747 
149788000    272.89008    218.74329    245.48373   -62557.914    62577.599   -26.740439    37.652256 
149792000    303.60689    545.83565    267.52872    -62583.75    62572.452    278.30693    37.657049 
149796000    285.08917    507.16463    168.42829    -62601.81    62593.201    338.73634    37.659085 
149800000    291.32144    368.99095    377.06079   -62603.271    62603.127   -8.0698412    37.653963 
149804000    307.57004     541.4076    143.88711   -62640.415    62624.807    397.52049    37.658673 
149808000    313.92662    385.09491    347.37006   -62614.853    62609.499    37.724845    37.657291 
149812000    299.95009    247.78897      289.901   -62607.025     62618.66   -42.112035    37.648425 
149816000    281.23971    432.34956    276.77784   -62645.174    62659.396    155.57172    37.652561 
149820000    276.96462    511.72453    360.99603   -62674.078    62688.315     150.7285    37.647407 
149824000    269.89673    249.40791    327.06166   -62698.707    62743.478   -77.653755    37.635756 
149828000    264.96066     268.4956    367.90054   -62749.016    62776.349   -99.404934    37.632708 
149832000    288.47805    244.59327    329.00682   -62790.477    62794.426   -84.413546    37.621214 
149836000    290.91255    431.59545    345.05762   -62812.827    62833.576    86.537831    37.605477 
149840000    265.46323    226.03002    157.35001   -62833.662    62833.425    68.680018    37.595519 
149844000    299.29541    383.37606      211.429   -62858.145    62857.431    171.94706    37.596828 
149848000    289.98148    221.04454    422.27828   -62877.917    62873.659   -201.23374    37.596803 
149852000     283.5409    180.52048    370.42482   -62901.392    62901.623   -189.90433    37.592424 
149856000    290.53056    450.92658    294.64294   -62929.625    62930.949    156.28364    37.580617 
149860000    282.36942    441.92906    319.28554   -62962.941    62950.941    122.64353    37.569066 
149864000    303.75702     297.0937    290.05635   -62986.016    62981.264    7.0373494    37.571885 
149868000      294.141    571.47407    216.80072   -63007.876    63018.414    354.67335    37.577477 
149872000    271.05278    217.18628    185.29073   -63021.443    63033.863    31.895555    37.575045 
149876000    288.32489    303.19937    213.35268   -63054.887    63052.903    89.846691    37.556152 
149880000    267.08587    235.83813    318.95707   -63066.379    63090.731    -83.11894    37.548104 
149884000    256.30773    506.04919    162.68189    -63078.32    63126.029    343.36731    37.553054 
149888000    269.03255    300.38061    211.55517   -63130.522    63157.384    88.825438    37.554215 
149892000    272.26079    344.52773    397.97889   -63161.203    63164.664   -53.451152    37.559776 
149896000    285.12991    267.78628    258.57226    -63194.16    63193.998    9.2140222    37.561739 
149900000    303.29865    249.53842    407.83627   -63217.913    63212.598   -158.29785    37.560827 
149904000    295.50225    293.00385    371.38179   -63218.187    63229.406   -78.377933     37.55224 
149908000      270.165    478.16987    294.99425   -63222.298     63265.72    183.17562    37.540807 
149912000    316.28139    397.96872      319.301   -63257.525    63266.408    78.667714    37.541648 
149916000    288.91828    521.09498    251.42193   -63259.578    63277.763    269.67304    37.544004 
149920000    308.32342    332.90793    537.16954   -63287.674    63291.746   -204.26161    37.553854 
149924000     314.2152    480.22216    545.81146   -63325.977     63304.97   -65.589297    37.546684 
149928000    281.18531    203.46814    374.38858   -63352.099    63357.791   -170.92044    37.535375 
149932000    306.11438    323.58941    457.78249    -63374.05    63373.165   -134.19308    37.536767 
149936000    269.50511    459.62563    229.15626   -63371.049    63391.634    230.46937    37.536988 
149940000    285.81962    279.67609    296.53443   -63403.584    63400.475   -16.858344       37.538 
149944000    270.21714    309.32051    408.33645    -63419.47    63435.168   -99.015947    37.526966 
149948000    299.61283     415.2608    493.18915   -63467.035    63454.453   -77.928351    37.532199 
149952000    289.82082    307.55896    212.14931   -63481.991    63476.866    95.409646    37.524672 
149956000    263.31571    280.11516    334.27034   -63499.418    63510.679    -54.15518    37.529372 
149960000     274.2914    391.23597    320.97633   -63535.306    63539.572    70.259638    37.534913 
149964000    282.96584    470.87192    503.85777   -63573.023    63558.582   -32.985845    37.530705 
149968000    333.00786    458.72901    627.42268   -63612.426    63590.067   -168.69367     37.53038 
149972000    277.94803     428.5703    496.85884   -63614.245    63634.192   -68.288541     37.53381 
149976000     290.7818    300.30697    308.94472   -63640.686    63641.766    -8.637748    37.535577 
149980000    298.70271    343.01854    376.25783   -63662.188    63676.369   -33.239287    37.545054 
149984000    281.23708    242.33844    212.17126   -63685.625    63705.122    30.167175    37.541215 
149988000    268.02436    385.02674    281.11473   -63669.681    63691.175    103.91201    37.539863 
149992000    290.38295    421.49894    433.73738    -63691.93    63694.732   -12.238443    37.539744 
149996000    276.17954    280.97195    222.81954   -63707.936    63718.181    58.152417    37.545603 
150000000    279.63316    181.13943    361.74483   -63706.645    63716.986    -180.6054    37.546682 
150004000    284.41688    382.26363    258.69877    -63728.46    63735.547    123.56485     37.56223 
150008000    300.82428    298.73041    289.69781   -63745.913    63735.875    9.0326042    37.549537 
150012000     254.8377    300.54856    295.41434   -63760.073    63788.812    5.1342202    37.538097 
150016000    289.08362    480.47456     254.3481   -63793.031    63792.067    226.12646    37.545892 
150020000    270.72724    256.77433    174.94994   -63791.363    63807.421     81.82439    37.543302 
150024000    278.88399    351.35922    375.64078   -63793.414    63816.151   -24.281559    37.531288 
150028000    238.47173    272.36146    348.75176   -63799.053    63844.744   -76.390302    37.527954 
150032000    267.20248    232.21954    292.79034   -63841.299    63854.527   -60.570803     37.53846 
150036000    301.81662    354.22427    309.35331   -63871.985    63872.611     44.87096    37.529587 
150040000    292.57796    249.42001    223.62267   -63873.565    63883.473    25.797341    37.524475 
150044000    300.54827    267.57294    379.60991    -63905.04    63903.631   -112.03697    37.528064 
150048000    279.91179    436.08533    329.53812   -63925.681    63946.943     106.5472    37.528416 
150052000     274.3781    428.94047      320.896   -63928.846    63942.696    108.04447     37.53491 
150056000    275.22771     280.3806    121.94366   -63910.901    63946.696    158.43694    37.535543 
150060000    272.65798    436.19968    199.81972   -63924.691    63942.549    236.37996    37.535233 
150064000    294.12179    532.96292    306.94927   -63930.495    63942.054    226.01364    37.544014 
150068000    308.77071     567.5534    334.50382   -63946.479     63942.12    233.04958    37.545226 
150072000    278.81645    299.03643     296.9699    -63962.08    63983.199    2.0665317    37.536961 
150076000    296.41118    367.14389    416.56138   -63975.713    63985.254   -49.417493    37.534385 
150080000    292.61612    446.10928    349.19232   -63991.979    63982.027    96.916959    37.539732 
150084000    288.78766    360.65774     157.8849   -64027.578    64023.361    202.77284    37.535655 
150088000     279.3368    277.49478    425.83354   -64036.422    64053.351   -148.33876    37.529506 
150092000    282.63563    249.37335    415.22932   -64040.638    64039.106   -165.85597    37.520193 
150096000    260.15011    384.00216    291.62529   -64065.394    64065.227    92.376861    37.515825 
150100000    268.51221    329.82332    322.96863   -64072.798     64095.33    6.8546919    37.524758 
150104000       276.45    311.00054    288.83343   -64103.295    64115.842    22.167103    37.526846 
150108000     297.6352    391.37478    384.08647   -64132.432    64140.493    7.2883079    37.518686 
150112000     255.4682    272.54077     166.7949   -64151.815     64188.55    105.74587    37.526421 
150116000    259.55629    219.38471     328.8415   -64171.662    64210.991   -109.45679    37.520368 
150120000    258.11748    348.60609    217.53911    -64192.81    64223.056    131.06697    37.520572 
150124000     272.8885    188.63473    257.12561   -64222.294    64243.075   -68.490871    37.515339 
150128000    279.78505    390.95205     225.5059   -64264.187    64277.835    165.44615    37.514913 
150132000    268.66569    348.08507    198.04493   -64264.615    64291.152    150.04015    37.508097 
150136000    295.67484    276.48199    344.94395   -64301.193    64305.099   -68.461957    37.500795 
150140000    277.05768    501.19827    307.34731   -64320.668    64325.512    193.85097    37.500175 
150144000     276.4533    240.08267    210.48239   -64329.296    64349.638    29.600275    37.499701 
150148000    285.78649    436.72881    203.19283   -64347.701    64344.714    233.53598    37.495859 
150152000    286.90148    335.47444    335.45975   -64369.353    64370.134  0.014690846    37.490754 
150156000    277.52189    312.84697    191.84275   -64379.921    64393.629    121.00422    37.489163 
150160000     258.8122      273.552    249.97466   -64382.115    64400.646     23.57734     37.49575 
150164000    268.00025     187.2655    322.45133   -64387.094    64410.101   -135.18583    37.495613 
150168000    254.10382    245.65026    464.18522   -64415.277    64435.354   -218.53496    37.494231 
150172000    292.82665    219.09017    285.47011   -64424.323    64435.598    -66.37994    37.497626 
150176000    267.73818    316.44473    218.63313   -64428.967    64444.534    97.811599    37.490075 
150180000    303.81225     380.1407    320.15787   -64464.848    64458.788    59.982833    37.487962 
150184000     312.9669    270.90262    492.28865   -64492.418    64488.624   -221.38603    37.478061 
150188000    302.28858    443.26956    328.66861   -64532.639    64524.568    114.60095    37.479916 
150192000    303.77963    285.90231     173.7788   -64544.979    64553.592    112.12351    37.477974 
150196000    254.51091    252.92651    391.68374   -64547.953    64578.517   -138.75723    37.474775 
150200000    272.08142    254.20491    280.44145   -64562.962    64593.152   -26.236537    37.461583 
150204000    275.29595    258.56687    308.34237   -64579.151    64591.384     -49.7755    37.456154 
150208000    272.26101     295.0258     315.1398   -64593.522    64601.429   -20.114008    37.452961 
150212000    281.96962    257.55767    338.48151   -64606.182    64634.562    -80.92384    37.446052 
150216000    261.28525    409.87611     295.2108   -64649.765    64678.806    114.66531    37.435679 
150220000     308.8324    450.62413    444.14235   -64688.321    64672.593    6.4817817    37.447677 
150224000    271.99814    246.69696    401.47923   -64683.453    64703.765   -154.78227    37.441987 
150228000    300.52827      475.957    435.58746   -64711.594    64719.776    40.369541    37.444276 
150232000    276.98946    338.12349     222.4991   -64711.625    64722.033     115.6244    37.452113 
150236000    289.60174    425.62569     270.5528   -64719.379    64731.746     155.0729    37.452011 
150240000    279.69771    288.03391    740.13292    -64722.31    64744.146   -452.09901    37.451332 
150244000    279.87203    446.25661    456.18639   -64742.834     64754.11   -9.9297789    37.453329 
150248000    295.76713    303.25223    361.59463   -64774.703    64776.847   -58.342399    37.452053 
150252000    277.39449    288.81739    276.87959    -64791.53    64800.722    11.937795    37.455559 
150256000     281.7063    252.62759    326.11066   -64787.687    64814.637   -73.483077    37.455911 
150260000    276.99014    435.92391    413.47954   -64813.176    64818.119    22.444363      37.4505 
150264000    303.28717    342.68412    235.33363   -64821.258    64818.348    107.35049    37.447339 
150268000    269.20959    159.89396    319.45865   -64823.135    64845.679   -159.56469    37.439591 
150272000     289.8788    550.53514    300.18914    -64826.43    64847.098      250.346    37.428641 
150276000    267.18267     254.6938    182.90656   -64856.999    64870.444    71.787236    37.433798 
150280000    260.58895    317.57985    318.52489   -64879.937    64906.409  -0.94503929    37.447746 
150284000    276.56673    299.83372    245.68261   -64904.359    64919.749    54.151111    37.446012 
150288000    289.89925    296.00365    435.84595   -64938.915    64932.513    -139.8423    37.460777 
150292000    304.19496    376.97498    292.93437   -64955.201    64940.488    84.040607    37.460195 
150296000    266.75477    259.72496    349.99118   -64956.556    64979.949   -90.266224    37.447921 
150300000    263.07605    258.65777    310.10683    -64988.25    65014.866   -51.449067    37.453248 
150304000    256.11961    225.89254    223.77645   -65026.283    65042.011      2.11609    37.455789 
150308000    282.27378    390.01111    217.82638   -65058.288    65065.473    172.18473    37.450743 
150312000    273.90263     196.7284    534.74718   -65075.183    65100.541   -338.01879    37.449289 
150316000    273.32998    364.31655    350.84826   -65089.818    65111.523    13.468289    37.444559 
150320000    254.49037    316.82819    286.50886   -65098.866    65132.172    30.319334    37.435206 
150324000    306.45909    397.76028    344.11297   -65152.364    65152.573    53.647307    37.439328 
150328000    258.60998    244.29572    268.81916   -65164.408    65176.872   -24.523445     37.44159 
150332000    303.05426    480.93618    97.246858   -65203.809    65190.619    383.68932    37.444416 
150336000    255.22824      214.862    169.16829       -65212    65236.239    45.693713    37.447084 
150340000    287.86712    399.24715    168.87457   -65250.016    65251.951    230.37258    37.446836 
150344000    303.67561    303.19915    263.56814   -65265.837     65272.44    39.631017     37.44925 
150348000    262.40229    273.38198    227.49342   -65278.723    65294.189    45.888558    37.443365 
150352000    287.10734    602.09816    237.71906   -65327.939    65313.371     364.3791    37.447223 
150356000    289.71462    262.69109    325.08748   -65314.902    65326.786   -62.396386    37.450884 
150360000    279.49134    278.87673    382.38744   -65342.197    65342.822   -103.51071    37.449375 
150364000    273.33046    307.69078    214.55407   -65368.774    65390.045    93.136715    37.451316 
150368000    290.44848    553.42183      285.443   -65376.749    65395.195    267.97883    37.437472 
150372000    287.24029    501.40321     234.3243   -65419.918    65411.441    267.07891    37.442823 
150376000    274.02981      377.478    314.96798   -65400.859    65425.391    62.510022    37.448447 
150380000    264.29001    400.66115     585.1956   -65433.938    65441.155   -184.53445    37.454401 
150384000    307.36731    323.42379    526.08182    -65469.57    65457.628   -202.65803    37.462227 
150388000    299.61871    400.17123    352.47884   -65503.567     65498.77    47.692388     37.47126 
150392000     283.1356    639.69721    460.31503   -65494.325    65511.573    179.38218    37.473324 
150396000    273.37429    341.71387     331.5513   -65511.637    65513.955    10.162568    37.472418 
150400000    254.83429    294.97503    202.55562   -65528.126    65551.027    92.419409    37.474126 
150404000    299.95392    568.23162    379.62506   -65538.829    65541.165    188.60656    37.475922 
150408000    254.70708      286.747    289.57405    -65542.45    65569.928   -2.8270565     37.48534 
150412000    238.95171    259.49022    398.88734   -65578.564    65619.133   -139.39711    37.490024 
150416000    274.82949    328.97869    221.26797   -65619.338    65634.301    107.71072    37.488238 
150420000    295.21315    502.14747    320.68583   -65652.906    65650.322    181.46164    37.487708 
150424000    307.51195    261.90155    579.54747   -65678.905    65663.687   -317.64592    37.489796 
150428000    307.12633    353.57907    367.92844   -65707.752    65708.131   -14.349365    37.486376 
150432000     278.4544    365.42271    269.02109   -65726.669     65741.95    96.401615    37.472166 
150436000    289.58962    462.73901    317.02735   -65732.497     65733.52    145.71166    37.483492 
150440000    307.08519    363.68877    424.81868   -65742.215    65738.026   -61.129912    37.493622 
150444000      287.852    447.19362    259.44327   -65768.043    65774.918    187.75035    37.500756 
150448000    268.33432    287.36576    460.83316   -65746.968    65770.779    -173.4674    37.494504 
150452000    289.62363    313.21663    324.57588   -65772.018    65784.779   -11.359253    37.493009 
150456000    291.91631    357.89333    405.14332   -65823.507     65816.86   -47.249986     37.49635 
150460000    276.13163    590.83711     265.5401   -65858.983    65871.562    325.29701    37.495854 
150464000    263.28597    359.99899    288.44251   -65849.931    65871.681    71.556473    37.491039 
150468000    292.41609    329.05115    335.99282   -65867.597    65872.818   -6.9416673    37.480362 
150472000    261.37114    287.88929    184.58973   -65871.961    65884.078    103.29956    37.487005 
150476000    290.09807    248.16286    445.54474   -65877.183    65896.229   -197.38187    37.482372 
150480000    287.27569    492.02636    251.50217   -65903.034    65907.484     240.5242    37.483897 
150484000    288.84564    415.26899    215.52359   -65953.756    65941.693     199.7454    37.484553 
150488000    282.08743    521.43878     272.3748   -65943.185    65966.598    249.06398     37.47943 
150492000    305.55862     491.3336    378.72214   -65973.872    65989.309    112.61146    37.481781 
150496000    279.52697    277.90512    147.56489   -65975.133    66003.925    130.34024    37.479893 
150500000    275.39812    424.60967     258.5233   -65992.273     66010.93    166.08637    37.485531 
150504000    286.25023    297.55396    309.80705   -66042.852    66043.241   -12.253093    37.490659 
150508000    296.11804    381.55424     393.5378   -66074.155    66071.951   -11.983554    37.491976 
150512000      274.761    384.68545    297.28417    -66075.69    66100.377     87.40128    37.485815 
150516000    306.57289    544.84907    233.05633   -66100.154     66099.68    311.79274    37.473903 
150520000    263.79765    338.79401    389.00921   -66099.939    66130.858   -50.215206    37.474306 
150524000    291.53401    248.95722    290.56382   -66136.539    66135.649   -41.606596    37.487451 
150528000    275.22381    331.70373    371.78897   -66137.986     66149.68   -40.085236    37.496848 
150532000    304.40969    450.15388    389.43585   -66166.939    66171.414    60.718029    37.504602 
150536000    277.38426    269.83826    289.37189   -66164.963    66178.308   -19.533625    37.498756 
150540000    274.05403    398.52075     622.3731   -66170.547    66203.831   -223.85236    37.496001 
150544000    269.28308      559.375    348.81222   -66201.882    66217.736    210.56278    37.498028 
150548000    300.20449    514.85311    269.86686   -66229.278    66216.793    244.98625    37.489981 
150552000    296.52326    302.86037    502.57429   -66273.761    66250.991   -199.71392    37.487095 
150556000    312.70434    199.56547    357.24487   -66300.518    66291.555   -157.67941    37.485985 
150560000    282.65728    301.25717    311.75761   -66332.392    66338.207    -10.50044    37.479438 
150564000    290.09402    180.12249    308.78938   -66349.737    66361.982    -128.6669    37.486307 
150568000    285.78619    212.21941    216.62706   -66369.149    66380.088   -4.4076523    37.490353 
150572000    274.60965    442.19335    139.65338   -66394.459    66415.083    302.53997     37.49269 
150576000    284.86268    231.80554    193.93681   -66401.076    66414.312    37.868727    37.479615 
150580000    251.40794    216.85703    227.78643       -66432    66457.808   -10.929398    37.482467 
150584000    296.14726    294.30292    426.73417   -66467.973    66461.313   -132.43125    37.475757 
150588000    282.76709    312.25797    389.04957   -66484.774    66494.547   -76.791596    37.473576 
150592000    270.18438    249.58387    382.81884    -66520.06    66550.361   -133.23497    37.466119 
150596000    253.09792    216.55862    240.20048   -66553.676    66566.562   -23.641856    37.466625 
150600000     285.4069    299.71549    402.32409   -66582.959    66579.349    -102.6086    37.472064 
150604000    292.49166    464.91538    302.23512   -66618.622    66626.888    162.68026    37.472474 
150608000    314.31911    502.18193    262.56966   -66636.168    66624.975    239.61226    37.476469 
150612000    274.48282    396.03292    435.88452   -66634.994     66663.79   -39.851603    37.464779 
150616000    262.14416     243.0781    226.36111   -66652.724    66677.596    16.716991    37.451501 
150620000      280.315    337.95967    356.54881   -66683.741    66702.408   -18.589143    37.449457 
150624000    288.90819    362.39001    436.21472   -66710.831    66705.545   -73.824712    37.451148 
150628000    290.77469    268.76542    149.63791   -66732.913    66725.224    119.12751    37.461349 
150632000    277.84389    300.56465     343.1341    -66759.53    66759.824    -42.56945    37.459127 
150636000     276.2666    281.04853    531.47033    -66759.93    66775.815    -250.4218    37.457762 
150640000    262.16528    474.98917    265.26214   -66790.608    66815.108    209.72703    37.463244 
150644000    262.03985    385.73549    178.09417   -66802.227    66822.818    207.64132    37.465117 
150648000    284.17609    323.57593    175.62726   -66848.764    66847.672    147.94866    37.467013 
150652000    315.04426    304.08372    205.73089   -66882.227    66875.119    98.352826    37.461151 
150656000    298.12243    445.92174    336.07058   -66902.529    66888.925    109.85116    37.468493 
150660000    291.24262    269.99834     337.1026   -66893.015    66898.425   -67.104265    37.457531 
150664000    309.01637    266.81511    427.29319   -66899.834    66892.707   -160.47809    37.445796 
150668000    264.49404    387.58372    375.58014    -66914.87    66928.558    12.003576    37.438506 
150672000    288.59679    299.13782    308.40406   -66954.099    66964.626   -9.2662306    37.438691 
150676000    285.85437    481.73385    234.20343   -66976.068    66992.779    247.53042    37.444065 
150680000    284.78208    399.47977    264.60162   -66997.851    66995.934    134.87816    37.442097 
150684000    301.58106    322.85944    374.41509   -67031.371    67016.012   -51.555645    37.437372 
150688000    282.18936    382.13453    341.40369   -67046.132    67045.782    40.730841    37.431831 
150692000    302.05228     434.4135    574.93018       -67074    67054.702   -140.51668      37.4401 
150696000    307.40641    229.86865    245.83668   -67085.473    67089.925   -15.968026    37.450647 
150700000     280.6015    279.38747     351.4626   -67102.344    67104.836   -72.075136    37.444267 
150704000    292.70715     364.4261    319.71149   -67136.386    67136.272    44.714606    37.450576 
150708000     300.4144    462.27752    370.35858   -67164.975    67167.387    91.918935     37.45805 
150712000    271.56395    306.91296    403.22884   -67172.124    67177.356   -96.315884    37.457709 
150716000    290.97905    377.09627    213.31568   -67203.983    67205.657     163.7806    37.475469 
150720000    324.04834    492.75374    408.87424    -67215.87    67200.056    83.879497    37.477494 
150724000    269.79491     266.0969    504.11741   -67201.521    67207.492   -238.02051    37.482177 
150728000    324.96871    434.05616    292.31114   -67214.724    67209.847    141.74502    37.474781 
150732000    257.89992    359.27712    323.72962   -67239.899    67243.789    35.547496    37.480785 
150736000    276.38822    457.66938    310.85485   -67256.364    67282.535    146.81453    37.485655 
150740000    261.79181    249.66437    447.40574   -67274.347    67312.996   -197.74136    37.483583 
150744000    261.77633     491.0709    369.37492   -67298.171    67328.334    121.69598     37.48639 
150748000    285.88576    389.13681    260.67504   -67322.286    67331.427    128.46177    37.490165 
150752000    273.20224    232.73052    380.50187   -67329.883    67347.824   -147.77135    37.484288 
150756000    306.42611    381.88648    230.46713   -67364.649    67364.722    151.41935    37.481483 
150760000    281.32502    339.13799    250.91123   -67350.221     67368.02    88.226752    37.487539 
150764000    282.60525    594.68444    370.25686     -67374.1    67391.192    224.42758    37.489168 
150768000    291.57873    186.86448     423.4787   -67382.557     67390.21   -236.61421    37.474946 
150772000    274.45233    373.62679    366.21802   -67380.523    67404.468    7.4087711    37.467946 
150776000     249.4488    268.23143    390.20749   -67402.296    67435.324   -121.97606    37.470022 
150780000    273.32346    368.89205    457.23327   -67440.422    67461.905   -88.341226    37.470446 
150784000    278.01842    487.81283    372.66965   -67471.226    67472.356    115.14318    37.466094 
150788000    262.88257    328.50591    359.35115   -67466.296    67499.386   -30.845237    37.471178 
150792000    270.74877    416.97291    414.34222   -67474.862    67488.647    2.6306878    37.473268 
150796000    286.28732    395.04248    444.97375   -67503.397    67529.088   -49.931261    37.459877 
150800000    288.02528    543.81312    306.08001   -67557.446    67554.138    237.73311    37.464923 
150804000    302.89136     594.6167    216.29175   -67553.647    67565.032    378.32495    37.477622 
150808000    269.39159    357.82209    339.53333   -67582.757    67601.732     18.28876    37.477137 
150812000    278.19713    426.12582    382.08501   -67595.977    67620.893    44.040817    37.474085 
150816000    301.25725    581.59475    249.99175   -67642.625    67639.595      331.603    37.481606 
150820000    278.23514    301.10195    295.99156   -67637.408    67662.484    5.1103876     37.47712 
150824000     269.6784    226.23901    190.48124   -67659.922     67667.08    35.757771    37.475329 
150828000    285.42636    548.01447    394.71626   -67677.238    67679.246     153.2982    37.468822 
150832000    304.77633    325.27324    238.26529   -67673.697    67681.689    87.007957     37.47706 
150836000    298.54663    453.96547    362.67766   -67717.513    67724.721    91.287817    37.470813 
150840000    306.16737    392.30076    336.54637   -67729.339    67732.528    55.754392    37.465053 
150844000    274.57522    312.99311    349.73575   -67748.272    67755.411   -36.742634    37.472355 
150848000    279.19949    601.76214    281.62121   -67755.615     67777.03    320.14093     37.46825 
150852000    291.02459    457.50538    428.49632   -67779.449    67776.819    29.009057    37.471145 
150856000     293.4504    804.31771    364.16524   -67774.145    67788.896    440.15247    37.469113 
150860000    282.43999    379.55037    330.51344   -67807.704    67820.516    49.036933      37.4649 
150864000    286.76863    390.90932    510.29705   -67844.172    67837.253   -119.38773    37.461299 
150868000    303.74438     281.1435    349.12519   -67869.676    67855.674   -67.981689     37.45293 
150872000    274.26445     260.1024    254.92537   -67860.361    67871.321     5.177031    37.452087 
150876000    252.58133    266.08731    462.97948   -67848.446     67879.73   -196.89217    37.448478 
150880000    287.20145    246.54693     340.4275    -67882.63    67875.901   -93.880571    37.452245 
150884000    245.62584    336.75063    233.47734   -67892.432    67917.304    103.27329     37.46253 
150888000    290.02375    345.03271    322.08651   -67924.945    67930.934    22.946202    37.475526 
150892000    281.46812    355.84914    311.62733   -67949.391    67976.202    44.221813    37.476151 
150896000     253.4989    431.50093    284.95981   -67968.462    68004.225    146.54111    37.482595 
150900000    265.37418    230.99628    305.78206   -68003.286    68023.781   -74.785781    37.486495 
150904000    267.30339    367.34266     216.3437   -68001.974    68031.117    150.99897     37.49224 
150908000    301.93934    381.82277    443.84315   -68050.052    68039.682   -62.020375    37.494167 
150912000    306.26215    313.56472    272.71917   -68065.497    68058.572    40.845548    37.483573 
150916000    285.67678    315.63547     315.5211   -68120.375    68105.487   0.11437255    37.491669 
150920000     278.0402    593.04044    184.34938   -68136.528    68137.944    408.69105    37.487326 
150924000    236.84095    351.59381    292.37009    -68159.51    68189.828    59.223723    37.489952 
150928000    274.78529    393.66484    333.13761   -68171.295    68203.253    60.527232    37.501505 
150932000    279.72928    413.48995    258.00994   -68180.428    68199.341    155.48001    37.505858 
150936000      266.455    454.30386     191.2664   -68220.069    68240.828    263.03746    37.511439 
150940000    297.58555    400.35936    254.39025   -68253.654    68247.891     145.9691     37.50708 
150944000    288.15659    368.97646    324.75332   -68281.017    68274.792    44.223141    37.500608 
150948000    261.22907    262.89293    359.77823   -68273.076    68294.555   -96.885301    37.497836 
150952000    280.39902     348.4346    297.16021   -68290.942    68295.181    51.274385     37.50006 
150956000    286.15454    548.16403    317.96204   -68311.501    68324.139      230.202     37.50377 
150960000    293.53437    229.14554    272.78596   -68318.647     68327.21   -43.640419    37.505554 
150964000    297.20152    518.51679    258.25534   -68342.522    68342.402    260.26145    37.511477 
150968000    251.19168    204.61988    138.77818   -68370.338    68391.409    65.841701    37.520441 
150972000    276.53341    501.31401    247.05596   -68414.214    68428.951    254.25804    37.524778 
150976000    271.59946    389.43541    307.04287   -68443.476    68457.176    82.392549     37.52709 
150980000    292.93845    503.22832     294.2709   -68468.527    68464.257    208.95742    37.524928 
150984000    265.25844    286.33022    416.87531   -68477.331    68492.204   -130.54508    37.526405 
150988000    278.22023    310.86658    253.99181    -68490.76    68497.258    56.874775    37.523761 
150992000    291.46109    260.38801     359.9008   -68522.962    68515.857    -99.51279    37.521433 
150996000    284.27063    353.47565    262.17447   -68536.436    68553.753    91.301181    37.535317 
151000000    280.15763    412.68458    329.90223    -68550.79    68561.788    82.782349    37.534975 
151004000    250.57383    328.86583    323.84264   -68567.405    68583.287    5.0231897    37.534569 
151008000    263.41131    220.17723    199.09903   -68569.775    68589.933    21.078198    37.532876 
151012000    265.94596    267.55454    212.35999   -68601.172    68617.721    55.194548    37.522744 
151016000    283.10413    321.76391    485.83268   -68602.168    68623.184   -164.06877     37.52381 
151020000    279.72766    649.75923    245.19361   -68633.771    68651.143    404.56562    37.530195 
151024000    273.65505    262.34414     194.1186   -68631.536    68663.811     68.22554    37.533929 
151028000    270.97927    328.33472    404.32835   -68641.708    68641.606   -75.993626    37.530703 
151032000    294.90012    282.45383    316.93469   -68659.834    68659.414   -34.480862    37.526054 
151036000    266.50649    334.06147    280.25366    -68682.19     68697.49    53.807816    37.513531 
151040000    295.38551    435.04868    301.97785   -68718.822    68705.925    133.07083    37.522204 
151044000    259.60159     186.8988    300.58137   -68716.679    68739.683   -113.68257    37.513943 
151048000    293.77621    313.72666    311.39209   -68765.484    68763.572    2.3345687    37.521872 
151052000    285.99226    349.72535    429.84588   -68771.347    68783.721   -80.120531    37.516707 
151056000    288.72391    386.27488     287.9881   -68769.608     68783.44    98.286777     37.51317 
151060000    286.73651    305.86367    393.66843    -68779.41    68791.798   -87.804758     37.51075 
151064000    268.20356    350.78621    199.57804   -68782.424    68816.812    151.20817    37.508678 
151068000    297.99649    389.71741    403.31029   -68793.207    68814.801   -13.592886    37.505535 
151072000    283.16808    228.76165    371.89635   -68810.259        68821   -143.13469    37.505494 
151076000    263.24974    226.18486    222.18736   -68826.872     68850.48    3.9975079    37.508676 
151080000    263.44539    416.37862    437.51406   -68849.623    68870.679   -21.135437    37.505272 
151084000    266.67104     438.9709    323.72692    -68863.72    68895.938    115.24398    37.505461 
151088000    290.43819    439.43359    313.45681   -68885.589    68897.077    125.97678    37.510401 
151092000    277.34783    463.12895    307.25888   -68883.994     68904.96    155.87007    37.520241 
151096000    272.47474    358.49866    367.31611   -68902.937    68912.369   -8.8174529    37.511168 
151100000    267.74179    260.79943    198.19227   -68937.018    68960.074     62.60716    37.518029 
151104000    294.95828    404.65826    447.04064   -68950.162    68969.471   -42.382383    37.526193 
151108000    276.68924    305.41255    238.50432   -68968.669    68978.901    66.908229    37.522006 
151112000    271.78249    369.35095     361.4571   -68979.754    69002.439    7.8938516    37.514705 
151116000    270.77391    323.69483    382.00566   -69018.999    69038.738   -58.310839    37.518795 
151120000    268.78134    308.13327    476.10541   -69032.885     69058.66   -167.97214    37.516118 
151124000    267.41092    230.80643    285.68192   -69050.622    69080.907   -54.875494    37.508552 
151128000    279.16542    546.04569     227.3495   -69092.568     69098.17    318.69619    37.504231 
151132000    274.94182    500.23782    365.62657    -69108.32    69115.743    134.61125    37.504956 
151136000    294.71663    361.46388    299.33496   -69152.271    69141.094    62.128916    37.514062 
151140000    306.92486    380.71356    284.42517   -69160.605      69159.1     96.28839    37.509278 
151144000     278.1438    409.86203    238.35781   -69199.792    69209.092    171.50421    37.501672 
151148000    288.43898    332.17462    345.36147    -69205.89    69213.903   -13.186859    37.500614 
151152000    257.94217    371.17593    241.15405   -69203.023    69225.628    130.02188    37.503018 
151156000    247.18386    252.65652    124.62365   -69222.916    69241.352    128.03287    37.503841 
151160000     315.9749    493.52866    412.24937   -69269.192    69248.161    81.279292    37.499852 
151164000    295.04125    317.76774    296.86003   -69277.962    69289.408    20.907705    37.506535 
151168000     279.2416    514.63422    313.35168   -69295.446    69306.103    201.28254    37.502603 
151172000    295.33767    254.04107    428.73585   -69304.677    69310.715   -174.69478    37.505316 
151176000    284.80056    289.27753    187.76093   -69331.517    69335.348     101.5166    37.499472 
151180000    253.73087     343.1238    396.33013   -69348.132    69357.642   -53.206339    37.505048 
151184000     258.4458    359.97736    290.43475   -69366.143    69394.433    69.542618    37.500703 
151188000    275.37766    431.37029    344.89711   -69395.773    69392.318    86.473183    37.505985 
151192000    290.39878    542.54404    210.14021   -69397.415     69401.18    332.40383    37.510806 
151196000    317.20854    262.95907    284.68168   -69410.011     69412.37   -21.722611    37.510181 
151200000    265.79376    231.05223    376.77374   -69401.918    69422.112   -145.72151    37.502588 
151204000     274.6929    369.84002    236.08204   -69453.908    69456.459    133.75798    37.504889 
151208000    305.45534    441.56939    444.41941   -69485.026     69485.07   -2.8500206    37.496449 
151212000     288.4391    290.48856    322.68126   -69505.846    69520.828   -32.192703    37.488485 
151216000    277.82917    273.13014    238.60002   -69536.308    69561.056    34.530119    37.483134 
151220000    256.43194    493.15593    393.07744   -69569.613    69591.665    100.07849    37.476768 
151224000    295.31663     432.4793    414.53833   -69585.066    69588.133    17.940975    37.471673 
151228000    267.98983    423.84569    355.28325   -69581.027     69588.61    68.562447    37.459972 
151232000    295.80299    517.05006    359.97422   -69586.951    69582.313    157.07583     37.45453 
151236000    296.09966     304.7778    226.32938   -69590.028    69605.808    78.448422    37.458903 
151240000    272.71604    383.44074    216.42851   -69604.692    69622.927    167.01223    37.447616 
151244000    272.11044    342.91688    373.99942   -69629.379    69646.348   -31.082539    37.452693 
151248000    281.89515    319.94565    327.43334   -69640.684    69645.053   -7.4876964    37.443312 
151252000    295.62781     481.2691    372.58048   -69659.621    69682.319    108.68863    37.433027 
151256000    302.11308    455.42609     223.1342   -69690.369    69683.177    232.29189    37.430911 
151260000    287.17613    420.69853    339.02149   -69703.333    69708.946    81.677039    37.424147 
151264000      257.544    637.46326    307.13721   -69709.045    69736.614    330.32605    37.429081 
151268000    301.95882    438.52036    254.34859   -69735.048     69738.45    184.17176    37.433445 
151272000    282.80485    296.23936    455.00756   -69755.523    69767.174    -158.7682    37.431851 
151276000    266.37173     534.6829    327.00901   -69758.759     69783.44    207.67389    37.438003 
151280000    280.87724    308.88942    382.68908   -69807.298    69806.903   -73.799656    37.438784 
151284000    263.50556     417.8168    246.68708   -69812.259    69841.535    171.12972    37.444149 
151288000    276.18158     281.5126    366.95234   -69840.866    69843.322   -85.439731    37.443349 
151292000    295.27924    348.85134    206.73408   -69842.825    69845.514    142.11726    37.445169 
151296000     281.6717    559.79064    379.00671   -69874.582     69867.52    180.78393    37.447952 
151300000    264.33571    286.69139    585.71647   -69842.608    69892.786   -299.02508     37.44191 
151304000     327.5572    359.83393    554.66057   -69910.951    69899.453   -194.82663    37.439487 
151308000    278.12679    261.43953    307.38265   -69930.995    69950.873    -45.94312    37.448633 
151312000    289.52989    285.82304    408.03375   -69945.429    69974.789   -122.21071    37.441575 
151316000     278.7154    331.49274    187.63901   -69987.557    70001.836    143.85373    37.440125 
151320000    290.71299    373.48286    215.10454   -70015.105    70016.943    158.37832    37.438603 
151324000    296.78351    278.21524    406.14914   -70020.428    70025.023    -127.9339    37.437964 
151328000    280.61615    380.80286    351.80316   -70036.395    70060.653    28.999701    37.447377 
151332000    265.32081    231.41267    278.71727   -70057.175    70070.965   -47.304605    37.447701 
151336000    281.75252     403.0575    351.01212   -70078.339    70103.089    52.045378    37.451864 
151340000    276.77018    327.32788     377.5368   -70097.182    70108.236    -50.20892    37.450174 
151344000    291.15615    422.97734    604.77826   -70123.347    70142.522   -181.80092    37.447457 
151348000    284.41374    382.90089    342.50729    -70139.01    70149.159      40.3936    37.430643 
151352000    275.56257    315.83944    431.66848   -70126.094    70161.323   -115.82905    37.427789 
151356000    269.43618    546.94606    174.85135   -70149.687    70172.777    372.09472    37.443368 
151360000    288.39812     267.6765    312.28298   -70182.982    70207.556   -44.606478    37.440654 
151364000     298.5477    297.01796    385.39784   -70200.125    70209.663   -88.379879    37.442732 
151368000    277.88696    344.34468    326.70184    -70218.12    70237.526    17.642846    37.441833 
151372000    282.07968    312.05349    323.87536   -70240.465    70256.452   -11.821867    37.436344 
151376000    275.28906    418.90392    339.69726    -70257.99    70277.821    79.206652    37.434569 
151380000    283.88527    359.07189    180.44179     -70278.7    70282.849     178.6301    37.444874 
151384000    303.86855     504.1708    466.39474    -70306.19    70301.787    37.776058    37.441638 
151388000    271.25633    349.63255     385.1368     -70294.7    70316.615   -35.504245    37.436014 
151392000    247.86847    407.27436    213.50905   -70319.746    70348.976    193.76531     37.43301 
151396000    288.20881    453.70614    436.95058   -70336.081    70352.299    16.755561     37.43366 
151400000    261.31106     448.9816    306.00842    -70350.88     70390.35    142.97319    37.429205 
151404000    296.61326    507.33918    477.59032   -70403.867    70407.256    29.748864    37.430701 
151408000    268.38134    354.69917    336.29628   -70416.811    70433.389    18.402886    37.415795 
151412000    303.82002    513.82099    341.36543   -70467.297    70451.492    172.45557    37.416278 
151416000    272.92444    236.20718    217.88907   -70474.349    70489.077    18.318113    37.422341 
151420000    264.76199     321.7012    196.35122   -70497.217    70518.484    125.34998    37.425417 
151424000    292.63978    379.35316    505.16473   -70524.421    70522.066   -125.81157    37.424344 
151428000     290.1648    327.62948    307.24203   -70553.317    70557.535    20.387449    37.426278 
151432000      296.774    372.69556    378.11305   -70567.138    70590.117     -5.41749    37.425621 
151436000    261.31059    426.32865    255.52256   -70590.794    70618.202    170.80609    37.432421 
151440000    288.55691    461.55723    353.97383   -70611.581    70613.784     107.5834    37.429795 
151444000     280.3345    235.48111    229.88388   -70617.818    70635.166    5.5972321      37.4249 
151448000    297.56394    302.28677    250.12115   -70660.271    70646.222    52.165622    37.417852 
151452000    267.62213    390.22188    216.52279   -70647.962    70666.642    173.69909     37.41815 
151456000    309.74495    320.05459    388.65753   -70648.042    70656.019   -68.602946    37.415202 
151460000    269.38385    357.91378    298.98436   -70639.345    70641.175    58.929416    37.417421 
151464000    289.75461    524.88955    367.62271   -70672.741    70664.706    157.26684    37.421086 
151468000    304.10632    265.53812    572.20587   -70700.995    70703.852   -306.66775    37.423365 
151472000    268.03154    406.98974    358.79577   -70699.869    70735.588    48.193971    37.428034 
151476000    276.25097    255.86239    340.99242   -70722.319    70749.906   -85.130034    37.428917 
151480000    280.96527     327.6627    303.45278    -70729.54    70742.619    24.209914    37.436504 
151484000    289.53924    369.65188    363.41462   -70740.883    70736.996    6.2372624     37.42963 
151488000    278.60019    541.78015    375.67165   -70752.438    70765.662     166.1085    37.431011 
151492000    298.85445    329.40771    251.98989   -70778.104    70791.864    77.417815    37.425883 
151496000     281.1798    264.52968    437.65036   -70803.799    70822.367   -173.12068    37.418745 
151500000    265.17229    415.37192    301.56516   -70818.199    70838.879    113.80676    37.428178 
151504000    284.49198    214.89106    413.42347    -70806.56    70831.256   -198.53241    37.431201 
151508000    261.85466    449.47913    217.02111    -70821.27    70854.229    232.45802    37.430881 
151512000    314.04897    391.80334    376.81491   -70847.086    70836.223     14.98843    37.428798 
151516000     293.0286    452.18773    270.34189   -70877.037    70890.754    181.84583    37.429989 
151520000     316.5632    666.98614    324.67916   -70885.115    70866.703    342.30699    37.431766 
151524000    296.01586    268.05422    328.87959   -70868.869      70879.9   -60.825376    37.429342 
151528000    275.06068    490.30895    310.27033   -70873.087    70900.787    180.03861     37.43183 
151532000    288.15548    487.35334    287.82249   -70904.109    70910.699    199.53085    37.433957 
151536000    299.29579     348.3704    277.70956   -70942.322     70932.36    70.660847    37.428762 
151540000    290.65971     230.8632    204.35203   -70953.312    70963.793    26.511173    37.426362 
151544000     296.3446    408.00423    413.74539   -70975.672    70973.563   -5.7411601    37.428605 
151548000    259.81397    384.59321    190.20111   -70974.885    71013.249     194.3921    37.427373 
151552000    284.83782    370.16024    388.19159   -71001.605    71018.032   -18.031345    37.427606 
151556000    300.36695    531.38019    222.60423   -71022.917     71046.51    308.77596    37.428185 
151560000    290.49409    257.94505    444.11048   -71021.911    71033.224   -186.16543    37.428451 
151564000    310.45384    444.31177    333.40016   -71073.982    71085.353    110.91161    37.432353 
151568000    305.35802    247.06273    370.07585   -71107.233     71110.51   -123.01312    37.433988 
151572000    273.41847    325.14517    227.17762   -71129.022    71123.342     97.96755    37.430366 
151576000    260.44988    369.45605      339.636   -71121.992    71156.017     29.82005    37.429686 
151580000    283.44737    382.66423    229.04996   -71149.672    71176.855    153.61427    37.424416 
151584000    305.88585    287.75538     461.5848    -71196.57    71182.852   -173.82942    37.420294 
151588000    274.30154    414.86516    232.84541   -71212.234    71227.336    182.01975    37.423481 
151592000    265.42395    374.72318    371.33617   -71249.134    71260.925    3.3870096    37.428199 
151596000    304.16075    540.48932    259.61386    -71278.86    71275.253    280.87547     37.42646 
151600000    291.49151    328.26018    236.51968   -71282.472    71298.243    91.740492    37.422455 
151604000    288.37345    284.58698    227.01943   -71289.625    71303.804    57.567549    37.413572 
151608000    252.07912    287.51705    478.62142    -71296.62    71319.964   -191.10436    37.405658 
151612000    306.18375    267.56997    209.12424   -71330.175    71341.917    58.445733    37.409265 
151616000    304.22262    309.79174    327.36244   -71357.887    71354.808   -17.570704    37.404763 
151620000    282.15755     427.2292    286.37041   -71356.305    71379.863    140.85879    37.407847 
151624000    272.13765    460.72082    280.57917   -71347.322    71369.033    180.14165    37.413648 
151628000    290.99665    466.99377    518.88059   -71355.447    71355.521   -51.886819    37.412059 
151632000    245.64777    376.21212    329.27623   -71372.006    71400.225    46.935883    37.405366 
151636000     277.5375    335.22434    229.51184   -71403.593     71415.18     105.7125    37.410964 
151640000    283.85473    530.59405    489.24959   -71422.698    71422.624    41.344454    37.405082 
151644000    288.35964    625.41338    392.16652   -71428.159      71434.2    233.24687    37.408354 
151648000    304.78281    463.64032    301.80799   -71454.895    71456.161    161.83233    37.413982 
151652000    277.07999    244.85619    333.32658   -71457.398    71487.225   -88.470392    37.415338 
151656000    270.52482    277.41112    454.25551   -71473.352    71490.573   -176.84439    37.421993 
151660000    287.75161     514.5279    348.29519   -71521.289    71510.838    166.23272    37.429121 
151664000    285.99727    286.76862    271.69687   -71517.203     71537.86    15.071745    37.429342 
151668000    293.97247    408.29234    208.21153   -71552.173    71550.358    200.08081    37.427259 
151672000    263.05541    311.24184    302.05025   -71550.162    71562.819    9.1915862    37.429543 
151676000    263.53925     218.8823    181.31527   -71563.048    71591.976    37.567032    37.428111 
151680000      292.446    286.44662    307.95611   -71583.214    71591.959   -21.509493    37.419981 
151684000     308.1921    719.88292    321.12307   -71597.619      71610.1    398.75984     37.42339 
151688000    287.25079      357.427    366.43258   -71615.725    71634.191   -9.0055859    37.411918 
151692000    290.39434    482.17534    234.49264   -71628.347    71644.365    247.68271    37.416495 
151696000    277.67814    377.30877     292.4135   -71647.172    71675.846    84.895272    37.418729 
151700000    287.35995    398.37481    280.44365   -71696.807    71704.071    117.93116    37.420716 
151704000    252.77343      552.159    191.28913   -71709.212    71731.345    360.86987    37.419837 
151708000    253.59464    273.50737    373.87163   -71708.125    71737.684   -100.36427    37.418039 
151712000    267.00835    323.83855    274.26269   -71748.894    71770.625    49.575862     37.41807 
151716000    274.25556    284.74611    241.79369   -71754.565    71778.806    42.952424    37.412011 
151720000    287.93705    264.80931    333.65415   -71780.802    71788.948   -68.844838    37.413235 
151724000    285.62928    326.16348    362.16495   -71824.964    71825.968   -36.001464    37.410885 
151728000    284.72963    387.80443     274.0239   -71837.529    71825.631    113.78053    37.420574 
151732000    259.11362    287.63733    393.94818   -71837.283    71859.757   -106.31086    37.421092 
151736000    290.26303    555.24448     231.0736   -71867.615    71865.317    324.17089    37.427401 
151740000    292.47638    263.11345    521.36991   -71861.716     71887.08   -258.25646    37.414028 
151744000    290.73026    464.29252    317.74378   -71913.536    71914.012    146.54873    37.406861 
151748000    292.94967    356.05663    563.01282   -71923.773    71916.317   -206.95618    37.403683 
151752000    310.02174    366.89883    343.86345   -71935.333    71942.762    23.035383     37.40997 
151756000    297.43676    335.23217      385.814   -71956.412    71955.133   -50.581823    37.409974 
151760000    306.46658    249.93912     300.7037   -71971.775    71973.314   -50.764578    37.415238 
151764000    261.97787    306.46152    81.035946   -71994.576    72010.221    225.42558    37.409761 
151768000    294.07068    464.52705     187.5461   -72020.453    72029.691    276.98095    37.415289 
151772000    268.68339    309.42365    408.71116   -72013.572    72024.621   -99.287506    37.405455 
151776000    297.16507    340.28624    172.74516   -72029.789    72031.794    167.54108    37.402572 
151780000    278.81743    136.24211    315.15636   -72042.903    72067.985   -178.91426    37.410371 
151784000    273.50811     478.5201    535.74425   -72072.181    72066.678   -57.224148    37.411844 
151788000    243.48811    245.42569    271.73493   -72078.205    72109.111   -26.309235    37.399493 
151792000      269.994    448.40759    303.22746   -72124.621    72128.564    145.18013    37.401633 
151796000    271.43428     150.6976    218.78735   -72134.894    72153.336   -68.089749    37.403376 
151800000    267.92767     374.2628    397.11071   -72170.195    72184.267    -22.84791    37.403763 
151804000    275.12493    395.64307    267.11237   -72189.193    72207.735     128.5307    37.415624 
151808000    291.69457    358.63047    232.19983   -72243.669    72247.152    126.43064    37.410437 
151812000    297.43051    328.89529    370.10644   -72258.656     72268.63   -41.211151    37.408737 
151816000    301.26273     404.5459    346.15733    -72293.66    72296.052    58.388573    37.410703 
151820000     302.2946     401.7319    412.03653   -72313.403    72328.109   -10.304625    37.412619 
151824000    298.05844    276.58072    343.73135   -72326.656    72322.593   -67.150633    37.415462 
151828000    266.84943    262.60049    314.15602   -72330.129    72362.415   -51.555526    37.411191 
151832000    271.28063    266.07877    245.15935   -72366.746     72384.58    20.919419    37.409509 
151836000    287.49811    487.62114    183.38054   -72375.122    72389.484    304.24061    37.415182 
151840000    282.06393     419.3656    476.32205   -72394.326    72398.308   -56.956447    37.425673 
151844000    281.22236    533.80772    251.92878   -72400.103    72407.574    281.87893    37.429841 
151848000    280.41804    407.34714    135.09422    -72430.71    72432.665    272.25292    37.437402 
151852000    286.91039    298.90055    348.20284   -72446.084    72438.021   -49.302291    37.435506 
151856000    285.25185    454.73086    336.14593   -72468.495    72481.586    118.58493    37.432902 
151860000    276.00156    434.33209    305.72638   -72493.528    72506.602    128.60572    37.424588 
151864000    297.79345    480.37568    292.69319    -72498.24    72504.574    187.68249    37.414202 
151868000    296.85185    303.28076    393.38615   -72511.525    72511.102   -90.105383     37.41725 
151872000    255.68208    155.62167    299.82315   -72532.785    72530.458   -144.20147    37.414343 
151876000    267.54903    402.22216     152.2782    -72542.88    72566.858    249.94396     37.42451 
151880000    247.07133    396.37215    324.79669   -72530.677    72569.547     71.57546    37.427289 
151884000    313.06477    260.78191    373.94647   -72587.377    72576.114   -113.16456     37.42531 
151888000     287.9531    607.32253    221.06785   -72592.034    72613.259    386.25469    37.435949 
151892000    263.73535    284.47487    447.15385   -72609.698    72624.131   -162.67898    37.432761 
151896000    259.00576    325.45075    249.42037   -72618.704    72638.169    76.030376    37.437258 
151900000     285.1946    441.71744    323.76726   -72629.013    72623.821    117.95017    37.425547 
151904000    255.12865    160.88011    383.24076   -72630.728     72664.91   -222.36064    37.426684 
151908000    287.88396    408.34827    271.90099   -72674.736    72692.657    136.44728    37.434248 
151912000    273.29449    449.78105    235.16336   -72699.796     72712.26    214.61769    37.427717 
151916000     299.3805    408.00537    369.07595   -72731.293    72727.665    38.929417    37.432038 
151920000    300.52117    377.99689    362.65947    -72744.96    72741.312    15.337419    37.432802 
151924000    301.27108    384.72224    378.41249   -72750.418    72758.637    6.3097592    37.426292 
151928000     291.2123    328.08857    447.38845   -72747.979    72760.615   -119.29988    37.423107 
151932000    296.50742    371.04557    226.81731   -72803.539    72799.487    144.22827    37.430707 
151936000    278.32982    409.87228    323.09707   -72807.508    72825.587    86.775215    37.421342 
151940000     281.1074    223.33314    266.78572   -72816.593    72836.881   -43.452582    37.414291 
151944000    282.59976    232.95131    440.40234   -72832.243    72844.635   -207.45104    37.415565 
151948000    284.99213    407.71456    350.93611   -72857.275    72863.649    56.778451    37.421629 
151952000    265.09092    232.92381    233.97441   -72855.332    72877.184   -1.0505986    37.423299 
151956000    274.37472    255.19842     219.6329   -72902.528     72917.32    35.565515    37.424496 
151960000    285.55432    320.13866    534.65589   -72910.315    72932.849   -214.51723    37.433382 
151964000    292.64268    176.14049    608.66303   -72961.913    72967.238   -432.52254    37.436931 
151968000    293.61851     522.6788    246.51401   -72983.733    72983.702    276.16478    37.443103 
151972000    287.52466    652.72039    290.79056   -73007.393    73020.561    361.92982    37.449273 
151976000    292.15502    375.65916    287.17751   -73027.456    73049.968    88.481652    37.448101 
151980000    307.27515     438.3212    333.56438   -73069.274    73075.747    104.75682    37.446356 
151984000    289.92116    358.83088    378.55747   -73095.163    73101.499   -19.726589    37.448112 
151988000    309.07605    334.75963    239.05911   -73098.646    73096.485    95.700522    37.447067 
151992000    260.39139    201.46244     204.3878   -73107.952    73125.567   -2.9253647    37.437209 
151996000    287.90316    440.85577    426.02815   -73126.999    73138.316     14.82762     37.43804 
152000000    285.81775    319.31032    263.79907   -73157.416    73165.502    55.511253    37.443479 
152004000    262.39678    377.82077    360.12192   -73168.603    73178.024    17.698842    37.448616 
152008000    272.88525    335.61966    413.71443   -73173.096    73197.475   -78.094768    37.443382 
152012000     296.0049    467.21429    343.69798   -73206.955     73207.19    123.51632    37.446098 
152016000    300.17907    417.53306    383.49691   -73226.539     73220.42    34.036151    37.443087 
152020000    278.96366    350.41251    302.88742   -73246.552    73260.293    47.525092    37.448287 
152024000    287.58865    282.36013    449.58572   -73271.562    73276.849   -167.22559    37.443873 
152028000    290.91417    288.08338    247.97982   -73285.004    73291.441    40.103559    37.449279 
152032000    258.18641    300.03844     143.4032   -73289.705    73314.316    156.63524    37.446873 
152036000    258.44254    342.54443    178.38691   -73311.284    73351.577    164.15752    37.449043 
152040000    280.14753    299.60529    352.87925   -73330.587    73347.639   -53.273963    37.440993 
152044000    273.18423    263.66695    427.06316   -73360.563    73372.555   -163.39621    37.438977 
152048000    280.11089    360.64369     435.0254   -73379.903    73389.547   -74.381711    37.430038 
152052000    289.52088    399.00794     257.4428   -73402.151    73404.618    141.56514    37.430193 
152056000     269.9503    189.77204    461.90762   -73406.759    73429.544   -272.13558    37.426347 
152060000    305.43335    242.80216     330.1332   -73440.257    73434.705   -87.331047    37.436028 
152064000    272.94295    340.31954    379.71841   -73438.235    73441.645   -39.398871     37.43996 
152068000    281.71427    226.57472    271.52022    -73453.94    73461.755     -44.9455     37.43531 
152072000    265.53993    278.35465    328.53636    -73474.64    73485.722    -50.18171    37.432512 
152076000    283.73951    498.49303    218.90543   -73476.084    73500.288     279.5876    37.441317 
152080000     291.0596    339.05968    433.82603   -73513.128    73522.801   -94.766344    37.452133 
152084000    274.05028    552.52273    257.43072   -73537.585    73550.491    295.09202    37.442728 
152088000    304.05965    514.13013    505.15211   -73545.172    73548.682    8.9780212    37.453335 
152092000    261.55653    222.87238    468.55486   -73569.977    73588.912   -245.68248    37.455706 
152096000    267.77231    234.24819    345.98197   -73582.808    73621.503   -111.73378    37.455539 
152100000    297.53406    441.68873    428.97412   -73618.519    73621.654    12.714609    37.451329 
152104000    278.43979    195.16859    422.86541   -73637.544    73650.352   -227.69682    37.448865 
152108000    256.12143    440.22295    346.94854   -73666.266    73687.149    93.274408     37.44086 
152112000    299.06113    283.34742     318.2013    -73721.28    73716.951   -34.853885    37.446881 
152116000    309.31645     525.0998    213.61092   -73768.488    73759.656    311.48888    37.458857 
152120000    254.93802    281.77438    155.56754   -73764.955    73793.361    126.20683    37.452455 
152124000     292.4709    361.56093    250.63903   -73790.095     73808.82    110.92189    37.458135 
152128000    273.49816     322.5197    406.75647   -73813.632    73830.528   -84.236768    37.463935 
152132000       294.43    391.20428    301.94231   -73852.343    73851.981    89.261964    37.464921 
152136000    271.48139    334.94563    272.05537   -73870.321    73884.945    62.890261    37.471369 
152140000    290.04447    213.46016    277.79308   -73894.937    73888.454    -64.33292    37.483085 
152144000    284.11409    323.99929    405.95876   -73914.391    73913.406   -81.959472     37.48315 
152148000    279.36593    431.02376    240.12764   -73917.819    73929.389    190.89612    37.486957 
152152000    303.95106    460.21318    312.82152   -73938.529    73943.342    147.39166    37.491239 
152156000    265.12172    326.46035    278.64378   -73936.447    73952.289    47.816567     37.49192 
152160000    280.46673    298.25081    395.81026   -73959.492    73988.698   -97.559452    37.485323 
152164000    284.57359    231.75867     236.9917   -73983.217    74004.536   -5.2330326    37.494414 
152168000    301.86197    368.00812    310.60631   -74040.873    74053.023    57.401812    37.497547 
152172000    294.94974    189.21086    315.81474    -74069.69    74065.797   -126.60388    37.494821 
152176000    296.64421    357.75205    329.64333   -74118.891    74126.858    28.108725    37.503525 
152180000     296.6625    369.66068    198.22548   -74134.064    74130.447     171.4352    37.501778 
152184000    271.19196    350.49275    478.96395   -74148.997    74179.179    -128.4712    37.500549 
152188000    278.49763    284.00123    350.23674   -74162.885    74177.578   -66.235513    37.488032 
152192000    295.58577    322.62042    207.36904   -74183.738    74178.312    115.25138    37.486197 
152196000    266.65213    551.77463    347.89341   -74210.869    74222.781    203.88123     37.47808 
152200000     261.4423    425.46063    460.89049   -74215.164    74251.311   -35.429866    37.479891 
152204000     248.6664    285.48522    252.36396   -74224.855    74255.471    33.121262    37.473964 
152208000     258.9443    381.13661    279.74166   -74256.666    74274.124    101.39495    37.472101 
152212000    301.99655    310.62722    242.24368   -74280.913    74292.887    68.383537    37.474246 
152216000    257.81269    351.03161    259.12169    -74294.23    74308.855    91.909924    37.475898 
152220000    290.89858    479.92472    420.48181   -74332.837    74349.599    59.442916    37.469756 
152224000    298.13244    673.25187     372.9824   -74380.458    74382.739    300.26947    37.469355 
152228000    326.03489    396.16618    278.93963   -74425.737    74410.466    117.22656    37.468917 
152232000    295.74724    251.00869    316.93263   -74455.032    74452.396   -65.923939     37.46187 
152236000    306.63973    307.82273     444.0049   -74459.826    74467.052   -136.18218    37.446122 
152240000    283.59395    312.49109    369.14738   -74465.529    74471.522   -56.656295    37.441948 
152244000    298.22616    349.62847    351.62446   -74497.117    74493.657   -1.9959879    37.433286 
152248000    326.75568     379.9372    272.73326   -74484.685    74478.388    107.20394    37.433104 
152252000    313.20715     308.7397    319.57214   -74513.922    74512.179   -10.832438    37.439366 
152256000    316.31569    393.17588    444.86228   -74547.999    74520.118   -51.686397    37.435292 
152260000    276.99944    443.27391     277.8133   -74532.454    74555.971    165.46061    37.434998 
152264000    274.98229    459.91742    286.68153   -74532.832    74556.252    173.23589    37.433402 
152268000    287.06237    410.28278     322.3991   -74570.589    74582.306    87.883685    37.430604 
152272000    282.36088    255.62647    495.36528   -74568.306    74587.587   -239.73881     37.44085 
152276000    278.95541    360.66414     332.5793   -74597.875    74607.654    28.084835    37.443621 
152280000    307.96355    451.27059    408.07392   -74639.074    74640.611    43.196666    37.444868 
152284000    285.31736    234.71251       255.43   -74647.676    74663.193   -20.717494    37.442929 
152288000    271.52879    304.66749    161.70283   -74675.185    74683.222    142.96466    37.434275 
152292000    294.33014    290.58891    214.81058   -74700.501    74698.461    75.778338    37.434795 
152296000    273.99535    295.53453    187.79712     -74710.3    74741.693    107.73742    37.431602 
152300000    296.15542    247.25096    227.55904   -74745.677    74763.233    19.691915    37.426108 
152304000    264.23413    350.87628    290.30129   -74745.233    74766.623    60.574993    37.427466 
152308000    259.31816    265.24991    266.63053   -74747.056     74778.82   -1.3806223    37.431345 
152312000    254.81062    228.27012     197.2386   -74754.069    74793.606     31.03152    37.423879 
152316000    280.48445    351.14007    480.19571    -74797.66    74806.414   -129.05563    37.422171 
152320000    282.32561    358.39062    354.68273   -74819.836    74831.377    3.7078928    37.421249 
152324000    254.45925    344.38009    233.09552   -74815.076    74842.341    111.28457    37.432262 
152328000    286.73975    354.68587    288.56682    -74854.28    74852.949    66.119052    37.427563 
152332000    270.23931    357.01221    249.06691   -74861.591    74881.953     107.9453    37.430766 
152336000    291.34782    189.81281    390.08372   -74882.604    74896.633   -200.27091    37.436801 
152340000    266.29487    476.77456    333.05699   -74895.282    74918.178    143.71757    37.446473 
152344000    294.70348    500.18046    439.59902   -74915.796     74929.61    60.581437    37.446466 
152348000    274.02061    482.67031    284.57046    -74950.41    74961.279    198.09984    37.454519 
152352000    281.52308    385.23283    356.32351   -74968.544    74976.517     28.90932      37.4521 
152356000    282.19565    505.41727    276.26124   -74987.463    75012.505    229.15603    37.458485 
152360000    267.60772    268.16057    440.39375   -75006.979    75030.217   -172.23317    37.464516 
152364000    265.82133    338.61667    224.28661   -75009.173    75053.997    114.33005    37.457225 
152368000     287.1287    510.22965    399.76284   -75051.908    75061.494     110.4668    37.451233 
152372000    307.33229    391.68185    235.63404   -75067.927     75065.71    156.04782    37.451789 
152376000    296.05389    389.09274     235.7729   -75061.093    75082.249    153.31984    37.448613 
152380000    255.05507    303.90263    375.43397   -75080.015    75111.077   -71.531346    37.444598 
152384000    283.53178    389.14547    264.21314   -75140.633    75153.731    124.93233    37.444048 
152388000    271.50331    369.39558    384.28065   -75161.475    75161.431   -14.885069    37.441723 
152392000    302.03273    217.38609    325.11781   -75194.609    75190.559   -107.73173    37.444224 
152396000    296.30642    546.19216    447.91527   -75206.373     75218.57    98.276885    37.453033 
152400000    293.49572    337.97011    414.90834   -75224.153     75251.42   -76.938227    37.452446 
152404000    300.42477    244.87258    403.45846   -75273.188    75259.817   -158.58588    37.452484 
152408000    254.97337    555.86942    287.51493    -75277.24    75306.871    268.35449    37.443516 
152412000    303.43703    251.80173      252.336   -75309.632    75327.694  -0.53427162     37.44108 
152416000    271.03224     203.3264    279.89722   -75303.926    75336.972   -76.570816    37.445151 
152420000     242.8289    470.71233    237.93414   -75291.779    75348.825    232.77818     37.44931 
152424000    262.00925    298.30299    257.07982   -75326.815    75363.681    41.223167    37.442415 
152428000    257.10277    245.05411    333.77732   -75358.766    75398.667   -88.723203    37.448244 
152432000    294.62205    457.84591     230.4546    -75434.79    75433.359    227.39131    37.447669 
152436000    264.71261    292.49769    489.78721   -75450.591    75474.279   -197.28951    37.447003 
152440000    271.79582    349.52724    314.45902   -75469.411    75490.126    35.068221    37.450261 
152444000    272.47482    435.61252    257.78047   -75482.478    75501.882    177.83205    37.449251 
152448000    275.04203    276.45153    347.68576   -75508.292    75516.305   -71.234233    37.453496 
152452000    266.85099    402.48368    315.16899   -75526.726    75552.302    87.314683    37.447737 
152456000    300.30856    341.15478    388.12855   -75563.487    75560.955   -46.973772    37.450144 
152460000     262.5455    285.75041    300.26247   -75557.366    75579.549   -14.512056    37.448829 
152464000    266.76702    376.02263     336.7331   -75584.729    75618.502    39.289528    37.444084 
152468000      282.997    539.82058    342.80158   -75621.788    75647.265      197.019    37.449917 
152472000    276.61255    246.23644    437.57664   -75634.194     75667.53    -191.3402    37.443084 
152476000     302.5057    333.37692    601.10717   -75657.265    75670.537   -267.73025    37.429098 
152480000    269.54375    380.76822    237.30046   -75668.852    75694.148    143.46776    37.435037 
152484000     312.6345    422.95456    285.88624    -75717.37     75709.26    137.06832    37.433989 
152488000    272.97336    357.63978    343.19453   -75702.189    75722.707    14.445248    37.441903 
152492000    295.02096    371.12436    416.19277   -75727.692    75737.186    -45.06841     37.43979 
152496000    272.88102    322.14597    198.29236   -75731.828    75756.509    123.85362    37.442124 
152500000    311.41592    619.51421    244.54345   -75776.555    75772.498    374.97077    37.447714 
152504000    291.37061    576.79993    364.96986   -75773.396    75802.011    211.83007    37.449782 
152508000    316.76611    388.17681    316.89519    -75829.82    75818.967    71.281625    37.449394 
152512000    263.57249    337.87106    426.53809   -75828.411    75835.715    -88.66703    37.451345 
152516000    296.58097    272.00079     408.6267   -75844.546    75858.569   -136.62591    37.441617 
152520000    279.93358    254.77886    147.35965   -75863.322    75868.419    107.41921    37.447264 
152524000    314.98053    399.02174     305.3435   -75891.623    75894.314    93.678233    37.448187 
152528000    308.94229    366.63697    427.05381   -75922.017    75922.402   -60.416843    37.440957 
152532000    297.84666    243.48642    399.60782   -75958.138    75967.633    -156.1214    37.440097 
152536000    276.10451    364.98941    210.75615   -75983.788    75982.139    154.23326    37.442237 
152540000    252.12308    535.91128    197.35863   -76012.086    76042.231    338.55265    37.449589 
152544000    271.15769    266.88483    298.72634   -76047.875    76077.722   -31.841513    37.450299 
152548000    261.77258    345.86523    428.63645   -76066.742    76096.723   -82.771221    37.447334 
152552000    264.96953    503.72028    406.92392    -76124.53     76148.53    96.796364    37.452681 
152556000    261.98565    307.73047    385.19635   -76134.616    76155.457   -77.465877    37.449428 
152560000    261.75212    320.53327     328.8047   -76140.856    76169.705    -8.271433    37.447415 
152564000     279.3616    385.79299     227.9121   -76171.379     76189.91     157.8809    37.456871 
152568000    276.55135    276.81372    391.89856   -76196.263    76220.372   -115.08483    37.455053 
152572000      261.026    196.71939    225.23802   -76217.458    76255.531    -28.51863    37.462353 
152576000    273.52556    453.73479    440.16057   -76263.957     76286.05    13.574223    37.461309 
152580000    274.93129    483.22143    262.81688   -76267.294    76277.702    220.40455    37.460388 
152584000    281.25464     426.6164    390.69027    -76275.49    76291.689    35.926127    37.456537 
152588000    299.81977    230.09338    305.96334   -76278.627    76285.679   -75.869967    37.468957 
152592000    276.15824    193.98137    379.87095   -76273.718     76288.77   -185.88958    37.464419 
152596000    268.41818     445.7722    116.94094   -76271.751    76294.692    328.83126    37.473294 
152600000    269.15081    247.69859    310.14892   -76287.406    76311.679   -62.450328    37.471499 
152604000    254.92035    298.38459    306.03577   -76302.165    76324.176    -7.651185    37.471814 
152608000    287.81153    343.26444    358.30124   -76328.933    76343.702   -15.036809    37.471849 
152612000    284.18668    193.35313    405.22806   -76345.939    76355.765   -211.87492    37.488287 
152616000    301.22378    348.10797    413.63614   -76377.721     76381.97   -65.528174    37.484578 
152620000     258.1292    399.96486    368.84873   -76390.015    76423.693    31.116125    37.486016 
152624000    277.72659    331.82969    330.67206   -76394.657    76414.493     1.157628    37.488762 
152628000    298.39747    320.86185    418.40168   -76422.411    76429.149   -97.539826    37.482638 
152632000    290.63748    451.29652    412.60384   -76454.052    76463.112    38.692684    37.485234 
152636000    282.66508     435.2635    282.91454   -76455.785    76483.829    152.34896    37.488325 
152640000     279.4369    407.62793    187.62537   -76499.939    76519.956    220.00256    37.488431 
152644000    290.66326    305.82497    385.27276    -76515.56    76537.216   -79.447791    37.492623 
152648000    256.34876    566.94385    365.54302   -76519.304    76549.756    201.40083    37.503389 
152652000    300.64177    332.04956    222.45019   -76546.422    76545.835    109.59937    37.510975 
152656000    270.71632    340.70207    400.57954   -76557.095    76577.955   -59.877472    37.509476 
152660000    301.75663    431.14709    302.07863   -76582.049    76594.685    129.06846    37.514198 
152664000    272.72506    399.87372    206.57438   -76599.543    76615.102    193.29934    37.508301 
152668000    288.49287    362.25939    397.58472   -76616.999    76625.588   -35.325332    37.502937 
152672000    254.93504    327.99987    247.79726   -76636.003    76653.954    80.202608    37.503881 
152676000     290.2935     303.3651    330.32962   -76663.374    76667.583   -26.964519    37.502387 
152680000    296.91604    406.01266    363.42585   -76682.281    76680.545     42.58681    37.507083 
152684000    286.71458    266.58363    584.79256    -76718.97    76708.818   -318.20894    37.504246 
152688000    264.79774    365.94843    191.75219   -76726.879    76740.007    174.19625    37.504515 
152692000    261.94582     208.0745    261.54827    -76718.37    76740.808   -53.473769     37.50521 
152696000    277.01947    375.48383    302.06228   -76740.461     76766.98    73.421551    37.497786 
152700000    274.69863    303.94812    410.68722    -76764.32    76782.805    -106.7391    37.500795 
152704000    274.04885    287.99559    362.57527   -76782.445    76797.818   -74.579679    37.495889 
152708000    296.17972    449.54185     521.2572   -76786.291    76791.995   -71.715357    37.494139 
152712000     283.7036    341.85264    219.93024   -76796.616    76802.516    121.92241    37.486233 
152716000    289.14867    324.68929     403.3494   -76803.083    76806.286   -78.660109    37.476178 
152720000    309.31456    266.21849    283.09189   -76845.091    76836.562   -16.873401     37.47795 
152724000    274.45096    333.93911    283.57559   -76862.869    76897.935    50.363517    37.489139 
152728000    281.72683    363.62408    286.94732   -76880.323    76885.779    76.676761    37.492594 
152732000    271.63053    359.32733    509.84776    -76870.86    76907.778   -150.52043    37.486661 
152736000    279.14663    311.63845    224.34839    -76907.49    76926.213    87.290067    37.490283 
152740000    286.10399    408.61959    317.50263   -76952.032    76957.215    91.116958    37.489749 
152744000    258.66186    345.94893     464.2588   -76963.167    76980.939   -118.30987    37.494047 
152748000    264.23401     345.6919    240.66852    -76966.42    76997.596    105.02338    37.497653 
152752000    277.23717    394.72963    356.48289   -76982.496    76996.968    38.246744    37.493153 
152756000    278.46275    263.39925    417.13813   -76992.796    77006.503   -153.73888    37.496178 
152760000    281.85454    271.43546    289.05036    -77018.31     77010.41   -17.614903    37.493685 
152764000    275.12561    304.30851    272.12843   -77035.711    77043.596     32.18008    37.483354 
152768000    246.10466    217.05537    293.92825   -77042.559    77078.488   -76.872876    37.479816 
152772000    283.18738    281.16196    274.97985   -77100.258    77093.584    6.1821144    37.480516 
152776000    300.87272    326.66457    411.44952   -77114.743        77116   -84.784952    37.484692 
152780000    279.08427    435.85084    269.42953   -77103.141      77127.1    166.42131    37.490467 
152784000    313.37452    419.35896    195.58951   -77129.181    77115.694    223.76945     37.50122 
152788000     332.2497    637.07818    288.51767    -77169.27     77148.81     348.5605    37.497216 
152792000    294.72365    483.09675    353.45304   -77162.556    77167.468    129.64371    37.493863 
152796000    273.20998    433.64671    185.11788   -77200.702    77214.068    248.52883    37.497854 
152800000    266.00568    460.74287    246.16884   -77192.921    77219.987    214.57403    37.496983 
152804000    297.82598    319.04628    252.55659   -77245.641     77239.77    66.489697    37.499727 
152808000    307.41505    244.77852     346.7788   -77268.874    77261.577   -102.00028    37.504739 
152812000    286.49213    401.39651    305.28694   -77271.666    77285.312     96.10957    37.512583 
152816000    263.17851      179.984    361.48265   -77294.604    77306.154   -181.49865    37.517792 
152820000    283.55691    211.81499    377.42951   -77324.449    77324.176   -165.61452     37.51668 
152824000    243.43196    251.09742    280.51678   -77325.221      77354.8   -29.419352    37.506673 
152828000    270.97234    289.37797    270.72443   -77338.485    77376.465    18.653542    37.510179 
152832000    292.28871     291.2359    312.35764    -77364.57    77381.372   -21.121739    37.509027 
152836000    296.86754    264.51988    227.04719   -77383.774     77389.98    37.472681    37.507849 
152840000    306.33404     436.6319    559.55269   -77374.466    77373.128   -122.92079    37.495252 
152844000     301.7687    722.30127    340.51733   -77405.357    77406.365    381.78394    37.490533 
152848000    286.07783    492.32307    469.63574    -77419.38    77422.783    22.687333    37.486074 
152852000    281.00707    328.27034    208.87551   -77399.014    77424.443    119.39483    37.484146 
152856000    317.78308    453.06938    470.21393   -77440.799    77430.798    -17.14455    37.484431 
152860000    313.76599     373.6093      368.559   -77491.197    77495.674    5.0503008    37.472917 
152864000    285.85927    309.28042    299.36775   -77502.281    77530.717    9.9126698     37.47338 
152868000    287.47489    300.89995    284.29323   -77528.271     77524.17    16.606722    37.475538 
152872000     271.2941     385.7496    439.69182   -77547.778    77541.789    -53.94222    37.469457 
152876000    308.00101    328.90937     329.1103   -77568.273    77560.752  -0.20092276    37.472777 
152880000    296.70555    360.97462     339.0907   -77613.041    77600.095    21.883917    37.476447 
152884000    256.13838    165.70154     252.8843   -77620.421    77641.594   -87.182759    37.469262 
152888000    280.18486    437.31992    702.86003   -77634.053    77653.387   -265.54012    37.469905 
152892000    262.08085    249.09737     260.6357   -77648.727    77691.086   -11.538334    37.467924 
152896000    290.98476     371.9249    324.02276   -77675.716    77695.921    47.902144    37.469349 
152900000    303.48986    334.03653    179.43305   -77709.728    77718.652    154.60348    37.464132 
152904000    288.49132    337.69406    457.14736   -77729.565    77740.205    -119.4533    37.463215 
152908000    264.91826     312.3011    210.25827   -77718.998    77768.473    102.04283     37.46048 
152912000    274.26067    472.38278    278.02301   -77744.097    77754.654    194.35977    37.459006 
152916000    267.22238    340.70936     287.5252   -77763.802    77782.313    53.184165    37.469927 
152920000    278.03763    346.78107    401.38011   -77789.565    77810.174   -54.599039    37.466271 
152924000    267.89594    317.44189    333.57215   -77801.129    77830.321   -16.130256    37.458514 
152928000    286.05614    426.09535    392.92386   -77831.181     77846.61    33.171486    37.469556 
152932000    255.17226    412.00061    222.05803   -77828.219    77860.375    189.94259    37.471529 
152936000    281.84509    405.26455    421.98529   -77872.837    77886.218   -16.720741    37.465628 
152940000    290.89101     269.6171    172.63922   -77902.607    77901.737    96.977874     37.46645 
152944000    261.57275    282.28827    338.31468   -77898.212     77924.66   -56.026404    37.455041 
152948000    283.32226    487.21592    330.23711   -77946.973    77940.764    156.97881    37.455079 
152952000    250.40887    178.71888    381.05859   -77938.309    77958.581   -202.33972    37.450245 
152956000    290.79429    282.54864    256.14355   -77960.232    77971.207    26.405083    37.447469 
152960000    265.67437    247.92935    355.43925   -77983.906    77981.157    -107.5099    37.439978 
152964000    306.29926    450.35892    252.22699    -78013.37    78019.852    198.13193     37.43336 
152968000    295.63783    296.13514    272.39183   -78050.775    78059.151    23.743311    37.429272 
152972000     290.4481    270.36703    285.23974   -78047.919    78068.375   -14.872709    37.424881 
152976000    260.36541    340.21878     147.2394   -78061.711    78091.016    192.97939    37.420763 
152980000    320.36124    627.30791    600.68073   -78103.235     78100.22    26.627183    37.419729 
152984000    240.09688      239.834    324.66021   -78087.043    78130.004   -84.826206    37.418596 
152988000    254.36788    228.32955    264.02854   -78113.488    78144.808   -35.698988    37.427298 
152992000    285.99836    335.30986    319.75498   -78144.258    78150.661    15.554883    37.426827 
152996000    311.08657    335.80387    410.99671   -78164.631    78169.901   -75.192842    37.438724 
153000000    304.58241    460.68187    424.46806   -78185.479    78181.366     36.21381    37.431523 
153004000    271.06119    293.23062    212.93194   -78184.525    78203.272    80.298683    37.427987 
153008000    303.68795    379.08594    242.29982   -78237.028     78236.34    136.78613    37.424314 
153012000    306.48979    246.33837    333.29442   -78253.327    78246.719   -86.956044    37.419993 
153016000    305.21166    152.52296    190.52411   -78265.167    78266.554   -38.001155    37.421277 
153020000    288.36778    534.93343    327.27581   -78304.684    78298.206    207.65761    37.415022 
153024000    288.80905    708.54018    153.91313    -78315.15    78328.996    554.62705    37.419677 
153028000    305.35715    268.51767    267.77471   -78326.507    78332.113   0.74295332    37.419345 
153032000    265.50018    412.92667    592.30653   -78325.445    78363.314   -179.37986    37.418446 
153036000    282.52608    410.57939    340.84107    -78371.78    78384.511    69.738315    37.422498 
153040000    275.90805    269.28851    243.12964   -78369.426    78396.491     26.15887    37.419742 
153044000    274.11715    483.15973    313.67605   -78377.758    78396.757    169.48369    37.419465 
153048000    268.32494    261.98202    465.15791   -78387.323    78405.823   -203.17589    37.419641 
153052000    261.11504    286.13945    311.16585   -78385.969    78424.104   -25.026395    37.416354 
153056000    291.51465    518.15916    323.53051   -78418.234    78431.488    194.62865     37.41666 
153060000    270.13796    366.18211    262.42561   -78420.113     78442.82    103.75651    37.417491 
153064000    302.37946    481.46713    476.46241   -78448.241    78439.268    5.0047196    37.425749 
153068000    281.27396    482.73402    304.32007   -78441.668    78466.396    178.41396    37.419731 
153072000    280.98434    354.03141    166.01334   -78470.371    78486.598    188.01807    37.425832 
153076000    297.12762     421.7849     199.0125   -78487.612    78483.835     222.7724    37.420282 
153080000    291.12127    320.62667    245.57317   -78511.325    78518.639    75.053504    37.419303 
153084000     293.4821    259.29568    327.28106   -78535.121    78542.719   -67.985384    37.415637 
153088000    268.91722     292.1767    355.35389   -78520.509    78560.782   -63.177194    37.417115 
153092000    291.39436    181.09892    393.86129    -78576.74    78588.867   -212.76237    37.414903 
153096000    302.75628    486.70392    280.14833    -78580.62    78596.528    206.55559    37.415644 
153100000    261.39522    395.88555    216.16212   -78598.145    78611.778    179.72343    37.409523 
153104000    256.02487    185.98509    182.40757   -78578.067     78603.76    3.5775226    37.411647 
153108000    278.18093    466.49437    324.44814   -78581.004    78600.862    142.04624    37.415149 
153112000    292.10226    477.52861    259.41194   -78614.466    78613.668    218.11667    37.416549 
153116000    283.20432    423.41807    409.05828   -78617.887    78638.201    14.359787    37.419264 
153120000     272.9878    492.37501    234.22974   -78646.811    78654.653    258.14526    37.418515 
153124000     301.1692    281.48856    265.57311    -78659.28    78662.857    15.915447    37.421759 
153128000    285.17233    305.35213    257.39129    -78671.69    78688.742    47.960841    37.413882 
153132000    304.01817    375.89481    200.06967   -78715.705    78709.667    175.82514    37.407754 
153136000    310.92224    366.26989    397.32456   -78741.364    78732.979   -31.054661    37.413505 
153140000    297.70901    355.59281    217.60557   -78764.512    78779.908    137.98724    37.416277 
153144000    275.57803    319.45105     250.1032   -78755.437     78784.07    69.347854    37.401126 
153148000     259.0562    158.99809    267.58166   -78790.933    78815.372   -108.58357    37.401238 
153152000    303.63519    202.17334    349.60445   -78820.123    78843.902   -147.43111    37.404481 
153156000    257.42263    277.45198    249.29882   -78839.079    78873.129    28.153165    37.408434 
153160000    277.46922    411.92472    366.09036   -78855.888    78879.733    45.834368    37.400406 
153164000    265.68431    320.09124    250.67647   -78866.241    78910.768     69.41477    37.392288 
153168000    247.67409    383.42364    245.25284   -78891.954    78929.492     138.1708    37.392081 
153172000    275.69868    401.09112    323.09995   -78923.566    78939.236    77.991174    37.392177 
153176000    298.71845    228.40718    399.29433   -78951.202    78966.659   -170.88715     37.40672 
153180000    277.77011      284.395    280.32557   -78935.743    78971.696    4.0694349    37.411763 
153184000    267.12921    249.62964     372.3532   -78951.661    78982.186   -122.72357    37.408604 
153188000     267.3335    432.11479    337.85432   -78977.674    78990.788    94.260471    37.403627 
153192000     272.2268    327.29682    174.41085   -78994.803    79012.806    152.88597    37.409521 
153196000    276.41493    455.41278    170.71973    -78993.96    79014.487    284.69305    37.407242 
153200000    272.25039      319.999    332.34829   -79021.021    79030.467   -12.349292     37.40878 
153204000    312.82469    532.62942    323.17551   -79052.852    79053.485    209.45391    37.407528 
153208000    271.62879     510.7812    369.74037   -79064.917    79089.783    141.04083     37.40752 
153212000    267.63825    213.04114    285.26992   -79082.867    79122.894   -72.228784    37.403733 
153216000    283.13235    308.43868    217.04196   -79111.611    79111.669    91.396723    37.402983 
153220000    289.92636    232.18387    309.13666   -79106.133    79121.599    -76.95279    37.404577 
153224000    301.96887    299.88565    219.48338   -79125.399    79118.263    80.402271    37.399722 
153228000    246.73812    364.56179    226.05229   -79096.651    79134.606    138.50949    37.404353 
153232000    274.76098    313.72348    429.18122   -79115.555    79134.857   -115.45774    37.402946 
153236000    293.05084    414.82806    496.65666   -79148.754     79159.67   -81.828604    37.409515 
153240000    269.33161    453.76137     203.1371   -79174.203    79200.965    250.62427    37.404745 
153244000    288.21506    502.66974    373.49777   -79211.161    79217.925    129.17197    37.407813 
153248000    292.66149    385.81603    393.61336   -79245.135    79258.052   -7.7973334    37.408606 
153252000    282.91329    550.37561    243.62616   -79267.016    79288.316    306.74945    37.403869 
153256000    304.71743    395.51188    235.66947   -79308.617    79292.589    159.84241    37.401148 
153260000    268.61886      267.718    357.55449   -79295.745    79311.776   -89.836486    37.401613 
153264000    311.43071    508.34015    324.52961       -79311    79322.412    183.81054    37.407591 
153268000    281.57324    360.68613    417.18272    -79296.31    79305.318   -56.496593    37.411621 
153272000    281.06893    464.70047    336.60973   -79319.993    79342.189    128.09074    37.410004 
153276000     306.6916     249.9008    499.55625   -79373.476    79344.981   -249.65545    37.407574 
153280000    292.37183    363.54303    435.86206   -79405.035    79424.727   -72.319031    37.406786 
153284000     268.4977     355.1164    433.53284   -79402.098    79436.447   -78.416445    37.410635 
153288000    277.57398    262.90677    224.58712   -79430.238    79432.071    38.319648    37.405555 
153292000    268.78029    278.56739     288.8093   -79412.032    79449.614   -10.241908    37.394785 
153296000    281.89779    563.02655    443.46144   -79485.005    79486.333    119.56511     37.38431 
153300000    254.19107    507.97967    241.64411    -79490.29     79520.82    266.33556    37.378177 
153304000    313.94205     327.2549    273.71883   -79556.001    79549.559     53.53607    37.379769 
153308000    277.73385    382.45717    424.93346   -79582.038    79603.592   -42.476289    37.375285 
153312000    274.09403    228.96386    353.42008   -79596.762    79622.823   -124.45622    37.377044 
153316000     275.2535    357.22441    207.98532   -79619.151    79626.005    149.23909    37.371213 
153320000    269.31522    473.68627    373.52168   -79635.738    79669.956    100.16459    37.376574 
153324000    273.51218    333.88723     277.5835   -79649.703    79688.925    56.303732    37.374199 
153328000    265.77711    343.00249    401.57159   -79678.234    79715.818   -58.569105    37.373054 
153332000    280.22406    288.39447    219.32172   -79708.623     79705.31    69.072753    37.373361 
153336000    301.19892     217.6824    333.21448   -79727.566    79736.574   -115.53208    37.371057 
153340000    261.55923    255.99705    353.97805   -79742.148    79769.169      -97.981    37.365315 
153344000    268.58014    254.37056    241.73021   -79752.242    79782.729    12.640347    37.361725 
153348000    307.21362    357.34416    264.87891   -79743.248    79769.862    92.465249    37.359585 
153352000    279.91819    350.78199     236.6684   -79760.178    79785.743    114.11359    37.354132 
153356000    298.23185     309.0883    587.28711   -79770.003    79768.996   -278.19881    37.350821 
153360000    297.46059    467.27799    419.71947   -79796.812    79775.262    47.558512    37.363416 
153364000    302.15029    365.17852    295.54062   -79796.754    79783.463    69.637897    37.353222 
153368000    289.49664    337.26008    560.44747   -79795.753    79797.485   -223.18739    37.350305 
153372000    268.34223    383.79494    246.75103   -79813.447    79839.146     137.0439    37.341659 
153376000    294.15491    355.73191    456.08066   -79846.476    79861.486   -100.34875    37.342185 
153380000    287.20059    352.55687    272.80947   -79854.029    79856.176    79.747403    37.338778 
153384000     294.7318    295.56782    387.17779   -79865.539     79880.74   -91.609976    37.342118 
153388000    286.92533    368.71419    336.85409   -79893.145    79906.265    31.860094    37.345708 
153392000    315.91094    351.90253    301.87872   -79920.226     79920.69    50.023812    37.342293 
153396000    265.61364    364.09563    192.83335   -79931.301     79968.99    171.26228    37.341483 
153400000    277.31419    402.18599    290.42155   -79980.094    79984.013    111.76443    37.350659 
153404000    283.91795    420.12678    259.94575   -79994.428    79997.322    160.18103    37.354513 
153408000    283.53138    603.72074    239.98222    -80030.45    80031.711    363.73852    37.373684 
153412000    287.67092    267.51718    364.44021   -80074.612    80055.617   -96.923038    37.380933 
153416000    285.28414    368.81193    349.25902   -80075.898    80090.753    19.552904    37.382004 
153420000    305.10636    657.60751    314.54599   -80079.811    80085.267    343.06152    37.385666 
153424000    285.85856    405.05278    296.90084    -80105.16     80119.63    108.15194    37.386006 
153428000    274.45354    433.03388     299.1058   -80128.704    80150.925    133.92808    37.395639 
153432000    268.85844    273.32396    415.66748   -80129.971    80162.645   -142.34352     37.38962 
153436000    312.55826    432.15441    451.85001   -80166.354    80170.208   -19.695602    37.389809 
153440000    277.30509    342.33944    233.10435   -80175.727    80179.358    109.23509    37.396728 
153444000    265.09686    314.92927    203.04618   -80170.915    80211.651     111.8831    37.401849 
153448000     305.8832    436.78858    282.87842   -80190.693    80206.584    153.91015    37.396025 
153452000    281.95683    296.80431    330.36203   -80179.727    80184.254   -33.557719    37.406277 
153456000    287.43155    326.56981    358.58718   -80219.497    80200.213   -32.017374    37.403546 
153460000    281.11648    448.41788    173.64758   -80213.253    80227.007    274.77031    37.403558 
153464000    266.69806     255.8942    330.39491   -80231.895    80253.647   -74.500712    37.406821 
153468000    285.29435    336.13581    364.34035   -80259.907    80277.631   -28.204536    37.411923 
153472000    248.21857    668.96156    280.22013   -80270.604    80311.425    388.74142    37.417895 
153476000     271.3208    285.01202    247.16549   -80264.876    80299.159    37.846534    37.423527 
153480000    285.00043    664.20561    329.37629   -80280.139    80305.696    334.82932    37.421431 
153484000    294.40104    668.57973    526.71321   -80290.648    80313.383    141.86651    37.419879 
153488000    302.59352    238.70354    277.63432    -80296.31     80315.13   -38.930782    37.420547 
153492000     284.7093    569.55308    318.57794   -80310.663    80328.117    250.97514     37.42521 
153496000    301.99202    305.72062     362.6219   -80321.598    80327.689   -56.901279    37.422849 
153500000    289.55632    479.22339    187.13257    -80335.67    80357.563    292.09081    37.417341 
153504000    276.88277    415.41136    238.84858   -80363.642    80386.086    176.56278    37.416091 
153508000    277.07589    324.47165    405.86989   -80381.461    80403.443   -81.398243     37.41167 
153512000    278.00922    386.31406    172.64391   -80427.378    80442.346    213.67015    37.412749 
153516000    260.02503    348.62373    268.27375   -80446.094    80480.004    80.349978    37.412942 
153520000    257.87163    342.37981    380.23805   -80479.202     80504.92   -37.858245     37.41391 
153524000    282.76315    295.63982    281.62028   -80505.278     80521.79    14.019543     37.41385 
153528000    278.03912    485.72704    328.07515   -80528.824    80542.642    157.65189    37.427603 
153532000    287.77126    281.93348    318.79238   -80532.207     80555.77   -36.858904    37.433149 
153536000    307.26794    322.41187    353.50297   -80547.165    80552.758   -31.091097    37.436011 
153540000    263.44012    370.45986    277.78538   -80585.355    80601.665    92.674473    37.435468 
153544000    262.35313    233.61489    289.16671   -80594.298    80612.858   -55.551824    37.433673 
153548000     284.0251    316.92093    393.13555   -80623.839    80637.333   -76.214625    37.431818 
153552000    288.25005    296.33402    356.06934   -80638.111    80647.743   -59.735321    37.429828 
153556000    281.85119    447.91042    464.84887   -80653.071    80663.494   -16.938456    37.424682 
153560000    288.65365    359.05113    503.88969   -80655.944    80653.362   -144.83856    37.428449 
153564000    267.20922    200.89865    303.87109   -80663.787    80682.349   -102.97244    37.419691 
153568000    274.03554    323.25541    287.11371   -80672.901    80698.086    36.141702    37.411593 
153572000    297.69586    273.11398    169.30408   -80698.565    80706.125    103.80989    37.404196 
153576000    268.44477    244.00459    250.25491   -80727.334    80737.585   -6.2503223    37.407789 
153580000    292.42332    354.50934    399.26577   -80744.902    80758.392   -44.756433     37.40613 
153584000    277.96762    501.08195    294.49186   -80764.562    80779.867     206.5901    37.401643 
153588000    277.06872      363.369    429.80202   -80782.983    80782.601   -66.433016    37.399783 
153592000    293.23175    601.87648    277.92827    -80786.47    80795.634    323.94821     37.39368 
153596000    272.33642    385.36876    403.21188   -80803.049    80829.035   -17.843122    37.385238 
153600000    268.86235    346.23089    280.58119   -80811.146    80836.839    65.649705    37.380303 
153604000    260.89333    381.55216    278.50344   -80825.203    80855.574    103.04872    37.371956 
153608000    255.00604    315.48143    363.85695   -80847.702    80888.081   -48.375524    37.376644 
153612000    269.50833    340.84121    276.50463   -80887.414    80915.538    64.336582    37.369019 
153616000    277.66583    330.49308    295.46431   -80906.537    80940.152    35.028766    37.369612 
153620000    306.25236    283.67016    419.77708   -80938.665    80935.833   -136.10692    37.357119 
153624000    306.07037    423.88371    339.62451    -80962.44    80963.936    84.259202     37.35064 
153628000     267.5166    207.79639    507.74692   -80961.636     81003.77   -299.95053    37.354187 
153632000    276.11617    249.80938    375.18442   -80999.232    81025.579   -125.37504    37.349418 
153636000    299.50812     376.2117    386.95317   -81007.482     81017.24   -10.741468    37.346206 
153640000    272.49344    263.96199    250.11491   -81030.706    81052.624    13.847075    37.341056 
153644000    294.57669    423.30639    150.62703    -81052.41    81061.463    272.67936    37.347916 
153648000    271.23756    404.34084    287.98802    -81043.71    81079.891    116.35281    37.346899 
153652000    289.39316    352.47672    375.60377    -81069.31    81081.525   -23.127053    37.348755 
153656000    238.28214    363.98593    250.79929    -81070.02    81104.007    113.18664    37.351129 
153660000     290.0849     383.7693    424.85384   -81099.258     81107.52   -41.084539    37.347522 
153664000    260.85727    213.63351     378.4063   -81121.413    81138.177   -164.77279    37.350203 
153668000    283.19108     211.2225      336.544   -81126.814    81134.144   -125.32149    37.350111 
153672000    270.91462    369.81724    236.41814    -81149.59    81167.953     133.3991    37.362979 
153676000    283.29156    515.15965    344.14543   -81180.651    81191.203    171.01423    37.369424 
153680000    257.28234    388.39772    444.33525   -81169.439    81191.114   -55.937531    37.368186 
153684000      259.791    296.67893     417.5913   -81177.031    81198.254   -120.91236    37.369163 
153688000    252.82489    293.03591    261.22904   -81201.135    81221.428    31.806865    37.367309 
153692000    260.82661    284.54329    287.74153   -81221.375    81242.834    -3.198232    37.365932 
153696000    292.61977    512.79503    349.59796   -81246.088    81243.907    163.19706    37.365989 
153700000    263.38713    271.45445    500.92165   -81241.081    81261.942    -229.4672    37.368118 
153704000    284.74578    309.18379    359.73179   -81255.766    81273.143   -50.547997     37.37071 
153708000    270.08406     382.1747    270.63895    -81285.17    81311.128    111.53575     37.37004 
153712000    297.97618    449.50447    213.43084   -81303.174    81301.629    236.07363    37.369589 
153716000    287.29577    274.02103     170.6394   -81309.738    81325.286    103.38163    37.370804 
153720000    269.23495    337.30767    226.39126    -81321.59    81348.649    110.91641    37.373448 
153724000    272.67051    221.19296     434.6625   -81342.844    81364.843   -213.46954    37.366551 
153728000    271.47844    301.58987    383.51941    -81336.48    81367.857   -81.929543    37.365081 
153732000    293.40977    286.57592    278.77683   -81374.568    81369.025    7.7990842    37.361821 
153736000    285.40665    421.45987    466.23813   -81405.397    81415.464   -44.778263    37.353328 
153740000     265.9517     445.8477    304.97816   -81411.199    81435.823    140.86953     37.35232 
153744000    263.90597    291.01195    228.90326   -81419.178    81437.887    62.108686    37.354024 
153748000    265.56792    354.87478     206.9892   -81433.493    81461.732    147.88558    37.356663 
153752000    269.54816    275.74474    267.49927   -81456.676    81495.252    8.2454718     37.35486 
153756000    295.48804     387.7028    371.63107   -81524.087    81540.545    16.071725    37.356978 
153760000    287.09147    447.40832    210.03777   -81538.853    81553.707    237.37055    37.362912 
153764000    273.49251    466.51849    337.89432   -81545.889    81550.764    128.62417     37.35954 
153768000    268.33862    368.23291     558.0899   -81560.353    81582.501     -189.857    37.352115 
153772000    328.49727    385.15347    613.77063   -81606.119    81594.238   -228.61716    37.346253 
153776000    308.61348    323.65733    509.14906   -81624.379    81624.055   -185.49173    37.346823 
153780000    314.71237    505.00166    465.37922   -81657.568    81647.477    39.622438    37.340326 
153784000    279.89764    320.62995    252.12651   -81640.697    81649.465    68.503433    37.342806 
153788000    291.85322    243.35837     338.3435   -81660.711    81658.404   -94.985128    37.330673 
153792000    275.83483    365.59472    221.52345   -81669.559    81701.546    144.07128    37.331106 
153796000    305.73631    264.18097    369.23612   -81710.428    81715.847   -105.05515    37.330006 
153800000    301.11032    351.68654    221.83657   -81731.488    81745.343    129.84996    37.326183 
153804000     269.8368    409.30887    431.94796    -81748.55    81776.123   -22.639081    37.319169 
153808000     265.5764    335.40777    435.90594   -81749.383    81765.792   -100.49817    37.321105 
153812000    304.10102    233.88182     632.5913   -81751.775    81767.716   -398.70948    37.323423 
153816000     275.8523    456.84298    396.33631    -81772.88    81786.886    60.506671    37.327226 
153820000    261.17798    315.65518    309.77594   -81772.033    81811.893    5.8792341     37.32822 
153824000     253.3281    414.23626    349.55741   -81809.101    81834.371    64.678852    37.324038 
153828000    285.24662    419.19517    438.35077   -81869.451    81882.835   -19.155608    37.320403 
153832000    256.87137    338.94283    433.17515   -81871.587    81900.283   -94.232317    37.311592 
153836000    268.51373    505.82481    292.31061   -81879.146     81915.83     213.5142    37.312396 
153840000    280.57022    264.56886    350.37162   -81900.966    81923.488   -85.802759    37.312567 
153844000    274.83252    260.64376    276.23389   -81894.905    81918.602   -15.590138    37.310194 
153848000    316.53248     706.3544    300.94607   -81930.145    81917.147    405.40833    37.313874 
153852000    268.69056    376.18052    365.19481   -81939.802    81956.218     10.98571    37.321357 
153856000    285.01954    344.20347    312.53251   -81984.165    81984.673    31.670964    37.320816 
153860000    262.27256    245.35887    276.10567   -81967.223    81982.843   -30.746793    37.317501 
153864000    274.30915     363.1821    346.96751   -81980.489    81993.732    16.214585    37.314973 
153868000    281.54457    397.79305    456.44703   -82012.093     82029.61   -58.653981    37.312381 
153872000    271.86731    218.72606    322.48573   -82033.785     82046.92   -103.75967    37.312163 
153876000    274.28126    291.91723    272.41032   -82053.677     82048.05    19.506909    37.309865 
153880000     288.2242    351.48542    446.97736   -82065.587    82076.836   -95.491936    37.310022 
153884000    290.69132    420.14314    316.09695   -82070.051    82078.185    104.04619    37.310093 
153888000    294.15883    360.68363    279.25235   -82078.129    82087.029    81.431278     37.31213 
153892000    280.60713    377.85896    378.92762    -82108.95    82123.174    -1.068657    37.305471 
153896000    274.54579    273.54445    361.28064   -82118.461    82131.538   -87.736195    37.305921 
153900000    313.97639    268.09565    161.90818   -82159.985     82149.32    106.18747    37.301418 
153904000    289.47158    218.01743    286.39715   -82166.775    82194.086   -68.379716    37.304116 
153908000    297.81024    458.27633    421.08994   -82195.761    82205.214    37.186391    37.305611 
153912000    281.49255    286.42309    399.71063   -82198.341    82216.065   -113.28754    37.302735 
153916000    292.96563    308.24841    305.08312   -82224.733    82225.184     3.165285    37.305071 
153920000    290.22303    386.03321    570.63725   -82231.917    82235.891   -184.60404    37.304452 
153924000    258.10459    323.89977    202.93779   -82265.967    82287.068    120.96198    37.306785 
153928000     274.1459     296.0599    433.14189   -82264.398    82286.603   -137.08199     37.30659 
153932000    313.50339     429.3319    374.50917     -82301.5    82303.319    54.822732    37.303437 
153936000     271.8988    361.75041    264.64206   -82303.724    82323.688    97.108351    37.305955 
153940000    295.22997    283.28843    510.69153   -82337.939    82358.815    -227.4031     37.31694 
153944000    305.03833    368.07612    244.98165   -82381.448     82373.92    123.09447    37.319918 
153948000    287.78206    254.60957    248.19727   -82393.212    82405.601    6.4122979    37.320309 
153952000    289.29985    893.07237    232.46191   -82423.092    82440.239    660.61047    37.326796 
153956000    280.54579    244.18431    314.16916   -82432.405    82452.644    -69.98485    37.330567 
153960000    271.05637    377.22709    154.26439   -82466.903    82472.109    222.96269    37.329916 
153964000    295.00709    479.62001    588.43456   -82493.888    82490.501   -108.81455    37.325786 
153968000    313.95036    219.76746    339.48211   -82544.019    82522.533   -119.71465    37.321884 
153972000    281.03235    437.35035    293.54019   -82549.443    82557.271    143.81017    37.323052 
153976000    278.83498    398.62909    344.12974   -82570.356     82593.77     54.49935    37.319765 
153980000     302.6783     565.0619    200.91595   -82588.637    82607.334    364.14595    37.315574 
153984000     302.2888     337.0289    226.09567   -82609.563    82620.176    110.93323    37.313714 
153988000    257.11941    256.99905    427.09082   -82605.462    82635.457   -170.09176    37.310614 
153992000    282.17771    450.22687    441.48198   -82642.738    82637.451      8.74489    37.317749 
153996000    306.32832    244.61244      413.487   -82662.886    82653.097   -168.87457    37.315267 
154000000    288.88251    532.83032    176.66536   -82688.314    82697.341    356.16496    37.313293 
154004000    268.05081    390.36814    345.62539   -82691.986    82724.104    44.742746    37.312113 
154008000    283.54146    580.18625    366.92341   -82732.224    82732.656    213.26283    37.305287 
154012000    283.49542    392.82707    318.65021   -82728.928    82756.802    74.176854    37.308682 
154016000     255.8138    413.65529    336.15141   -82729.156    82777.936    77.503884    37.308031 
154020000    277.15007    280.90161    317.99008   -82777.795    82769.319   -37.088468    37.308029 
154024000     282.1304    394.44398    375.81075   -82777.793     82793.55    18.633231    37.305297 
154028000    302.01473      468.264    286.34399   -82794.235    82821.711    181.92001    37.308468 
154032000    300.14179    338.43814    317.00758   -82806.296    82803.378    21.430556    37.308099 
154036000    291.90738    234.32821    588.30187   -82813.914    82820.488   -353.97366    37.308221 
154040000    274.41263     333.0203    386.28097     -82839.8    82847.308   -53.260669    37.305392 
154044000    257.15909    252.65518    171.33909   -82850.462    82889.289    81.316091    37.305574 
154048000    267.68234    378.16681    234.61876   -82861.443    82894.775    143.54805     37.29945 
154052000    248.00051    329.40226    253.56773   -82870.742    82913.844    75.834529    37.298573 
154056000    281.77644    329.30741    287.81066   -82906.983    82929.962     41.49675    37.290865 
154060000     294.0104     521.7106    381.97578   -82940.495    82948.784    139.73482    37.296864 
154064000    243.92966    145.21372    226.10181   -82952.988     82976.67   -80.888089    37.296971 
154068000    272.51519    301.39903     287.1065   -82966.485    82998.593    14.292526    37.289171 
154072000    275.07046    387.51887    251.42221   -83021.361    83035.993    136.09666    37.284848 
154076000    319.75557    403.35031    379.20189   -83065.751    83043.806    24.148421    37.290233 
154080000     298.9741     211.1606    510.33165   -83076.158    83081.748   -299.17105    37.283481 
154084000    292.44844     318.4855    223.74545   -83101.474     83121.93    94.740047    37.275729 
154088000    265.73355     264.4538    433.25497   -83106.028     83131.25   -168.80116    37.274072 
154092000    255.82943    190.47077    269.44572   -83117.597    83148.187   -78.974946     37.27347 
154096000    258.76196    319.55115    384.85342   -83155.453    83187.264   -65.302271    37.275429 
154100000    310.22346    412.28485    262.10259   -83199.113    83195.753    150.18226    37.285266 
154104000    269.38393    242.80695    185.45705   -83204.395    83224.515    57.349905    37.275321 
154108000    288.02032    319.60243    310.70829   -83236.319    83229.857    8.8941406    37.272134 
154112000    247.61293    409.60356    211.67557   -83260.598    83274.824    197.92799    37.265754 
154116000    292.77349    398.54253    324.97623   -83295.477    83297.457    73.566303    37.261091 
154120000    277.49496    530.02402    309.29973   -83330.413    83349.011    220.72429    37.263264 
154124000    298.20206    598.79565    283.03019   -83349.786    83356.061    315.76547    37.260997 
154128000    267.44469    292.69646    275.33963    -83354.82    83373.874    17.356827     37.26472 
154132000    270.39639    432.87005    271.01195   -83375.637    83401.172     161.8581    37.261576 
154136000     267.6113    174.53716    244.33369   -83391.294    83403.928   -69.796534    37.251638 
154140000    277.30584    552.47894    374.89973    -83401.35    83425.435    177.57922    37.252733 
154144000    258.39246    473.27267    304.67411   -83409.148    83440.753    168.59856    37.261812 
154148000    275.57885    291.94701    219.07751   -83424.958     83448.64    72.869499    37.263258 
154152000    303.94846    426.07001    255.28435   -83440.102    83436.642    170.78565    37.258863 
154156000    301.97292    248.65887    219.21077   -83476.018    83478.001    29.448108     37.27087 
154160000    266.48056    283.73353     327.3456   -83494.103    83522.638   -43.612075    37.272346 
154164000    254.77907    458.23878    319.03035   -83493.212    83524.406    139.20843    37.278673 
154168000    283.73954    502.10732    223.17998   -83522.609    83546.047    278.92734     37.28059 
154172000    273.04173     324.1934    200.93218   -83539.753    83567.567    123.26122    37.287886 
154176000    308.89532    364.50307    287.60852   -83559.708    83572.883    76.894548    37.284488 
154180000    302.06758    194.83949    135.87281   -83573.609    83563.301     58.96668    37.282291 
154184000    291.08879    467.78355     452.8817   -83597.914    83595.063    14.901853     37.28014 
154188000    277.12967    239.32275    325.20577   -83607.109    83636.275   -85.883025    37.280942 
154192000    324.03236    433.34847    393.44596    -83666.91    83670.845    39.902502    37.279758 
154196000    284.74693    301.42763    230.33391   -83687.346    83706.867    71.093711    37.273508 
154200000     302.7162    273.34895    358.64248   -83723.623    83707.457   -85.293527    37.273527 
154204000    291.84656    311.27044    282.47638    -83711.08    83717.541    28.794063    37.273946 
154208000    263.60108    252.66862    227.88759   -83711.198     83731.16    24.781034    37.279805 
154212000    267.25667    237.40664    189.31498   -83723.025    83741.355    48.091668    37.278389 
154216000    277.43871    254.61025    218.34563   -83718.455    83744.307    36.264623    37.272985 
154220000     275.2084     501.8391     306.6706   -83737.372    83756.175     195.1685    37.278402 
154224000    258.92678    255.10059    201.17546   -83745.506    83782.398    53.925134    37.272582 
154228000    288.61955    638.64469    183.97391   -83776.875    83780.826    454.67078    37.283087 
154232000    296.13298    303.64707    554.27149   -83795.587    83784.734   -250.62441      37.2834 
154236000    277.84953    435.11302    360.93194   -83817.681    83822.772    74.181079    37.288371 
154240000    301.73479    345.38363    389.12666    -83834.29    83829.066    -43.74303     37.28648 
154244000     305.8478    301.70631    146.78513   -83859.496    83866.233    154.92118    37.292874 
154248000     280.2547    160.10394    261.34779   -83849.783    83871.333   -101.24385    37.296858 
154252000    263.75904    263.93043    268.23444   -83867.909    83891.284   -4.3040122    37.299363 
154256000    282.42986    473.09165    351.03114   -83910.068    83934.254    122.06051    37.308593 
154260000    265.72838    338.02937    211.41157   -83908.299    83943.932    126.61779    37.303785 
154264000      268.192    186.41642    410.93871   -83929.745     83964.35   -224.52229    37.295525 
154268000    296.06026    312.76392    341.29839   -83969.139    83990.657   -28.534476    37.286554 
154272000    277.34941    325.40701    225.40497   -83994.399    84016.985    100.00204    37.292074 
154276000    274.34861     247.0343    167.63379   -84021.291    84029.871    79.400514    37.294617 
154280000    318.12778    284.59716    426.02219   -84037.356    84026.924   -141.42503    37.297223 
154284000    287.86441    259.99742    389.67743    -84045.95    84054.578   -129.68001    37.287093 
154288000    303.61733     307.5378    245.17854   -84058.971    84072.843    62.359257    37.285705 
154292000    308.45851    298.83294    279.52451   -84089.521     84075.59    19.308431    37.285209 
154296000    269.15361    372.44543    254.40301   -84096.688    84107.174    118.04242    37.278514 
154300000    272.11327    419.12916     229.7047   -84098.023    84123.393    189.42446    37.272794 
154304000    267.73306    264.57561    272.48203   -84134.277    84149.074   -7.9064197    37.271087 
154308000    262.77736     456.6938    278.22745   -84161.214    84191.299    178.46635     37.26574 
154312000    262.20492    307.90578    148.31492   -84175.388    84208.766    159.59086    37.266501 
154316000    284.43138    373.56235    317.66365   -84196.612    84223.212    55.898698    37.258257 
154320000    252.19791    320.14987    332.64016   -84230.039     84263.07   -12.490292    37.258107 
154324000    271.49945    463.92881    214.14924   -84265.528    84295.419    249.77957    37.261655 
154328000    248.60749    237.35571    214.45533   -84266.786    84293.988    22.900378    37.266844 
154332000    306.04949    289.34686    564.03465   -84288.157    84283.804   -274.68779    37.259408 
154336000    299.05765    338.34043    300.03011   -84301.641    84299.024    38.310314    37.248427 
154340000    294.38699    283.91433    244.51319   -84307.575    84319.871    39.401143    37.249911 
154344000    283.55324    251.76634    468.22704   -84318.163    84326.909    -216.4607    37.251512 
154348000    272.83817    386.17809    366.69164   -84340.337    84370.601    19.486453    37.255874 
154352000    271.89766    605.41235    242.36571   -84372.937    84398.233    363.04664    37.262159 
154356000    262.03263    250.13593    258.01596   -84393.706    84418.273   -7.8800278    37.255537 
154360000     293.2488    284.26045    282.12039   -84432.295    84438.395    2.1400629    37.255265 
154364000    268.46684    254.52305    309.72268   -84456.264    84471.104    -55.19963    37.265731 
154368000    296.95579    413.56917    370.45342   -84473.572    84473.406     43.11575    37.266567 
154372000    301.60178    304.85652    370.91521   -84482.955     84494.66   -66.058689     37.26402 
154376000    276.90065    442.59532    134.49773   -84508.156    84526.152    308.09759    37.273717 
154380000    317.73267    470.02681    292.54694   -84531.535    84536.729    177.47987    37.272893 
154384000    277.08416    248.83577    418.95425   -84531.171    84561.077   -170.11847    37.272182 
154388000    299.81193    352.91867    212.23244    -84545.03    84532.607    140.68624    37.259463 
154392000      277.168    275.47092    455.56771   -84548.784    84552.777    -180.0968    37.249924 
154396000    295.71744    481.71314     198.1973   -84564.185    84593.302    283.51584    37.253496 
154400000    270.97575    366.56067    470.05087   -84569.215     84604.83    -103.4902    37.249018 
154404000    289.23299    397.90882    666.95647   -84579.221    84589.667   -269.04765    37.244129 
154408000    292.11799    301.06636    275.88001   -84573.153    84608.692    25.186343    37.239392 
154412000    306.96308    339.89319    354.13152   -84600.175    84602.412   -14.238336    37.246988 
154416000    302.04742    293.62236    428.16809    -84629.11    84634.708   -134.54573    37.240771 
154420000    291.58309    302.06021    377.01157   -84665.306    84674.922   -74.951356    37.244884 
154424000    263.50654    365.14372     178.7337   -84687.826    84707.873    186.41003    37.236656 
154428000    266.57705    328.73432    368.99122   -84716.731    84735.394   -40.256895    37.234865 
154432000    278.66521    348.62878    307.96306   -84753.919    84777.782    40.665717    37.229439 
154436000    321.21717    303.03946    602.17279    -84771.16    84771.997   -299.13333    37.226109 
154440000    276.04101    473.52104    249.47774   -84784.645    84805.536    224.04331     37.23119 
154444000    283.48177    235.31714    230.21401   -84795.083    84823.244    5.1031323    37.223792 
154448000    278.98889    443.31409    279.35802   -84839.949    84851.417    163.95607    37.214184 
154452000    274.35145    323.81755     337.5952   -84852.415     84875.91   -13.777647     37.22029 
154456000    270.19567    374.10554    139.47378   -84877.609    84908.339    234.63176    37.219403 
154460000     282.5551    550.34148    500.41501   -84908.814    84927.956    49.926473    37.216047 
154464000    314.24853    527.92067    444.37871   -84942.195    84939.617    83.541964    37.212384 
154468000    277.44387    345.01587    374.81924   -84948.706    84960.963   -29.803369    37.204496 
154472000    281.43939    368.05711    235.93129   -84987.547    84986.944    132.12582     37.20763 
154476000    286.90236    322.22381    321.35198   -85000.407    85010.913   0.87182563    37.211298 
154480000    298.07125     416.7224    419.21236   -85035.861    85040.897   -2.4899627    37.206775 
154484000    280.03839    369.63455    455.28803   -85058.804    85071.139   -85.653486     37.20937 
154488000    280.03747    311.92292    505.51281   -85073.384    85092.076   -193.58989    37.217137 
154492000    262.32081    416.77311    287.61481   -85084.059    85102.482     129.1583    37.210104 
154496000    278.60368    477.71555    255.39949   -85097.349    85111.863    222.31606    37.207432 
154500000    276.57775    299.60489    203.83783    -85134.79     85158.31    95.767065    37.209895 
154504000     277.0575    364.39584    325.94507   -85151.967    85164.316     38.45077    37.208386 
154508000    289.27642    294.26675     293.8695   -85174.265    85192.142    0.3972449    37.208767 
154512000    273.94357    262.00957    285.32753   -85208.256    85216.151   -23.317954    37.200574 
154516000    261.10183    190.44924    162.90363   -85192.733    85226.741    27.545617    37.201384 
154520000    270.13373    328.03859    269.15386   -85234.573    85245.398    58.884736    37.200392 
154524000    282.43736    283.28719    333.68552    -85254.31    85269.894   -50.398335    37.207843 
154528000    290.58986    277.75237    242.68581   -85260.394    85264.575    35.066557    37.200461 
154532000    311.37353    363.44482     386.9539   -85251.227    85258.498   -23.509084    37.206062 
154536000    299.05497    373.48977    411.08443   -85293.796    85309.082   -37.594655     37.20674 
154540000    264.51471     453.4038    390.38093   -85295.668    85325.131     63.02287    37.203668 
154544000    249.90529    298.89665    229.27614   -85323.491    85358.254    69.620513    37.202185 
154548000    274.88197    512.22258    347.05153    -85364.83    85381.137    165.17105     37.20419 
154552000    253.24073    328.21072    392.76425   -85388.411    85433.813   -64.553531     37.20432 
154556000    281.97997    263.28047    449.47081   -85398.745    85431.014   -186.19034    37.194289 
154560000    299.50812    488.67521    344.06946   -85448.627    85452.616    144.60575    37.189962 
154564000    267.66929    240.44187    251.87524   -85479.533    85516.389   -11.433372    37.193527 
154568000     284.5582    369.87523    431.68058   -85503.025    85532.833   -61.805343    37.196033 
154572000       300.05    389.69088    341.98956   -85554.088    85537.943    47.701323    37.196661 
154576000    292.41543     306.2829    342.09459   -85554.006    85561.021   -35.811693    37.199913 
154580000    279.47998    458.01628     454.1514   -85559.355    85552.118    3.8648798    37.200156 
154584000    288.75803    229.88218    319.29358   -85569.277    85588.316   -89.411397    37.205606 
154588000    293.93659    636.73316    239.21942   -85596.679    85599.669    397.51374    37.208996 
154592000    281.35964     454.1539    388.52853    -85594.05    85614.374    65.625375    37.216372 
154596000    285.61677    497.65396    548.26416   -85618.855    85630.266   -50.610201    37.217267 
154600000    284.53615    451.89888     370.3949   -85633.339    85643.161    81.503972    37.216936 
154604000    287.08998    358.73412    265.36788   -85623.586    85640.234    93.366241    37.219704 
154608000    294.83369    167.37402    246.73427   -85655.571     85648.02   -79.360252     37.21409 
154612000    294.96054    158.30796    413.31698   -85648.114    85660.641   -255.00902    37.214174 
154616000    289.61396    376.12092    255.05807   -85672.966    85674.476    121.06285    37.217189 
154620000    271.03548    443.29089    319.14295   -85669.576    85692.771    124.14793    37.223849 
154624000    297.21413    479.97884    360.78625   -85671.518    85679.351    119.19259    37.225573 
154628000    310.30477    372.96366    244.53321   -85692.463    85705.383    128.43046    37.219926 
154632000    271.84464    625.25342    427.28202   -85727.126    85735.494     197.9714    37.224329 
154636000    275.71079    384.27108    305.99909    -85750.31    85771.001    78.271992    37.225228 
154640000    259.15891      211.128    267.41237   -85777.995    85808.512   -56.284368    37.214758 
154644000    287.10532    281.76008    305.11047   -85825.088    85834.556   -23.350385    37.215072 
154648000    300.44703    392.79057    248.24765   -85829.316    85832.748    144.54292    37.227454 
154652000    260.33132    472.31545    194.76182   -85828.077    85864.814    277.55363    37.242511 
154656000    265.39778    304.36166    269.45392    -85842.64    85874.386    34.907741    37.244952 
154660000     256.5057    196.06713    428.49826   -85856.549    85896.365   -232.43113     37.25007 
154664000    286.77552    191.90819     378.9184   -85882.285    85901.859    -187.0102    37.255577 
154668000    288.60908    319.20863    264.12623   -85909.347    85927.704    55.082398     37.25493 
154672000    249.71891    243.90386    196.40835   -85930.033    85953.007    47.495502    37.251777 
154676000     304.4953    448.17778    369.23623   -85967.103    85979.863    78.941549     37.24505 
154680000    281.77976    416.65996    345.67477    -85979.55     85988.72    70.985196    37.245815 
154684000     314.2775    366.05937    299.34409   -86004.341    86006.568    66.715275    37.253244 
154688000    289.69107    397.71562    352.59219   -86019.058    86021.339    45.123437    37.267383 
154692000    297.85598    464.99541    382.05602   -86036.249     86045.42    82.939391    37.270546 
154696000    302.72173    388.17721     437.5771   -86076.539    86082.105   -49.399886    37.274657 
154700000    307.89519    335.64206    417.22069   -86082.856    86090.874    -81.57863    37.281183 
154704000    275.35537    347.99748    319.74151   -86116.443    86142.877    28.255967    37.275993 
154708000    282.04549    484.60721    428.42965   -86136.577    86141.194    56.177558    37.281473 
154712000    270.42916    564.21112    597.81479    -86152.99    86188.763   -33.603672    37.278418 
154716000    263.24114    448.98355    264.43651   -86165.892    86193.952    184.54704    37.282968 
154720000    258.70647     541.1546    268.09819   -86188.751    86212.082    273.05641    37.286034 
154724000    271.47091    443.87388    270.03579   -86202.219    86229.233     173.8381    37.293868 
154728000    278.22919    338.20324    377.40309   -86229.121    86250.123    -39.19985    37.286684 
154732000    265.46963    457.33665    234.34581   -86236.108    86271.318    222.99084    37.294314 
154736000    304.23103    153.25402    498.39779   -86252.786    86256.342   -345.14377    37.287733 
154740000    274.85958    325.11935    441.76678   -86239.312    86283.631   -116.64743    37.283747 
154744000    285.05815    542.59706    251.97386   -86264.716    86276.928     290.6232    37.285769 
154748000    293.85407    251.14954    337.33971   -86314.495    86324.073   -86.190166    37.286409 
154752000    274.74747    381.32076    444.54671   -86331.407    86360.043    -63.22595    37.281362 
154756000    257.67049    500.23194    240.10127    -86319.02    86351.652    260.13067     37.27879 
154760000     290.4778    426.14057    220.35762   -86323.605    86349.093    205.78295    37.279235 
154764000    285.04952    474.30808    467.25002   -86318.584    86342.949    7.0580582    37.280198 
154768000     304.2682    508.74528    350.37915   -86364.115    86361.466    158.36613    37.276466 
154772000    299.56792    473.73291    441.68072   -86378.513    86371.633    32.052188    37.271742 
154776000    262.58787    181.39635    445.36419   -86366.854    86396.942   -263.96785    37.265096 
154780000    274.89107    305.48712    302.52945   -86395.057    86417.627    2.9576763    37.267212 
154784000     278.4642    237.74211    241.58333   -86406.314    86418.277   -3.8412162    37.256881 
154788000    262.73669    426.75588    191.68081    -86389.77    86425.143    235.07507    37.264304 
154792000    284.32429    278.48244    328.53554   -86412.465    86429.147   -50.053097    37.261528 
154796000    299.65897    342.07804    285.75862   -86443.138     86460.21    56.319421    37.265261 
154800000    266.20284    364.51766    140.61856   -86442.785    86463.648    223.89911    37.264638 
154804000    287.42164    440.26585    267.69472   -86464.262    86485.173    172.57113    37.259999 
154808000    289.43469    219.22094    323.01316   -86489.431    86481.583   -103.79222    37.252399 
154812000    252.01188    478.32888    307.59763    -86488.28    86510.368    170.73125    37.254781 
154816000    268.57221    266.80531    379.13204   -86477.702    86510.848   -112.32673     37.24645 
154820000    298.37606    373.53256    379.67425   -86497.896    86490.955   -6.1416861    37.248446 
154824000    286.66669    269.44702    252.70656   -86496.135    86523.549    16.740462    37.250394 
154828000    298.04888    294.71988    228.30986   -86539.529    86555.615    66.410019    37.243612 
154832000    306.30676     498.9705    258.42057   -86541.552    86562.448    240.54993    37.255827 
154836000    278.65157    503.54909    427.39481   -86533.619    86558.205    76.154285    37.258726 
154840000    283.29433    334.09963    421.24929   -86559.678     86578.41   -87.149661    37.265578 
154844000     294.8998    276.66401    349.82838   -86585.018    86600.661   -73.164367    37.258488 
154848000    292.44708    328.53781      363.038   -86601.715    86611.927    -34.50019    37.257476 
154852000    276.99346    552.74837    332.38831   -86629.886    86641.832    220.36006    37.263111 
154856000    317.88141    328.52255    334.66459    -86657.87     86655.66   -6.1420367    37.265303 
154860000    276.88903    308.19266    370.89377   -86685.374    86700.306   -62.701118    37.270008 
154864000    289.32186    381.64765    227.58758   -86698.386    86727.175    154.06007     37.26881 
154868000     281.2289    431.72505    339.85461   -86726.801    86752.205    91.870438    37.267197 
154872000    296.92639    510.07424    452.33886   -86766.489    86757.658    57.735375    37.261935 
154876000    303.07592    392.68784    601.68356   -86784.217    86787.533   -208.99572     37.24865 
154880000    276.39243    162.34172    345.11584   -86790.555    86801.953   -182.77412    37.241553 
154884000    261.83525     228.1485    326.66088   -86789.997    86818.768   -98.512383     37.23707 
154888000    287.94232    347.77776    400.23596   -86832.917    86851.315   -52.458207    37.234269 
154892000    251.48418     408.7341    221.96065    -86845.38     86875.36    186.77345    37.230825 
154896000    278.60628    596.86737    350.79632    -86871.51    86889.323    246.07105     37.23823 
154900000    277.36647    245.03667    223.20204   -86903.124    86922.197    21.834627    37.236215 
154904000    292.42091    275.67584    283.74561    -86919.26    86944.504   -8.0697726    37.233088 
154908000    256.70005     171.8939    325.82955    -86928.29     86950.73   -153.93565    37.239731 
154912000     272.6487    292.77712     234.8139    -86937.07    86975.795    57.963224     37.24413 
154916000    296.53766    423.33728    303.71981   -86964.326    86968.574    119.61746    37.236451 
154920000    288.66441    166.75483     413.8734   -86979.638    86990.948   -247.11857    37.225038 
154924000    288.09478    343.64183    506.75232   -87033.346    87028.127   -163.11049    37.223682 
154928000    249.90388    369.33482    295.93559   -87026.763    87077.395    73.399226    37.221424 
154932000    273.41479    180.81479    524.77832   -87042.654    87085.884   -343.96352     37.20997 
154936000    285.21656    220.46312    418.43822   -87104.503    87087.157    -197.9751    37.205298 
154940000    277.52952    344.48079    375.20184   -87085.914    87101.082    -30.72105    37.206652 
154944000    277.89601    387.53803    281.04207   -87098.997    87098.261    106.49596    37.206036 
154948000     306.2515     330.3062    370.07129   -87117.971    87110.804   -39.765084    37.207742 
154952000    269.46689    496.02775     278.9435   -87150.729     87153.33    217.08425    37.211804 
154956000     317.6113      496.798    446.67804   -87168.853    87164.303    50.119965    37.211212 
154960000    267.95863    255.78115    265.97408    -87169.09    87201.516   -10.192933    37.216039 
154964000    286.73358    316.15015    472.73519   -87188.896    87189.955   -156.58504     37.21496 
154968000    250.85479     299.4657    231.71763    -87217.09    87235.011    67.748065    37.216931 
154972000    264.23973    487.08771    316.93971   -87233.803    87252.404      170.148     37.20908 
154976000    273.65248    224.84027    242.55972   -87251.927    87275.611   -17.719443    37.208972 
154980000    273.91233    348.07669     348.4463   -87281.013    87277.293  -0.36960494    37.209904 
154984000    281.55473    380.89257    406.84319   -87272.649    87302.899   -25.950619    37.201395 
154988000    255.95077    408.91008    296.11334   -87249.624    87283.378    112.79675    37.197349 
154992000    245.85162    270.66333    322.47746   -87270.161    87274.597   -51.814135     37.19983 
154996000    270.49187    235.69477    247.92655   -87302.718    87326.001   -12.231779    37.205845 
155000000    249.27056    164.04732    206.54989   -87309.911    87349.691   -42.502573    37.204059 
155004000    304.36317    176.47834    302.42829   -87360.582    87368.536   -125.94996    37.201031 
155008000    291.53917    383.20183    170.50752   -87357.938     87378.58     212.6943    37.209183 
155012000    286.32891    414.78665    305.63724   -87371.079    87395.981    109.14942    37.203574 
155016000    296.65699    428.19035    331.28365   -87399.142    87402.327    96.906695    37.206269 
155020000     345.6259    415.86494    382.75829   -87458.375    87415.526    33.106642    37.209532 
155024000     279.3404     369.0982    356.52858   -87443.275    87466.793     12.56962    37.211717 
155028000    260.38324    486.74584    203.11819   -87452.098    87484.587    283.62765    37.219758 
155032000    267.28184    383.73042    430.34435   -87488.884    87511.031   -46.613932    37.219043 
155036000    309.63289    661.01963    455.01693    -87514.34    87529.194    206.00271    37.220619 
155040000    306.34874    426.15465    286.40648   -87549.074     87555.56    139.74817    37.211316 
155044000    297.84667    385.48086    282.08508   -87569.206    87582.557    103.39579    37.216567 
155048000    272.51575    217.57651    408.02365   -87588.316    87599.957   -190.44713    37.213428 
155052000    265.03281    347.44428    470.10166   -87608.566    87636.391   -122.65738    37.208262 
155056000    307.13576    350.43944    313.65137   -87636.511    87635.236    36.788067    37.204147 
155060000    274.28046    262.99728     362.2863    -87663.71    87682.878    -99.28902    37.206281 
155064000    310.67265    288.24679    241.13662   -87705.072    87696.532    47.110172    37.211282 
155068000    263.46733    329.52291     170.3482   -87704.561    87733.901    159.17471     37.21366 
155072000    271.30322    228.10156    274.09725   -87731.627    87746.547   -45.995688    37.214581 
155076000    283.08814    264.87216     278.6934   -87745.804    87776.629   -13.821244     37.21727 
155080000    319.25629    293.36931    352.69468   -87812.084    87796.412   -59.325363    37.221113 
155084000    275.74359    307.59149     255.8899   -87813.687    87854.682    51.701583     37.22001 
155088000    269.60745    276.01398    284.04357   -87840.731    87869.437   -8.0295889    37.216265 
155092000    265.12067    608.30748    249.40154   -87880.083    87905.776    358.90594    37.220725 
155096000     244.0925    159.16286    256.31452   -87899.902    87936.717   -97.151658    37.218158 
155100000    279.11734    448.71116    339.64355    -87925.85    87945.551    109.06761    37.216692 
155104000    310.26631    346.63373    432.09925   -87941.671    87939.981   -85.465521    37.209543 
155108000     267.9569    459.01036    428.72025   -87946.255    87963.505    30.290115    37.200827 
155112000    281.71789    562.73188    199.97822   -87958.435    87977.558    362.75366      37.1912 
155116000    268.88284    361.01179    375.37862   -87973.593    88007.344    -14.36683    37.184259 
155120000     285.7624    184.90525    336.93111    -87983.13    88004.664   -152.02586    37.186812 
155124000    242.19462    306.67664    232.75337   -87987.996    88040.925    73.923276     37.18783 
155128000    292.21195    516.89735    215.07726   -88021.208    88033.854    301.82009    37.183513 
155132000    315.18906    425.80502    398.03499   -88048.494    88055.434    27.770038    37.178029 
155136000     312.0128    557.60107    405.05328   -88069.483    88065.529    152.54779    37.171484 
155140000    322.88075    323.61793     258.6546   -88093.514    88076.724    64.963332    37.172553 
155144000    274.72637    497.96315    161.90329   -88098.031    88103.869    336.05987    37.175843 
155148000    277.29115    432.28356    375.69695   -88120.039    88151.296    56.586606      37.1711 
155152000    270.00906    383.89858    229.68094   -88133.509    88177.386    154.21764    37.165719 
155156000    267.57102     379.7864    299.91819   -88178.542    88194.658    79.868207    37.163801 
155160000    293.01375      292.069    292.98973   -88198.579    88227.323   -0.9207382    37.163007 
155164000    308.56946    226.23867    331.02799   -88231.021    88228.053   -104.78932    37.165536 
155168000    264.49743    262.63656     300.4985   -88221.161    88246.545   -37.861931    37.157049 
155172000    262.58746    219.61475    332.33174   -88241.931    88258.437   -112.71699    37.157096 
155176000    293.67298    286.43429    231.10632    -88258.67    88287.491    55.327971    37.159224 
155180000    273.25818    337.61963    231.37864   -88273.604    88284.489    106.24099    37.156553 
155184000    281.94638    407.80355    214.96097   -88271.053    88297.758    192.84258    37.155972 
155188000     259.1126    269.63946    321.26256   -88289.045    88323.462   -51.623106    37.161355 
155192000    275.52817    447.11145    331.09143   -88334.156    88341.438    116.02002    37.160561 
155196000     304.4957    569.56381    268.84796   -88374.574    88383.392    300.71585     37.15804 
155200000    306.12124    268.59656    346.70274   -88396.765     88396.46   -78.106175    37.155527 
155204000    266.45019    370.30227    236.91168   -88385.279    88428.443    133.39058    37.150584 
155208000    310.05889      207.919    243.39071   -88437.007    88437.316   -35.471703    37.147898 
155212000    294.49449    488.05743    156.32586   -88444.113    88443.362    331.73157    37.145022 
155216000    268.00737    513.51801    233.42257   -88441.782    88450.846    280.09544    37.154978 
155220000    263.00578     201.1574    359.47957   -88438.728    88461.201   -158.32217    37.150678 
155224000    290.58567    268.85751    278.86325   -88466.624    88477.406   -10.005741    37.141973 
155228000    263.64312    269.75914    217.94132   -88480.839    88489.173    51.817824    37.143246 
155232000    300.55299    282.08978    369.50518   -88503.102    88524.198   -87.415402    37.138868 
155236000    262.34253    312.60416    333.17433    -88520.72    88544.335   -20.570166    37.134891 
155240000    279.25902    547.71033    580.58349   -88549.792    88556.334   -32.873153    37.129238 
155244000     292.2704    319.05723     325.0021   -88560.572    88580.963   -5.9448675    37.124902 
155248000    289.39987    372.37331    237.56926   -88584.772    88589.654    134.80405    37.124922 
155252000    284.03892    316.60335    177.70152   -88610.479    88635.593    138.90183    37.117261 
155256000    258.78198    254.44613    343.21232   -88614.424    88647.102   -88.766195    37.118121 
155260000    289.47308      512.071    194.69377   -88646.267    88650.326    317.37723     37.11617 
155264000    292.95413    235.17961    434.08636   -88632.153     88665.34   -198.90676    37.110861 
155268000    269.34496    219.86874    256.74744   -88667.114    88676.553   -36.878697    37.106036 
155272000    283.11999    242.79449    499.79518   -88679.785    88688.595   -257.00069    37.105004 
155276000    240.55764    471.86913    304.01889   -88679.229    88716.633    167.85024    37.106068 
155280000     266.1921    268.50824    234.25884   -88692.258    88720.707    34.249392    37.106443 
155284000    279.76223     247.9928    302.18345    -88710.04    88734.123   -54.190651     37.10477 
155288000    273.13281    397.98362    194.65265   -88750.368    88769.274    203.33096    37.098073 
155292000    277.24013    363.40618    213.28884   -88762.885    88783.914    150.11734    37.100322 
155296000    303.56479     412.6518    375.36165   -88753.967    88764.282     37.29015    37.103516 
155300000    306.29543    329.83444     252.1793   -88781.504     88796.73    77.655134    37.106763 
155304000    288.31684    319.40196    280.62444   -88804.116    88808.107    38.777518    37.108956 
155308000    287.91712    354.50673    167.52325   -88830.259    88847.542    186.98348    37.107125 
155312000    257.65982    256.94905    478.20031   -88826.195    88852.523   -221.25126    37.100674 
155316000    248.91732    299.18058    378.47634   -88835.701    88884.176    -79.29576    37.098456 
155320000    276.93369    358.47517    444.79151     -88873.2    88907.158   -86.316344    37.089564 
155324000    291.78903    398.16479    382.99008   -88930.748    88921.892    15.174709    37.090109 
155328000    322.17316    864.93931    317.45697   -88950.662    88937.736    547.48234    37.087191 
155332000    297.52267    266.49513    276.84967   -88981.195    88980.422   -10.354542    37.081975 
155336000     293.8605    292.28483    385.06841   -88999.436    88992.401    -92.78358    37.085684 
155340000    286.71397    257.57341    312.88767   -89008.455    89020.411   -55.314261    37.086665 
155344000     276.2002    217.64024     179.5164   -89015.344    89026.736    38.123839    37.088359 
155348000    282.38149    494.55193     514.8174   -89028.553    89042.849   -20.265472    37.089076 
155352000    299.76189    650.80031    430.71861   -89041.533    89042.678     220.0817    37.086956 
155356000    282.25251    206.82252     144.8087    -89070.86    89087.896    62.013827    37.092591 
155360000    317.93958    440.06785    329.65095    -89093.06    89100.285     110.4169    37.089629 
155364000    283.79518    269.76883    497.19732   -89090.634    89113.414    -227.4285    37.084163 
155368000    281.37955    331.64571    266.72939   -89124.945    89136.748    64.916315    37.079398 
155372000    256.43558    225.45179     321.8584    -89134.05    89177.947   -96.406603     37.07275 
155376000    295.79993    379.24572    272.55651   -89179.733      89190.2    106.68921    37.073243 
155380000     304.6628    385.48446    387.59898   -89204.377     89207.47   -2.1145235    37.072846 
155384000    318.94269    497.64189     729.3737   -89212.481    89213.648   -231.73181    37.081006 
155388000    291.41293    322.32989    322.66094   -89237.485    89260.405   -0.3310505    37.077546 
155392000    261.40105    284.79864    391.78368   -89252.222    89267.598   -106.98504    37.077794 
155396000    286.13196    428.88196    365.57019   -89287.079    89297.311    63.311772    37.076176 
155400000    291.04846    626.09371    405.94858    -89324.94    89348.547    220.14514    37.076183 
155404000    282.20567    436.17787    263.85154   -89361.954    89377.841    172.32633    37.077184 
155408000     262.9293    338.68932    393.01817   -89364.926    89380.036   -54.328847    37.073643 
155412000    275.54752    503.35021    273.39832   -89374.899     89398.26    229.95189    37.084948 
155416000     227.1731    455.50817    211.81239   -89381.106     89434.43    243.69578    37.087594 
155420000    273.94108    388.78351     305.0895   -89406.692    89433.819    83.694009    37.086201 
155424000     273.4464    288.74156    276.23773   -89440.551    89455.282    12.503832    37.087025 
155428000    291.48269    276.94249    476.10941   -89457.896    89477.778   -199.16692    37.087491 
155432000    266.08921    221.61689     247.7575   -89467.182    89490.051   -26.140619    37.087323 
155436000    245.22166    220.51494    281.96604   -89481.091    89524.834   -61.451104    37.074011 
155440000     295.9044    470.92883    322.38897   -89537.926    89543.266    148.53986    37.073202 
155444000    260.52619    298.16162    285.53195   -89522.427    89550.779    12.629669    37.074282 
155448000    286.64518     251.9163    362.89884   -89541.834    89563.818   -110.98255    37.072995 
155452000     271.1892    393.85514     346.9316   -89532.423    89576.051    46.923542    37.069279 
155456000    245.98711    292.19772    343.54361   -89548.694    89588.549   -51.345885    37.067103 
155460000    269.34701    339.98006    224.72769   -89602.677    89621.394    115.25237    37.067612 
155464000    285.96735    331.67364    266.61153   -89623.213    89633.258    65.062116    37.068776 
155468000    258.53543    303.00837    361.88927   -89658.518     89674.87   -58.880893    37.074685 
155472000    276.91617    399.76607    246.00922   -89658.667    89689.102    153.75685    37.075505 
155476000    283.29533    303.65892    341.14222   -89681.599    89698.913   -37.483305    37.076982 
155480000    266.49153    165.26178    441.82273   -89695.857    89715.096   -276.56095    37.076635 
155484000    285.77711    419.25491      234.464   -89710.043     89735.73    184.79091    37.079667 
155488000    292.05628    351.00506    212.43581    -89722.76    89738.136    138.56925    37.091735 
155492000    266.93216    257.36014     378.7631   -89746.863    89766.317   -121.40296     37.08665 
155496000    282.44147    267.56925    376.36368    -89776.63     89787.27   -108.79443    37.090015 
155500000    277.76188    322.64155     451.4076   -89803.473    89809.214   -128.76605    37.097807 
155504000    275.13121    288.30015    334.53609   -89802.018    89820.316   -46.235939    37.096404 
155508000    273.37053    287.62739    241.12819   -89808.101    89833.005    46.499198    37.092225 
155512000    292.69468    166.40595    266.50444   -89833.719    89840.426   -100.09849    37.096713 
155516000    305.21441    430.61324    356.40663   -89836.021    89854.968     74.20661    37.093396 
155520000    273.25187     424.6276    392.88506   -89850.982    89861.706    31.742542    37.097971 
155524000     261.6513    237.67098    252.09881   -89873.777    89898.853   -14.427837    37.094054 
155528000    310.00385    366.10319    445.64663   -89910.025    89927.619   -79.543438    37.092446 
155532000    314.01893     469.9256    369.82549   -89924.059    89936.394    100.10011    37.095996 
155536000    283.11215    344.36925    343.66978   -89958.718    89966.701    0.6994758    37.096062 
155540000    289.12681     559.6127    267.48248   -89981.155    90002.886    292.13022    37.094111 
155544000    246.95529    333.49163    292.25177   -89992.401     90036.82    41.239861    37.089425 
155548000    262.41167    240.88348    343.95473   -90015.789    90041.893   -103.07126     37.08268 
155552000    282.98405    670.40649    226.59724   -90036.815    90041.668    443.80925    37.082189 
155556000    302.57704    395.54102    388.28671   -90060.663    90055.858    7.2543145    37.087285 
155560000    285.39862    507.69384    316.41742   -90078.307    90086.878    191.27642    37.088886 
155564000    273.96218    326.23671    210.73506    -90089.63    90099.564    115.50165    37.087803 
155568000    291.65835    388.12295    351.46943   -90096.019    90101.394    36.653512    37.094243 
155572000    283.96285    330.38341    200.14324   -90132.419    90138.409    130.24017    37.107085 
155576000    286.80466    333.50003     281.3393   -90162.157    90137.511    52.160732    37.102656 
155580000    282.36325    378.37926    166.63265   -90166.409     90183.74    211.74661    37.105455 
155584000    270.03923    205.92452    468.07182   -90178.504      90201.1    -262.1473    37.102436 
155588000    293.73274    426.36159    357.17126   -90203.328    90206.733    69.190335    37.104509 
155592000    266.15248    358.84171    344.88485   -90211.989    90237.708    13.956864    37.106649 
155596000    298.72874    321.28651    272.73956   -90239.665    90242.591    48.546947    37.097091 
155600000    294.37611    378.22728    403.10747   -90272.347     90270.98   -24.880191    37.100026 
155604000    292.32128    403.82805    371.57302   -90299.623    90307.126    32.255034    37.108878 
155608000    285.46032    318.45572    237.18831   -90312.656    90345.195    81.267411    37.110889 
155612000    288.06623    307.10675    305.87649   -90348.383    90374.666    1.2302571    37.102617 
155616000    287.18625    320.93182    344.27284   -90362.831    90371.333   -23.341015    37.106495 
155620000    267.20827    240.72435    286.19562   -90376.364    90400.323   -45.471272    37.098877 
155624000    259.80815    367.88834    292.32256   -90400.511    90429.792    75.565776    37.100588 
155628000    264.96968    347.70595    278.41458   -90424.582    90442.531    69.291362    37.097299 
155632000    308.82976    369.28574    358.49433    -90437.45    90440.225    10.791409    37.096146 
155636000     278.3396     293.0527    461.46929     -90428.3    90459.243   -168.41659    37.092967 
155640000    266.94646    540.33857    194.90943   -90470.528    90505.825    345.42914    37.096681 
155644000     272.9376     193.7796    242.17883   -90505.282    90511.357   -48.399235    37.095687 
155648000    292.97172    409.23257     254.8218    -90545.62    90565.062    154.41076    37.088589 
155652000    280.65885    360.63828    291.88839   -90555.377    90572.969    68.749892    37.079308 
155656000    281.49999    246.60237    228.20894   -90568.001    90591.137    18.393428    37.083644 
155660000    276.78898      337.133    276.74843   -90593.594    90626.006    60.384571    37.085112 
155664000     274.9202    356.14726    368.62869   -90604.081     90619.84   -12.481437    37.081887 
155668000    268.91968    438.41948    310.38111   -90611.184    90644.135    128.03838    37.083667 
155672000    300.84655    539.68766    426.17268   -90641.519    90642.596    113.51498    37.086125 
155676000    266.31651    227.40198    231.66452   -90622.785    90651.787    -4.262537    37.083022 
155680000     270.4349    363.69109    263.80492   -90644.646     90650.05    99.886165    37.080278 
155684000    294.49316     166.5475    173.52176   -90660.922    90673.383   -6.9742543    37.076434 
155688000     286.9261    349.41068    185.93955   -90693.899    90707.741    163.47113    37.078773 
155692000    263.53163    270.79378    392.30771   -90714.899    90724.972   -121.51393    37.075878 
155696000    311.22185    345.41598     429.7707   -90752.265    90751.514   -84.354726    37.064364 
155700000    287.38208      401.225    158.66681   -90781.755    90775.474    242.55819    37.064668 
155704000    259.74594    361.98952    287.34104   -90785.987    90817.517    74.648484     37.06303 
155708000    313.16783     318.5789    334.16639   -90833.418    90824.982   -15.587483     37.05577 
155712000    275.85476    244.82324    256.98238   -90839.449    90858.007   -12.159144    37.061319 
155716000    294.35386    382.64999    237.05964   -90855.017    90853.464    145.59036    37.060755 
155720000    296.58883    448.96615    361.07112   -90875.968    90895.476     87.89503    37.062112 
155724000    294.75445    507.12466    352.49107   -90894.807    90901.706    154.63359    37.066865 
155728000    284.08764    427.85585    306.59274   -90897.106    90930.474    121.26312    37.070394 
155732000    282.72054     421.7488    263.34426   -90900.365    90915.672    158.40454    37.074072 
155736000    306.09665    326.77519     248.5776   -90929.062    90935.735    78.197589    37.075296 
155740000    279.72521    426.27069    627.58471   -90931.528    90956.738   -201.31402    37.077998 
155744000    289.41425      280.806     260.2185   -90938.734    90957.898    20.587503    37.081798 
155748000    268.74714     329.7362    228.39187   -90974.078    90997.785    101.34433    37.081973 
155752000    290.21054    288.65838     537.2013   -90980.751     91000.46   -248.54292    37.080476 
155756000    241.40831    378.02679    189.74859   -90983.894    91036.503     188.2782    37.073496 
155760000    281.16965    260.41184    299.64929   -91031.026    91038.933   -39.237446    37.065477 
155764000     297.3404     376.0425    327.94634   -91065.519    91062.986    48.096163    37.069572 
155768000    266.51386    287.89601    555.23843   -91087.837    91113.815   -267.34243    37.065877 
155772000    284.11942    451.43777    370.97492   -91112.765    91132.819    80.462859    37.065132 
155776000    303.82387    432.56679    482.92374   -91117.318    91121.841   -50.356949     37.05944 
155780000    259.62844    405.07572    405.08263   -91095.289    91117.412 -0.0069134861    37.059152 
155784000    262.32543    362.27477    241.96788   -91111.182    91130.381    120.30689    37.058454 
155788000     311.5972    540.64527    279.37688   -91136.338    91148.069     261.2684    37.055895 
155792000    278.78511    441.79361    396.72327   -91141.323    91154.564    45.070343    37.049014 
155796000     282.8568    589.45532    450.99056   -91140.624    91165.525    138.46476    37.044662 
155800000      287.545    353.18512    241.00978   -91152.659     91197.01    112.17534    37.046033 
155804000     269.8586    374.39234    383.35998   -91176.044    91204.546   -8.9676378    37.052875 
155808000     271.8673    454.65016    459.45722   -91207.108    91224.426   -4.8070557    37.055402 
155812000    259.46915    402.94316    224.28645   -91228.283    91259.429    178.65671    37.051576 
155816000    265.18824     551.4363    250.70349   -91268.577    91291.045     300.7328    37.057979 
155820000    282.63829    265.45678    365.72184   -91270.043    91291.848   -100.26506    37.055824 
155824000    297.05275    466.34491    328.27955   -91296.895    91306.617    138.06535    37.051729 
155828000    289.50639    386.63711    237.93364   -91302.258    91309.871    148.70347    37.055041 
155832000    315.20557    315.54775    295.00758   -91276.584    91280.894    20.540176    37.066799 
155836000     285.3445    436.19905    436.93452   -91292.433    91303.792  -0.73546586    37.073486 
155840000    269.36632    271.17323    234.01345   -91299.716    91319.283    37.159783    37.071053 
155844000    294.97227    359.73553    328.70129   -91317.495    91328.438     31.03424    37.066913 
155848000    276.66384    229.91564    449.69405    -91345.44    91362.401   -219.77841    37.058426 
155852000    261.11374    297.08424     337.6992   -91371.394    91399.077   -40.614963    37.061399 
155856000    324.49233    333.92077    336.27074    -91405.45    91387.817   -2.3499693    37.058897 
155860000    301.53678    590.23378    273.67773   -91423.497     91425.96    316.55605    37.059693 
155864000    284.53899    531.89306    457.39812   -91431.524    91446.667    74.494938    37.060772 
155868000    311.84967    359.95089    348.36061   -91476.856    91478.106    11.590284    37.065263 
155872000    289.31697    319.91927    307.00534   -91491.054    91525.324    12.913927    37.067253 
155876000    281.67009    530.62174    207.36182   -91539.514     91547.72    323.25992    37.062791 
155880000    302.99038    389.56132    426.51755   -91562.015    91565.705   -36.956232    37.061477 
155884000    312.04884     390.2764    266.02832   -91564.077    91562.422    124.24809    37.061681 
155888000    276.58953    446.31127    590.23648   -91552.669    91566.563    -143.9252    37.055085 
155892000    290.18766    522.75389    306.68474   -91598.331    91622.494    216.06915    37.061733 
155896000     324.3375    449.23569    327.79362   -91622.038    91626.848    121.44206    37.057999 
155900000    284.17918    337.16825    318.46701   -91661.214    91680.914    18.701241    37.060912 
155904000    272.96285    331.86318    250.01094   -91655.741    91677.688    81.852243    37.060927 
155908000    295.41399    592.49553    395.78202   -91669.168    91676.684    196.71351    37.060392 
155912000    276.83815    291.46906    263.85819   -91680.502    91694.564    27.610872    37.060685 
155916000    284.49526    336.15147     318.7024   -91708.593    91718.415    17.449071    37.060396 
155920000    285.57193    299.42068    340.78866   -91729.048    91742.509   -41.367976     37.06325 
155924000    296.41452    197.46233    303.63064   -91750.892    91771.969   -106.16831    37.063766 
155928000    310.36406    316.69396    296.50875   -91759.978    91784.244    20.185208    37.060483 
155932000    262.44162    362.49824    260.89437   -91782.682    91809.887    101.60387    37.052817 
155936000    279.58305    196.09319    317.20399   -91802.244    91830.418   -121.11079    37.051416 
155940000    317.26531    403.95665    125.95373   -91840.642    91844.381    278.00292    37.049305 
155944000    301.93953    389.56249    289.61391    -91873.31    91888.504    99.948574    37.048636 
155948000    275.09714    359.81689    308.88282   -91875.491    91899.408    50.934071    37.043807 
155952000    298.42684    339.36444     386.4531   -91887.176    91902.212   -47.088655    37.037261 
155956000    305.17212    411.40838    360.59864   -91914.371    91908.012    50.809742    37.038254 
155960000     286.3591    371.87053    568.99658   -91936.552    91936.182   -197.12605    37.031276 
155964000    272.33748    575.33645    257.36437   -91942.795    91955.766    317.97208    37.032524 
155968000    302.58706    385.45852    459.42905   -91954.896    91948.875   -73.970528    37.027824 
155972000    299.71389    573.80647    555.06668   -91955.668    91969.899    18.739798    37.030812 
155976000    297.10807    449.63838    209.67431   -91988.464    92008.157    239.96407    37.035222 
155980000    291.90351    558.15274    292.38157   -92025.718    92027.494    265.77116    37.034063 
155984000    307.55816    450.36576    317.34094   -92016.967    92002.526    133.02483    37.037635 
155988000    284.94444    356.76491    512.97649   -92012.118    92026.879   -156.21158    37.037222 
155992000    268.75597    218.73175     283.8467   -92029.655    92040.751   -65.114941     37.03561 
155996000    288.42761    317.64498     432.2148   -92028.404    92045.613   -114.56982    37.025357 
156000000    278.31125    580.45804     334.4477   -92047.131    92072.206    246.01035    37.026838 
156004000    254.23226    385.29416    143.95221    -92054.75     92086.84    241.34195    37.023728 
156008000    315.56569    475.13084    638.13577   -92090.865    92085.245   -163.00493    37.014585 
156012000     278.2229    269.92834    505.17345   -92086.788    92113.268   -235.24511    37.020498 
156016000      284.808    302.59129    377.99506   -92138.949    92147.277   -75.403767    37.018841 
156020000    302.98731    320.61881    322.58712   -92169.828    92164.886    -1.968309    37.023241 
156024000    276.86923    359.15552    276.39913   -92192.963    92222.908     82.75639     37.01614 
156028000    285.81414    379.27062    370.69804   -92215.121    92222.052    8.5725843    37.011826 
156032000    265.53342    415.80373    440.33494   -92212.929    92253.947   -24.531212    37.015561 
156036000    270.43661    564.85116    387.11979   -92223.137    92252.476    177.73137    37.027185 
156040000    279.67242    488.09438    365.08086   -92251.877    92281.276    123.01352    37.028226 
156044000    275.14916    347.43074    220.53968   -92266.921    92296.269    126.89106    37.027006 
156048000    284.17735    329.37451    286.05685   -92293.467    92308.953    43.317656    37.022684 
156052000    278.27928    238.21931    448.58084   -92296.133    92324.681   -210.36153    37.019336 
156056000    301.75251    635.89798    340.92291   -92343.993    92340.811    294.97507    37.021241 
156060000      265.501    346.13394    407.81251   -92328.365    92363.584   -61.678573     37.02368 
156064000    274.14872      399.999    284.05747   -92344.274    92361.122    115.94154    37.026988 
156068000    291.24214    203.19475    391.20363   -92351.305    92358.929   -188.00889    37.018069 
156072000    295.16682    418.29437    212.64041   -92379.113    92391.335    205.65397    37.021391 
156076000    283.93748    350.34343    374.07757   -92409.586    92429.108   -23.734147    37.018383 
156080000    262.37033    248.13705    220.51856   -92401.477    92423.455    27.618483    37.018461 
156084000     292.2134    328.44186    435.55025   -92428.172    92448.131   -107.10838    37.011801 
156088000    290.11416    309.63774    365.53134   -92458.614    92464.061   -55.893605    37.009525 
156092000    266.75233    320.32814    254.61521    -92470.96    92499.446    65.712931    37.013406 
156096000    299.70235     368.8827    286.26193   -92494.438    92525.169    82.620771    37.017523 
156100000    271.45808    328.34982    222.46409   -92529.701    92532.507    105.88573    37.018182 
156104000    275.41041    336.24948    528.34281   -92525.865    92559.622   -192.09332    37.009577 
156108000    278.90072    261.98049    277.04467   -92543.468    92574.107   -15.064171    37.010478 
156112000    245.50434    334.29548    207.91497   -92564.615    92614.322    126.38052    37.009417 
156116000    272.72715    330.57987    181.99043   -92600.043    92632.383    148.58944     37.01917 
156120000     268.9755    318.15271    218.57609   -92638.469    92644.389    99.576616    37.019644 
156124000    287.29013    255.52449    341.99054   -92658.625    92678.435   -86.466052    37.009648 
156128000    265.07752     417.4888    405.75593   -92684.367    92710.879    11.732865     37.00704 
156132000    269.13499    358.95225    228.04315   -92705.865    92720.788     130.9091    37.018757 
156136000    285.80316    301.03151    222.32992   -92708.814    92729.115    78.701585     37.01609 
156140000     284.1618    278.16716    356.63741   -92734.806     92736.48   -78.470247    37.020908 
156144000    256.91016    259.45874    259.55688   -92739.563    92762.424  -0.09814139    37.015388 
156148000    283.82614    200.14977    346.03429   -92766.784    92772.489   -145.88453    37.022903 
156152000    284.41003    235.13658    467.55762    -92776.94     92769.81   -232.42103    37.024388 
156156000    299.19872     337.0565     371.7167   -92787.316    92791.187   -34.660197    37.021531 
156160000    286.15864    225.39433    390.80368   -92804.486    92808.797   -165.40934    37.027507 
156164000    282.88129    355.01634    263.60521   -92821.564    92835.714    91.411131    37.031749 
156168000    284.09907    337.10816    279.71161   -92818.559    92832.409    57.396549     37.03718 
156172000    270.04417    302.68076    325.43944   -92815.336    92835.775   -22.758688    37.042242 
156176000    289.44048    232.53597    223.22377   -92813.289    92819.024    9.3121967    37.040602 
156180000    297.50051    423.42101     248.5394   -92856.129    92831.364    174.88161    37.044391 
156184000     301.3235    341.70553    233.41484   -92842.745    92833.716    108.29069    37.043251 
156188000    267.55113    267.36562    331.04591    -92834.19     92861.52    -63.68029    37.038831 
156192000    275.80247    442.30275    298.34133   -92857.331    92870.349    143.96142    37.039088 
156196000     302.2393    325.50748    343.06277   -92895.897    92906.394   -17.555296    37.040671 
156200000    287.84208    425.32142    302.39438   -92914.233    92919.131    122.92704    37.042387 
156204000    266.79384    515.95763    197.49728   -92910.604    92933.333    318.46035     37.04646 
156208000    310.00961    450.73726    407.82568   -92942.146    92934.885    42.911583    37.043247 
156212000    237.90124    245.11105    271.73749   -92947.147    92983.274   -26.626442    37.046161 
156216000    308.80093    505.35497    322.95785   -93005.848    93000.876    182.39713    37.047065 
156220000    270.53491    297.10409    202.74163   -93012.993     93021.61    94.362463    37.044307 
156224000    313.40695    437.54149    362.20362   -93044.242    93041.999    75.337866    37.043833 
156228000    282.51697    283.82558    268.10991   -93069.385    93077.204    15.715668    37.047473 
156232000    267.47918    276.61733    235.92034   -93077.006    93110.178    40.696983    37.046943 
156236000    291.63026    265.95247    294.77524   -93104.489    93121.727   -28.822773    37.047871 
156240000    307.62176    257.93973     348.0595   -93148.795    93137.564   -90.119768     37.04876 
156244000    291.13031    241.07187    443.28288   -93150.138    93176.989   -202.21101    37.043738 
156248000    277.04773    401.95739    354.79189   -93179.661    93187.472    47.165496    37.044765 
156252000    291.25559    402.02768    387.01839   -93199.574    93201.535    15.009287    37.039696 
156256000    314.09323    386.76184    429.08301   -93255.656    93248.373   -42.321172    37.036726 
156260000    310.45834    464.76462     299.3256   -93248.917    93245.058    165.43902    37.032988 
156264000    270.40195    542.78299    425.62736   -93259.758    93290.712    117.15563    37.036213 
156268000    279.98701    511.85387    336.20815   -93307.009    93321.093    175.64571    37.034617 
156272000    273.61716    305.60331    270.64478   -93344.755    93347.406    34.958524    37.036051 
156276000    259.29934    359.01289    289.03329    -93356.14      93396.4    69.979605    37.029933 
156280000    286.02467     236.8448     210.7835   -93377.724     93398.92    26.061291    37.027219 
156284000    298.06254    355.98181    437.86335   -93400.938    93404.272   -81.881537    37.030917 
156288000    282.88543    390.12981    307.56569    -93426.21    93419.189    82.564123    37.030523 
156292000    282.60748    245.60388    251.67443   -93429.653    93427.454   -6.0705503     37.01938 
156296000    289.06523    402.28636    470.97009   -93454.675    93448.791   -68.683734    37.020518 
156300000    300.78289    269.75276    458.71515   -93457.207    93476.962   -188.96239    37.018051 
156304000    272.32188    327.20265    329.49623   -93481.158    93505.762   -2.2935786    37.011091 
156308000     291.7645    439.60444    310.32459   -93495.634    93524.026    129.27985    37.015656 
156312000    290.00214    400.80856    353.36136   -93526.201     93539.98    47.447208    37.011165 
156316000    284.49096    370.00051    264.38049   -93538.801    93550.998    105.62003    37.011475 
156320000    272.43404      347.965    360.90594   -93572.341    93567.229    -12.94094    37.005626 
156324000    279.49586    347.12086    298.93977     -93581.1    93593.813    48.181089    37.005335 
156328000    293.90116    294.43034    337.33519   -93600.615    93607.268    -42.90485    36.996384 
156332000    311.33085    370.03095    460.76524    -93618.56     93624.42   -90.734287    37.003178 
156336000    273.99644    394.10506    353.90856   -93635.314    93659.575    40.196502    37.006389 
156340000    267.45756     288.8363    195.22245   -93643.858    93677.043    93.613853     37.00919 
156344000    289.77487    258.99494    396.07605   -93682.904     93704.12   -137.08112    37.010628 
156348000    273.39369    357.25525    162.06913   -93708.499    93717.092    195.18611    37.008465 
156352000    280.00441    633.78762    269.69988   -93716.279    93727.533    364.08774    37.006193 
156356000    286.63521    458.38909    386.13333   -93712.382    93719.347    72.255761    37.002498 
156360000    303.39838     378.4488    207.08833   -93728.107    93729.608    171.36047    37.005521 
156364000    297.10748    370.91796     324.6463   -93754.495    93762.668    46.271656    37.001499 
156368000    272.36884    360.08162    349.91254   -93747.118      93776.1    10.169083    37.005902 
156372000    278.47126    309.12401    388.65006   -93758.121    93782.765   -79.526046    37.002094 
156376000    271.67564    256.32197    255.84354   -93772.006    93807.732   0.47842881    36.997432 
156380000    275.31966    328.69488    393.43733   -93808.259    93812.168   -64.742446    36.990297 
156384000    284.96121    364.22526    297.11864   -93816.503    93845.308    67.106612    36.987269 
156388000    263.49182    341.74195    401.59212   -93847.603    93877.859   -59.850169    36.984527 
156392000    274.35796    235.00329    352.61863   -93877.079    93901.008   -117.61534    36.986418 
156396000    306.03879    437.82771    292.63644   -93922.077    93930.119    145.19127    36.984252 
156400000    261.90945    468.17633    404.91956   -93943.203    93970.204    63.256764    36.974835 
156404000    277.17338    330.90353    435.02678   -93963.543    93982.167   -104.12325    36.975302 
156408000    289.09813    451.86704    341.67687   -93983.909    93989.154    110.19017    36.974276 
156412000    246.48532    225.33091    511.33978   -93973.946    94008.014   -286.00888    36.975466 
156416000    319.85924    393.50155    242.33546   -94033.434    94020.083    151.16609    36.977316 
156420000     286.9411     492.1066    186.71924   -94029.436    94042.751    305.38736    36.979448 
156424000    296.49058     415.5823    441.42004    -94017.33    94034.784   -25.837733    36.991787 
156428000     280.7711    229.35766    165.57183   -94026.018    94034.859    63.785826    36.994261 
156432000    297.87478    255.61151    273.80061   -94060.639    94049.638   -18.189109    36.991224 
156436000     274.1099    355.12515    385.19465   -94079.106    94099.599   -30.069504    36.993831 
156440000    300.29374    515.41958    286.82279   -94088.101    94098.945    228.59679    36.990928 
156444000    281.73919    366.88162    365.58805   -94091.654    94104.672    1.2935757    36.996175 
156448000    283.39872    329.00741    338.45701   -94088.853    94109.012    -9.449597    37.000254 
156452000    262.08409    285.19776     409.5462   -94111.058    94141.892   -124.34844    36.993632 
156456000    283.33409    349.17544    179.45967   -94129.041    94149.969    169.71577    36.998925 
156460000    284.56372    529.83357    333.56496    -94125.36     94126.46     196.2686    36.998519 
156464000    275.94905    356.10005    210.56713   -94137.656    94157.118    145.53292    37.001869 
156468000    301.74308     274.8599    411.80196   -94163.872    94167.673   -136.94206    37.001187 
156472000    265.28326    414.47528    172.93728   -94199.884    94213.524    241.53799    37.004079 
156476000    300.52804    371.49058    311.22627   -94203.332    94214.125    60.264311     37.00417 
156480000    306.76995    338.22079     250.8264   -94214.473    94201.477     87.39439    37.003455 
156484000    311.51584    372.19004    268.61369   -94235.717    94236.317    103.57634    37.006982 
156488000    294.56859    436.18851    403.68491   -94244.561    94255.765    32.503599    37.007495 
156492000    277.79631    343.77013     253.1851   -94266.522    94286.447    90.585032    37.008161 
156496000    286.95462    292.68102    367.42197   -94274.997    94291.815   -74.740947    37.007727 
156500000     297.9063    456.91752    287.17379   -94293.588    94301.945    169.74373    37.010336 
156504000    281.15822    252.84423    436.25256   -94303.313    94314.567   -183.40833    37.008838 
156508000    273.12663    312.78098    346.22286   -94311.751     94339.29   -33.441887    37.009256 
156512000    275.87377    349.71037    204.22046   -94339.175    94363.623    145.48992     37.01131 
156516000    285.65236    264.45959    215.60745   -94360.306    94384.848    48.852144    37.007291 
156520000    301.12321     338.5923    219.13583   -94363.977    94377.316    119.45647    37.009132 
156524000    270.94627    167.35415    258.79472    -94376.84    94416.626   -91.440571    37.009846 
156528000    242.84054    245.31209    179.53473   -94386.168    94436.038    65.777359    37.006923 
156532000     276.0038    505.52441    252.62633   -94409.603    94440.049    252.89808    37.009626 
156536000     278.2987    221.96358    278.34426   -94415.473     94433.36   -56.380675    37.009043 
156540000    251.88066    312.59859    250.12146   -94405.453    94446.915    62.477126    37.012304 
156544000    270.15933    260.87955    353.98886   -94435.553    94465.103   -93.109308    37.010923 
156548000    269.88938    287.20595    218.37312   -94448.144    94472.737    68.832828    37.011755 
156552000    277.62161    420.03451    312.51295   -94480.176    94478.945    107.52155    37.005493 
156556000    269.07578    352.19547    273.15926   -94463.294    94476.956     79.03621    37.004334 
156560000    275.61405    400.63409    300.07295    -94499.45    94524.296    100.56115    37.002753 
156564000    270.05191    464.36597    352.04595     -94523.6    94545.189    112.32001    37.004577 
156568000    273.79307    345.15845    376.24065   -94536.834    94566.652   -31.082208     37.01067 
156572000    284.04299    330.89322    256.92932   -94550.844    94572.959    73.963898     37.01864 
156576000    298.58931    475.22395    365.84723   -94577.463    94581.355    109.37672    37.015811 
156580000     265.8992    238.14198     455.0211   -94576.654    94587.765   -216.87912    37.013412 
156584000    312.25432    220.27312    432.92956   -94615.213    94627.595   -212.65644    37.010287 
156588000    280.57538    349.72239    269.03252   -94615.216    94639.637    80.689873    37.010826 
156592000    269.10093     251.3214    373.90713   -94645.181    94682.185   -122.58573    37.010892 
156596000    269.30943    341.57783    305.44951   -94671.114        94700     36.12832    37.008725 
156600000    307.76435    545.84989    390.15481   -94713.958     94728.29    155.69508    37.006679 
156604000    286.29658    389.42299    185.23139   -94715.707    94740.159     204.1916    37.014338 
156608000    294.93428    250.56914     399.4556   -94738.343     94735.91   -148.88646    37.010941 
156612000    278.65496    158.77928    198.95762   -94720.688    94760.822   -40.178342    37.008535 
156616000     267.7857    118.07429    336.04613   -94757.951    94770.465   -217.97184    36.998143 
156620000     255.0457    374.24227     195.3491   -94755.206    94788.296    178.89317    36.998831 
156624000    257.06877    424.14423    219.28728       -94764    94794.951    204.85695     36.99556 
156628000    293.09947    226.23493    349.61931   -94794.482    94798.285   -123.38438    36.997315 
156632000    283.71484    369.84252    307.11331   -94823.941    94831.109    62.729206    36.997523 
156636000    290.52306    358.78197    317.32879   -94835.433    94863.737    41.453178    36.987061 
156640000    289.32477    443.26182    481.24513   -94846.491    94863.603   -37.983314    36.984529 
156644000    272.73505    389.85403    343.05583   -94864.922    94869.827    46.798205    36.987028 
156648000    261.29852    397.62753    316.42648   -94870.465    94904.091    81.201044    36.987193 
156652000    264.05175     230.3931    382.24338   -94909.279    94929.467   -151.85028    36.980283 
156656000    322.37432    415.57465    319.43034   -94950.489    94935.729    96.144305    36.987247 
156660000    272.47201    269.10881    512.35867   -94953.532    94982.246   -243.24986    36.985762 
156664000    304.29877    428.48557     291.7378   -94997.201    94998.371    136.74778     36.99299 
156668000    277.48697    480.03529    265.87471   -95015.883    95047.449    214.16058    36.982902 
156672000    269.09502    292.50061    247.86362   -95033.307    95068.093    44.636987    36.984644 
156676000    284.58863    370.34165    430.81992   -95058.454    95076.804   -60.478265    36.982957 
156680000    281.55375    326.78855    492.47341   -95067.676    95105.854   -165.68486    36.978052 
156684000    285.19512    459.72571    282.57167   -95099.243    95116.095    177.15404    36.979845 
156688000     310.5135    307.25482    451.46152   -95099.561    95115.974   -144.20671    36.974775 
156692000    290.79178    358.77582    379.18576   -95105.603    95120.542   -20.409938    36.967398 
156696000      298.504    467.73721    271.02383   -95135.243    95139.924    196.71338    36.965495 
156700000    275.90994     196.8337    326.18708   -95164.498     95190.21   -129.35338    36.954292 
156704000    260.24289    410.66057    300.41978   -95165.058    95206.123    110.24079     36.95646 
156708000     290.2429     400.1438    639.14676   -95167.719    95183.714   -239.00297    36.953147 
156712000    275.51161    387.05126    276.30048   -95186.778    95214.019    110.75078    36.956396 
156716000    303.09335     256.9812    340.46291     -95214.3    95219.191   -83.481713    36.955065 
156720000    269.59467    344.41907    261.54206   -95206.071    95226.588    82.877004    36.952049 
156724000    301.82025    538.65662    255.96919   -95239.371    95232.356    282.68743     36.95626 
156728000    275.89484    261.49426    225.13225    -95249.39    95266.596    36.362002    36.955249 
156732000    273.03459    506.24962    270.46292   -95265.712     95282.82    235.78669    36.950128 
156736000    279.31959    378.36411    507.10449   -95248.526    95290.621   -128.74038     36.94093 
156740000    276.90059     380.0711    370.12306   -95260.505    95293.765    9.9480388    36.940935 
156744000    289.82702    319.68529    317.98329   -95322.649    95341.043    1.7020002    36.936566 
156748000    306.46115    432.22411    474.31747   -95330.952    95340.977    -42.09336    36.932934 
156752000    271.24248    636.99543    369.24882   -95338.822    95373.437    267.74661    36.932014 
156756000    279.05879    428.09183    271.69948   -95367.843    95388.071    156.39235    36.929489 
156760000    319.95881    416.28707    285.97941    -95405.26    95404.524    130.30766    36.930243 
156764000    268.55179    266.44293    412.65457   -95408.086    95436.133   -146.21164    36.933787 
156768000    267.38369    258.17437    411.59639   -95424.832    95448.703   -153.42202    36.923107 
156772000    264.57644    364.54784    181.69609   -95427.008    95445.577    182.85175    36.922381 
156776000    280.33152    503.66727    288.05899   -95435.499    95459.224    215.60828    36.917219 
156780000    303.19599    476.62649    266.26484   -95441.585    95460.374    210.36164    36.920106 
156784000     277.8888    440.57746    332.25839   -95468.755    95488.814    108.31907    36.919085 
156788000    293.44341    238.76304    420.32648   -95479.427    95501.949   -181.56344     36.90921 
156792000    266.27564    325.33125    220.10686   -95511.576    95543.751    105.22439    36.913384 
156796000    268.68072    302.32318    185.06412   -95531.408    95567.949    117.25906    36.912854 
156800000    269.39994    190.19509    396.63147   -95560.254    95590.694   -206.43638    36.911491 
156804000    263.31898    300.73102    398.02584   -95579.625    95622.109   -97.294817    36.908502 
156808000    224.64575    320.94672    303.28133   -95612.476    95659.013    17.665391    36.903767 
156812000    281.23647    298.46129     453.9271   -95628.603    95643.141    -155.4658    36.904038 
156816000    303.13117    469.74994    322.07813   -95647.669    95649.064    147.67181    36.898372 
156820000    251.55207    246.18637    296.28726   -95642.664    95674.082   -50.100898    36.900508 
156824000    262.09803    224.49165    277.91859   -95656.377    95692.481   -53.426942    36.896629 
156828000    312.60961    622.21451    486.28982   -95712.868    95698.554    135.92469     36.90264 
156832000    303.63098    415.33556    154.83776    -95717.37    95732.413     260.4978    36.898563 
156836000    281.95591     284.5287     369.2893   -95723.748    95742.874   -84.760594    36.902311 
156840000    258.56421    257.31323    221.23706   -95735.227    95748.069    36.076167     36.90327 
156844000    289.86471    360.96361    339.50138   -95755.666    95770.748    21.462232    36.903283 
156848000    232.12001    257.00771     251.3445   -95764.794    95809.461    5.6632035    36.899811 
156852000     284.3017    397.92191    412.32236   -95778.433    95798.322   -14.400452    36.897543 
156856000      308.063    273.85103     389.3678    -95794.79    95809.947   -115.51677    36.898868 
156860000    272.00012    362.86006    360.41274   -95785.576    95814.509     2.447323    36.890779 
156864000    280.78842      302.899    357.38135   -95800.315    95810.557   -54.482347    36.884788 
156868000    311.58395    581.96848      446.404   -95832.644    95831.501    135.56448    36.884522 
156872000    278.04143    351.67049    366.60903   -95832.345    95849.489   -14.938544     36.87848 
156876000    291.99366     366.1159    369.78226   -95835.198    95844.761   -3.6663556    36.873192 
156880000    293.78156    624.87399    335.43965   -95876.026    95883.029    289.43434    36.868816 
156884000    298.00947    374.17309     537.8181   -95895.964    95892.445   -163.64501    36.871335 
156888000    285.84448    378.13588    278.40691   -95906.899    95910.259    99.728977    36.868801 
156892000     289.2979    429.90133     272.0245   -95928.775    95936.551    157.87684     36.87339 
156896000     305.6262     549.8782    346.19791    -95972.22    95957.312    203.68029    36.873998 
156900000    272.19288    287.02052    355.63072   -95964.721    95998.784   -68.610199    36.868343 
156904000    291.00542    281.31569    329.70249   -95993.635    96009.598   -48.386802    36.871587 
156908000    266.50574    472.19046     237.6733   -96000.249    96038.907    234.51716    36.877834 
156912000    292.25937    338.42377     273.6407   -96041.882    96061.437     64.78307    36.879557 
156916000     258.7476    318.24225    220.05012   -96067.462    96100.449     98.19213    36.887465 
156920000    280.22164    281.52594    283.79701   -96079.715    96117.515   -2.2710734    36.889334 
156924000    304.66914    251.52957     233.9316   -96117.071    96111.574     17.59797    36.889163 
156928000    256.31428    210.85553    317.86896   -96116.252    96132.119   -107.01343     36.89326 
156932000    303.33588    151.96793    289.87639   -96147.981    96142.656   -137.90846    36.896071 
156936000    291.54368    301.84176     484.0039   -96149.369    96165.032   -182.16214    36.889979 
156940000    264.50338    515.15992    141.56598   -96159.885    96190.751    373.59394    36.892046 
156944000    280.66914    469.37335    397.37579   -96182.118    96204.245    71.997555     36.88415 
156948000    276.60217    172.97866    493.72042   -96189.113    96215.521   -320.74177    36.883696 
156952000    277.85798     251.6484    317.40559   -96216.206    96238.462   -65.757191     36.89122 
156956000    324.15082    406.89615     493.8385   -96246.968    96238.349   -86.942353    36.889497 
156960000    263.77449    402.60949    330.56603   -96269.225    96297.482    72.043465    36.887416 
156964000    260.52914    309.23138    269.04752    -96274.27     96305.13    40.183855    36.888249 
156968000    298.16067    304.64879    301.66236   -96295.909    96318.348    2.9864314     36.88284 
156972000    281.49503    269.56563    202.80545   -96303.154    96312.515     66.76018    36.884352 
156976000    283.16416    403.12335     338.6916   -96327.533     96347.14    64.431749    36.881015 
156980000    317.96876    301.07502     546.9567    -96367.69    96350.393   -245.88168    36.877892 
156984000     300.7127    416.61251    206.57173   -96357.637    96371.867    210.04078    36.884918 
156988000    284.31635      302.333    428.71477   -96390.417    96392.606   -126.38177    36.892761 
156992000    276.75015    413.69826    219.93963   -96394.924    96412.744    193.75863    36.892922 
156996000    287.48199    372.00976    598.54424   -96412.733    96425.212   -226.53448    36.885672 
157000000     298.7093    257.50985    529.83448   -96442.366    96456.142   -272.32463      36.8854 
157004000    301.35837      304.881    341.93729   -96487.315    96498.092   -37.056283    36.881343 
157008000    281.48726    434.57943    215.66777    -96506.48    96505.295    218.91166    36.882217 
157012000    259.75024    178.78399    426.56082   -96485.766    96506.777   -247.77684    36.879445 
157016000    288.42378    209.10816    267.39575   -96512.751    96529.037   -58.287592    36.869033 
157020000    321.16317    363.70887    496.50595   -96547.746    96529.046   -132.79708    36.872398 
157024000    282.92979    320.70655    228.32438   -96536.129    96553.071    92.382171    36.867608 
157028000    267.38579    352.78321       190.12   -96573.758    96587.976     162.6632    36.868084 
157032000    269.67605    308.41308    331.32203   -96591.398    96602.824    -22.90895    36.869107 
157036000     258.8943    483.99892    346.73466   -96584.337    96624.169    137.26425    36.871368 
157040000    253.80756    394.33948     224.5337   -96590.011    96622.441    169.80578    36.867332 
157044000     260.0781    288.57075     225.6692   -96614.991    96653.441     62.90155    36.865476 
157048000    276.07937    67.940524    386.83196   -96629.555    96651.756   -318.89143    36.860311 
157052000    266.22318    144.58955    331.97537   -96622.073    96663.112   -187.38582    36.862732 
157056000    271.00048    289.24994    267.78033   -96650.981    96673.345    21.469619    36.858894 
157060000    275.83083    459.63459    396.67154    -96653.65    96683.754     62.96305    36.862308 
157064000    260.78774    440.22007    320.71003   -96677.466    96689.449    119.51004    36.862369 
157068000    282.08736    353.49285    489.49463   -96686.791    96695.927   -136.00179     36.86056 
157072000    287.76046    432.79262    296.37562   -96696.842    96723.597    136.41701    36.853058 
157076000    246.81045    380.79507    215.69803   -96715.345    96758.756    165.09704    36.849268 
157080000    288.29925    363.53433    238.21093   -96732.851    96755.697    125.32339    36.850383 
157084000    301.92262      493.906    249.64245   -96748.352    96759.326    244.26355    36.847872 
157088000    272.07521    371.61264    436.31478   -96764.216    96794.433   -64.702144    36.847283 
157092000    271.64549    325.65283    399.48163   -96780.427    96808.227   -73.828805    36.854667 
157096000    254.91168    407.65207    329.06104   -96807.373     96846.83    78.591024    36.853471 
157100000    263.28246     368.8795    239.60113   -96837.586    96861.864    129.27838    36.857484 
157104000    304.78595    457.40189    334.25081   -96878.464    96875.608    123.15107    36.857487 
157108000    280.29421    223.26568    273.82398   -96877.854     96881.09   -50.558297    36.857974 
157112000    326.75631    429.50508    378.99948   -96890.868    96880.914    50.505606    36.853092 
157116000    240.21593    352.82182    216.31095   -96909.332    96940.165    136.51087    36.848732 
157120000    302.79875    419.67344     421.8629    -96907.39    96930.829   -2.1894581    36.844979 
157124000    287.49278    189.56212    241.01275    -96955.53    96970.495   -51.450629     36.84626 
157128000     305.0416    704.27743    407.43002   -96992.132    96998.111     296.8474    36.854611 
157132000    272.79557    210.17291    294.77462   -96980.465     96995.08   -84.601713     36.85083 
157136000    252.89023    327.24782    211.28763   -96998.703    97040.542    115.96019    36.848918 
157140000    282.47911     326.4884    416.67273    -97033.94    97058.125   -90.184338    36.854003 
157144000    264.98782     210.4346    405.31758   -97065.825    97095.444   -194.88298    36.851655 
157148000    293.35179    344.77659    402.93774   -97058.352    97068.986   -58.161147    36.844927 
157152000    269.89873    481.66756     305.8563   -97044.535    97082.942    175.81126    36.847867 
157156000    262.06263    389.05722    253.91163     -97067.4    97086.845     135.1456    36.843471 
157160000    278.69532    438.57225    455.05352   -97085.039    97108.542   -16.481274    36.844799 
157164000    289.35097     401.2828    418.45797   -97103.563     97124.63   -17.175174    36.852288 
157168000    285.32813    439.57294    435.69544   -97119.342    97131.834    3.8774994     36.84593 
157172000    278.06131    447.45743    438.69228   -97159.899    97199.403    8.7651544    36.842233 
157176000    304.91099    289.26654    252.19919   -97198.524    97190.399    37.067359    36.841915 
157180000    305.88185    469.56109    342.01724   -97223.498    97211.616    127.54384    36.845861 
157184000    271.62996    249.35792    303.91509   -97254.662    97262.145   -54.557169    36.850982 
157188000    269.51778     264.6568    194.79171   -97256.261    97265.154    69.865081    36.846476 
157192000    310.78227    349.87876    412.26324    -97282.76    97287.493   -62.384477     36.84273 
157196000    283.20431    414.67645    265.06772   -97299.449    97304.635    149.60873    36.845908 
157200000    272.70377    436.43867    344.49655   -97312.471    97332.051    91.942122    36.846383 
157204000    284.72889    406.39941    187.01976   -97336.466      97346.5    219.37966    36.849477 
157208000    264.19321    333.14485    237.94453   -97358.501    97386.972    95.200321    36.848711 
157212000    284.00234    463.05386    338.13395   -97395.815    97395.914    124.91992    36.848722 
157216000    309.65236    438.02177    404.97178   -97404.228    97408.443     33.04999    36.843887 
157220000    286.98997    362.03694    354.41538   -97437.025    97433.514    7.6215643    36.845643 
157224000    260.63382    403.17694    390.46076   -97445.607    97485.603    12.716182    36.842007 
157228000    288.23218     253.9381      419.503   -97451.383    97470.916    -165.5649    36.842117 
157232000    267.47913     335.9185    244.05603   -97476.929    97501.185    91.862465    36.843875 
157236000    283.93532     118.8523    536.13271   -97476.906    97500.297    -417.2804    36.841542 
157240000    295.36985    176.54063    333.71907   -97511.136    97506.388   -157.17845    36.838264 
157244000    276.64029     423.2784    267.58655   -97526.168    97542.096    155.69186    36.838683 
157248000    271.55562    378.98984    319.90219   -97543.592    97565.775    59.087651    36.837975 
157252000    274.71777    454.14668    271.88095     -97574.9    97596.577    182.26573    36.831602 
157256000     308.2468    298.44624    342.50465   -97588.114    97584.475   -44.058408    36.827328 
157260000    271.06519    246.43121    316.53105   -97581.197    97615.367   -70.099835    36.828917 
157264000    264.83103     336.3729    394.52022   -97591.661    97618.017   -58.147319     36.83649 
157268000    263.30755    280.67766    303.79087   -97615.883    97647.611   -23.113212    36.831067 
157272000    281.95577    505.58203     470.3598   -97621.161    97653.843    35.222229    36.830474 
157276000     275.1269    279.38625    250.56726   -97663.569    97687.997    28.818996    36.836004 
157280000     292.4805     573.4482    373.33963   -97703.416    97686.043    200.10857    36.837986 
157284000    298.36571    285.14433    298.60468   -97718.159    97706.823   -13.460348    36.846845 
157288000    291.79972    273.39503    256.10104   -97735.862    97740.343    17.293986    36.848134 
157292000    264.11271    446.61107     332.2476   -97721.358    97749.842    114.36347    36.849946 
157296000    292.51589    294.65278    245.03346   -97758.445    97767.942    49.619316     36.85239 
157300000    230.76256    209.29983      180.924   -97774.356    97813.948    28.375829    36.850124 
157304000    286.94174    298.89963    255.72699   -97803.186    97820.872    43.172639    36.849579 
157308000    271.13129    241.32824    259.00243   -97835.145    97857.026   -17.674185    36.846742 
157312000    288.63373      511.475    264.28098   -97857.574    97857.361    247.19402    36.849538 
157316000    287.45959    528.70426    245.57938   -97888.279     97895.25    283.12488    36.851712 
157320000    262.91581    295.40292    306.56243   -97883.123    97897.601   -11.159508     36.85012 
157324000    285.75222    404.81259    332.67772   -97879.264    97891.422    72.134865    36.852976 
157328000    271.39734    239.36467    366.59341   -97871.234     97890.86   -127.22874    36.848015 
157332000    286.56375    322.29635    376.26996   -97901.625    97926.709   -53.973612    36.854076 
157336000    276.16404    578.09403    221.96004   -97905.025    97924.884    356.13399    36.846882 
157340000    288.54687    378.66831    265.02753   -97920.539    97954.654    113.64077    36.843244 
157344000    279.83959    432.68708    217.55841   -97945.502    97963.502    215.12867    36.841041 
157348000    277.16631    555.10776    277.77501    -97965.93    97983.708    277.33275    36.844483 
157352000    291.20691    645.92307    411.64653   -97977.621    97996.296    234.27654    36.841731 
157356000    313.27383     442.7685    319.55835    -98023.01    98020.753    123.21015    36.838489 
157360000    254.05897    210.25183      268.105   -98042.057    98057.925   -57.853161    36.840357 
157364000    280.43727    343.79337    303.62408   -98047.324    98057.073    40.169283     36.83966 
157368000     292.1969    360.48207    386.95681   -98058.896    98069.354   -26.474738     36.82772 
157372000    274.62369    402.47144    294.56925   -98078.889    98090.113    107.90219    36.831723 
157376000    269.09003    351.60006    384.08795   -98105.386    98122.588   -32.487889    36.825615 
157380000    280.40696     457.4948    259.49987   -98099.364    98119.171    197.99493    36.824127 
157384000    323.10477    455.63091    373.13776   -98122.387    98122.879    82.493146    36.819957 
157388000    256.59356    230.05427    342.67166   -98113.086    98142.822   -112.61739    36.816403 
157392000    296.65003    406.08003    221.26076   -98143.155    98153.661    184.81927     36.81365 
157396000     289.3669    352.40475    405.86018   -98171.933    98178.414    -53.45543    36.815059 
157400000    279.25109    372.90554       224.16   -98220.683    98235.281    148.74554    36.819967 
157404000    270.21686    520.62184    428.56666   -98214.522    98247.954    92.055176    36.814062 
157408000     308.2406    383.80124    336.96083   -98256.175    98268.834    46.840413    36.811669 
157412000     294.6247    414.91129    347.29367    -98272.49    98290.932    67.617616    36.810266 
157416000    276.39596    370.54929    337.83077   -98279.212    98300.324    32.718515    36.815921 
157420000    271.74748    306.09676    329.58066   -98308.162    98329.227   -23.483893    36.813827 
157424000     251.1521    367.13705    343.29209   -98304.014    98347.091    23.844959    36.814616 
157428000    292.24098    305.52927    306.31087   -98348.533    98369.605  -0.78159556    36.816262 
157432000    290.09215    478.97592    306.23917   -98403.427    98378.986    172.73675    36.813658 
157436000    290.95077    519.28058    295.73542   -98415.903    98436.047    223.54515    36.811371 
157440000    264.95254    321.54738      429.526   -98410.648    98442.712   -107.97862    36.816208 
157444000    270.09934     421.7424    260.67007   -98420.814    98442.739    161.07233    36.819323 
157448000    276.87957     475.8897    256.23536   -98430.778    98443.005    219.65434     36.82857 
157452000    287.22597     336.7967    329.16307   -98437.515    98461.795    7.6336292    36.826807 
157456000    276.96422    317.76499     359.4072   -98446.855    98475.856   -41.642206    36.832785 
157460000     282.9579    347.03677    382.42617   -98504.937    98521.096   -35.389398    36.829513 
157464000    274.40416    512.15626    391.27365   -98524.194    98544.024    120.88261    36.829213 
157468000    295.59721    525.76422    305.25117    -98536.89    98545.541    220.51305    36.827028 
157472000    282.64103    535.46905    394.41198   -98559.112    98582.121    141.05707    36.826307 
157476000    289.95333    249.48907    233.92248   -98592.264    98607.216    15.566583    36.824496 
157480000    286.79265     347.4517     294.1399   -98607.479    98627.571    53.311804    36.819891 
157484000    278.45286    378.96791    393.37901   -98635.807    98666.441   -14.411097    36.825778 
157488000    263.79527    267.57098    179.90134   -98667.127    98701.286    87.669643    36.823092 
157492000    265.98843    340.52134    291.39849   -98685.758    98716.328    49.122844     36.82568 
157496000    290.97003    410.55031    366.17075   -98742.184    98745.537    44.379564    36.824778 
157500000    273.91058    492.82943    242.52509   -98751.937    98784.854    250.30434    36.819957 
157504000    285.08237    453.68395    366.76402   -98787.243     98807.53    86.919929    36.821985 
157508000    278.90588    312.56778    396.41289   -98810.606     98839.63   -83.845115    36.828442 
157512000    307.15994    391.49418    282.91121   -98827.617     98841.93    108.58297    36.826389 
157516000    278.32348    374.02393    314.40579    -98849.26    98879.826    59.618143     36.83023 
157520000    269.47653    471.29917    385.92946   -98871.593    98885.715    85.369711    36.826298 
157524000    276.62439    293.31795     635.2975   -98876.392    98904.699   -341.97955    36.825341 
157528000    304.85216    455.79074    406.45748   -98916.055    98910.837    49.333263    36.829616 
157532000     284.3713    413.76366    217.04078   -98973.439    98969.196    196.72288    36.832938 
157536000     277.2388    220.19397    335.23108   -98966.625    98982.314   -115.03711    36.831594 
157540000    258.16964    392.69047    315.14139   -98984.991    99029.107    77.549083    36.836692 
157544000    273.72287    312.40932     447.1725   -99016.614    99036.543   -134.76317    36.840823 
157548000    274.02567    347.52365    331.16046   -99017.168    99052.896    16.363189    36.835172 
157552000    286.85814    432.87803    195.32116   -99032.341    99059.635    237.55687    36.831967 
157556000    288.18272    286.08431    321.67482   -99059.544    99077.742   -35.590509    36.827139 
157560000    293.25135    439.80009    312.43716   -99098.476    99102.308    127.36294    36.826496 
157564000    295.95462    371.72835    365.81339   -99091.397    99105.297    5.9149621    36.825677 
157568000    281.43346    521.48286    371.26142   -99107.702    99120.225    150.22144    36.825133 
157572000    259.04135    469.76661    214.74717   -99089.313      99127.7    255.01944    36.826564 
157576000    286.88482    320.08255    118.35442   -99134.957    99136.651    201.72813     36.82369 
157580000    272.50346    176.59918    360.40006   -99153.746    99168.061   -183.80088    36.816838 
157584000     292.5305    334.72456    473.92047   -99169.257    99177.163   -139.19591    36.819647 
157588000    289.00079    355.04533    399.05681   -99166.209    99197.152   -44.011486    36.824471 
157592000    319.99813    491.20354    225.04345   -99205.757    99200.484    266.16008    36.828549 
157596000    300.27972    401.70143    260.58772   -99199.869    99207.443    141.11371    36.829306 
157600000    284.24866    492.36936    295.56215     -99207.1    99226.504    196.80721    36.825667 
157604000    270.54269    454.50387     282.8958   -99220.836    99234.254    171.60807    36.822742 
157608000    283.23333    277.41601    313.05073   -99225.661    99251.842   -35.634718    36.814247 
157612000    284.02949     268.0585    279.65327   -99236.077    99261.138   -11.594762    36.809348 
157616000    278.17831    540.89954    218.86102   -99269.491    99273.475    322.03853    36.810865 
157620000    279.94467    403.50294    218.02569   -99277.114    99300.831    185.47725    36.817826 
157624000    282.66188    239.64101    334.34638   -99301.505    99309.342   -94.705371     36.82231 
157628000    259.85072    228.67093    289.26183   -99299.762        99331   -60.590901    36.820312 
157632000    276.35541    531.47604     221.0325    -99339.18    99368.031    310.44354    36.825305 
157636000    306.73384    300.00773    242.14253   -99371.577    99389.839    57.865201    36.830562 
157640000    285.19596    378.95454    389.47929   -99413.816    99418.679   -10.524746    36.838026 
157644000    280.90739    294.04701    577.18492   -99456.382    99465.829   -283.13791    36.828638 
157648000    301.92613    457.55413    439.38446   -99475.483    99485.352    18.169665    36.830453 
157652000    288.38841     458.1034    396.94235   -99507.923    99509.658    61.161049    36.836426 
157656000    284.78584    551.68625    336.86744   -99513.021    99545.387    214.81881    36.838966 
157660000    282.15216    314.69066    321.21577   -99538.729    99559.106   -6.5251144     36.83607 
157664000    298.14617    374.89704    523.04317   -99538.813    99560.339   -148.14613    36.835155 
157668000    327.01764    355.78581    349.86207   -99568.264    99554.933    5.9237455    36.837334 
157672000    261.78754    240.54176    312.50321   -99539.143    99575.399   -71.961445    36.835891 
157676000     279.8506    530.52405    420.55361   -99569.862    99584.679    109.97044    36.833804 
157680000    302.86561     517.0538    321.05895   -99610.582    99606.752    195.99485    36.838814 
157684000    277.99072    279.57072     275.6852   -99631.353    99644.053    3.8855172    36.833747 
157688000    287.95658    395.51978    377.51768   -99653.217    99661.541      18.0021    36.828941 
157692000    306.33931    287.81682    258.51815   -99658.387    99666.928    29.298672     36.82239 
157696000    271.76139    196.27636    317.10839   -99666.388    99700.224   -120.83204    36.814542 
157700000    318.54048    487.60549    393.75673   -99706.909    99705.558    93.848769    36.813188 
157704000    292.32229    495.85533    366.78735   -99705.045     99720.29    129.06798    36.818199 
157708000    297.71095    233.70673    146.16082   -99731.959    99735.025    87.545908    36.816859 
157712000    264.13353    374.33504    281.79634   -99757.289    99765.411    92.538694    36.819634 
157716000     268.6707    214.63428    234.42936   -99773.307    99797.555   -19.795083    36.822226 
157720000    263.68932    392.11963    299.45988   -99802.102    99828.667    92.659748    36.822093 
157724000    308.80307     459.6183    319.18935   -99826.018     99843.04    140.42896    36.822936 
157728000     296.9362    310.38664    502.84718   -99838.004    99837.332   -192.46054    36.826531 
157732000    296.11913    256.26092    387.26017   -99848.952    99851.232   -130.99925    36.827985 
157736000    278.68416    255.92702     412.8972   -99880.108    99898.977   -156.97018    36.818651 
157740000    268.92791      229.294     393.5716   -99906.683    99913.584    -164.2776    36.826862 
157744000    294.29063    442.51816    204.01079   -99950.074    99962.159    238.50737    36.829758 
157748000    303.06601    391.78096    308.29449    -99958.85    99957.702    83.486466    36.832614 
157752000     285.8205    446.10025    508.81481   -99971.277      99980.1   -62.714552    36.830417 
157756000    268.71205    405.47023    426.66285   -99982.257    100024.06   -21.192612    36.829678 
157760000    261.97579    360.03301    392.34492    -99966.75    100011.19   -32.311907    36.824121 
157764000    295.72128     344.3314    221.10941    -100005.7    100023.64    123.22199    36.828669 
157768000    301.56766    459.88886    313.46995   -100014.72    100016.13    146.41892    36.833043 
157772000    269.47525    239.61577    329.40316   -100055.16    100076.52   -89.787382    36.831076 
157776000    293.77571    317.98892    253.63975   -100064.59    100077.29    64.349164    36.840311 
157780000    300.52813    350.11097    526.06468    -100078.6    100086.33   -175.95371    36.838534 
157784000    282.14328    418.81252    279.34149   -100094.12    100084.91    139.47103    36.835604 
157788000    307.83039    331.71425    652.14232   -100102.41     100098.2   -320.42806    36.837545 
157792000    276.68918    390.36204    238.35326   -100100.92    100118.79    152.00878    36.837322 
157796000    279.77148    170.20219    570.94166   -100105.89    100124.34   -400.73948    36.834953 
157800000    297.92634     398.6285    217.59296   -100141.35    100147.14    181.03554    36.840213 
157804000    286.17764    251.94989    379.00353   -100139.33    100152.41   -127.05365    36.829253 
157808000    283.31815    408.68546    214.25308   -100142.51    100172.94    194.43238    36.831057 
157812000    307.62497    359.21805    444.60246   -100178.06    100181.51    -85.38441    36.836092 
157816000     293.8787    321.10055    441.68911   -100211.15    100217.15   -120.58856    36.827773 
157820000    282.13272    235.37197    241.29874   -100253.31    100271.75   -5.9267652    36.822017 
157824000    304.61945    274.21397    196.50215   -100297.74    100313.52     77.71182    36.825814 
157828000    301.96872    400.07656    426.40383   -100306.32    100313.29   -26.327269    36.824249 
157832000    282.76609    99.738952    290.16994    -100295.1    100317.09   -190.43099    36.830964 
157836000    300.75642    450.42225    228.53276   -100321.41    100322.35    221.88949      36.8337 
157840000    290.06397    332.20841    302.09217   -100337.92    100356.69    30.116239    36.832248 
157844000    293.93406    286.82175    550.54616   -100354.13    100384.17   -263.72441    36.834225 
157848000    295.06852     429.4285    605.90594   -100379.31     100399.6   -176.47744    36.833313 
157852000     254.4518    323.24751    272.20817   -100385.42    100419.45    51.039349     36.83379 
157856000    277.72756    365.36151    343.82162   -100423.56    100444.42    21.539892     36.83554 
157860000    287.93885    367.56883    232.82003   -100450.94    100473.56    134.74881    36.833865 
157864000    278.35367    343.70869    306.07098   -100479.62     100485.9    37.637709    36.834633 
157868000    245.21926    263.78863    192.34761   -100502.56    100527.47    71.441019    36.824605 
157872000    262.66183    257.94347     239.2945   -100512.67    100531.35    18.648971    36.828016 
157876000    264.80557    276.58725    153.02225   -100523.36    100565.01    123.56501    36.824429 
157880000    277.64168      263.576    181.42612   -100578.14    100607.97    82.149884    36.828712 
157884000    287.92972    452.95748    180.92884   -100603.22    100618.57    272.02864     36.83451 
157888000    287.16825    443.80724    427.33868   -100637.78    100647.63    16.468569    36.834523 
157892000    292.32189    556.55468    277.29219   -100662.94    100680.37     279.2625    36.837507 
157896000    276.58528    415.07496    225.06805   -100658.43    100685.97    190.00691    36.837176 
157900000    265.13004    330.37515    182.33777   -100708.85    100723.53    148.03738    36.830433 
157904000     320.8254    400.76313    465.37837    -100731.8    100729.16   -64.615242    36.823507 
157908000    254.06072    243.24477    331.34367   -100713.71    100751.43   -88.098896     36.81766 
157912000    314.57277    320.62926    383.86934   -100744.52    100742.41    -63.24008    36.822208 
157916000    288.46113    295.04174    425.35385   -100773.13    100784.86    -130.3121    36.819071 
157920000     303.0208    630.39201    324.25759   -100818.94    100811.39    306.13443    36.824251 
157924000    280.74235    452.68451    277.38463   -100804.34    100832.08    175.29988    36.830432 
157928000    297.45679     279.6407    326.81206   -100838.55    100840.41   -47.171361    36.821041 
157932000    295.40376     375.3792    280.40912   -100867.89    100859.65    94.970074       36.819 
157936000    297.97654    294.59978    291.29451   -100878.26    100882.79    3.3052696    36.816434 
157940000    285.14181    288.78194    286.02899   -100877.74    100904.77    2.7529522    36.808362 
157944000    270.57348    370.17363    194.99931   -100886.23    100915.74    175.17432    36.802848 
157948000    278.11718    497.53223    287.94067   -100895.94    100929.36    209.59156    36.800661 
157952000      288.841    376.13836    542.57657   -100913.12    100930.89    -166.4382    36.798736 
157956000    276.75451    260.57928    223.83441   -100947.64    100966.07    36.744871    36.795737 
157960000    276.38169    293.10087    318.60879   -100956.82    101004.56   -25.507925    36.793181 
157964000    287.41839    321.55169    221.78722   -100961.47    100966.29    99.764462    36.784799 
157968000    274.30004    267.46029    295.23365    -100954.7    100980.12   -27.773359    36.786594 
157972000    299.84472    514.89525    365.24644   -100974.79    100997.29    149.64881    36.793011 
157976000    263.65992    214.56071    210.25803   -100990.06    101030.88     4.302681    36.791546 
157980000    251.87271    297.13977    402.19925   -101003.05    101042.21   -105.05948     36.79365 
157984000    272.15863    465.96394    209.43202   -101033.04    101056.22    256.53192    36.796948 
157988000    305.65035    519.28212    280.39342   -101064.58    101073.64     238.8887    36.805656 
157992000    272.88706    326.59959    196.49298   -101058.22    101094.31    130.10661     36.81204 
157996000    290.96228    285.25452    539.48885   -101088.68    101101.48   -254.23433    36.816365 
158000000    286.75296    314.33559    440.03978   -101095.33    101112.34   -125.70419    36.815381 
158004000    287.26046    506.09619    565.51054   -101118.54    101123.69   -59.414352    36.814825 
158008000      283.734    236.19351    389.61225   -101143.81    101157.08   -153.41873    36.817234 
158012000    317.26535    376.45685    481.26122   -101193.79    101171.18   -104.80436    36.815417 
158016000    277.87593    337.20753    355.49772   -101190.42    101215.41   -18.290186    36.813993 
158020000    266.16595    446.90477     242.7779   -101214.97    101251.05    204.12687     36.81352 
158024000    289.78883    332.39901    353.48985   -101228.04    101253.94   -21.090839     36.81268 
158028000    300.43204    296.89136     238.8069   -101237.99    101264.52    58.084462    36.812967 
158032000    279.35122    274.76001    307.16226   -101269.63    101292.14   -32.402255    36.811074 
158036000    304.69839          371    288.22203   -101309.03    101303.76    82.777972    36.812078 
158040000    271.55947    320.00216    333.38201   -101308.62    101327.46   -13.379844    36.812601 
158044000    304.48311    297.12665    304.90476   -101323.11    101332.59   -7.7781072    36.821887 
158048000    270.81691    229.73147    285.85434    -101343.9    101377.11   -56.122866    36.822862 
158052000    264.94892    395.38525    313.20236   -101347.43    101386.26    82.182889    36.827922 
158056000    297.22244    257.05988    196.93002   -101367.04     101371.8    60.129865    36.825911 
158060000    325.37893    448.10687    297.78291   -101410.77       101405    150.32397    36.825001 
158064000    266.12991    253.76513    391.55903   -101406.56    101437.07    -137.7939     36.83241 
158068000      262.796    229.64663    440.81726   -101416.85    101442.76   -211.17063    36.830553 
158072000    305.62139    226.35326    296.78361   -101461.54     101474.8   -70.430347    36.836456 
158076000    270.95648    493.59272    245.18982   -101496.53    101495.38    248.40289    36.830723 
158080000      305.624    441.16544     228.3209   -101513.95    101523.43    212.84454    36.827723 
158084000    266.85774    239.01891    262.35983    -101521.1    101549.82   -23.340925    36.829291 
158088000    277.29838    551.24952     295.4393   -101543.09    101555.46    255.81022    36.833408 
158092000      288.973    408.85716    301.39012   -101555.97    101586.12    107.46704    36.827627 
158096000    297.47486    280.27078    356.16336   -101565.59    101583.74   -75.892581    36.822546 
158100000    295.27086     418.4434    301.39594   -101569.68    101585.94    117.04746    36.819934 
158104000     281.6421    385.58374    368.15684   -101603.16    101612.35      17.4269    36.821527 
158108000    289.15222    295.23477    394.38709   -101610.37    101617.76   -99.152323    36.822002 
158112000     279.9693     503.8876    336.51829   -101640.13    101653.84    167.36931    36.818894 
158116000    284.27911    261.63355    483.21187   -101665.71    101680.51   -221.57832    36.822877 
158120000    267.19704    360.17243    285.56237   -101652.19    101684.17     74.61006    36.824244 
158124000    293.66575    373.09037    354.54493   -101680.09    101697.15    18.545446    36.821139 
158128000    289.20219    354.13888    144.73288   -101699.34    101703.07      209.406     36.82108 
158132000    305.24469    348.12675    304.07409   -101712.64    101729.36    44.052669    36.829451 
158136000    290.29112    249.05694    366.46128   -101747.75    101736.95   -117.40434    36.821558 
158140000    269.38039     350.7112     413.0072   -101764.15    101769.64   -62.296008    36.825368 
158144000    271.43134    217.46212    296.79402   -101790.28    101805.11   -79.331899    36.828011 
158148000    265.68433    376.89511    218.09336   -101805.42    101837.41    158.80175    36.833794 
158152000    253.93761    233.51274    257.39298   -101828.75     101866.5   -23.880234     36.83885 
158156000    293.14609    393.90704    678.32364   -101857.93    101878.18   -284.41659    36.836718 
158160000    281.57751    329.50927    251.46069   -101890.95    101898.73    78.048577    36.831055 
158164000    302.10008    430.67208    231.07631   -101892.05     101902.1    199.59577    36.827606 
158168000    300.66323    316.30715    572.75191   -101912.95    101921.33   -256.44476    36.831207 
158172000    288.54437     437.0869    233.26262   -101933.46    101950.13    203.82428    36.837177 
158176000    268.07738    291.42997    502.02097   -101932.91    101962.24   -210.59099     36.83095 
158180000    284.75143    226.53435    383.72308   -101945.47    101954.56   -157.18873    36.825971 
158184000    275.20223    574.53485    232.66101   -101977.71    101995.29    341.87383    36.824748 
158188000    299.62975    330.91547    387.02407   -102010.43    102025.38     -56.1086    36.829172 
158192000    276.12898    360.29242    429.06993   -102008.74    102048.83   -68.777512    36.822539 
158196000    285.20871    406.62207    267.46717   -102049.16    102066.07     139.1549    36.816985 
158200000    298.01724    364.13522    424.88649   -102067.72    102093.71   -60.751271    36.814375 
158204000    271.14066    279.07845    252.18541   -102055.35    102094.06    26.893037    36.813905 
158208000    278.43833    235.55446    450.29756   -102081.12    102086.29    -214.7431    36.810157 
158212000    284.30926    422.86373    279.90501   -102111.89    102122.36    142.95873    36.810583 
158216000    280.46714    254.35193    243.00182   -102136.14    102140.23    11.350108    36.807697 
158220000    266.29517    159.20308    313.05912   -102107.22    102127.01   -153.85604    36.804895 
158224000    287.16796    383.85639    261.63513   -102113.19    102136.81    122.22126    36.807914 
158228000    289.15862    397.03923     263.0961   -102140.74    102144.79    133.94313    36.804692 
158232000    316.47559    186.23925    339.66699   -102177.43    102176.18   -153.42774    36.810538 
158236000    310.77081    327.52058    319.51322   -102177.32    102182.99      8.00736    36.811655 
158240000    258.98338     386.7692    177.30298   -102193.43    102218.65    209.46621    36.812651 
158244000    300.11983    371.60691    511.62237   -102236.26    102251.06   -140.01546    36.809988 
158248000    253.42029    269.68032    350.94447   -102230.75    102271.53   -81.264151    36.810236 
158252000     269.2134    354.17062    304.91109    -102246.9    102271.04    49.259527    36.807063 
158256000     267.7566    354.65609    235.35576   -102268.52    102298.01    119.30034    36.812349 
158260000    296.27463    282.14263    280.41526   -102296.34    102317.33    1.7273783    36.807193 
158264000    311.66521    262.03582    367.87015   -102348.05    102331.05   -105.83433    36.809965 
158268000    262.35265    262.10885    204.62469   -102359.94    102385.56    57.484162    36.812011 
158272000    296.00652    418.48732    313.54354   -102388.82    102398.06    104.94378    36.808156 
158276000    290.01203    279.49262    303.36304   -102413.43    102413.36   -23.870414    36.812426 
158280000    300.96761    301.59042    485.43934    -102435.5    102432.25   -183.84892    36.812522 
158284000    292.80867    318.41785    275.78655   -102460.51    102442.05    42.631298    36.812992 
158288000    280.60618    337.83659    449.63098   -102453.15    102456.33   -111.79439    36.812149 
158292000    272.12939    476.29069    309.34859   -102458.29    102486.16    166.94209    36.806514 
158296000    339.54036    577.28957     352.5483   -102483.45    102483.32    224.74127    36.802731 
158300000    272.93244    229.48809    291.84031   -102479.75    102491.62    -62.35222    36.814454 
158304000    311.65974    414.55733    404.02717   -102514.44    102489.66    10.530163    36.811578 
158308000    247.53933    206.77834     389.7879   -102498.27    102534.74   -183.00957    36.807782 
158312000    278.11361    262.09655    393.79833   -102511.55    102537.36   -131.70178    36.808781 
158316000    280.51083    198.40051    327.94891   -102524.44    102544.64    -129.5484    36.806213 
158320000    267.29095    435.97205    295.39652   -102538.38    102567.01    140.57553    36.806514 
158324000    310.09499    597.06282    322.41477   -102570.08    102561.88    274.64805     36.80832 
158328000    293.43713    350.41369    547.90153   -102566.07    102593.46   -197.48784     36.81026 
158332000    251.99263    251.37063    320.95046   -102588.97    102615.77   -69.579835    36.804473 
158336000    298.66332    420.44263    473.55071   -102648.45    102641.48   -53.108086    36.801436 
158340000    284.81115    428.78615     252.8477   -102658.15    102678.18    175.93845    36.804823 
158344000    272.91906    663.14391    320.30775   -102682.46    102709.02    342.83615    36.805345 
158348000    278.66409    361.30053    270.96411   -102710.59    102734.65    90.336418    36.802828 
158352000    287.83338     229.1632    329.75272   -102709.96    102730.06   -100.58952    36.809067 
158356000    265.83005    347.98607     608.0115    -102710.7    102746.65   -260.02543      36.8113 
158360000    285.18651    341.64815    364.97938   -102723.19    102768.92   -23.331238    36.817395 
158364000    287.93345    363.49308    261.56233   -102745.57    102751.04    101.93075    36.822722 
158368000     271.1775    480.28211    177.37744   -102774.39    102778.09    302.90468    36.828491 
158372000    292.71638    382.47603    312.54321   -102774.59    102787.63     69.93282    36.834931 
158376000    270.04479    379.67509    423.66272   -102768.84    102797.65   -43.987631    36.843563 
158380000      296.119    431.15527    385.46692   -102804.93    102800.55    45.688343    36.844835 
158384000    233.89183    207.78974    273.22768   -102809.31    102850.07    -65.43794    36.845278 
158388000    272.05033    436.85237    271.76507   -102839.94    102863.94     165.0873    36.842865 
158392000    284.24419    166.72379    243.79192   -102861.16    102871.23   -77.068131    36.841437 
158396000     295.7804      314.026    299.83714   -102879.81     102907.3    14.188859    36.836281 
158400000    276.05376    268.55621    396.05656   -102895.08    102933.72   -127.50035    36.832683 
158404000    301.55879    679.81109    262.17786   -102935.76    102952.26    417.63323     36.83013 
158408000    294.28676    465.01351    417.64561   -102968.02    102977.77    47.367896    36.832161 
158412000    274.45299    344.10085    231.15217   -102969.77    102983.73    112.94868    36.827652 
158416000    301.70034    263.74489    255.73247   -102997.84    103011.99    8.0124206    36.832839 
158420000    281.65683    503.73961    280.34891   -103040.07    103038.57     223.3907    36.838941 
158424000    270.78736    385.31383    256.07977   -103058.79    103081.69    129.23406     36.83973 
158428000    306.80027    289.44506    539.63731   -103096.21    103111.09   -250.19225    36.840379 
158432000       290.23    392.53511    385.29079   -103135.97    103125.12    7.2443182    36.836539 
158436000    274.48364    248.06322    326.66495    -103116.4     103144.6   -78.601738    36.837201 
158440000     308.5548     289.8217    455.93283   -103146.93    103146.22   -166.11113    36.838011 
158444000    281.33415    323.84528    445.73979   -103158.54    103189.55   -121.89451    36.832286 
158448000    294.96163    540.61822    240.82822   -103180.38     103194.4    299.79001    36.828755 
158452000    294.76136    401.68337    308.06731   -103201.76    103207.42    93.616063    36.831251 
158456000    270.87157    422.45045    166.74047   -103195.75    103225.98    255.70998    36.835043 
158460000    295.69294    435.32231     294.3174   -103217.86    103220.61    141.00491    36.840389 
158464000    257.18049    363.15429    333.80645   -103198.53       103232    29.347844    36.841273 
158468000    268.59561     326.2822    446.51471   -103243.42    103286.57   -120.23251    36.842759 
158472000    263.62554    415.77153    194.12665   -103284.58    103310.85    221.64488    36.841661 
158476000    258.51755    262.97367    378.49249   -103286.03    103318.25   -115.51883    36.838782 
158480000    282.34712    639.63929    408.80405   -103316.83    103331.84    230.83524    36.843621 
158484000    245.32454    335.64299    246.52548   -103304.03     103351.2    89.117505    36.847095 
158488000    270.27388    349.41191    431.63236   -103350.83    103365.41   -82.220445    36.848037 
158492000    290.66406    277.56506    246.65475   -103383.23    103375.59    30.910314     36.83944 
158496000     301.0665    269.78797     355.0284   -103398.56    103406.59    -85.24043    36.833986 
158500000    262.55139    247.54464    215.20741   -103401.01    103436.74    32.337222    36.833713 
158504000    284.01858    373.80441     240.7115   -103425.33    103443.03    133.09291    36.831085 
158508000    272.66638    328.63099    458.20261   -103419.79    103449.51   -129.57162    36.829853 
158512000    263.44306    236.88932     187.8236   -103420.12    103446.83    49.065715    36.841699 
158516000    292.34217    266.66889      419.067   -103461.18    103460.13   -152.39812     36.83857 
158520000     264.1498    256.70541     218.3437   -103489.04    103522.16    38.361707    36.839842 
158524000    265.73812    462.34976    215.74865   -103497.11    103530.59    246.60112    36.838278 
158528000    276.80802    372.02608    265.84054      -103536    103549.16    106.18553    36.840128 
158532000    296.86676    372.95606    241.61016   -103545.59    103569.77     131.3459    36.835304 
158536000     275.5444    261.78206    250.86258   -103574.62    103596.77    10.919487     36.83318 
158540000    287.55997    244.55176    517.72117   -103611.42    103604.12   -273.16941    36.834632 
158544000     303.1976    281.26566     268.9918   -103638.39    103627.82    12.273857    36.841975 
158548000    288.29256    271.11687    166.03688   -103641.68    103648.36    105.07999    36.844456 
158552000    261.40727    355.36701    220.34792   -103636.04     103673.3    135.01909     36.84711 
158556000    322.15144     497.5543    280.78736   -103670.73    103661.93    216.76694    36.842591 
158560000    296.84549    315.95564    340.61707   -103683.16    103674.83   -24.661437    36.848948 
158564000    274.93653    319.23667    186.96647   -103700.33    103721.53     132.2702    36.855611 
158568000    251.51287    264.52499    412.57478   -103714.85    103745.24    -148.0498    36.853868 
158572000    282.20995    269.94228    266.31601   -103712.51    103730.67    3.6262664    36.861297 
158576000    276.45684    242.54224    209.59454   -103737.26     103748.6    32.947706    36.857164 
158580000    262.45275    202.15512    196.25396   -103735.96    103743.98     5.901156    36.857895 
158584000    268.55356    273.10976    170.17074    -103734.1     103762.2    102.93903    36.853959 
158588000    265.61981    274.32348    429.19092   -103726.04    103759.85   -154.86744    36.860017 
158592000    295.77606    422.75576    256.14323    -103786.3    103787.02    166.61253    36.855212 
158596000    312.05705    409.05644    232.51882   -103773.61    103776.14    176.53762    36.852515 
158600000    265.03312    289.25216    313.76994   -103756.97    103798.66    -24.51778     36.85046 
158604000     263.5246    232.68778    165.46059   -103789.23    103834.72    67.227194    36.849563 
158608000    279.56976    448.38413    352.51419   -103790.18    103805.66    95.869944     36.85781 
158612000    275.27242    318.41508    352.91991   -103792.69    103830.72   -34.504827    36.865567 
158616000    311.30724    519.71173    390.17837   -103822.57    103832.66    129.53337     36.86441 
158620000    279.53413    289.23041    326.94028   -103816.77    103842.62   -37.709866     36.86114 
158624000    274.05225    274.87514    444.08937   -103840.04    103862.73   -169.21423    36.861621 
158628000    279.48474    325.29107    261.25855   -103862.76    103882.97    64.032521    36.858336 
158632000    302.39741    331.44533    343.63547   -103886.26    103893.21   -12.190134     36.85535 
158636000    271.95691    241.61191    238.62212   -103909.44    103925.75    2.9897917    36.857676 
158640000    287.61034    515.50401    348.67666   -103938.72    103948.08    166.82735    36.864567 
158644000    270.01442     372.0635    264.36612   -103972.56    104004.43    107.69737    36.865178 
158648000    245.42899    226.30019    298.22498   -103993.17    104037.91   -71.924785    36.866257 
158652000    278.50612    354.24504    328.48234   -104012.21    104028.06    25.762697    36.861963 
158656000    274.95175    190.83329    413.86887   -104024.42    104061.15   -223.03558    36.855589 
158660000    269.92499    337.62285    245.16505   -104048.75    104078.19      92.4578    36.853306 
158664000     283.0022    478.82042    296.48251   -104046.02    104064.05    182.33791    36.860213 
158668000    271.54071    469.91237    257.40471   -104051.33    104082.56    212.50766    36.865996 
158672000    294.77039    285.24437    455.28282   -104050.99    104074.86   -170.03845    36.865197 
158676000    276.97386     481.8996    421.06879   -104067.89    104078.52    60.830813    36.862531 
158680000    262.21289    269.93483    490.55678    -104094.8     104138.2   -220.62196    36.857034 
158684000    267.77714    213.42553    372.42005    -104104.5    104143.71   -158.99451    36.855632 
158688000    270.41927    238.86714    309.58025   -104140.91    104158.18   -70.713102    36.852763 
158692000    262.27464     277.9742     495.3201   -104158.56    104189.45    -217.3459    36.851695 
158696000    288.75076    312.21206    251.13477   -104185.27    104198.41    61.077293    36.854092 
158700000    262.83183    358.71622    234.75234   -104202.29    104218.91    123.96388    36.851765 
158704000    280.40967    294.60598    197.96675   -104220.78    104238.12    96.639237    36.854491 
158708000    301.46763    404.85248    382.69645   -104237.76    104240.27    22.156024    36.858345 
158712000    287.89946    406.00682     297.1994   -104253.92    104273.74    108.80742    36.854551 
158716000    275.07646    336.87514    310.75366   -104267.25    104302.08    26.121476    36.855702 
158720000    291.02391    298.92925     282.2724   -104298.28    104302.59    16.656851    36.848746 
158724000    304.55643    321.24272    165.00366   -104287.86    104302.64    156.23906    36.849134 
158728000    294.81202    481.55973    461.39903   -104292.21    104310.91    20.160694    36.844973 
158732000    284.34355    371.32373     469.9614   -104321.24    104347.07    -98.63767    36.844778 
158736000    226.14456    268.21806    236.19684   -104333.45    104384.52    32.021226    36.845433 
158740000    309.16165    404.93884    560.40823   -104358.17    104361.61   -155.46939    36.847973 
158744000    284.21334    284.49849    354.24589   -104383.86    104398.97   -69.747401    36.852408 
158748000    299.30646    299.79161    316.17175   -104382.38    104381.17   -16.380136    36.850995 
158752000    289.43927    433.01926    345.51067   -104397.95     104409.7    87.508593     36.85013 
158756000    291.16254    341.24158    459.09431   -104402.27    104429.72   -117.85273    36.852089 
158760000    302.38443    280.83716    259.91769   -104444.07    104444.29    20.919471    36.854139 
158764000    276.86644    270.00244    308.39187   -104446.64    104444.58   -38.389429    36.856008 
158768000    276.39031    380.10573    390.05986   -104451.28    104469.44   -9.9541362    36.857516 
158772000    261.66623    246.32874    351.10515   -104476.81    104513.74    -104.7764    36.856914 
158776000     281.9252    390.57351     270.7448   -104494.75     104519.7    119.82871    36.857962 
158780000    313.51908    322.40581    304.08104   -104535.24    104539.44    18.324768    36.854955 
158784000    279.38813    610.84671    452.09862    -104541.9    104571.21    158.74809     36.86151 
158788000    310.53573    533.81355    377.20238   -104602.02     104605.9    156.61118     36.86889 
158792000      279.424    274.38988    276.71627    -104591.7    104614.69   -2.3263829     36.86684 
158796000    297.26662    204.01809    311.91608   -104625.78    104645.45   -107.89799    36.872185 
158800000    283.30705    310.80045    170.65125   -104632.02    104661.11     140.1492    36.876116 
158804000    280.69074    283.88314    204.09428   -104636.46    104672.93    79.788855    36.877605 
158808000    286.93591    470.68452    297.73268   -104652.05     104673.4    172.95184    36.878015 
158812000    270.30313    377.88694    424.80877   -104663.04     104700.7   -46.921829    36.883543 
158816000    265.29183    307.52775    520.21258   -104677.27    104716.24   -212.68483    36.884979 
158820000    292.68092     550.8361    389.67681   -104737.29    104753.67    161.15929    36.881095 
158824000    315.57869    432.71078    357.16439   -104754.25    104773.75    75.546385    36.878563 
158828000    276.95299    276.90428    172.90221    -104778.3    104799.46    104.00207    36.880651 
158832000    283.97205    429.29316     248.9733   -104804.27    104824.34    180.31986    36.882717 
158836000    266.82619    348.14916    282.53367   -104796.06    104824.33    65.615484     36.88431 
158840000    303.98133    283.35686     251.1797   -104794.93    104808.62    32.177156    36.881492 
158844000    308.94267    299.78181    257.37124   -104804.01     104811.6    42.410576    36.875241 
158848000     292.8025     278.7443    366.36466   -104822.37    104842.25   -87.620357    36.885246 
158852000    272.54154    286.08344    337.30361   -104844.84    104870.81   -51.220178    36.878683 
158856000     264.6053    273.96852     214.6184   -104863.78    104876.97    59.350123    36.884639 
158860000    267.87463    264.92453    344.12525   -104871.64    104889.91   -79.200724    36.886134 
158864000    312.33238    369.90936    553.06745    -104895.6    104895.12   -183.15808    36.881415 
158868000    280.76558    305.10667    315.94751   -104902.21    104930.07   -10.840832    36.873339 
158872000    286.09934    415.00896    361.25731   -104912.24     104924.7    53.751651    36.872377 
158876000    285.67222     469.1505    260.51527   -104930.94    104940.51    208.63523    36.879947 
158880000    279.46516     166.5605    298.27262   -104940.22    104972.32   -131.71212    36.880894 
158884000    283.43355    273.13707    297.12267   -104983.95    105002.51   -23.985597    36.879168 
158888000    278.74816    397.80645    307.17334   -104989.95    105021.25     90.63311    36.879815 
158892000    317.54123    489.95597    561.46168    -105029.1    105022.23    -71.50571    36.877507 
158896000    314.23946    225.58994     637.1683   -105051.27    105041.19   -411.57836    36.875687 
158900000    252.28249    309.62565    338.13524   -105027.28    105070.27   -28.509591    36.876472 
158904000    290.33947    390.81639    249.00178   -105068.46    105062.81    141.81461    36.877905 
158908000    276.58821    549.07268    281.55986   -105077.12    105091.32    267.51282    36.877022 
158912000      297.803     530.1422    443.87643    -105087.8    105088.11    86.265774    36.880828 
158916000    311.24307    419.46779    309.68681   -105099.18    105089.27    109.78098    36.885505 
158920000    274.85053    348.32922    303.61204   -105070.43    105114.44    44.717172    36.883072 
158924000    293.47491     396.6529    289.52857   -105119.24    105115.72    107.12433    36.885164 
158928000    301.42386    573.07566    402.40376   -105130.09    105127.68    170.67191     36.88796 
158932000    265.87723    215.22362    235.29272   -105112.27    105144.98     -20.0691    36.887176 
158936000    275.19788    480.39154    221.73512   -105135.17    105161.99    258.65642    36.890887 
158940000    290.53591    569.14644    318.71501   -105165.93    105187.89    250.43142    36.886573 
158944000    305.89276    319.79043    243.46547   -105197.33    105205.84    76.324967    36.890043 
158948000    280.47751    307.72815    349.44464    -105217.1     105222.7   -41.716487    36.889729 
158952000    276.80044    238.73143    218.62942   -105221.58    105249.38    20.102004    36.888998 
158956000    272.31658     452.7584    228.85352   -105270.79    105288.95    223.90489     36.89528 
158960000    279.10996    344.21497    225.40993   -105305.45    105334.03    118.80504    36.900051 
158964000    292.52919    465.65809    360.21907   -105327.22    105334.85    105.43902    36.899658 
158968000    276.49634    431.46052    237.17121      -105358    105368.91    194.28931    36.902355 
158972000     277.1498    417.76671    357.38247   -105365.34    105391.87    60.384241    36.902765 
158976000    327.86581    351.60428    339.79755   -105378.33    105372.17    11.806733    36.902445 
158980000    279.83638    583.98441    412.98253   -105375.45    105394.53    171.00187    36.909667 
158984000     293.6244    242.46393    426.66065   -105378.56    105394.27   -184.19672    36.913299 
158988000    278.21413    487.18197    507.68423   -105397.55    105430.66   -20.502258    36.913736 
158992000    268.53657    456.57219    273.35402    -105435.8    105452.98    183.21818    36.909335 
158996000    256.94814     396.2431    356.28054   -105429.31       105453    39.962567    36.912994 
159000000    336.05353    433.72695    357.86319   -105454.51    105425.41    75.863761    36.906405 
159004000    298.74505     311.5169    191.89537   -105442.21    105455.41    119.62153    36.912526 
159008000    277.79424    503.15652    333.94691   -105460.27    105465.34    169.20962    36.913549 
159012000     322.3465    353.92001    271.97346   -105489.63    105486.08    81.946551     36.91771 
159016000    284.69277    613.18089    148.53043   -105508.26    105503.23    464.65046    36.923065 
159020000    288.34804    410.17971    276.00233   -105515.64     105535.7    134.17737    36.930021 
159024000    268.20729    258.18063    280.37379   -105514.02    105544.35    -22.19316     36.92718 
159028000    295.37489    354.97003    368.23867   -105562.98    105581.85   -13.268641    36.927484 
159032000    284.10996    374.71642    339.03144      -105570    105592.66    35.684978    36.929389 
159036000    282.57978     186.4328    336.66624   -105598.17    105616.54   -150.23344     36.92347 
159040000    280.06213    436.34181    223.86431   -105610.02    105639.06     212.4775    36.922552 
159044000    275.65182     374.3216    360.42104   -105631.62     105658.2    13.900562    36.925739 
159048000    270.90425    415.26409    280.25198   -105666.88    105687.89    135.01211    36.930056 
159052000     300.9551     514.8111     291.6712   -105690.94    105694.33     223.1399     36.93069 
159056000    297.72934    426.25872    246.85592   -105689.71    105695.66    179.40281    36.930742 
159060000     303.2537    345.91059     353.0191   -105707.77    105715.13   -7.1085031    36.933736 
159064000    293.06357    370.17148    381.26712   -105703.52    105721.79   -11.095632    36.939278 
159068000    283.74266    266.46746    241.57121   -105703.48    105716.37    24.896249    36.937044 
159072000    293.96299    575.20409    315.91259   -105710.05    105746.82    259.29149    36.932675 
159076000    285.94578    230.07827    373.83757   -105736.49    105758.41    -143.7593    36.924521 
159080000    262.16538    420.24928    333.92322   -105772.25    105783.88    86.326056    36.930772 
159084000    302.33828    416.25791     208.8541   -105803.27    105814.05    207.40381     36.93391 
159088000    321.18843    265.53206    454.44563   -105834.86    105826.28   -188.91358    36.935179 
159092000    276.98884    247.62736    281.80931   -105829.98    105854.23   -34.181949    36.929746 
159096000    263.20042    476.98196     230.9894   -105850.84    105896.46    245.99256    36.930071 
159100000    281.85825    368.64638    281.27952   -105889.66    105921.72    87.366863    36.929814 
159104000     289.9629    473.11172    345.27836    -105927.2    105954.82    127.83336    36.932076 
159108000    279.88705    266.61825    211.19146   -105982.07    105989.07    55.426798    36.931447 
159112000    295.89554    591.39333    289.45981   -106014.27    106022.45    301.93352    36.929186 
159116000     284.3224    367.71464    279.91926   -106050.96    106051.84    87.795379    36.928412 
159120000    271.79514    390.12312    346.03856   -106062.28    106085.27    44.084556    36.935835 
159124000    256.62267    337.40386    368.17112   -106080.76    106093.61   -30.767255    36.945044 
159128000    291.06189     501.2891     228.3161   -106098.25    106115.02      272.973     36.94681 
159132000    250.19059    262.79538    246.74593    -106121.4    106168.13    16.049458    36.952035 
159136000    270.66094    312.44271    349.69669   -106132.37    106170.35   -37.253975    36.953289 
159140000    261.15489    405.33042    242.50813   -106159.75     106187.8     162.8223    36.953483 
159144000    273.54892    269.29771    299.61164   -106190.49    106210.81   -30.313931    36.954413 
159148000     326.9235    343.94212    287.68272   -106235.18    106221.83    56.259401    36.957154 
159152000    297.83011     350.4929    589.66957   -106256.49    106253.29   -239.17667    36.957897 
159156000    281.89414    360.37071     406.8937   -106256.02     106284.8    -46.52299    36.963733 
159160000    280.76085    228.98495    185.33836   -106292.28    106305.18    43.646584     36.96355 
159164000    292.59018    203.58091    336.41653   -106309.47    106317.84   -132.83561    36.960409 
159168000    273.01785    489.00592     273.6143   -106359.73    106367.53    215.39162    36.956794 
159172000     261.0805    363.04625    347.60339   -106368.79    106403.56    15.442858    36.954767 
159176000    238.57773    271.95067    256.71832   -106368.29    106410.05    15.232347    36.955241 
159180000    300.32736    249.05428     418.9647   -106399.87    106414.48   -169.91042    36.962536 
159184000    286.44308    472.49799    342.06922   -106414.16    106437.35    130.42877    36.966668 
159188000    271.47633    249.17834    324.06751   -106438.18    106467.16   -74.889177    36.968029 
159192000    278.04751    333.28785    341.17822   -106450.78    106474.22   -7.8903725    36.962624 
159196000     293.1064    579.98476    276.59768   -106447.15    106472.02    303.38708    36.959958 
159200000     292.5222     272.2918     200.5158   -106464.18    106477.99    71.775991    36.959432 
159204000    302.36471    534.79124    327.67207    -106487.6    106507.17    207.11917    36.955403 
159208000     292.2795    371.10501    257.90199   -106504.15    106512.52    113.20302    36.962579 
159212000    284.43568    453.16994    232.06682   -106529.59    106552.63    221.10312    36.965414 
159216000    281.37716    477.93755     175.8249   -106562.79    106575.27    302.11265    36.964516 
159220000    276.02379    461.58414     435.4482    -106575.8    106606.18    26.135941    36.970165 
159224000    254.25119    320.19276    162.85666   -106616.56     106628.3     157.3361    36.968684 
159228000    270.47029     477.7763    519.83389   -106628.74    106644.23    -42.05759    36.970663 
159232000    260.32694    320.84204    180.45906   -106649.61    106680.79    140.38298    36.969405 
159236000    281.63845    347.70218    342.22896    -106685.3    106692.74    5.4732208    36.965895 
159240000    316.23546    402.24022    334.73486   -106699.04     106690.9    67.505363    36.971855 
159244000    273.55429    263.72443    217.32848   -106679.38     106705.1    46.395956    36.973038 
159248000    302.75305    588.09259     518.7248   -106713.25    106726.72    69.367791    36.977688 
159252000    286.66718    510.62262     383.1958   -106717.88    106725.13    127.42682    36.980806 
159256000    280.52114    350.28305    494.15089   -106718.09    106750.72   -143.86783    36.982442 
159260000    300.24514    215.00899     315.5039   -106743.67    106762.66   -100.49491    36.980379 
159264000    282.05135    499.91987    185.70348   -106757.17    106778.29    314.21639    36.978323 
159268000    297.47191    385.22038    357.85861   -106782.19    106802.98    27.361768    36.979197 
159272000    291.08564    485.96515    285.50673   -106808.89    106827.81    200.45842    36.979192 
159276000    278.84694    288.58834    413.63877   -106826.71    106849.19   -125.05042     36.97937 
159280000     286.8401    367.48229    317.53608   -106833.79     106846.8    49.946217    36.984766 
159284000    258.21921    301.33898    194.25406   -106827.48    106850.85    107.08491    36.981158 
159288000    270.06825    313.58593    268.91475   -106842.33    106879.95    44.671178    36.985591 
159292000    254.51955    538.31546    193.56895   -106862.14    106889.25    344.74651    36.983816 
159296000    256.86477    335.51038    403.21734   -106877.77    106918.22   -67.706965    36.986036 
159300000    299.40419    404.91535    537.40079   -106935.17    106952.31   -132.48544    36.982771 
159304000    307.66713    360.20478    633.57655    -106961.3    106951.01   -273.37177    36.981512 
159308000    322.44157    357.89362    380.82354    -107011.4    106983.87   -22.929926    36.980144 
159312000    283.87159    328.08561    214.12053   -107019.04    107039.69    113.96509    36.973317 
159316000    261.61056    325.78722    287.17775   -107033.37    107071.34    38.609467    36.975583 
159320000    307.12813    459.11502    281.00209   -107067.95    107078.52    178.11293    36.973827 
159324000    273.33547     515.8657    427.86544   -107096.34    107125.96    88.000259    36.973604 
159328000    315.72689    462.10511    290.46276   -107126.79    107132.84    171.64235    36.976352 
159332000    265.04708    410.05121    410.24226   -107140.98    107168.94  -0.19105115    36.979321 
159336000    276.28927    274.06537    297.32582    -107181.9    107216.39    -23.26045    36.979863 
159340000    302.97128    377.16749    306.38895    -107220.2    107234.89    70.778544    36.978514 
159344000    304.17315    404.07467    338.22422   -107237.68    107240.24    65.850451    36.980515 
159348000      292.365    458.62995    323.98764   -107254.03    107264.75    134.64231    36.973514 
159352000    291.19067    300.14914     214.3473   -107267.72    107284.48    85.801836     36.97131 
159356000    295.33361    387.45152    313.27212   -107279.59    107292.78    74.179395    36.966231 
159360000    295.19521    254.46092    361.34321   -107290.17    107314.41   -106.88229    36.970475 
159364000    274.98908    388.98477    253.12797   -107319.47    107335.66     135.8568     36.96626 
159368000    297.00045    393.54455    260.34348   -107357.41    107363.05    133.20107    36.967067 
159372000    282.86167     298.2769    502.24894   -107348.76    107369.59   -203.97204    36.962357 
159376000    259.35769    213.01492    249.55443   -107356.55    107394.64   -36.539515    36.963422 
159380000    290.97731    219.31416    149.42032   -107386.94     107400.5     69.89384    36.966723 
159384000    282.58921    339.72038    375.76773   -107381.25     107431.1    -36.04735    36.968631 
159388000    267.20781    272.36486    344.98448   -107419.18    107460.48   -72.619623    36.963558 
159392000    322.03404      577.953    239.66992    -107458.1    107457.88    338.28308    36.961672 
159396000    290.26544    573.17363    264.27883   -107444.93    107453.63     308.8948    36.959472 
159400000    281.01848    335.44597    302.19117   -107443.05    107472.02    33.254806    36.956278 
159404000    262.19112    269.15725    308.39314   -107444.47    107486.85   -39.235893    36.951381 
159408000    291.47432     519.1316    266.04027   -107493.49    107493.85    253.09133    36.951421 
159412000     278.4074     348.4387    185.88022   -107485.86    107516.24    162.55848     36.94975 
159416000    310.92126    485.21523    411.99838   -107508.66     107516.6    73.216853    36.955275 
159420000    276.15132    447.56388    357.17792   -107538.58    107558.31     90.38596     36.96113 
159424000    333.51459    459.23905    241.98634   -107581.47     107555.7    217.25271    36.965536 
159428000    317.36942    571.30195     323.3477   -107575.07    107575.12    247.95424    36.962437 
159432000    302.74408     382.3139    295.39788   -107573.07    107592.19    86.916019    36.960566 
159436000    287.69178    605.50187    364.18502   -107595.77    107604.27    241.31685     36.96073 
159440000    290.31689    275.35508    322.99775   -107602.74    107624.49    -47.64267    36.957759 
159444000    269.55491    424.53134    283.15443   -107607.71     107626.4    141.37691    36.949703 
159448000    303.06036     369.2972    336.66346   -107618.12    107605.67    32.633742    36.954099 
159452000     280.8338    401.45845     431.8424    -107644.5    107655.94   -30.383953    36.944179 
159456000    299.24663    375.22329    309.53043   -107669.85       107683    65.692854    36.941345 
159460000    310.87727    358.44838    356.76481   -107712.22    107709.86    1.6835701    36.941562 
159464000     302.8642    293.23552    294.49474   -107726.45     107717.9    -1.259227    36.939707 
159468000    279.65404    310.60091    327.41592   -107720.27    107745.05   -16.815009    36.936103 
159472000    320.13963    330.88808    298.90254   -107751.96    107756.14    31.985538    36.938087 
159476000    259.53192    273.60422    192.34005   -107772.05    107805.65    81.264172    36.933289 
159480000    296.19455    316.48605    265.63439   -107790.79    107786.32    50.851666     36.92503 
159484000    300.84963    446.34122    447.27653   -107806.03     107822.6  -0.93530467     36.91893 
159488000    241.21398    355.93936    318.00563   -107804.21    107847.95    37.933725    36.914027 
159492000     280.0294    185.65897    358.03284   -107839.21    107851.38   -172.37387    36.909056 
159496000    282.49562    215.76176    352.02912   -107851.29    107869.99   -136.26737    36.907318 
159500000    274.09238    304.29632     407.1828    -107872.4    107883.53   -102.88648    36.909702 
159504000    291.52805    295.65488    367.33583   -107885.87    107895.52   -71.680948    36.904576 
159508000    314.63446    501.39353    309.23951   -107930.35    107931.77    192.15402    36.909454 
159512000    276.12784    249.19446    448.05918    -107927.2     107953.5   -198.86472    36.909197 
159516000    273.14953    377.69667    394.88112   -107976.78    107993.66    -17.18445    36.910904 
159520000     271.1314    280.25921     405.7949   -107985.29    107997.69   -125.53569    36.912656 
159524000    255.60806    339.03103    314.55954   -107982.15    108027.31    24.471491    36.914866 
159528000    280.70851    402.56344    218.62475   -108034.69     108036.8    183.93868    36.913763 
159532000    260.25591    400.48258    319.79518   -108047.25    108080.14    80.687402    36.919569 
159536000    277.33806    421.17119    352.33125   -108079.69    108103.93    68.839945    36.920005 
159540000     282.7957    402.39548    307.11752   -108108.26    108121.74    95.277962    36.922695 
159544000    269.01636    266.62054    266.96453   -108111.94    108135.15  -0.34398977     36.92617 
159548000    273.30757    408.44647     167.2518   -108112.85    108150.35    241.19467    36.929368 
159552000    288.29784    225.62047    321.85518   -108155.83    108166.99   -96.234715    36.926513 
159556000    280.30592    260.52812    312.00432   -108177.34    108183.65   -51.476195    36.922773 
159560000    290.81343    285.97779    467.69203   -108199.02    108223.76   -181.71424     36.91977 
159564000    285.81198    266.46854    492.99884   -108223.36    108248.39    -226.5303    36.919532 
159568000    312.78932    525.76842    299.79089   -108242.82    108250.14    225.97754    36.925704 
159572000     289.9628    287.64226    506.72383   -108258.62    108283.12   -219.08157      36.9333 
159576000    264.76357    384.98096    308.34316    -108280.5    108299.93    76.637805    36.939739 
159580000    280.67857    349.46006    314.56559   -108277.21    108316.59    34.894474    36.941473 
159584000    295.43843    246.34739    380.32361   -108320.13    108320.25   -133.97623    36.933549 
159588000    286.65238    335.33311    232.90215    -108326.3    108337.81    102.43096    36.937623 
159592000    279.88586    178.96137    195.89282   -108328.44    108351.65   -16.931447    36.933403 
159596000    270.44672    366.73855    270.62823   -108340.79    108372.08    96.110321    36.930679 
159600000    288.31274    266.57386    509.98046   -108372.57    108376.88   -243.40659    36.934942 
159604000    268.14932    243.09705    233.20462   -108382.03    108400.65    9.8924363    36.933111 
159608000    269.88736    242.00957    343.69964    -108386.5    108408.26   -101.69008    36.941216 
159612000    284.37818    307.61899    421.36101   -108429.25    108431.38   -113.74202    36.928337 
159616000     273.7113     490.5134    280.12039   -108433.35    108465.61    210.39301     36.92973 
159620000    256.64828    489.30158    257.33828   -108459.51    108479.49     231.9633    36.937511 
159624000    302.18637    327.44848    313.96257    -108462.2    108471.12    13.485907    36.937491 
159628000    278.63123    355.15706    332.48772   -108462.75     108504.2     22.66934    36.937249 
159632000    278.95698    305.05679    407.91819   -108494.67    108526.47    -102.8614    36.931529 
159636000    286.11065    551.02333    228.95399   -108517.21    108523.82    322.06934    36.930378 
159640000    281.99131    341.26611     234.8227   -108545.57    108566.09     106.4434     36.93267 
159644000    259.54392    256.66086    224.91984   -108571.88    108596.09    31.741026    36.928567 
159648000    270.48685    332.85648    429.22244   -108587.07    108607.55   -96.365958    36.930453 
159652000    272.68075    498.87302     309.7912   -108614.92    108628.31    189.08182    36.924969 
159656000    290.29194    242.64937      347.651   -108630.57    108647.03   -105.00164    36.920559 
159660000    228.45168    172.98328    229.21077   -108621.95     108680.3   -56.227486    36.912507 
159664000    271.49408    538.92638    233.69911   -108648.87    108664.48    305.22727     36.91237 
159668000      285.288    401.24195    262.80695   -108653.83    108682.62    138.43501    36.911748 
159672000    282.48364    386.87789     478.9094   -108659.21    108674.41   -92.031515     36.90229 
159676000    269.44261    345.51675    378.42115   -108682.78     108703.2   -32.904396    36.904214 
159680000    300.45011    721.96413    236.35957    -108725.1    108729.86    485.60456    36.901653 
159684000     279.2156    337.24504    286.30652   -108726.89    108742.32    50.938517    36.906405 
159688000    323.44709    392.89091    532.79312   -108776.64    108768.18   -139.90221    36.900521 
159692000    281.98804    422.50748    203.81278   -108804.39    108821.94     218.6947    36.897236 
159696000    257.21876     484.1998    237.12115   -108804.24    108833.98    247.07865    36.895855 
159700000    297.88846    585.98162    196.52181   -108842.88    108856.91    389.45981    36.892684 
159704000    274.92062    300.48771    490.22249   -108855.76    108875.12   -189.73479    36.894704 
159708000    288.30146    140.31926    214.92519   -108900.05    108927.65   -74.605931    36.892898 
159712000    297.31504    373.21885    312.80439   -108908.41    108922.72    60.414456    36.889304 
159716000    272.89168    244.35905    190.30749   -108899.98    108933.89    54.051567    36.889528 
159720000    307.03357    407.66483    207.88725   -108935.19    108945.69    199.77757    36.883983 
159724000    309.30906    427.40534    319.20823   -108978.59    108969.13    108.19711    36.883551 
159728000    264.04412    335.46825    225.48105   -108962.27    108997.03     109.9872    36.888972 
159732000    308.01327    442.84174    402.88225   -109011.44    109011.55    39.959493    36.885554 
159736000     269.4445    358.90375    299.61743   -108991.85    109032.17    59.286313    36.887929 
159740000    301.55651    417.76685    507.70472   -109012.41    109039.37    -89.93787    36.884311 
159744000    305.02223    340.71364    381.78604   -109016.55    109020.16   -41.072403    36.879071 
159748000    289.57081    415.65735    295.53201   -109029.82    109048.28    120.12534    36.881823 
159752000    283.19156    473.99406    480.92087   -109041.17    109059.99    -6.926817    36.882673 
159756000    285.41274    296.84196    285.29484   -109053.03    109058.46     11.54712    36.888371 
159760000    288.55315    316.57161    341.73305   -109078.11    109065.72   -25.161439    36.886688 
159764000    290.32967    307.46438    283.36424   -109061.68    109077.35    24.100135     36.88526 
159768000    296.38031    512.01996    367.26929   -109072.15    109088.74    144.75067    36.886134 
159772000    262.91101    342.84701    376.16544   -109070.87    109103.01   -33.318424    36.877124 
159776000    269.79387    556.25086     309.3282   -109110.46    109125.88    246.92266    36.872519 
159780000      304.801    382.34112    456.40092   -109130.24    109142.23   -74.059804    36.876783 
159784000    291.39545    350.60985    290.57994   -109125.69    109139.79    60.029904    36.876481 
159788000    292.10704    465.99367    424.51716   -109134.86    109149.14    41.476513    36.874768 
159792000    263.18729    260.82582    276.18713   -109143.65    109197.99   -15.361311    36.870661 
159796000    266.80339    236.08948    358.04969   -109175.93    109201.08   -121.96022    36.866643 
159800000    267.54825    370.33331    357.66705   -109202.62    109224.75    12.666255    36.869046 
159804000    252.87404    160.00632    349.04258   -109217.51    109253.01   -189.03627    36.870493 
159808000    294.39147    502.44376    422.25225   -109240.44     109239.9    80.191511    36.869871 
159812000    268.14944    364.83987    275.28035    -109251.1     109282.5    89.559522    36.859953 
159816000    282.06512    459.61218    405.26784   -109280.09     109294.8    54.344342    36.856072 
159820000    270.16716    439.04276    308.87765   -109302.02    109304.21     130.1651    36.855488 
159824000    284.66924    325.69447     322.0029   -109298.43    109318.63    3.6915662    36.851058 
159828000    267.10741    395.05484    300.10762   -109319.19    109346.82    94.947218    36.852062 
159832000    291.92563    453.73411     194.3659    -109341.9    109365.11    259.36821    36.853797 
159836000    305.84141    418.09045    273.29387   -109356.39    109334.49    144.79658     36.85846 
159840000    286.00983    327.24404    242.31537   -109324.01    109353.67    84.928668    36.855174 
159844000    277.51919    215.91196    344.43953   -109327.44    109347.52   -128.52758    36.856165 
159848000    329.12452    508.94138    415.91362    -109337.6    109343.89    93.027759     36.85273 
159852000    271.45927    540.04367    481.87141   -109345.21    109374.13     58.17226    36.847857 
159856000    252.93751    283.19786    222.46982   -109356.63    109398.17    60.728033    36.850776 
159860000    259.25511     419.3579    276.16821   -109384.93    109427.09    143.18968    36.849939 
159864000    260.93893    374.72692    202.14837   -109397.94    109437.91    172.57856    36.851188 
159868000    312.23689    321.93881    486.50673   -109410.97    109428.05   -164.56792    36.847271 
159872000    287.65679    459.71333     258.1694   -109449.06     109464.5    201.54393    36.850769 
159876000    280.97403    307.07393    298.84897   -109467.43    109483.48    8.2249529    36.853369 
159880000    261.94975    277.50389    232.58084   -109482.22       109517    44.923048     36.84187 
159884000    289.84819    345.37947    329.67585    -109488.1    109513.18     15.70362    36.843341 
159888000    284.24565    257.11462    484.99338   -109511.64    109510.06   -227.87876    36.840023 
159892000     288.1941    347.68266     472.6846   -109528.22    109555.09   -125.00195    36.842062 
159896000    293.98968    327.87035    423.65479   -109539.92    109557.35   -95.784439    36.839896 
159900000    288.50465    343.27586    365.83962   -109564.63    109585.23   -22.563763    36.843048 
159904000    277.20773    174.44776    255.19906   -109580.35    109613.96   -80.751299    36.839102 
159908000    295.74581    354.61143    546.03017   -109621.85    109648.78   -191.41874    36.843162 
159912000    249.40526     445.5287     352.1879   -109604.61    109653.37      93.3408    36.840237 
159916000    274.37098    391.49149    274.27196    -109630.4    109653.44    117.21953    36.846885 
159920000    289.66211    270.11111     234.3639   -109652.31       109666    35.747206    36.848313 
159924000    298.25991    326.96576    355.14292   -109658.65    109671.37   -28.177161    36.845845 
159928000    310.10772    409.02151    226.06198   -109655.49    109662.81    182.95953    36.839298 
159932000    322.93762    352.43711     333.0118   -109683.64    109661.39    19.425309     36.83976 
159936000    292.56104    315.11335    246.57753   -109705.41    109716.53    68.535814    36.837125 
159940000    292.64615    524.67065    456.69175   -109727.34    109738.24    67.978895     36.83008 
159944000    279.22593    365.97224    341.93462   -109759.81    109774.01     24.03762     36.82819 
159948000    292.35522    442.76838     611.8409   -109787.65    109799.96   -169.07253    36.828772 
159952000    295.98014    443.59957    232.58318   -109804.52    109825.65     211.0164    36.830944 
159956000    320.16844    406.77038    309.97199   -109820.59    109830.79    96.798388    36.841785 
159960000    293.12821    501.43833    357.57423   -109858.24    109862.11     143.8641    36.835278 
159964000    311.14846    313.70854    270.95957   -109878.92     109890.7    42.748968     36.83484 
159968000    260.46192    340.81267    296.87724   -109890.16    109930.97    43.935424    36.831692 
159972000    279.46558    413.87326    569.85564   -109926.65    109950.33   -155.98238    36.832787 
159976000     290.7588     402.4962    200.33166   -109961.11    109972.93    202.16454    36.836553 
159980000    281.07122    321.85082    297.44769   -109994.04     109996.8     24.40313      36.8376 
159984000    289.59417    405.27259    247.79993   -110028.85     110026.9    157.47266    36.838237 
159988000    248.11119     238.9341    368.36256   -110016.29    110045.83   -129.42847    36.839853 
159992000    273.35773    384.04113    339.36896   -110025.24    110053.46    44.672167    36.840903 
159996000    260.09954    607.45643    408.26972      -110028    110055.05    199.18671     36.83439 
160000000    256.68683    188.81817    167.89102   -110010.76    110047.91    20.927154    36.831243 
160004000    295.21104    279.91806    231.15534   -110010.74    110028.09    48.762722    36.832034 
160008000      293.397    434.07049    178.41144   -110012.19    110022.47    255.65905    36.823225 
160012000    316.84435     411.8863    379.75332   -110028.66    110031.58    32.132983    36.818138 
160016000    238.61901    354.90757    85.731608   -110020.15    110056.85    269.17597    36.812734 
160020000    279.48796    365.11916    270.52549   -110053.59    110088.87    94.593672     36.81968 
160024000    257.27791    563.38149    250.22964   -110086.18    110125.12    313.15185    36.815722 
160028000    271.86741    279.58403    202.33563   -110107.61    110132.44    77.248401     36.81578 
160032000    280.72888    309.46806    412.77483   -110118.01    110142.44   -103.30678     36.81861 
160036000    266.03787    320.89099    378.46977   -110153.39    110188.61   -57.578781     36.81007 
160040000    274.87889    359.90497    529.89375   -110171.07    110192.88   -169.98877    36.809215 
160044000    270.40302    479.72945    169.42602   -110186.66    110209.38    310.30343    36.810974 
160048000    268.17784    257.41944    249.20572   -110215.65    110236.32    8.2137239    36.812963 
160052000    303.91255     565.5045    335.61279   -110237.74    110248.56    229.89171    36.819999 
160056000    275.44018    339.97096    491.13268   -110220.55    110270.96   -151.16172    36.818182 
160060000    242.39584     288.1265     286.0207   -110244.38    110292.33    2.1058072    36.818906 
160064000    282.40727    353.27567    366.80297   -110275.71    110295.45   -13.527302    36.817975 
160068000    291.62823    242.29093    210.70546   -110283.92    110301.77    31.585462    36.815252 
160072000    285.60206    311.86713    320.08032    -110298.7    110311.91   -8.2131916    36.815401 
160076000    255.11948    537.93431    243.13698   -110328.53    110356.21    294.79733    36.811103 
160080000    250.67373    241.24713      304.163   -110285.18     110332.5   -62.915875    36.810983 
160084000    262.89467     423.7189    350.24192   -110317.99    110351.22    73.476974    36.808995 
160088000    280.04219    195.17943     140.2279   -110329.01    110367.17    54.951522    36.809362 
160092000    316.33518    393.25421    406.61051    -110370.5    110366.78   -13.356297    36.806739 
160096000    262.79828    315.90884    195.46833   -110362.46    110395.98    120.44051    36.805523 
160100000    298.13056    484.53757    310.70082   -110395.75    110413.28    173.83675    36.805609 
160104000    264.66791    255.61232    271.51414   -110411.29    110429.82   -15.901826    36.806586 
160108000    275.75632    591.71051    332.14638   -110451.71    110460.18    259.56412    36.801194 
160112000    279.95364    339.53141    484.73268   -110459.88    110481.16   -145.20127    36.799875 
160116000    290.38988     393.0946    217.96412   -110462.51    110499.66    175.13048    36.799615 
160120000     270.3527    494.89037    323.35541   -110465.07    110497.29    171.53497    36.799946 
160124000    287.34167     256.1145    229.95333   -110479.14       110505    26.161173    36.798166 
160128000    262.80611    251.46389    314.35499   -110485.14    110512.13   -62.891102    36.799057 
160132000    260.05532    289.31783    336.06431   -110485.53    110514.05   -46.746477    36.800845 
160136000    295.65851    319.11317    385.30147   -110497.53    110518.76   -66.188297     36.80904 
160140000    270.48088    248.69363    330.49499   -110530.98    110543.69   -81.801359    36.806955 
160144000    289.54667    354.52968    357.90914   -110556.91    110573.59   -3.3794607    36.802597 
160148000    305.78035    374.03397    340.68517   -110589.24    110599.52    33.348804    36.806254 
160152000    273.85933    403.14739     470.9604   -110600.19    110631.47   -67.813017     36.80169 
160156000    281.46516    215.21594    283.78668   -110631.46    110657.88   -68.570735    36.796728 
160160000    297.43526    316.36513    384.01442   -110687.69    110685.06   -67.649296    36.794577 
160164000    295.46076    374.24086    227.05375   -110703.83    110722.38    147.18711    36.792349 
160168000     275.2533    515.68308    342.90731   -110720.67    110743.23    172.77577    36.787977 
160172000    303.31489    276.39485    368.66775   -110741.54    110756.14     -92.2729    36.790059 
160176000    291.73979    487.70038    347.68519    -110773.7    110779.55     140.0152    36.788801 
160180000    278.10353     417.5939    297.40145   -110765.01    110795.27    120.19245    36.789614 
160184000    280.49335     286.1442    251.25779   -110780.38    110804.75    34.886408     36.79158 
160188000    251.17697    306.44748    317.41952   -110808.04    110852.72   -10.972042    36.795288 
160192000     280.2101    351.24782    476.88351   -110837.22    110857.45   -125.63568    36.792116 
160196000    277.47397    466.53464    363.20206   -110876.12    110901.37    103.33259    36.795067 
160200000    325.06795    592.60215    339.18272   -110907.07    110911.59    253.41943    36.790522 
160204000    270.72808    249.98636    183.01643   -110905.53    110927.79    66.969935    36.794589 
160208000    261.67315    373.43462    259.91442   -110939.63    110966.14     113.5202    36.795052 
160212000    278.45942    432.27006    263.22389   -110950.94    110972.88    169.04616     36.78903 
160216000    298.23877    433.82096    425.32701   -110969.19    110994.62    8.4939478    36.789899 
160220000    272.90266    376.52972    388.60963   -111005.23    111014.81   -12.079912    36.785693 
160224000    261.89394    208.15737    404.64432   -111000.65    111037.69   -196.48695    36.783857 
160228000    281.25074    295.80852    348.86139   -111026.49    111070.53   -53.052872    36.783292 
160232000    299.23122     289.2081    435.12321   -111066.61    111089.04   -145.91511    36.782506 
160236000    273.11995    318.42069     260.8672   -111074.52    111104.89    57.553489    36.780745 
160240000    311.13573    335.00511    373.59143   -111119.32    111123.85   -38.586316    36.782344 
160244000    281.37644    298.07859    438.32908   -111132.99    111130.13   -140.25049    36.779599 
160248000    273.36855     390.3888    280.92787   -111150.85    111166.15    109.46093    36.778969 
160252000    269.61051    217.43048    354.12289      -111149    111171.29   -136.69242    36.773445 
160256000    286.40092    319.03759    345.34269   -111170.22    111189.16   -26.305101    36.771113 
160260000    283.33294    303.63732    281.42416   -111210.48    111221.07    22.213162    36.767686 
160264000    281.80435    226.32044    373.80812   -111225.12    111246.78   -147.48768    36.771523 
160268000    294.77385    423.11221    436.21638    -111232.6    111243.98   -13.104171    36.772531 
160272000    311.19828    267.30125    440.68106   -111244.35    111251.48   -173.37982    36.778759 
160276000    288.42598    407.91055    330.53295   -111247.71    111271.52    77.377601    36.781728 
160280000    272.14905    299.90054    424.72997   -111240.98    111270.71   -124.82943    36.783693 
160284000    266.15521    365.18295    130.77506   -111265.86    111298.57    234.40789    36.782898 
160288000    276.94011    352.64398    290.12839   -111290.46    111316.11    62.515587    36.777343 
160292000    254.33208    415.22202    305.10173   -111315.45    111334.37    110.12028    36.783222 
160296000    278.13098     400.9293    369.51238   -111300.15    111335.84    31.416919    36.786086 
160300000    273.91699    503.28721    240.20511   -111326.58    111358.78     263.0821    36.783733 
160304000    257.44849    305.28951    403.95793   -111342.21    111365.91   -98.668414    36.784022 
160308000    295.12737    336.86285    414.61315   -111352.79    111366.28   -77.750304    36.781151 
160312000    281.62757    290.36911    287.74534   -111375.76    111388.06    2.6237696    36.782294 
160316000    272.12142    293.53394    333.24679    -111386.6    111410.43   -39.712852    36.784658 
160320000    268.17848    387.72668    202.40265   -111398.12    111415.01    185.32403    36.783704 
160324000    272.09478    344.53517    178.58884   -111433.39    111436.33    165.94633    36.783383 
160328000    296.48585    286.74126    265.00825   -111431.85    111443.89    21.733014     36.78008 
160332000    289.70512    497.10221    143.60318   -111439.55    111454.27    353.49903    36.781245 
160336000    299.75622    339.75181    210.99545   -111459.75    111468.45    128.75636    36.784234 
160340000      295.575    390.07066    479.81095   -111470.33    111479.26   -89.740296    36.785505 
160344000    282.11208    218.38015    525.85911   -111492.91    111506.03   -307.47896    36.787914 
160348000     296.5872    380.83413    357.44247   -111499.82    111512.08     23.39166    36.792887 
160352000    290.67538    345.23767    307.44689   -111519.55    111530.36    37.790777    36.793379 
160356000     294.4104    401.57911    348.03358   -111567.91    111571.04    53.545531    36.793422 
160360000    286.21723    504.73562    277.15611   -111589.02    111598.31     227.5795    36.787254 
160364000    249.47972    370.36748    225.86622   -111604.25    111641.03    144.50126    36.793957 
160368000    293.90294    361.16728    383.92725   -111615.98    111645.74   -22.759976    36.794542 
160372000    271.79994    303.36065    323.93308   -111629.45    111636.33    -20.57243    36.796962 
160376000    288.60785    305.41529     342.5342   -111647.55    111666.66   -37.118909    36.796709 
160380000    274.92465    208.42658    266.34371   -111665.87    111694.05   -57.917139    36.802336 
160384000     281.2584    349.12693    376.91712   -111692.61    111705.33   -27.790195    36.808114 
160388000    287.35181    535.72595     400.3771   -111703.04    111687.64    135.34885    36.806238 
160392000    317.73115    473.22665    344.94012   -111716.18    111728.94    128.28653    36.812427 
160396000    271.63585    196.85354    394.26228   -111741.31    111753.28   -197.40873    36.803897 
160400000    303.68737    375.62405    301.07374   -111758.23    111768.45     74.55031    36.805054 
160404000    269.12371    420.75839    269.08472      -111770    111798.47    151.67367    36.802674 
160408000    301.49854    314.63355     279.6894   -111795.03    111819.34    34.944156    36.807771 
160412000    295.27011    323.84625    685.50534    -111797.2    111802.38    -361.6591    36.799844 
160416000     261.4464    440.92998    314.29682   -111806.46    111833.22    126.63316    36.805436 
160420000    295.50931     261.4987    235.16013   -111819.88    111842.72    26.338573     36.80425 
160424000    265.33321    293.18254    234.14316   -111839.98     111880.7    59.039377    36.806177 
160428000    258.92389    706.57701    336.68036   -111850.83    111875.89    369.89665    36.804987 
160432000    287.76836    351.35384    186.41492   -111878.14    111900.24    164.93892    36.798688 
160436000    296.60523     295.2641    375.38571   -111922.71    111915.27   -80.121614    36.793612 
160440000    304.12681    174.83389    205.75196   -111917.36    111912.98   -30.918073    36.793167 
160444000     306.6582    435.93698    204.05935   -111930.35    111945.22    231.87763    36.799007 
160448000    279.53388    299.72053    322.19508   -111962.61    111985.47   -22.474549    36.796491 
160452000    274.49595    405.63666    294.51471   -111971.17    111998.04    111.12196    36.800673 
160456000    253.20213     487.1702     307.0391   -111987.22    112026.49     180.1311    36.798129 
160460000    271.06139    153.49525    334.87671   -112029.24    112047.37   -181.38146    36.792302 
160464000     276.6676    294.57941    309.59517   -112047.21    112077.98   -15.015751    36.787806 
160468000    283.05369     310.6303    223.94098   -112056.17    112083.02     86.68932    36.787546 
160472000    284.26532    320.10095    319.75296   -112082.33    112109.85   0.34799078    36.783707 
160476000    286.67993    294.51725    360.35022   -112112.47    112117.02    -65.83297    36.776313 
160480000    272.33939    398.46814    200.46555    -112113.6    112132.25    198.00259    36.777672 
160484000    290.56198    369.61638    175.93016   -112140.78     112154.5    193.68622     36.78357 
160488000    246.33708    285.87653    370.48029   -112148.57    112191.68   -84.603755    36.783307 
160492000    306.02919    368.42286    335.17383   -112193.17    112208.95    33.249021    36.780257 
160496000    316.92072    427.24408    428.11474   -112208.69    112226.44  -0.87066045    36.785452 
160500000    265.80391    437.80785     400.2188   -112221.81    112260.12    37.589047    36.791168 
160504000    275.50157    502.25058    395.58464      -112232    112267.37    106.66594    36.793977 
160508000    254.94439    370.73108    175.47811    -112233.9     112270.1    195.25297    36.795802 
160512000    273.21683    359.63392    409.31549   -112244.26     112272.4   -49.681561     36.79578 
160516000    306.80287    266.29252    472.37733   -112280.51    112281.26   -206.08481    36.798176 
160520000    277.29238    296.34936    321.13459   -112309.65    112325.83   -24.785229     36.79877 
160524000    306.18121    358.67795    245.07154   -112343.54    112345.07    113.60641    36.798398 
160528000    271.45639    284.79942     352.9521   -112343.77    112359.61   -68.152676    36.802836 
160532000    259.23145    231.24075    298.65243   -112334.07    112374.91   -67.411682    36.806037 
160536000    268.30274    373.51096    230.94171   -112334.99    112359.08    142.56925     36.81241 
160540000    291.64785    363.50045    350.65571   -112368.59    112386.45    12.844735     36.81374 
160544000    271.54543     295.1318    303.86838   -112388.71    112403.17   -8.7365888     36.80934 
160548000    285.29639    354.23346    219.10276    -112426.1    112439.21    135.13071     36.80284 
160552000    277.88154    420.86574    332.68245   -112436.15    112459.42    88.183297    36.807752 
160556000    272.36784    433.30685    308.31068   -112471.36     112491.7    124.99618    36.804477 
160560000    297.95746    491.36371    200.80303   -112501.54    112508.64    290.56068    36.809022 
160564000    278.45752    471.76002    380.04862   -112510.18    112517.26      91.7114    36.814139 
160568000    297.89383    427.49974    534.52397    -112513.3    112534.44   -107.02424    36.809607 
160572000    299.40014    350.56593    331.00353   -112536.44    112526.94    19.562401    36.816015 
160576000    262.58967    393.67447    297.92904   -112525.32    112549.43    95.745435    36.819124 
160580000     279.7211    290.25798    337.66941   -112532.38     112562.1   -47.411436    36.821261 
160584000    283.78592    379.32173    383.68576   -112548.21    112578.97   -4.3640249     36.82333 
160588000    279.88314    395.90225    431.13069   -112589.44    112598.67   -35.228442     36.82422 
160592000    271.50162    338.68562    364.75731   -112606.54    112626.36   -26.071694     36.81868 
160596000    284.20657    336.72281     453.1369   -112622.97    112630.44   -116.41409    36.812614 
160600000    267.82731    419.84174    431.23432   -112625.59    112666.56   -11.392576    36.810941 
160604000    315.28161    328.35166    440.89285   -112657.06    112655.15   -112.54119    36.807356 
160608000    248.89518    187.34092    176.92354   -112658.67     112678.6    10.417377    36.810861 
160612000    289.06083    491.59882    280.48206    -112674.4    112701.12    211.11676     36.81037 
160616000    289.98013    323.90542    403.81208   -112700.09    112719.91   -79.906657    36.806457 
160620000    267.53981    352.90387     423.9988   -112710.49    112743.23    -71.09493    36.805049 
160624000    271.93787    228.55404    334.94983   -112727.17    112753.38    -106.3958    36.802199 
160628000    284.40823     349.4104    579.19661   -112739.62     112762.4   -229.78621    36.795658 
160632000    305.10107    487.67624    438.85049   -112775.36    112795.35     48.82575    36.802388 
160636000    258.16766    300.89624    278.21149   -112778.99    112817.12    22.684752      36.8047 
160640000    281.40291    292.31841    399.61704   -112799.18    112824.42   -107.29863    36.807226 
160644000    298.27666    314.20944    242.07272    -112824.6    112833.39    72.136714    36.815745 
160648000    286.33242    409.04744    297.19239   -112876.82    112870.44    111.85506    36.815453 
160652000    272.70083    379.77927    404.18977   -112870.14    112898.08   -24.410505    36.816248 
160656000    288.68731    252.70059    434.55515   -112883.05    112907.75   -181.85456    36.812717 
160660000    312.72635    387.02106    218.57599   -112908.76     112917.8    168.44507     36.81701 
160664000    263.05068    126.48671    221.18758   -112884.58    112921.33   -94.700872    36.809442 
160668000    265.76131    481.75196    264.22655   -112907.65    112938.04    217.52542    36.814986 
160672000    240.51542    328.00717    355.48908   -112903.29     112957.1   -27.481912    36.812351 
160676000    267.50534    295.44907    381.24761   -112944.87    112987.44   -85.798545    36.815688 
160680000    282.89571    749.73748    251.23533   -112982.07    112999.29    498.50215    36.819808 
160684000    283.17673    363.81932    514.45563   -113007.95    113021.16    -150.6363    36.816362 
160688000    296.53812    353.81148     316.3758   -113032.44    113039.72    37.435682    36.817497 
160692000     275.9595    315.61324    269.22383   -113054.01    113071.21     46.38941    36.821319 
160696000    261.35868    329.84349    348.23326    -113066.3    113095.97   -18.389773    36.823328 
160700000     287.3128    409.41187     206.0201   -113082.94     113109.1    203.39177    36.825559 
160704000    279.04331    247.21687    462.35818   -113101.18    113127.77   -215.14132    36.820665 
160708000    232.39638    193.23963    329.51524   -113089.13    113152.33   -136.27561    36.820782 
160712000    305.67755    361.77132     407.6703   -113130.82    113155.44   -45.898976    36.818251 
160716000    307.60983    575.09754    399.95833   -113170.24    113168.53    175.13921    36.816349 
160720000    298.54657    244.35755    452.86449   -113176.83    113180.91   -208.50694    36.814904 
160724000    261.92811    174.94402    265.51248   -113201.68    113221.85   -90.568455    36.822229 
160728000     278.4841    546.98857    239.76919   -113221.34    113255.77    307.21938    36.823465 
160732000    285.98389    593.47107    290.32471   -113249.05    113259.14    303.14636    36.824077 
160736000    285.00174    398.74394    309.56925   -113281.46    113308.65    89.174698    36.823905 
160740000    318.85484     351.1354    474.55869   -113338.18     113327.9   -123.42329    36.827134 
160744000    291.29867    688.91583    342.50935   -113338.57     113355.6    346.40647    36.825827 
160748000    282.48149    360.11841    282.84839   -113358.86    113371.36    77.270025    36.830577 
160752000    276.44317    466.29703    403.88472   -113363.62    113378.36    62.412307    36.831083 
160756000    261.38516    281.91399    214.84565   -113384.76    113404.05    67.068337     36.82835 
160760000    324.11478    393.77934    293.91361   -113419.09    113422.45    99.865731    36.836266 
160764000    298.86512    490.28451    423.87734   -113409.32    113439.67    66.407171    36.833355 
160768000    263.62685    460.37778     396.3157   -113406.34    113437.35    64.062081    36.832186 
160772000    296.97107    602.51995    278.04999   -113440.13    113462.03    324.46996    36.832507 
160776000    278.25172    448.03237    331.98937   -113488.13    113499.46    116.04301    36.829686 
160780000    274.50122    575.29256     294.5883   -113500.21    113511.35    280.70426    36.827446 
160784000    306.57127    470.78708     284.7951   -113503.93    113517.61    185.99198     36.82427 
160788000    294.44711    501.05482    379.66237    -113513.5    113540.03    121.39245    36.822925 
160792000    239.91747    345.46326    195.74908   -113509.31    113575.73    149.71418    36.823401 
160796000    278.17249    333.64636    383.47988   -113537.94    113562.85   -49.833514    36.818949 
160800000    262.27469    415.98641    381.35707   -113549.74    113572.41     34.62934    36.821211 
160804000    305.18557    330.29308     297.7514   -113587.63    113586.03    32.541675    36.824425 
160808000    259.63692    215.34066    314.61207   -113568.85    113603.19   -99.271405    36.823853 
160812000    285.65978    452.42825    337.29268   -113596.75    113620.44    115.13557    36.822082 
160816000    274.09331    349.85991    301.88312   -113616.04    113649.29    47.976792     36.82441 
160820000    281.71269    372.97673    243.48026   -113665.94    113679.68    129.49647    36.823316 
160824000    242.89916    401.86831    234.53435   -113654.29    113699.12    167.33395    36.823757 
160828000    240.52072    357.44344    264.15312   -113676.15    113711.09    93.290317    36.823568 
160832000    311.13335    302.13967    302.68064   -113712.09    113712.79  -0.54097683    36.826656 
160836000    299.95675    259.78165    302.06771   -113751.58    113748.17   -42.286063    36.826896 
160840000    320.67851    223.78686    459.38003   -113766.22    113779.99   -235.59317    36.823965 
160844000    269.08242    285.84785    251.90605   -113757.39    113802.55    33.941799    36.824206 
160848000      266.092    522.12813    283.91709   -113786.89    113814.32    238.21104    36.824049 
160852000    307.40971    459.74179    203.29049   -113828.42    113840.21     256.4513    36.826143 
160856000    321.48847    368.82404    218.62759    -113866.6    113860.22    150.19645    36.826741 
160860000     253.8547    248.92768    368.57609   -113854.31    113921.92   -119.64841    36.826224 
160864000    291.49624    459.16449    260.08111   -113871.07    113908.55    199.08338    36.829036 
160868000    276.76885    282.52818    250.02312   -113904.93    113931.44    32.505067    36.831998 
160872000    250.56881     340.0225    303.72152   -113922.05       113956    36.300973    36.828624 
160876000     266.6994    331.34127     304.8529   -113943.52    113978.96     26.48837    36.833315 
160880000    293.50902    290.03354    233.23074   -113952.81    113963.59    56.802804    36.834625 
160884000    300.23212    349.19696    327.69614   -113978.53    113995.73    21.500819    36.835466 
160888000    302.76875    418.18942    307.04855   -114009.45    113998.03    111.14088    36.837211 
160892000    278.69181    468.28288    401.88737   -114003.64    114038.99    66.395511    36.834612 
160896000    291.72234    298.64596    503.17763   -114036.44    114054.17   -204.53167    36.835242 
160900000    278.81781    535.76961    226.24076   -114055.68    114074.53    309.52885    36.836912 
160904000     285.0853    267.53379    457.59928   -114066.26    114084.45   -190.06549    36.834841 
160908000    290.02698    488.01341    470.40542   -114087.37    114080.95    17.607985    36.832585 
160912000    284.23262    275.85125    297.15244   -114086.01    114115.46   -21.301187    36.833728 
160916000     304.6872    362.54948    296.39207   -114093.44    114112.77    66.157407    36.830171 
160920000    257.13966    284.98673    229.99625   -114119.01    114163.56    54.990482     36.83292 
160924000    284.61691    245.61227    285.82551    -114150.4    114169.76   -40.213241    36.829808 
160928000    292.03879    380.32664    296.86346   -114160.53    114179.86     83.46318    36.832816 
160932000    314.99736    305.28257     291.5634   -114203.74    114196.99    13.719171     36.82891 
160936000    271.02586    276.12228    188.40229   -114197.53    114206.26    87.719985    36.831343 
160940000    261.68737    300.76015    305.81171   -114218.85    114248.13   -5.0515579    36.832091 
160944000    273.19569    312.44451    260.50518   -114235.52    114269.87    51.939335    36.827733 
160948000    290.32178    226.48081    328.12525    -114265.5    114285.04   -101.64445    36.828938 
160952000    301.61517    395.05759     230.3839   -114292.45    114299.42    164.67369    36.832488 
160956000     274.5125    361.23348    395.17573   -114288.09    114307.52   -33.942251    36.831794 
160960000    257.83444    395.16207    172.12558    -114297.5     114335.4    223.03649    36.834683 
160964000    263.92833    574.81056    280.74122   -114281.43    114320.95    294.06934    36.838252 
160968000    299.61803    394.46064    286.54966   -114301.71    114303.27    107.91098    36.838989 
160972000    281.95903    398.69681    235.55809   -114318.88    114353.39    163.13871    36.836624 
160976000    270.32269    320.83395    276.84268   -114347.41    114382.47    43.991267    36.837723 
160980000    269.62634    424.28351    291.54941   -114366.98    114395.28     132.7341    36.838969 
160984000    248.35977    358.96013    168.94319   -114373.77    114400.99    190.01694    36.837988 
160988000    244.31303    306.62143    374.26398   -114362.03     114408.4   -67.642543    36.835081 
160992000    288.35693    347.70042    259.58352   -114380.34    114389.42    88.116894    36.833111 
160996000    277.26538    328.13925     329.6321      -114398    114410.49   -1.4928561    36.835446 
161000000     289.8498    323.54135    208.87372      -114431    114432.18    114.66763    36.842888 
161004000    253.13207     396.4795    439.35229   -114411.44    114457.15    -42.87279    36.841318 
161008000    288.84907    224.98265    785.11971   -114448.64    114479.88   -560.13706    36.840785 
161012000    301.76792    335.11982    329.17358    -114485.2    114492.91    5.9462346    36.840752 
161016000    281.59697    250.25612    346.67086   -114500.37    114522.07    -96.41474     36.84013 
161020000    281.02747     274.9708    432.33322   -114525.32    114557.35   -157.36242    36.835729 
161024000    301.53143    263.74215     251.2421   -114557.05    114568.95    12.500049    36.835983 
161028000    284.69549    606.09305    293.44912   -114571.46    114589.07    312.64393    36.832685 
161032000    260.90246    316.57744    222.70512    -114583.6    114615.47    93.872324     36.83565 
161036000     292.0891    498.19182    264.05622   -114600.06    114622.01     234.1356    36.838354 
161040000     286.7856    247.07538    272.01453   -114605.86     114630.5    -24.93915    36.844087 
161044000    306.82836    280.84452    406.61926   -114634.62    114644.53   -125.77474    36.846289 
161048000    268.56122    325.18901    380.91825   -114639.07    114670.84   -55.729238    36.842748 
161052000    268.18881    248.31909    311.82846   -114655.38    114694.53    -63.50937    36.844657 
161056000     256.9539    470.24373    309.96141   -114690.95    114713.26    160.28232    36.849747 
161060000    305.14315    246.27023    374.45023    -114695.6    114712.58      -128.18    36.843018 
161064000    302.85359    353.46254    426.47618   -114715.93    114714.73   -73.013646    36.841477 
161068000    307.22248    535.69158    263.78489   -114744.49    114743.85    271.90668    36.839561 
161072000    288.52954    308.84812    472.98885   -114731.86    114747.48   -164.14074    36.843698 
161076000    290.91922    396.37627    488.89779   -114759.11     114771.1   -92.521527    36.844594 
161080000    278.87401    113.64685     236.1979   -114795.94    114824.55   -122.55105    36.846201 
161084000    291.24078    470.46913    458.77437    -114835.1    114830.21    11.694764    36.842755 
161088000    264.90705    349.75056    288.08235   -114842.25    114884.34    61.668204    36.842695 
161092000    275.33369    354.86142    348.65024      -114845    114883.31    6.2111785    36.845686 
161096000    290.69726    296.06884      347.052   -114867.65    114876.43   -50.983158    36.848286 
161100000    266.71965    375.54733      398.211   -114880.93    114912.31   -22.663671    36.852938 
161104000    313.40029    317.59498    590.20469   -114918.57     114917.1   -272.60971    36.849402 
161108000    270.31073    592.03613    298.66318   -114928.76     114964.1    293.37296     36.85104 
161112000    253.14756    279.60864    445.82654   -114941.32    114976.74   -166.21789    36.851812 
161116000    275.82003    341.53257    400.50158   -114941.79    114974.81   -58.969015     36.84897 
161120000    286.49009      395.485    234.18508   -114989.17    114985.08    161.29991    36.853838 
161124000    284.30619    341.86715      404.528   -114994.68    114982.56   -62.660853     36.86207 
161128000    283.21532    648.87808    326.43236   -114989.99    115014.64    322.44572    36.866041 
161132000    296.88938     239.5926    406.75327   -115015.17    115032.64   -167.16067    36.861778 
161136000    268.02421    377.37121    332.43028   -115015.94    115060.04     44.94093    36.855673 
161140000    285.83603    329.93718    322.47614   -115038.47    115055.41    7.4610382    36.854058 
161144000    308.78386     573.4891    419.41525   -115063.13    115060.68    154.07384    36.860496 
161148000    286.33898    214.78149    227.10409   -115074.22    115089.22   -12.322601    36.856724 
161152000     275.6943     315.2809    266.92014   -115099.22    115094.62    48.360758    36.853494 
161156000    287.81613    288.10865    271.10738   -115093.71    115120.01    17.001276    36.852083 
161160000    298.32395    420.40604    344.73069   -115102.63    115124.63    75.675348    36.849131 
161164000    299.70221    337.84044    207.77701    -115102.8    115126.26    130.06343     36.84861 
161168000    259.28628    276.72019     294.4757   -115115.33     115145.5   -17.755515      36.8498 
161172000     312.8704    358.07142    430.94786   -115131.93    115126.17    -72.87644    36.854079 
161176000    290.53474     175.6105    536.35614   -115146.53    115136.69   -360.74563    36.850151 
161180000    273.50251    434.50997    283.96445   -115164.69    115192.02    150.54552    36.851403 
161184000    303.80608    321.61251    344.69452   -115199.25    115201.49   -23.082005    36.850255 
161188000    288.44655    301.69001    363.58067   -115219.36    115229.49   -61.890663    36.850427 
161192000    306.30596    238.81046    246.33306   -115248.05    115246.84    -7.522597    36.856076 
161196000    321.67959    343.02705    226.64808   -115273.37    115276.19    116.37897    36.865655 
161200000    271.46874    368.41215    287.29479   -115285.99    115328.98    81.117364    36.866555 
161204000    244.31232    250.68124     235.4224   -115299.05    115351.71    15.258838    36.863628 
161208000    297.44541    282.05027    238.46326    -115321.5    115335.09    43.587011    36.864466 
161212000    301.34062    240.71181    441.21291   -115354.35    115369.85    -200.5011    36.862748 
161216000    293.20747    458.28109    477.20502   -115377.51    115402.15    -18.92393    36.866289 
161220000    310.22204    329.71218    283.10894   -115402.66    115416.18    46.603237    36.861148 
161224000    295.50718    293.94093    183.78245   -115405.83    115430.03    110.15849    36.860222 
161228000    275.42478     471.6768    396.83254   -115437.52    115454.61    74.844259    36.863845 
161232000    298.83272    402.60339    451.78572   -115458.09    115473.69   -49.182324    36.861306 
161236000    291.26411    649.70813    233.54546   -115470.28    115487.98    416.16267    36.864472 
161240000    305.08944    589.97289    367.17096   -115474.68    115500.02    222.80193    36.864718 
161244000    306.29923    611.28818    363.72597   -115521.03    115528.81    247.56221    36.869527 
161248000    274.65749    201.10765    358.20046   -115530.39    115562.21   -157.09281    36.872936 
161252000    264.63541    363.40554     205.7802   -115571.02    115606.37    157.62534    36.875126 
161256000    263.13739    290.17167    310.40372   -115602.99     115630.5   -20.232045    36.873839 
161260000    265.59765    207.28593    213.49266   -115634.45    115654.84   -6.2067297    36.879782 
161264000    289.44894    497.94256    356.22501   -115654.05    115680.96    141.71755    36.884394 
161268000     277.2067    310.81944    166.69314   -115673.47    115699.91     144.1263     36.88276 
161272000    279.16396    321.03198    281.35936   -115698.37    115738.62    39.672625    36.883909 
161276000    294.80881    296.99386    291.48594    -115744.4    115764.51      5.50792    36.885194 
161280000    284.75922     398.5883    301.92334   -115754.12    115773.05    96.664961    36.887883 
161284000    280.34731    314.53704    351.55374   -115778.37    115800.84   -37.016699    36.885474 
161288000    286.53957    460.58362    538.45742   -115794.22    115818.12   -77.873795    36.888912 
161292000    292.77118    305.01786    494.34857   -115846.54    115847.18   -189.33071    36.885118 
161296000    269.62338    173.72753    347.02385   -115851.99    115878.12   -173.29632    36.881178 
161300000    280.74258    370.55986    368.71605    -115879.2    115889.29    1.8438085    36.884799 
161304000    277.65605    401.23133    388.90205   -115893.06       115914     12.32928     36.89001 
161308000     281.5327      335.141    417.98937    -115884.1    115924.75   -82.848366    36.891564 
161312000    277.76962    397.02269    149.78646   -115924.28    115933.47    247.23623     36.89036 
161316000    286.09218    291.54812     322.7456   -115933.02    115954.52    -31.19748    36.883497 
161320000     287.9426    336.83323    348.50815   -115948.65    115975.72   -11.674926    36.882263 
161324000    291.39211    130.39439    225.05065    -115973.6    115989.01   -94.656266    36.886764 
161328000    294.70506     268.1449     515.9319   -115998.17    115992.73     -247.787    36.884847 
161332000    308.92646    231.76536    263.99332   -116015.78    116034.72   -32.227952    36.881632 
161336000    236.06814    176.70315    272.33115    -116006.4    116055.31   -95.628007    36.883902 
161340000    275.31395    252.05221    482.41086   -116033.78    116072.85   -230.35865    36.880623 
161344000    280.08683    270.82751    222.47631   -116046.31    116076.09    48.351199    36.881709 
161348000    283.73308    507.27465    259.60369   -116052.74    116067.66    247.67096    36.880096 
161352000    262.16223    360.72588    323.76036   -116063.23    116095.41    36.965521    36.890475 
161356000    293.67927    551.45891     333.9408   -116117.82    116133.55    217.51811    36.891194 
161360000    252.40158    583.07335    328.94033   -116127.57    116163.53    254.13303    36.893898 
161364000    259.48943    238.86063    277.18557   -116149.28     116183.2   -38.324942    36.890427 
161368000    283.27621    282.48851    299.98066   -116168.39     116182.9   -17.492148    36.885063 
161372000    304.73523    362.29911    323.97177   -116189.88    116203.37    38.327343    36.886844 
161376000    292.38284    416.00137    318.33665   -116216.85    116227.23    97.664726    36.893039 
161380000    270.97851    382.57374     331.3187   -116210.31    116237.04    51.255038    36.892409 
161384000    292.32493    487.69509    332.84761   -116247.81    116240.06    154.84748    36.888905 
161388000    260.10936    398.17656    302.16787   -116224.15     116260.1    96.008694     36.88435 
161392000    279.83819    301.56062    326.32024   -116248.43    116265.75   -24.759622    36.885319 
161396000    249.64167    372.33984     257.1146   -116261.92     116297.6    115.22524    36.882136 
161400000    259.65969     283.1572    266.41014   -116274.61    116322.66    16.747069    36.885145 
161404000    262.90168    529.05362    183.10321   -116313.72    116368.57    345.95042    36.893302 
161408000    265.98844    578.66397    366.60459   -116347.51    116396.08    212.05938    36.891561 
161412000    263.89426    204.54359    251.08397   -116365.05    116392.41   -46.540373     36.89168 
161416000    267.37726    304.70063    629.44208   -116375.32     116397.3   -324.74145    36.888728 
161420000    315.87582    524.60771    341.45116   -116417.91    116413.09    183.15655    36.890705 
161424000    285.72357    337.29486    276.21645   -116448.81    116456.48    61.078409     36.89332 
161428000    310.24135    540.20379    300.94589    -116463.6     116466.9    239.25791    36.893969 
161432000    269.40124    269.35734    275.32517   -116479.45    116508.34   -5.9678316    36.890378 
161436000    285.57703    513.72574    141.32871   -116510.35    116523.39    372.39703    36.893943 
161440000    297.68707    218.20984    305.51352   -116545.93    116544.07   -87.303681    36.898491 
161444000    273.03766    283.65014    401.97526   -116539.69    116560.07   -118.32512     36.89459 
161448000    269.50025    208.66756    353.14571    -116544.2    116581.66   -144.47815    36.898221 
161452000    251.76621    280.74031    426.95297    -116570.5     116601.1   -146.21266    36.899257 
161456000    266.61336    346.65851    391.96579   -116590.53    116618.82   -45.307277    36.897671 
161460000    238.24669    325.70095    272.44472   -116626.64    116665.37     53.25623    36.894845 
161464000    275.72387    274.70224    325.12238   -116681.56    116687.11   -50.420139    36.892979 
161468000    292.53252     230.6995      204.551   -116681.14    116693.82    26.148497    36.891865 
161472000    269.05064    414.22801    223.05154   -116685.82    116697.76    191.17647    36.885857 
161476000    265.42911    333.90478     576.3366   -116721.03    116720.24   -242.43182    36.886088 
161480000    282.23933    319.23724    275.59317   -116728.48    116748.96     43.64407    36.886172 
161484000    277.66582    308.98822    371.25678   -116711.72     116748.5   -62.268564    36.884126 
161488000    272.90253    364.40074    342.96397   -116726.81    116748.15    21.436772    36.881008 
161492000    302.32901    248.13337    214.31018   -116763.32    116775.29    33.823196    36.881521 
161496000    275.05871    289.84938    273.15174   -116788.36    116796.79    16.697635    36.879146 
161500000    265.60058    317.70253    355.89828   -116813.16    116837.75   -38.195748    36.873465 
161504000    254.51183    401.91359    344.10107   -116840.71    116879.26    57.812515    36.873896 
161508000    263.33793    294.54913    247.38365   -116848.31    116884.27    47.165472    36.871571 
161512000     315.8895     502.6058    377.54053   -116884.74    116880.88    125.06527    36.881953 
161516000    276.03701    563.14262    279.75492   -116915.26    116925.71    283.38771    36.887126 
161520000    279.53464    376.48429    243.64165      -116929    116949.41    132.84264    36.888898 
161524000    269.10305    428.19347    237.86229   -116947.12    116978.65    190.33118    36.890995 
161528000    262.29707    255.06315    491.06698   -116953.37    116992.65   -236.00383    36.892774 
161532000    294.80799     284.1899    314.85002   -116970.46    116998.55   -30.660116    36.891677 
161536000    290.30077    427.78007    263.59082   -117002.82    117024.66    164.18925    36.886346 
161540000    289.39211    275.77848    359.32723   -117027.75    117037.37   -83.548751    36.886439 
161544000    284.37802    320.10959    422.57839   -117039.72    117056.22    -102.4688     36.88733 
161548000    277.61869    290.16768    366.32401   -117064.93    117091.57   -76.156333    36.883483 
161552000    291.49025    352.63516    330.49319   -117083.14    117097.36    22.141967    36.880041 
161556000    288.78036    556.03686    183.99917   -117100.72    117126.49    372.03769    36.878373 
161560000    284.48598    321.13373    319.39288   -117106.59    117141.49    1.7408462     36.88036 
161564000    286.06818    537.94931    448.45973    -117127.7    117152.59    89.489585    36.879909 
161568000    274.26352    418.02658    436.20807   -117182.35     117189.8   -18.181494    36.878322 
161572000    284.69152    318.91973    409.68833   -117190.08    117220.28   -90.768598    36.880945 
161576000    288.87797    389.98283    198.57398    -117205.5    117232.94    191.40885    36.878635 
161580000    291.64079    396.64972    527.69443   -117220.73     117225.8   -131.04471    36.883347 
161584000    267.93654    391.53831    237.13034   -117249.08     117287.5    154.40797    36.884167 
161588000    310.09479    315.15409    500.36361   -117290.35    117287.21   -185.20952    36.889995 
161592000    267.49175    375.03482    212.72459      -117321    117353.94    162.31023    36.889421 
161596000     268.8247    348.59979    287.95058   -117334.87    117375.99     60.64921    36.891262 
161600000    306.06111    580.19213    223.73634   -117357.88    117375.51     356.4558    36.889139 
161604000    284.05529    300.83004    188.55085   -117380.52     117396.1    112.27919     36.88553 
161608000    270.82139    253.71304    397.97756   -117389.12    117416.79   -144.26452    36.885362 
161612000    284.59416    348.89569     262.2609   -117413.39    117430.22    86.634793    36.879883 
161616000    277.51113    442.10416    511.24534   -117412.79    117425.05    -69.14118    36.880768 
161620000    276.08253    656.55333    504.38918   -117435.63    117465.74    152.16414    36.879946 
161624000    289.17164    355.55618    169.38183   -117450.84    117481.04    186.17434    36.875837 
161628000    305.53615    262.53659    311.83443   -117468.72    117503.52   -49.297836    36.875729 
161632000    265.51217    417.57418    283.70432   -117473.41    117496.57    133.86986    36.873955 
161636000    262.65416    284.72495    264.54889   -117474.18    117511.48    20.176069    36.877321 
161640000    296.03175    348.16595    248.14861   -117487.17    117510.75    100.01734    36.875651 
161644000    278.00463    544.62722    257.46102   -117492.13    117527.79     287.1662    36.872411 
161648000    275.21765    311.12071    235.23887   -117503.46    117532.15    75.881832    36.876697 
161652000    263.11834    233.96826    264.04002   -117510.43    117540.13    -30.07176    36.872304 
161656000     272.2367    235.96731     276.8331   -117515.36    117540.35   -40.865786    36.869162 
161660000    282.73647    225.46576     197.0666   -117506.98    117535.54    28.399162    36.865264 
161664000    285.35441    213.10858    288.29471   -117521.07    117550.11   -75.186139    36.866855 
161668000     290.5861    394.05195    246.23277   -117550.61     117562.1    147.81918     36.86191 
161672000    247.82278    319.90873    385.08313   -117556.16    117587.91     -65.1744    36.864055 
161676000     294.5933     618.8352    331.69503   -117578.13    117604.08    287.14017    36.870302 
161680000     286.4391     296.8401    396.48264   -117600.11    117614.62   -99.642531    36.867938 
161684000    284.42738    476.33751    234.37728   -117597.45    117617.22    241.96023    36.869338 
161688000    303.25577    563.08173    313.19028   -117619.74    117626.11    249.89145    36.871192 
161692000    262.31382     353.4787    137.49496   -117650.58    117661.76    215.98374    36.870741 
161696000    323.29998    400.01009    395.67405   -117675.59     117655.9    4.3360413     36.87188 
161700000    269.81712    407.59805     327.9949   -117672.07    117697.78     79.60315    36.874603 
161704000    267.26596    385.89803    270.48729   -117678.16    117704.44    115.41074    36.874397 
161708000    320.90964     349.0194    382.20094   -117702.07    117701.69   -33.181536    36.870116 
161712000    309.34109    437.86289     384.4615   -117710.32    117717.59     53.40139    36.872523 
161716000    280.32537    336.47954    386.78418   -117729.25    117762.77   -50.304642    36.873526 
161720000     283.6273    588.81091    143.50049   -117773.29    117796.34    445.31042    36.875942 
161724000    267.79791    304.46746    199.57674    -117779.5    117825.25    104.89072     36.88273 
161728000    271.90693    405.94572    280.82486   -117791.05    117823.14    125.12086    36.880351 
161732000    272.10138    748.24988    195.06619   -117810.84    117843.04    553.18369    36.883072 
161736000    274.05899    448.08563    337.32772   -117808.09    117842.07    110.75791    36.885221 
161740000    291.13153     379.1898    355.72579   -117835.17    117862.13     23.46401    36.882827 
161744000    277.85733    378.85459    423.79967   -117850.01    117857.45   -44.945077    36.876382 
161748000    295.70959    603.75787    386.47764   -117901.97     117914.2    217.28022    36.869549 
161752000    268.40697    378.59422    400.77618   -117922.16    117946.08   -22.181964    36.872545 
161756000    282.32704    481.35411    192.58544   -117941.47     117954.2    288.76867    36.875579 
161760000    280.37502    229.44768    520.29863   -117926.81    117958.23   -290.85095    36.868905 
161764000    293.67484    372.21942    292.92775   -117956.34    117977.63    79.291678    36.868211 
161768000    289.30827    397.87489    351.25779   -117983.72    118010.27    46.617101    36.873144 
161772000    297.56209    227.14519    458.28239   -117975.12    117993.76    -231.1372    36.868281 
161776000     286.7546    286.61777    304.65263   -118005.54    118023.28   -18.034858    36.860984 
161780000    253.10074    259.12434     315.2594    -118001.1    118045.09   -56.135063    36.859053 
161784000    281.93961    377.24653    270.74138   -118028.51    118048.17    106.50515    36.860844 
161788000    307.33011    321.68589    441.21898   -118077.91    118066.66   -119.53309    36.854416 
161792000    259.74507    324.50242    370.63068   -118066.51    118107.76   -46.128254    36.854678 
161796000    253.78168    331.54861    380.33799   -118082.81    118130.14   -48.789388    36.858103 
161800000     262.0445    254.90375    371.36717   -118119.07    118141.81   -116.46342    36.856579 
161804000    296.48563    236.11162    465.16676   -118146.53    118169.79   -229.05515    36.857068 
161808000    266.69773    366.31174    290.95781   -118149.79    118167.02    75.353926    36.856806 
161812000    302.31164    533.11721    215.44721   -118176.98    118181.03    317.66999    36.850732 
161816000    286.89481    377.17357    390.36875    -118195.8    118199.75   -13.195176    36.845733 
161820000    275.47352    463.41805    396.14584   -118231.57    118260.51    67.272207    36.849397 
161824000    307.24743    529.81637    357.68922   -118258.17    118260.35    172.12714    36.851808 
161828000    290.56929    484.34716    322.08343   -118293.92    118309.02    162.26373    36.854522 
161832000    297.94155    369.42549    267.61115   -118326.13    118341.45    101.81434    36.857696 
161836000    296.67278    450.98086    172.10974   -118354.77    118359.18    278.87113    36.852136 
161840000    277.08934    538.58723    351.08528   -118355.46       118380    187.50195    36.849093 
161844000    272.57204    380.86032    425.89462   -118377.72    118400.74   -45.034297    36.848456 
161848000     279.8892    416.75199    237.31025   -118394.16    118418.55    179.44174    36.847936 
161852000     274.9126      446.392    306.59177   -118407.51    118440.86    139.80023    36.846809 
161856000     286.4458    425.13877    463.12272   -118406.63    118445.22   -37.983954    36.846326 
161860000    280.80358    606.82184    248.61082   -118417.49    118446.31    358.21102     36.85229 
161864000    290.69968    632.94738    311.53144   -118409.97    118440.47    321.41594    36.850099 
161868000    274.56957    386.06044    286.93294    -118404.7    118451.21    99.127504    36.859274 
161872000    278.81215    481.84006    490.91449   -118408.86    118450.54   -9.0744334    36.860208 
161876000    285.14353    187.55154    400.26841   -118448.17     118470.7   -212.71687    36.860243 
161880000    336.54468    371.71341    333.93687   -118471.64    118473.22    37.776548    36.856136 
161884000    307.39388    465.29069    435.06316   -118486.67    118469.68    30.227531     36.85755 
161888000    274.90875    311.21509     278.0616    -118476.7    118501.43    33.153495    36.855057 
161892000    271.11896    594.58108    212.62992   -118483.32    118528.19    381.95117    36.860877 
161896000    262.17476    305.61103    278.43342   -118485.48    118530.26    27.177611    36.859432 
161900000    289.61813    486.11681    275.23919   -118517.33    118533.44    210.87761     36.86052 
161904000    276.68255    335.94489    271.04189   -118520.25    118555.89    64.902992    36.852959 
161908000    265.79877    339.67167    217.61025   -118539.75    118577.45    122.06143    36.849715 
161912000    254.60357    291.34646    326.83976   -118555.73    118597.15     -35.4933    36.850742 
161916000    252.67909    367.21676    575.66173   -118578.83     118623.2   -208.44497     36.85267 
161920000    282.31307    386.42745    260.29892    -118593.3    118625.08    126.12854    36.854293 
161924000    284.06911    397.75475     297.8105   -118615.11    118634.15    99.944248    36.849735 
161928000    285.41679    381.84055    438.88983   -118645.01       118652   -57.049282    36.843011 
161932000    275.47539    303.03207    432.38092   -118637.79    118674.09   -129.34884    36.838185 
161936000    275.20364    408.86023    309.66203   -118648.53    118675.22    99.198202    36.834285 
161940000    269.74466     286.2114    203.77944   -118672.45    118692.05    82.431963    36.837708 
161944000    304.74537    248.20098    298.05878   -118688.79    118690.14   -49.857798    36.837497 
161948000    276.90914     450.4678    190.98332   -118687.56    118709.03    259.48448    36.830892 
161952000    298.06393    252.10391     203.3119   -118721.68    118749.36     48.79201    36.829218 
161956000    296.11752    409.76331    358.78751   -118740.38    118754.01    50.975801    36.829385 
161960000    281.03698    267.05495    421.03071   -118749.46    118788.71   -153.97575    36.828133 
161964000     288.6435    370.42282    289.77705   -118759.05     118795.2    80.645771    36.836851 
161968000    304.12778    380.53507    426.72835   -118819.67     118822.3   -46.193276    36.838125 
161972000     286.7754    267.37685    328.54685   -118832.17    118846.81   -61.170009    36.840201 
161976000    288.75534    381.17426    216.18285   -118841.48    118869.96    164.99141    36.843427 
161980000    296.01483    589.21241    405.29315   -118861.32    118876.82    183.91926    36.847423 
161984000    271.36841    373.82367    235.18403   -118864.65    118900.45    138.63964    36.852966 
161988000    293.43795    274.53341    376.81342   -118876.91     118889.9   -102.28001    36.849488 
161992000    298.24328    480.90403    386.21026   -118887.73    118897.63    94.693769    36.842174 
161996000     308.6949    300.47364    339.24808   -118880.49     118886.5   -38.774442    36.845922 
162000000    253.14342    440.24482    537.29058   -118865.32    118895.25   -97.045761     36.84015 
162004000    275.27882    493.38704    184.02537    -118903.2    118934.32    309.36166    36.836085 
162008000    299.21705    276.67239    299.76513   -118908.46    118920.38   -23.092738    36.838363 
162012000    276.45115    435.27849    342.48015   -118937.53    118953.62    92.798339    36.840592 
162016000    292.40729    299.14354    333.03875    -118942.4     118956.9   -33.895209    36.835195 
162020000    308.68275    363.50807    206.77657   -118983.67    118984.26     156.7315    36.837967 
162024000    300.05294    222.18745    528.94062   -118979.68    118995.17   -306.75317    36.830483 
162028000    295.14696    273.99607    428.63608   -119004.09    119018.57   -154.64001    36.833086 
162032000    292.28271    209.94725    364.44158   -119044.18    119073.44   -154.49433    36.830051 
162036000    264.55848    183.58324    161.06156   -119068.33    119101.87     22.52168    36.832411 
162040000    287.90564     341.7654    191.99907   -119105.92    119123.63    149.76633    36.827838 
162044000    280.34048    300.25654    182.65739   -119112.61    119124.66    117.59915     36.83197 
162048000     277.1697    296.77646    243.83143   -119135.29    119161.75    52.945032    36.834086 
162052000    302.54383    344.82475    173.34415   -119158.98     119176.3     171.4806     36.83467 
162056000    313.74417     609.7193    357.07425   -119172.09    119182.89    252.64505    36.839685 
162060000    266.61003    170.64876    307.79714   -119185.75    119213.57   -137.14839    36.838024 
162064000     301.5954    428.15377    356.24097   -119194.46    119203.69    71.912802    36.835174 
162068000     252.0766    248.21047    296.53526   -119216.91    119247.91   -48.324791    36.833101 
162072000    271.07053    357.75232    192.81242   -119255.17     119249.6     164.9399    36.830711 
162076000    242.35453    218.37555    137.58113   -119256.23    119299.24    80.794416    36.828508 
162080000    293.89635    356.86563     207.4974   -119290.15    119282.84    149.36823    36.829061 
162084000    297.70735     359.9332    324.00849   -119287.81     119302.4    35.924716    36.824625 
162088000     293.6952    469.32303     450.9809   -119278.92    119297.69    18.342137    36.822508 
162092000    275.64626    246.06264    284.27091   -119304.59    119319.26   -38.208269    36.814315 
162096000    279.49147     424.6192    174.70136   -119322.34    119360.13    249.91784    36.816384 
162100000    284.84818     394.1224    198.15361   -119363.12    119385.71    195.96879    36.824694 
162104000    298.41395    188.11518    364.87442   -119385.89    119404.52   -176.75923    36.823045 
162108000    285.85609     491.5177    522.15115   -119404.92    119432.04   -30.633446    36.820736 
162112000    278.31571    284.69811    199.30877   -119412.38    119451.17    85.389341    36.824051 
162116000    302.71344     333.9033     332.2453   -119446.17    119441.36    1.6579996    36.821238 
162120000    278.69702     335.2502    260.05828   -119447.39    119475.55    75.191916    36.818313 
162124000    300.20363    325.79737    241.85409   -119449.19    119475.55    83.943275    36.822958 
162128000    268.60466    446.21689    222.95896   -119486.96    119514.49    223.25793    36.827677 
162132000    266.37456     319.7018    306.89781   -119505.88    119536.57    12.803985    36.830988 
162136000    293.70348    297.55494      394.312    -119548.7    119535.21   -96.757057    36.832197 
162140000    324.20231    375.14901    295.09185   -119548.47    119535.45    80.057163    36.835571 
162144000    294.70176    154.89569    181.58095   -119556.98    119548.77   -26.685254    36.836715 
162148000     290.7677    354.92172    204.89219   -119558.95    119568.03    150.02953    36.833778 
162152000    282.38442    170.83853    213.27877   -119587.55    119610.49   -42.440238     36.83354 
162156000    285.27147    609.51534    287.88873    -119622.2    119642.52    321.62661    36.828899 
162160000    295.31839    390.12424    333.39334   -119628.95    119648.54    56.730906     36.82856 
162164000    287.88623    304.57753    282.56578   -119650.49    119677.72    22.011752    36.828777 
162168000    310.83724    457.94524     214.6811   -119674.39    119679.06    243.26414    36.828771 
162172000    295.08974    469.51101    456.71465   -119683.19    119699.54    12.796354    36.830695 
162176000    296.96596    645.31687    356.12524   -119702.35    119724.51    289.19164    36.830087 
162180000    273.43836    507.75032    271.05251    -119706.9     119741.6    236.69781    36.825201 
162184000    305.72268    465.16653    368.18582   -119715.02    119742.52    96.980714    36.825038 
162188000      275.034    289.72769    237.73531   -119746.47     119771.6    51.992379    36.830897 
162192000    278.08447    372.77317     478.9296   -119751.51    119804.01   -106.15644    36.828053 
162196000     300.1344    439.44348    275.82161   -119778.91    119790.02    163.62188    36.829297 
162200000    281.60951    365.21296    249.81941   -119784.36    119805.54    115.39355    36.827512 
162204000    285.12029    320.77757    294.26562   -119803.49     119831.4     26.51195    36.828598 
162208000    314.88778    166.38183    293.05661   -119836.89    119827.94   -126.67478       36.823 
162212000    296.76996    290.19309    297.02937   -119849.89    119829.84   -6.8362773    36.821488 
162216000    277.77171    211.88807    323.46279    -119845.5    119885.15   -111.57472    36.829452 
162220000    285.12991    312.49042    333.37778   -119852.46    119886.17   -20.887358    36.833198 
162224000    270.45296    281.57958      248.398   -119887.41     119913.4    33.181576    36.829662 
162228000    281.40959    359.77733    332.92942    -119914.5    119927.34     26.84791    36.832528 
162232000    252.77495    258.49025     355.9528   -119915.48    119950.33   -97.462554     36.83636 
162236000    305.26811    416.54431    318.69627    -119955.3    119952.02    97.848042    36.834981 
162240000    294.30659    407.63727    351.58031   -119957.03     119972.8    56.056959    36.839993 
162244000    287.43189    253.40607    199.29297   -119973.86     119998.7    54.113107    36.839711 
162248000    264.40782    392.27484     241.6472   -119989.77    120044.95    150.62764    36.831499 
162252000    258.13417    381.53202    202.57207   -119999.45    120047.35    178.95995    36.832839 
162256000     250.7811    239.63489    303.81714   -119994.86    120045.77   -64.182243    36.831722 
162260000    306.31996    380.89359    525.93783   -120046.99     120051.4   -145.04423    36.827166 
162264000    247.12217    296.67657    237.69794   -120055.81    120092.76    58.978631    36.822999 
162268000    253.36479    321.80361    235.25869   -120071.64     120120.6    86.544916    36.826606 
162272000    267.15514    439.69349    292.92777   -120088.07    120119.66    146.76573    36.827948 
162276000    268.02028     297.8724    192.45168   -120097.85    120134.27    105.42072    36.828661 
162280000    264.79944    324.95375     354.7794   -120109.25    120139.81   -29.825652    36.829194 
162284000    274.97126    166.79504     213.4249   -120141.67    120172.22   -46.629854    36.830455 
162288000    271.33519    330.93564    430.41718   -120157.54     120177.9   -99.481542    36.831263 
162292000    295.08985    399.38111    338.72455   -120182.97    120195.45    60.656563    36.824802 
162296000    296.91932    398.16688    358.19815   -120203.45    120213.19    39.968729    36.826822 
162300000    280.31011    353.22788    336.97973   -120218.41    120238.32    16.248145    36.829639 
162304000    287.50535    527.05051    257.16744   -120235.47    120267.31    269.88308    36.827703 
162308000    317.85601    393.34135    235.18273   -120284.01    120300.33    158.15863    36.833383 
162312000    282.11137    310.89149    276.28752   -120271.74     120309.9    34.603974    36.832498 
162316000     274.8996    442.95582    289.86279   -120294.56    120320.17    153.09303    36.836221 
162320000    285.60379     460.8931    268.78763    -120330.8     120344.4    192.10546    36.834817 
162324000    306.48426    294.62126     514.6306   -120337.45    120332.55   -220.00934    36.837094 
162328000    313.37371    697.11579    182.72423   -120369.36    120377.14    514.39157    36.840107 
162332000    281.53279    350.33554    205.17232   -120391.33     120416.6    145.16322    36.837927 
162336000     293.5752    382.45748    253.93157   -120418.93    120427.61    128.52591    36.833593 
162340000     277.1603    224.41573    406.69212    -120442.3    120451.89   -182.27639     36.83235 
162344000     270.3899     664.5859    477.47921    -120469.8    120487.58    187.10668    36.831121 
162348000    316.08703    216.74942    286.44496   -120501.13    120499.08   -69.695541    36.828215 
162352000    280.67088    429.44678    221.46568   -120520.19    120543.29     207.9811    36.838269 
162356000    265.17933    374.37919    422.18743   -120530.43    120556.62   -47.808243    36.833054 
162360000    316.29125    305.35811     486.0255   -120562.53    120579.12   -180.66739    36.833928 
162364000    296.62544    497.92993    398.08525   -120578.65    120595.47    99.844684    36.826677 
162368000    253.28202    171.94951    326.98831   -120582.81    120617.08    -155.0388    36.822223 
162372000    286.86552    428.87857    396.63322   -120599.28     120615.6    32.245355    36.825386 
162376000    282.70399    433.99119    292.80006   -120609.44    120629.17    141.19113    36.826168 
162380000    275.18153    260.05255    406.24058   -120635.77    120657.11   -146.18802    36.829689 
162384000    300.63195    569.26883    128.50466    -120652.7    120648.15    440.76417    36.844478 
162388000    287.27279     332.5593    449.43974   -120645.98    120657.17   -116.88044    36.846387 
162392000    302.56918    382.89243    352.12552   -120672.67     120673.6    30.766908    36.849391 
162396000    291.76319    354.10968    444.32727   -120675.57    120686.62    -90.21759    36.852522 
162400000    315.36946    488.35201     188.6022   -120700.18    120691.32    299.74981    36.860175 
162404000    304.50925    191.58973    274.67051   -120728.12    120726.86   -83.080774     36.85408 
162408000    274.52434    329.05764    306.54479   -120746.15    120753.09    22.512849     36.85338 
162412000    272.86611     353.0121    320.08051   -120736.47    120754.91    32.931587    36.856964 
162416000    283.07116    382.89448    291.15572   -120748.66    120762.27    91.738763    36.860041 
162420000     306.1587    418.84321    200.92726   -120757.46    120786.03    217.91595    36.865039 
162424000    284.65784    334.40993    238.97349   -120790.89    120822.55    95.436442    36.870004 
162428000    295.08729    287.35096    257.15471   -120822.11    120833.62    30.196254    36.868445 
162432000    303.40979    514.00884    358.73092   -120843.65    120844.64    155.27792    36.868972 
162436000    322.60425    547.37383    473.23763   -120841.59    120847.07    74.136202    36.866333 
162440000    296.48477        414.8    262.86184   -120858.69    120859.99    151.93816    36.867081 
162444000     275.0122     398.6789    195.44758   -120857.75    120877.96    203.23132    36.870281 
162448000    272.85979    388.56344    510.44239   -120864.98    120880.98   -121.87894    36.869885 
162452000    293.71178    241.12571    221.51446   -120895.01    120912.01    19.611248    36.870113 
162456000    297.90076    431.49367     284.8183    -120920.4    120938.28    146.67537    36.873712 
162460000    258.36848    392.79282    147.95488   -120945.44    120974.21    244.83794    36.872465 
162464000    293.69355    350.23079    307.01472   -120979.28    120974.59    43.216064    36.869686 
162468000    292.45401      374.016    296.80962   -121008.91    121015.15    77.206379    36.864221 
162472000    273.24073     304.3749    228.46407   -121033.35    121072.02    75.910833    36.867981 
162476000    298.80491    313.81676    261.25935   -121037.46    121050.26     52.55741    36.861651 
162480000    265.38057    252.39599    352.30684    -121059.6    121091.74   -99.910845    36.857333 
162484000    287.87667    576.23333    283.28642   -121098.14    121112.89    292.94691    36.861769 
162488000    300.85426    505.13898    235.83358   -121111.45    121137.07     269.3054    36.855993 
162492000     274.3148    297.22204    391.72306    -121099.7    121138.53   -94.501023     36.85775 
162496000    274.30438    321.19219    246.91512   -121120.74    121152.65    74.277066    36.855585 
162500000    294.51268    463.27531    246.48423   -121158.54    121162.23    216.79109    36.856057 
162504000    309.87403    469.73875    139.04585   -121169.44    121169.33     330.6929    36.849849 
162508000    310.15851    471.09178    294.00871    -121186.6    121209.67    177.08307    36.851066 
162512000    264.63304    347.30593    261.50393   -121201.13    121237.78    85.802006    36.851291 
162516000    285.94005    232.77156    214.46499   -121232.56    121250.73    18.306569    36.846913 
162520000    267.16495    203.10578    342.21185   -121243.71    121278.64   -139.10608    36.846224 
162524000    245.74296    213.88878    340.93905   -121265.86    121311.78   -127.05027    36.844057 
162528000    266.82842    220.82297     345.5893   -121281.84       121310   -124.76633       36.849 
162532000    282.62266    237.20126      306.479   -121315.95    121337.94   -69.277738    36.852502 
162536000      271.046    379.43648    281.95645   -121361.67    121395.13    97.480031    36.858046 
162540000    274.49372     609.8084    126.46972   -121384.75    121408.24    483.33868    36.862549 
162544000    261.44511    470.83544    134.61743   -121394.41    121428.39    336.21801    36.864167 
162548000    286.83743    397.25833    337.27095   -121423.82    121441.29    59.987375    36.863572 
162552000    293.26066    323.14391    323.45221    -121449.9    121467.32  -0.30830187    36.856306 
162556000    262.08605    274.24054    255.71404   -121449.92    121494.35    18.526499    36.858642 
162560000    268.89708    474.24349     235.6296    -121498.8    121525.02    238.61389    36.856987 
162564000    277.63524    300.40402    503.18776   -121498.54    121527.37   -202.78373    36.855821 
162568000    299.09305    423.53527    321.39962    -121531.4     121533.6    102.13565    36.853751 
162572000    281.39345    318.74406    293.97647   -121532.59     121558.2    24.767596    36.856847 
162576000    270.21499    381.89198    237.96738    -121567.7    121588.75    143.92461    36.859312 
162580000    295.03221    301.15548    351.78581   -121585.79    121603.75   -50.630327    36.855434 
162584000    287.24545    384.91015    303.08645   -121598.41    121621.17    81.823695    36.853687 
162588000    270.66101     284.0034    209.74554   -121640.79    121659.12    74.257861    36.853269 
162592000    310.38442    418.23812    300.98877   -121665.77    121659.38    117.24934    36.853561 
162596000    299.88946    283.38605    358.23268   -121670.63    121671.94   -74.846626    36.855617 
162600000    287.75687    357.83146    318.56136    -121693.9    121723.83    39.270101    36.852948 
162604000    316.34491    546.77999     150.7235    -121728.4    121731.99    396.05649    36.852741 
162608000    280.73154    389.81943    586.25518   -121715.81       121749   -196.43575    36.846604 
162612000    262.89583    289.48283    239.02994   -121742.58     121778.2    50.452884    36.846139 
162616000     275.7029    332.76072    262.08182   -121755.27    121797.64    70.678893    36.848664 
162620000      272.356     293.5701    300.78304   -121798.95    121810.69   -7.2129439    36.853665 
162624000    287.00525    491.07889    265.97757   -121813.64    121820.17    225.10132    36.857391 
162628000    310.44848    437.44885    433.66046   -121843.36    121849.43    3.7883915    36.858588 
162632000    255.73114    216.68651    245.72142   -121856.08     121891.8   -29.034913    36.858367 
162636000    272.88061    368.18296    278.63335   -121883.77    121911.04    89.549607    36.858153 
162640000    270.04734    445.00505    306.21686   -121895.12    121915.68    138.78819    36.850035 
162644000    279.33051    412.08686    365.43307   -121926.43    121934.96    46.653788    36.846374 
162648000    278.08776    413.62471    364.84078   -121925.41    121967.85    48.783927    36.850688 
162652000    287.82455    277.06805    356.53406    -121957.5    121989.78   -79.466005    36.845705 
162656000    286.58654    344.49483    311.22684   -121992.61    122018.04    33.267988    36.843584 
162660000    274.70394    462.18069     420.2569   -122018.45    122045.08    41.923793     36.84509 
162664000    272.72813    271.35528    289.21452   -122011.32    122036.36   -17.859236    36.846542 
162668000    297.32782     355.6854    421.68426   -122035.99    122041.88   -65.998852    36.848114 
162672000    272.25785    430.33511    253.54035   -122038.35    122073.93    176.79475    36.850502 
162676000     278.9627    377.32289    219.02362      -122074    122100.81    158.29927    36.851377 
162680000    246.81496    361.72926    285.76615   -122077.27    122126.21    75.963107    36.847207 
162684000    255.24773    357.85013    276.13665   -122092.39    122142.85    81.713476    36.846176 
162688000    283.55624    312.06227    243.78311   -122122.11    122139.48    68.279157    36.839929 
162692000    289.98131    538.10827    430.55312   -122140.82    122162.76    107.55515    36.842043 
162696000    253.68866    450.66746    289.98764   -122169.56    122208.82    160.67982    36.843397 
162700000    279.12828     512.9386    220.78226   -122215.87    122224.31    292.15634    36.845103 
162704000    278.60933    388.23182    173.43537   -122225.14    122246.61    214.79645    36.843288 
162708000    282.43777    432.66957    311.21818   -122216.81    122242.99    121.45139    36.843282 
162712000    283.37305    305.00207    195.93773   -122229.41    122256.96    109.06434    36.846142 
162716000    280.87212     392.3382    311.00523   -122248.52    122284.44    81.332961    36.851883 
162720000    290.03066    331.06671    286.03478   -122261.53    122279.52    45.031931    36.855578 
162724000    284.32179    508.86278     293.9666   -122303.27    122322.21    214.89618    36.857243 
162728000    264.49465    286.16217    395.52113   -122312.89    122348.14   -109.35896    36.850455 
162732000    291.38064    398.06562    349.34892   -122342.04    122359.55    48.716703    36.848744 
162736000    266.15954    179.73274     288.6201   -122353.38    122378.02   -108.88736    36.846863 
162740000    273.01646    304.63429    214.73478   -122373.78    122402.72    89.899513    36.847978 
162744000    286.34109    342.70232    319.48414   -122403.66    122430.71    23.218181    36.848929 
162748000    288.50345     375.5229    376.32478   -122426.75    122444.07  -0.80187771     36.84695 
162752000    320.16431    373.96484      499.772   -122457.87    122459.39   -125.80716    36.844393 
162756000    289.35626    502.14673    238.24591   -122474.92    122495.51    263.90082     36.84524 
162760000    284.66212    387.77717    197.84741    -122500.5    122505.62    189.92976     36.84267 
162764000    276.10125     335.7638    251.32167   -122522.91    122544.68    84.442131    36.845315 
162768000    272.49842    249.18192    244.30422   -122544.05    122570.05    4.8777043    36.841984 
162772000    283.33371    308.31995    341.37318   -122574.41    122586.38   -33.053232    36.840081 
162776000    289.27398    265.45233    316.90115   -122577.55    122613.01   -51.448829    36.842518 
162780000      277.901    413.79013    276.65118      -122609    122633.42    137.13895    36.839998 
162784000    280.97916    249.16151     385.8479   -122636.21    122659.83   -136.68639    36.836363 
162788000    264.96167    261.50837    299.80282    -122659.4    122681.88   -38.294449    36.834383 
162792000    292.67841    357.46416    363.30469   -122672.58    122686.04   -5.8405378    36.830047 
162796000    256.71546    263.75587    279.65476   -122683.12    122715.36   -15.898886    36.831516 
162800000    282.52898      238.222    520.84199    -122723.8    122748.67   -282.61999    36.826676 
162804000    278.27356    282.74645    134.42777   -122777.57    122783.28    148.31867    36.825634 
162808000    295.96715    322.51515    362.69629   -122779.94    122784.91   -40.181136    36.824138 
162812000    302.39444    307.93317    380.50131   -122801.39     122803.6   -72.568142    36.825009 
162816000    308.57759    289.07134      298.595   -122817.49    122825.59    -9.523657     36.81964 
162820000    275.98664    230.63938     386.4902   -122836.16       122834   -155.85082    36.821899 
162824000    289.65063    373.57691    229.54651   -122845.29    122871.67     144.0304    36.817339 
162828000    295.25167    361.48781    330.19731   -122850.47    122868.04    31.290498    36.817273 
162832000    290.60118    380.94929    176.70215   -122875.88    122866.38    204.24715    36.820797 
162836000    297.49247    367.05095    282.89647   -122901.32    122898.41    84.154489    36.823292 
162840000    274.20134    241.94988     240.5303   -122908.76    122927.51    1.4195821    36.817503 
162844000    289.58462    429.47546    272.11833   -122936.24    122979.13    157.35713    36.815519 
162848000    279.66997    446.56294    202.16304   -122963.38    122984.91     244.3999    36.818627 
162852000    328.08603    423.12384    241.21632   -122968.35    122959.24    181.90752    36.819191 
162856000    296.56713     541.4688     340.0377   -122978.28     123004.1    201.43111    36.816872 
162860000    263.65558    235.58323    357.42309   -122976.64    123015.92   -121.83986    36.810853 
162864000    255.05252    365.89493    279.58354   -123010.48    123023.52    86.311389    36.809956 
162868000    272.45443     543.5034    336.96228   -123019.92    123038.22    206.54112    36.811291 
162872000    279.48666    375.65817    369.76726   -123012.24    123036.98    5.8909046    36.809877 
162876000    271.68306    241.01859    225.72451   -123041.98    123059.49    15.294071    36.810666 
162880000    265.02885     342.1703    122.63414   -123050.57    123092.02    219.53616    36.814625 
162884000    268.01242     440.2103    327.07862   -123090.03    123109.53    113.13168     36.81675 
162888000    284.29363    467.38113    492.55881   -123077.64       123116   -25.177682     36.81205 
162892000    307.27687    590.37716    321.64997   -123113.09    123136.01    268.72719    36.819545 
162896000    271.44011    357.08003    389.47862   -123145.84     123161.9   -32.398588    36.816812 
162900000    287.10383     391.5958    257.22056   -123143.57    123172.35    134.37524    36.821543 
162904000    303.60226    441.95645     370.8562   -123183.27    123188.61    71.100258    36.821747 
162908000    294.78463    259.64165    254.97394   -123191.93     123193.7    4.6677048    36.819197 
162912000    293.35541    288.80767    309.96713   -123226.71    123249.66   -21.159456    36.816864 
162916000    290.80606    228.59619    389.34087    -123238.4    123250.08   -160.74468    36.820249 
162920000    286.48108    321.61061    319.20322   -123256.43    123279.16    2.4073874    36.819272 
162924000    282.56721    275.73065    374.05591    -123292.1    123310.65   -98.325261    36.824645 
162928000    266.91192    231.25698    582.71949   -123319.54    123342.58   -351.46251    36.819366 
162932000       285.39    493.02088    222.56144   -123341.14    123359.05    270.45944    36.817721 
162936000    259.19052    438.70444    368.53985   -123357.44    123380.68    70.164583    36.816235 
162940000    292.54094    457.50943    294.20894   -123373.38    123383.08    163.30048     36.82311 
162944000    257.91281    277.21451    188.54498   -123378.69    123412.57     88.66953     36.82337 
162948000    291.15739    404.95387    451.13016    -123433.3    123447.72   -46.176291    36.828056 
162952000    308.20605    173.98769     285.7341   -123462.06    123469.91   -111.74641    36.827187 
162956000    278.40785    408.19916    328.68554   -123476.89    123467.22    79.513616    36.831696 
162960000    278.94248    271.18057    336.17521   -123501.23    123523.89   -64.994645    36.834002 
162964000    267.16332      435.836    496.73609   -123510.09    123526.03   -60.900089     36.83322 
162968000    314.78028    419.75394    311.33847   -123547.77    123549.71    108.41547    36.836807 
162972000    289.04259    423.39826    327.97674    -123538.5     123561.2     95.42152    36.838009 
162976000    287.53654    355.57068    405.10936   -123554.73    123590.89   -49.538682    36.837598 
162980000    271.38911    412.72138    477.62831   -123572.99    123611.84   -64.906932    36.843462 
162984000    282.85328    311.16007    378.07746   -123610.28       123626   -66.917388    36.845139 
162988000     247.2418    231.58337    359.13141      -123596    123627.19   -127.54804    36.844791 
162992000    275.67868    311.09034    500.85391   -123618.45    123639.78   -189.76357    36.842473 
162996000    272.52394    272.35216    495.65308    -123620.4    123643.91   -223.30093    36.842963 
163000000     286.7086    246.99412    340.16001   -123635.83    123661.17   -93.165897    36.845768 
163004000    278.39373    495.44703     282.4274   -123675.89    123689.91    213.01963    36.845094 
163008000    273.76031    482.39391     253.1353   -123668.93    123708.99    229.25861    36.847036 
163012000    282.44362    404.44168    247.36224   -123707.19    123725.19    157.07944     36.85704 
163016000    264.95126    377.25461    436.25824   -123706.97    123724.34   -59.003629    36.854938 
163020000    294.60156    488.88698     352.7533   -123735.23    123743.11    136.13368    36.858294 
163024000    263.45115    412.31995    286.24322    -123749.1    123788.25    126.07673    36.858977 
163028000    277.44046    316.44991    369.17199   -123762.32    123802.73    -52.72208    36.857936 
163032000    295.49971    384.58595    400.90673   -123791.33     123818.8   -16.320778    36.857396 
163036000    272.84184    277.27904    310.34772   -123822.41    123846.88   -33.068684    36.856745 
163040000    278.32007    204.64762     347.4881   -123848.22    123870.09   -142.84048    36.855716 
163044000    265.95556    596.29272     296.0014   -123867.07    123896.71    300.29131    36.851889 
163048000     280.6388    536.59005    249.05262   -123894.76    123914.67    287.53743    36.844926 
163052000    284.24785    351.33304    391.54098   -123922.19    123929.52   -40.207941    36.843714 
163056000    295.28067    295.23683    345.05686   -123931.91    123947.41   -49.820031    36.844199 
163060000    284.63632    230.13773    293.81495   -123950.11    123970.61   -63.677227    36.843861 
163064000    300.61388    293.41772     262.8825   -123950.39    123953.64    30.535227    36.851367 
163068000    278.43422    385.36358    294.27925   -123965.52     124000.6    91.084328    36.850842 
163072000     273.7278    429.08226     318.2248   -123985.13    124007.12    110.85746     36.85487 
163076000    283.83001    346.26079    526.70425   -123989.21    124009.63   -180.44346    36.856179 
163080000     262.9528    294.70344     207.0814   -123990.57    124010.83    87.622041    36.859949 
163084000    266.99464    279.99208    304.26965   -123981.95    124020.78   -24.277566    36.864259 
163088000    263.56808    271.72442    293.06324   -123997.81    124037.22   -21.338819    36.868914 
163092000    275.36883    436.13186    294.10741   -124030.89    124067.16    142.02445     36.86818 
163096000    300.86343    325.49638    349.98495   -124064.63    124076.72   -24.488575    36.871841 
163100000    255.22466    481.23512    327.87759   -124080.53    124107.01    153.35753    36.878216 
163104000    261.93019    287.71607    437.78992   -124110.62    124149.66   -150.07385    36.875302 
163108000    280.79118    293.82911    349.12227   -124133.77    124168.91   -55.293157    36.880985 
163112000    276.18434    301.34603    317.70386   -124171.61    124185.01   -16.357836    36.881776 
163116000    293.63125    274.72033    312.79589   -124185.78     124202.7   -38.075563    36.880935 
163120000    285.05659    405.79441    377.74972   -124206.42    124224.46    28.044696     36.88449 
163124000    284.97692    320.66263    502.59139    -124196.4    124239.28   -181.92876    36.886275 
163128000    289.72233    387.63943    245.38868   -124235.29    124240.71    142.25075    36.888774 
163132000    299.25764    365.36019    336.87103   -124244.64    124261.55     28.48916    36.882751 
163136000     300.9975    459.24923    432.41338   -124247.03    124256.59    26.835852    36.889987 
163140000    274.17366    232.36768     293.4369   -124253.61    124268.36   -61.069224    36.891575 
163144000    264.06308    151.95613    209.93081   -124281.31    124306.03   -57.974679    36.891463 
163148000     269.6702    365.67667    236.98769   -124291.06    124325.97    128.68898    36.891823 
163152000    254.35592    231.88628    118.31668   -124315.24    124351.66     113.5696    36.891856 
163156000    287.04474    240.71197    367.25454   -124336.15    124354.17   -126.54257    36.893002 
163160000    285.39147    350.72729    551.02761   -124356.12    124379.73   -200.30032    36.892435 
163164000    295.60183    367.73465     273.8335    -124396.5    124417.93    93.901153     36.88991 
163168000    289.05196    359.89041    341.91845   -124416.98    124425.04    17.971964    36.888731 
163172000       298.01     458.8815    417.02769   -124451.13    124467.57    41.853808    36.887838 
163176000    276.38241    562.46756    274.14458   -124461.58    124489.46    288.32298    36.887705 
163180000    255.28603    238.17271    156.80035   -124464.95    124492.86    81.372361    36.895058 
163184000    275.03895    344.93068    324.29762   -124498.82    124515.85     20.63306    36.901663 
163188000    281.69871    370.65824    429.25272   -124488.01    124522.69   -58.594473    36.906518 
163192000    276.94281     301.4418     297.4328   -124520.03       124538    4.0089994    36.905316 
163196000    262.16924    239.59749    287.40758    -124541.7    124589.01   -47.810098    36.903452 
163200000    297.54778    373.59163    343.18165   -124552.29    124576.33    30.409977    36.905718 
163204000    303.22647    410.42911    199.60004   -124553.02    124562.62    210.82906     36.90222 
163208000    267.28572    166.00961     264.4994   -124543.38    124577.68   -98.489788    36.899854 
163212000    280.53951    224.69141    343.50426   -124547.59    124578.04   -118.81285    36.896387 
163216000    277.29732    307.35308    104.71718   -124562.61    124583.73    202.63591    36.892048 
163220000     290.8213    173.97368    241.21065    -124600.6    124612.34   -67.236968    36.891655 
163224000    259.99708    502.45785    451.53413   -124601.01    124621.52    50.923722    36.892387 
163228000    300.34019    623.88226    363.89102    -124625.7    124630.48    259.99123    36.889882 
163232000    283.50311    353.12417    254.96615   -124638.06    124625.39    98.158021    36.887244 
163236000    307.63017    380.43475    204.07131   -124628.78    124621.76    176.36345    36.884979 
163240000     288.1885    273.25076    268.29783   -124634.33    124662.21     4.952937    36.879776 
163244000     293.6941    540.82313    169.68351   -124659.59    124661.17    371.13961      36.8824 
163248000    268.49073    317.74875    276.60857   -124668.41    124691.35    41.140182    36.885251 
163252000    299.33637    379.65001    269.91994   -124690.15    124681.68    109.73007    36.886161 
163256000    294.62787    443.77066     295.1648   -124723.44    124739.42    148.60586    36.881219 
163260000    274.52947    386.62623    406.77766   -124725.16    124747.77   -20.151429    36.878803 
163264000    297.70634     404.5303    219.59916   -124769.66    124775.96    184.93113    36.879093 
163268000    259.09369    316.40175    267.38931   -124798.27    124813.26    49.012439    36.879987 
163272000    285.18541    372.36564    375.47899   -124835.07    124842.21   -3.1133416    36.878843 
163276000    293.58288    631.42195    295.09232   -124865.24    124883.67    336.32963    36.882786 
163280000    275.61377    539.71923    184.98212   -124878.28    124911.44    354.73711     36.88859 
163284000    271.51113    251.52025    501.18693      -124892    124911.45   -249.66669    36.886801 
163288000    290.73508    504.53668    644.95591   -124919.06    124927.62   -140.41924    36.888582 
163292000    303.60704     490.2069    309.02581   -124942.94    124959.41    181.18109    36.885092 
163296000     284.2488     319.1139     326.6341   -124977.73    125005.63   -7.5202027     36.88397 
163300000    274.72737    284.97633    451.44419   -125013.16       125055   -166.46786    36.883705 
163304000    299.98991    398.95817    354.70418   -125032.48    125043.09     44.25399    36.883758 
163308000    265.98875    296.40147    161.83218   -125049.43    125075.62    134.56929    36.889108 
163312000    264.46866    426.20136    298.74098   -125070.39    125114.54    127.46038     36.88822 
163316000    284.96841    425.39043    370.71148   -125093.55    125117.94    54.678953     36.88602 
163320000    306.31081    269.32694    367.23002    -125124.7    125126.72   -97.903084    36.884567 
163324000    295.87448    418.55508    277.67145   -125144.22    125155.24    140.88363    36.878897 
163328000    262.37197     251.3925    304.31674   -125124.42    125161.71   -52.924248    36.878409 
163332000     304.1658    394.56469    429.84665   -125167.78    125181.88   -35.281962    36.881321 
163336000    287.36658     255.7518    339.20633   -125184.82    125200.56   -83.454535     36.88461 
163340000     285.1494    334.38908    472.34204   -125205.75    125226.49   -137.95296    36.878338 
163344000    303.99355    381.90247    511.61851   -125251.16    125227.12   -129.71604    36.877239 
163348000    312.56297    284.13851     392.3176    -125266.8    125262.88   -108.17908    36.878336 
163352000     288.8959    426.53476    319.04827    -125258.2     125257.7    107.48649    36.877828 
163356000    286.64499     371.3642    240.13665   -125246.54    125263.61    131.22755    36.877182 
163360000    296.66969    258.12586    540.28512   -125275.35    125278.62   -282.15926    36.872207 
163364000    263.00253    235.41172    371.59268   -125272.94    125309.28   -136.18096    36.877687 
163368000    285.32312    444.43701    427.30731   -125314.23    125344.98    17.129696    36.881356 
163372000    261.69004     383.6209    189.97491   -125336.23    125374.22    193.64599    36.883442 
163376000    301.07032    328.14782    278.72842    -125393.2    125408.94    49.419403    36.886336 
163380000    274.93943    383.65848    205.55197   -125424.66    125432.96     178.1065    36.889737 
163384000    281.31609    354.49128    416.19652   -125449.35    125461.19   -61.705238    36.889251 
163388000    279.50993    217.99267    309.15189   -125472.74     125486.3   -91.159227    36.884364 
163392000    297.26757    373.68233    204.16976   -125464.99    125479.22    169.51257    36.887115 
163396000    253.61732    275.73701    129.82353   -125456.89    125495.97    145.91347    36.892313 
163400000     297.4844    214.92813     226.3629   -125484.13    125503.89   -11.434766    36.889266 
163404000    317.27488    397.26128    426.83989   -125512.76    125481.54    -29.57861    36.887115 
163408000    260.60216    291.25565    299.04573   -125527.03    125543.05   -7.7900822    36.883984 
163412000    267.34289     336.9346    390.06922   -125544.61    125571.49   -53.134623    36.874973 
163416000    293.79612    315.34216    432.65615   -125539.56    125570.54   -117.31398    36.873574 
163420000    301.84924    508.69178    378.30613   -125586.09     125580.2    130.38564    36.875222 
163424000    294.56846    364.32422    328.23318   -125587.84     125584.2     36.09104    36.870984 
163428000    285.82916    347.35174    264.06623   -125604.61     125613.1    83.285514    36.870263 
163432000    300.43452    370.08219    310.28168   -125621.38    125633.52    59.800515    36.866893 
163436000    264.25394    240.93641     320.4799   -125621.17    125666.05    -79.54349    36.873053 
163440000    276.36569    330.30921     217.4838   -125648.53    125662.72     112.8254    36.877816 
163444000     305.7511     318.1973    299.79775   -125672.16    125685.12    18.399549    36.877732 
163448000    304.01802    481.60825    242.93941   -125690.94    125709.99    238.66884    36.877307 
163452000    276.25978    178.62995    312.06478   -125713.07    125722.37   -133.43483    36.871136 
163456000    309.29429    423.34245    349.01636   -125755.71    125757.27    74.326088    36.870603 
163460000    307.79172    395.06534    211.91224   -125775.82    125783.02    183.15309    36.876404 
163464000    256.93083    417.22708    233.08015   -125773.28    125806.61    184.14693    36.876149 
163468000    291.47055     491.7459    410.94667   -125787.72     125822.3    80.799236    36.875479 
163472000    274.44366     372.6484    314.27296   -125806.45    125830.02    58.375444    36.877182 
163476000    262.35758    198.38169    331.47839    -125833.1    125863.94    -133.0967     36.87824 
163480000    270.58279    310.98742     291.5327   -125846.37    125877.32    19.454722    36.875484 
163484000     249.7359    289.43755    189.19934   -125850.84    125894.88    100.23821    36.879146 
163488000    281.72711    536.72918     168.3939   -125901.63    125933.03    368.33528      36.8803 
163492000    278.93112    317.08852    276.10291   -125903.83    125948.73    40.985605    36.878937 
163496000     252.6522    255.72285    301.04281   -125919.87    125957.08   -45.319958    36.877082 
163500000    284.75113    233.61098    421.99575   -125954.54    125969.86   -188.38477    36.876372 
163504000    289.70785     299.6071    315.85672   -125968.23    125998.49   -16.249622    36.873682 
163508000    273.19145    258.60446    272.80573   -126012.74       126044   -14.201265    36.873025 
163512000    269.23768    169.62353     625.9121   -126031.68    126065.28   -456.28857    36.871902 
163516000    263.03302    376.81192    169.32918   -126054.01    126091.76    207.48274     36.86632 
163520000    281.06708    336.78231    397.55588   -126100.61     126126.4   -60.773566    36.872681 
163524000    293.65768    451.77075    315.75206   -126142.34    126159.88    136.01869    36.874465 
163528000    303.35816    625.38867    313.35073    -126175.3    126188.76    312.03794     36.87263 
163532000    281.29728    283.24286    292.47807   -126210.25    126230.33   -9.2352166    36.867523 
163536000    290.23566    393.25552    288.14816   -126229.79    126249.11    105.10737    36.868974 
163540000    277.05087    412.15528    370.75942   -126255.89    126273.98    41.395859    36.869381 
163544000     284.4424     461.9825    333.03209   -126250.24    126276.12    128.95041    36.868739 
163548000    264.51833    329.25334    323.73221   -126255.19    126294.18    5.5211294    36.863818 
163552000    276.13572    290.02728    289.22979   -126282.38    126312.07   0.79748368    36.864788 
163556000    330.64106    541.27223    391.11076   -126321.28     126328.5    150.16147    36.863201 
163560000    297.79201    425.56987    283.39934   -126343.74    126352.15    142.17053    36.860571 
163564000    268.24507    506.90693    365.35478   -126362.44    126381.38    141.55215     36.85702 
163568000    264.20148     358.8385    267.12918   -126384.19    126395.51    91.709324    36.857302 
163572000    271.84066    201.95138    261.44575   -126398.06    126419.43   -59.494377    36.853416 
163576000    264.86455    371.98135    260.85153   -126405.79    126437.38    111.12982    36.852924 
163580000    257.84203    338.82343      181.789    -126418.5    126466.45    157.03444    36.853895 
163584000    312.57985    230.68707    469.77858   -126457.86    126462.06   -239.09151    36.856252 
163588000    289.45175     434.9545    376.82687   -126480.51    126485.95    58.127624    36.853834 
163592000    304.08071    573.70631    303.52797    -126487.5    126497.98    270.17834    36.853252 
163596000    299.71942    189.31145    446.25554   -126478.51    126509.92   -256.94409    36.861352 
163600000    259.21415    304.80422    305.02135   -126492.73    126532.16   -0.2171251    36.859706 
163604000    269.36471     645.2248    314.67958    -126521.1    126559.98    330.54521    36.860846 
163608000     278.1715    380.61131    231.22656   -126523.25    126566.17    149.38475    36.861698 
163612000    281.54051    370.38965    409.51297    -126557.1    126569.53   -39.123326    36.858836 
163616000    305.57892    400.20094    332.02104   -126571.29    126597.21    68.179902    36.861432 
163620000    265.46687    461.16361    501.22785    -126588.3    126618.79    -40.06424    36.859316 
163624000    284.77573    310.24668    248.98528   -126604.24    126630.89    61.261405     36.85775 
163628000    301.55693    215.98401    355.51214    -126640.8    126640.88   -139.52813    36.859008 
163632000      264.868    350.50782    205.79507   -126654.91    126692.31    144.71274    36.858695 
163636000    314.20459    444.32707     279.4847   -126682.06    126700.67    164.84237    36.858086 
163640000    285.45181    469.96457    293.04306   -126726.07    126740.97    176.92151    36.856085 
163644000    303.69818    355.14949    368.16954    -126766.9    126757.77   -13.020055    36.860487 
163648000    291.06575    288.51715    346.65385    -126770.5    126774.65   -58.136708    36.859943 
163652000    285.08704    544.43174    226.97016   -126791.02    126812.09    317.46158    36.865924 
163656000    303.32844    255.53046    418.67859   -126811.57    126827.47   -163.14812    36.864115 
163660000    290.01363    273.38522    415.64148   -126834.14       126840   -142.25626    36.862334 
163664000    276.54285    242.31798    480.28655   -126823.07    126860.86   -237.96856    36.859809 
163668000    280.37893    287.99244     231.4839   -126846.24    126865.52    56.508533    36.861708 
163672000    293.07935    382.40759    402.33311   -126878.08    126893.14   -19.925522    36.863179 
163676000    281.41706    338.74622    485.94079   -126896.92    126919.68   -147.19457    36.866246 
163680000    257.81191     291.2462    365.18066   -126899.05    126943.62   -73.934467    36.867856 
163684000    286.01824    327.44234    518.63729   -126910.62    126930.53   -191.19496    36.868907 
163688000    268.57697    481.89293    387.83917   -126921.83    126954.36    94.053763    36.872872 
163692000    302.83709    382.36451    620.09671   -126945.92     126951.8   -237.73221    36.871924 
163696000     297.7488    383.15391    330.12466   -126970.13    126973.67    53.029249    36.877172 
163700000    279.77284    363.60008    263.18852   -126983.67    127012.88    100.41157    36.877168 
163704000    315.64598    476.87755    539.36824   -127045.54    127046.49   -62.490695     36.87902 
163708000     283.4639     247.3089    501.44689   -127082.47    127093.34   -254.13799    36.875727 
163712000    267.36819    362.91185    173.56849   -127088.06    127119.84    189.34336    36.880422 
163716000    287.29069    315.89012    397.90153   -127103.89    127123.28   -82.011412    36.878649 
163720000    279.33873    547.26408    456.41123   -127094.89     127139.5    90.852849    36.879671 
163724000    262.95133    430.70383    259.32557   -127103.97    127147.78    171.37826    36.882681 
163728000    282.24983    380.64709    210.17916   -127128.21     127152.9    170.46793    36.881195 
163732000    293.57772    271.14134    300.14859   -127136.74    127148.96   -29.007252    36.883166 
163736000    274.47585    330.80282    383.43326   -127137.13    127173.08   -52.630439    36.880295 
163740000    265.79825    264.22958    271.39903   -127163.42    127204.82    -7.169454    36.878816 
163744000    286.54019    347.94841    257.17418   -127172.77    127199.93     90.77423    36.879956 
163748000    299.97575    261.36127    408.15151   -127210.02    127228.64   -146.79023    36.876864 
163752000    298.03198    341.74806    436.30315   -127226.91    127235.05   -94.555091    36.872801 
163756000    274.45844     457.8273    233.45676   -127235.56    127260.94    224.37054    36.869793 
163760000    280.23034    292.75811    162.38946   -127251.13    127278.43    130.36866    36.865895 
163764000    270.98997    365.39812    169.15806   -127262.13    127283.57    196.24006    36.866003 
163768000     268.6912     388.6272    356.75338   -127272.85    127292.62    31.873816    36.868717 
163772000    280.59256    227.63759    281.78354   -127280.66    127318.61   -54.145949    36.866982 
163776000    268.28747    299.25996    349.29273   -127288.57    127312.97    -50.03277    36.863621 
163780000    284.06587    430.31749    421.65654   -127328.59    127343.29    8.6609488     36.86406 
163784000    288.80115    420.36555    327.87651   -127353.29    127366.06    92.489037    36.858693 
163788000    251.21663    342.44533    461.33154   -127354.98    127387.46   -118.88621    36.858809 
163792000    305.73156    308.21642    474.47062   -127368.58    127386.86    -166.2542    36.855777 
163796000    253.39624    414.83211    367.64519   -127386.21    127416.04    47.186917    36.855489 
163800000    255.45781    287.40838    261.43479   -127406.57    127456.78    25.973584    36.856935 
163804000    247.62933    376.76407    314.47682   -127440.32    127481.82    62.287252    36.859707 
163808000    295.00477    450.35815    321.35514    -127472.7    127486.53    129.00301    36.857673 
163812000    288.96541    312.85037    365.55945   -127507.44    127511.62   -52.709087    36.857605 
163816000    275.95038    269.94829    177.01458   -127510.98    127540.29    92.933705    36.855726 
163820000    271.52324    145.04173    457.58725   -127532.04    127557.51   -312.54552    36.855135 
163824000    286.03293      268.104    356.29926   -127544.08    127564.38   -88.195262    36.850915 
163828000    258.07828    307.53716    188.58536   -127548.94    127590.17     118.9518    36.850488 
163832000    307.47619    575.80592    189.99341   -127572.33    127589.31    385.81251    36.852112 
163836000     307.4253    315.76819    376.95822   -127609.59    127621.54   -61.190034     36.85491 
163840000    303.68457    430.94167    202.71183   -127624.69    127634.39    228.22984    36.859498 
163844000    285.04098    642.78304    270.72911   -127646.02    127664.41    372.05393    36.863089 
163848000    307.35666    405.51272    378.83731   -127658.52    127659.18    26.675406    36.862441 
163852000    265.17242    399.44831    199.16627   -127651.15    127684.92    200.28204    36.861177 
163856000     300.3692    290.86455    403.44836   -127688.21    127691.86   -112.58381    36.863056 
163860000    284.97638    220.68963    292.32974   -127714.28    127733.11   -71.640108    36.865571 
163864000    293.18411     344.8521    321.11281   -127745.96    127764.63     23.73929    36.865596 
163868000    298.22311    229.83296    298.18683   -127754.27    127773.37   -68.353868    36.867537 
163872000    291.77909    205.07662    293.00596   -127775.66    127802.82   -87.929338    36.872299 
163876000    313.74256    341.77079    279.84469   -127801.35    127805.89     61.92609    36.868428 
163880000     268.5142    332.68911     351.8276   -127808.06    127826.21    -19.13849    36.867735 
163884000    288.89805    398.06361    292.54924      -127835    127858.29    105.51438    36.867411 
163888000    302.03378    303.39814    371.90269   -127874.17    127879.01   -68.504543    36.868097 
163892000    316.47206     337.6114    358.35365   -127884.16    127892.29   -20.742253    36.869057 
163896000    298.15371    242.85991    222.19702   -127902.31    127910.17    20.662898    36.868454 
163900000    269.76877    415.10568    352.33311   -127911.49    127935.76    62.772572    36.873851 
163904000    315.42377    417.30312    293.41694   -127954.79    127946.69    123.88618    36.875379 
163908000    291.26015    416.73766    174.52709   -127971.33    127979.47    242.21057    36.882154 
163912000    295.35355    385.56626    442.97075   -127981.28    127986.15   -57.404494    36.882937 
163916000    307.96805    495.95433    205.47213   -127999.25    128003.54     290.4822    36.885852 
163920000    266.43545    260.04409    208.56883   -127989.16    128015.04    51.475265     36.88804 
163924000    295.83965    456.24436    450.18936   -127996.67    128032.15        6.055    36.886449 
163928000    275.65833    269.50862    264.34927   -127999.89    128013.81    5.1593505    36.885781 
163932000    300.27242    165.68856    212.31952   -128035.54    128056.96   -46.630965    36.884585 
163936000    288.49602    318.56498    350.64765   -128074.79    128097.94   -32.082672    36.887385 
163940000    275.62816    384.85568    289.82531   -128103.95    128142.38    95.030379    36.888723 
163944000    277.46599     519.8999    311.04016   -128146.65    128170.93    208.85974     36.89044 
163948000     270.5868    259.90566    190.28562   -128173.46    128189.99    69.620046    36.887264 
163952000    309.48526    401.38312    304.19087   -128199.73     128192.1     97.19225    36.886786 
163956000    285.45023    283.16322    235.62639   -128207.76    128236.66    47.536829    36.883951 
163960000    270.11909    223.56803    224.46335   -128215.66    128256.06  -0.89531941    36.886459 
163964000    271.61311    367.73943    293.55699    -128227.6    128266.56    74.182442    36.889494 
163968000    278.60375    470.24481    437.44048   -128242.63    128271.42     32.80433    36.890526 
163972000     314.6183    320.62559    350.01329   -128262.55     128260.8   -29.387697    36.894031 
163976000    299.32045     507.4534    310.47215    -128306.6    128315.29    196.98126    36.897638 
163980000    308.28268    418.63608    412.64954   -128338.65    128349.73    5.9865463    36.893918 
163984000    290.83804    266.76061    545.44067   -128335.29    128367.47   -278.68007    36.894077 
163988000    259.23731    375.77196    192.11908   -128316.97    128367.08    183.65288    36.893471 
163992000    271.10499    403.18708    327.23264   -128368.37    128384.19    75.954436    36.891029 
163996000    274.49338     401.4179    285.67183   -128386.13    128408.31    115.74607    36.893778 
164000000    269.59946    216.21906    345.89041   -128398.17    128444.34   -129.67135    36.891792 
164004000     292.6595    432.15093    223.30966   -128437.65     128455.4    208.84127    36.886495 
164008000    293.38762    418.82508    487.83869   -128454.24     128468.1   -69.013609    36.891122 
164012000    250.53225     400.6956    370.25949   -128451.83    128498.67    30.436101    36.890298 
164016000    262.30837    380.24994    187.23933   -128491.34    128521.51    193.01061     36.88985 
164020000    258.23439    417.75078    404.61206   -128495.53    128529.12    13.138717    36.889535 
164024000    277.38866    476.00481    304.63638   -128508.73    128552.58    171.36844    36.886736 
164028000    271.06309     270.5926    259.21784   -128534.29    128543.68    11.374765    36.883274 
164032000    283.37001    243.44785    209.42654   -128558.94     128574.2     34.02131    36.878538 
164036000    260.58072    328.29297    162.15106   -128571.71    128600.65    166.14191    36.878965 
164040000    266.16619    400.12913    488.96053   -128571.27    128607.13   -88.831401    36.878781 
164044000    299.13347    283.35841    303.54328    -128604.5    128611.97   -20.184871    36.880115 
164048000    292.77178    253.48762    424.89959   -128620.13    128644.46   -171.41197    36.877954 
164052000    289.31449    333.64847     274.7783   -128630.06    128662.46    58.870171    36.881606 
164056000    283.34945    432.11595    308.24461   -128666.15    128681.03    123.87133    36.883196 
164060000    301.61012    292.53558     334.2386   -128691.62    128707.33   -41.703028    36.882387 
164064000    265.84888    406.17006    282.36013   -128721.86    128736.58    123.80993    36.879131 
164068000    248.91244     341.1436    239.93257   -128740.85    128776.22    101.21103    36.886615 
164072000    303.39282    312.20712    259.68185   -128765.91    128778.67    52.525275    36.884504 
164076000    275.72517    512.13876    402.17591   -128791.76    128804.45    109.96286    36.886568 
164080000    293.00735    334.61604    284.65741   -128806.16    128824.23    49.958632    36.885099 
164084000    306.98995    434.25681     481.7258   -128844.68    128842.57   -47.468988    36.881516 
164088000    281.45437    284.20689    299.21952   -128865.98    128877.24   -15.012626    36.881084 
164092000    292.69552    404.83581    313.58853   -128878.95    128896.57    91.247282    36.880018 
164096000    296.42336    428.84511    354.81525   -128883.88    128906.36    74.029858    36.875793 
164100000    324.66995    430.19881    386.15432   -128909.84    128919.55     44.04449    36.875539 
164104000    295.06939    326.45865    413.83738   -128932.88    128937.09   -87.378729    36.878785 
164108000      250.235    297.33465    339.35465   -128924.02    128973.77   -42.020001    36.882193 
164112000    292.94722    377.92977      246.672   -128941.97    128972.43    131.25777    36.886332 
164116000    271.15989    627.04391    252.24597   -128964.61    128981.48    374.79794    36.886732 
164120000    251.34424    234.29937     262.3618   -128952.05    128997.94   -28.062436    36.880408 
164124000    286.82833    470.90746    353.27569   -128975.71    128988.94    117.63177    36.879168 
164128000    281.44972    414.97171    339.23351   -128981.15    129000.72      75.7382    36.884191 
164132000    280.15163    438.18059    376.64526   -129014.98    129029.17    61.535329    36.885318 
164136000    263.98385     290.4951    246.91289   -129011.15    129022.85     43.58221    36.885273 
164140000     295.6225    250.83032    355.92478   -129043.62    129059.88   -105.09446     36.88703 
164144000    275.67496    280.90732    277.96925   -129044.77    129076.15    2.9380662    36.884493 
164148000    264.77487    298.03552    342.15489   -129055.59    129085.22   -44.119368    36.880957 
164152000     266.6252    424.94947    394.48816   -129089.96    129110.29    30.461304    36.879994 
164156000    280.42929     318.0433    347.70041   -129104.83    129128.25   -29.657105    36.880658 
164160000    273.37661    487.19769    254.37369   -129118.91    129143.06      232.824    36.881902 
164164000    265.35564    466.71756    305.93775   -129151.71     129183.9    160.77981    36.881601 
164168000    291.01775    560.84276    397.25493    -129184.8    129205.65    163.58784    36.884849 
164172000    261.13492    165.08499    318.55668   -129172.65    129215.48   -153.47168    36.888831 
164176000    271.68097    445.31156    279.23552   -129192.92    129214.75    166.07604    36.888607 
164180000    290.78571    276.65685    321.64636   -129216.67    129240.71   -44.989512    36.893239 
164184000    313.24017    531.05475      640.206    -129243.9    129251.46   -109.15125    36.894616 
164188000    275.66671    316.70551    326.93721    -129246.5    129258.47   -10.231701    36.894186 
164192000    280.66271    431.34333    339.33682    -129252.7    129272.09    92.006504     36.88806 
164196000    299.99619     363.6382    690.55963    -129269.4    129275.14   -326.92143    36.892136 
164200000    274.98616    274.24931    361.33904   -129283.91    129292.76   -87.089727    36.885057 
164204000    278.00818     554.2937    301.46031   -129303.85    129331.83    252.83339    36.887028 
164208000    285.24815    275.11052    277.77382   -129328.46     129351.9   -2.6633004    36.884819 
164212000    291.29096    398.67703    472.54936   -129357.55    129369.73    -73.87233    36.879295 
164216000    268.50103    414.56833    376.04578    -129396.9    129410.37    38.522559    36.876816 
164220000    294.43414    314.48833    362.43422   -129433.19    129444.77    -47.94589    36.874761 
164224000     315.0452    304.27309    530.81056   -129433.28    129431.51   -226.53747    36.873618 
164228000    318.74857    505.83857    339.43988    -129457.4    129456.73    166.39869    36.874589 
164232000    307.76952    386.30127    316.79135   -129471.15    129488.98    69.509924    36.875063 
164236000     285.8893    327.42885    269.35864   -129503.46    129530.91    58.070211    36.875736 
164240000     277.3937    396.84907    289.68226   -129548.94       129586    107.16681    36.876433 
164244000    264.16776    373.43633    374.55677   -129557.03    129600.19   -1.1204374    36.877796 
164248000     278.2505    363.18553     436.3511   -129559.05    129589.93   -73.165575    36.875778 
164252000    288.16649    442.98395    335.81651   -129581.59    129594.77    107.16744    36.872285 
164256000    297.83513    536.96956    367.32804   -129598.43    129610.58    169.64151    36.872775 
164260000    259.69298    295.28378    278.91023    -129616.1    129646.41    16.373551    36.876945 
164264000      288.612    438.04583    227.66269   -129623.44    129639.53    210.38313    36.877809 
164268000    276.17005    364.59847     344.2217   -129628.67    129654.77    20.376773    36.879144 
164272000    275.93636    357.28014    368.45678   -129625.41    129659.41   -11.176641    36.879265 
164276000    270.85057    253.41618     317.6835   -129628.61    129663.37   -64.267318    36.877799 
164280000    288.51108    410.70174    260.78334   -129658.55    129669.55     149.9184     36.88026 
164284000    276.90399    405.81906    250.95571   -129648.07    129682.91    154.86335    36.880365 
164288000    261.52874    311.36482     283.5287   -129668.35    129705.14    27.836123    36.875344 
164292000    295.82712    556.38399    221.29777   -129698.23    129701.74    335.08622     36.87108 
164296000    295.95874    469.39145     498.6055   -129725.25    129730.54   -29.214046    36.871175 
164300000    316.81393    336.18114    324.16237   -129757.06    129760.77     12.01877    36.872861 
164304000     252.3869    225.56989     259.3957   -129741.99    129770.31   -33.825805    36.873401 
164308000    308.45696    321.89882    282.37189   -129768.53    129782.83    39.526929     36.87524 
164312000    277.22041     263.5699    309.72229   -129786.33    129823.51    -46.15239    36.875783 
164316000    301.11428    402.08696     290.9274   -129832.34    129846.37    111.15957    36.878798 
164320000    272.06643     367.5193    464.29225   -129835.07    129874.83   -96.772951    36.882067 
164324000    262.00579    287.25263    328.59953   -129840.33    129890.48   -41.346897    36.885615 
164328000    312.07774    384.64784    144.43789   -129890.23    129895.03    240.20995    36.884018 
164332000    294.22575    600.99208     414.8052   -129899.28     129899.3    186.18687    36.888025 
164336000    304.04245    256.72686    330.72419   -129917.34    129934.18   -73.997331    36.884504 
164340000    301.73159    521.03077    316.81492    -129929.6    129936.05    204.21585    36.885232 
164344000     289.4442    241.76837    374.55601   -129934.69    129957.45   -132.78763    36.880487 
164348000    285.83028    401.38127    343.17672   -129959.46    129982.66    58.204547    36.880989 
164352000    266.29275    261.04663    333.73671   -129975.81     130009.6   -72.690087    36.878135 
164356000    312.31193    482.73379    355.04114   -130027.72    130033.31    127.69266    36.882581 
164360000     310.4035    500.53581    165.94047   -130012.04    130032.19    334.59533    36.882989 
164364000    289.19622    322.73332    172.00868   -130019.14    130051.07    150.72464    36.882492 
164368000    255.84527     244.8912    419.08473   -130045.34    130068.22   -174.19354    36.882945 
164372000    261.14639    556.22242    139.91984   -130045.21    130078.71    416.30258    36.886968 
164376000    294.14583    181.94679    458.71066   -130082.08    130075.19   -276.76386    36.885029 
164380000    297.76964    322.56513    339.16937   -130094.48    130113.44   -16.604245    36.879357 
164384000    267.80053     342.3679    327.72718   -130095.29     130137.4    14.640716    36.876785 
164388000    257.15132    171.34901    342.18302   -130103.07    130146.21   -170.83401    36.875541 
164392000    266.59502     231.0547    273.51877   -130091.09    130142.22   -42.464074     36.87545 
164396000    266.49494    392.79743    180.83295   -130115.67    130149.26    211.96448    36.877527 
164400000    272.97243    271.76772    187.47441   -130125.92     130149.7    84.293304    36.874814 
164404000    279.82986    398.33168    273.38879   -130153.77    130165.21    124.94289    36.876428 
164408000     310.5223     472.9463    399.19677   -130149.28    130163.63     73.74953    36.873291 
164412000    307.41817    452.80881    147.50382   -130168.05    130169.79    305.30499    36.875953 
164416000    277.89243    375.34752    380.84322   -130164.29    130184.37   -5.4956924    36.868341 
164420000    276.95289    250.44179    470.06632   -130156.84    130186.33   -219.62452    36.869963 
164424000    273.92238    406.55561    402.53675   -130159.84    130189.51    4.0188579    36.870078 
164428000    290.73521    310.55236    259.82683   -130193.39    130202.95    50.725532     36.86685 
164432000    303.39579    443.06867    394.39747   -130218.39    130236.36    48.671209     36.86595 
164436000    294.58146    309.32438    253.34719   -130209.42    130232.24    55.977193    36.867926 
164440000    291.26206    176.66454    337.39356   -130224.22    130242.15   -160.72902    36.863324 
164444000    288.99391    559.61442    218.72159   -130238.96    130256.68    340.89283    36.867261 
164448000    311.04488    244.01721    299.66377   -130250.32     130262.2   -55.646558    36.862672 
164452000    289.59632    381.70706    463.11748   -130274.54       130274   -81.410419    36.862278 
164456000    272.50214      469.242    190.07523   -130308.96     130332.3    279.16676    36.861296 
164460000     287.8721    419.20807    367.42431   -130323.65    130345.06    51.783754    36.857144 
164464000    275.34174     286.4262    368.57133   -130338.43    130370.06    -82.14513    36.858223 
164468000    274.36415    299.51074    376.54897   -130354.05    130365.71   -77.038229    36.860486 
164472000    267.19068    396.19476     492.3154   -130370.56    130390.88   -96.120646    36.860707 
164476000    252.04667    295.96351    233.81869      -130385    130426.35    62.144821    36.861132 
164480000    289.32455    233.24792    255.97855   -130395.73    130418.98   -22.730623    36.862236 
164484000    269.09239     226.3572    415.56205   -130421.37     130448.5   -189.20485    36.863343 
164488000    297.23814    273.47818    383.62792   -130452.24    130478.87   -110.14974    36.860653 
164492000    283.27556    235.61581    297.55583   -130474.26    130484.99   -61.940026    36.865044 
164496000    285.96931     378.9835    277.38085   -130489.07    130488.06    101.60265    36.860529 
164500000    270.37207    371.78638    242.19844   -130500.82    130522.34    129.58794      36.8627 
164504000    277.41621    466.77079    491.64436    -130515.5    130523.34   -24.873567    36.861434 
164508000    270.69018    457.19557    239.06191   -130526.04    130571.15    218.13365     36.85938 
164512000    295.81534     502.8444    194.42919   -130590.72    130599.78    308.41521    36.858232 
164516000    278.24422    254.47978    304.81876   -130610.89    130628.48   -50.338985    36.859342 
164520000    267.26714    443.21286    252.09026   -130612.68    130650.73     191.1226    36.859534 
164524000    253.95254    254.23432    436.70186   -130635.83    130674.95   -182.46754    36.853887 
164528000    261.57991    300.92307     313.0768   -130673.62    130697.62   -12.153729     36.85458 
164532000    272.68527    555.83506    276.25819   -130690.08    130731.46    279.57686    36.860665 
164536000    303.16589    404.01441    422.65554    -130739.7    130738.53   -18.641132    36.858608 
164540000    259.98284    283.84175    209.23492   -130753.05     130794.6    74.606827    36.859278 
164544000    270.32592    156.36287    459.80461   -130776.25    130784.19   -303.44174    36.856412 
164548000    322.84094    368.69532    363.95799   -130813.32    130817.35    4.7373305    36.853914 
164552000    287.84916     443.9111    442.55844   -130812.32     130839.4    1.3526646    36.855068 
164556000    297.35328    219.87816    523.15252   -130842.78    130850.69   -303.27436    36.850301 
164560000     292.4659    396.96463    362.45507   -130852.07    130866.13    34.509554     36.84952 
164564000     244.3858    266.58624    272.63098   -130845.94    130886.98   -6.0447412    36.851076 
164568000    285.54586    263.95636    327.15346   -130871.86    130885.84   -63.197103    36.850206 
164572000    258.13508    284.64955    360.04568   -130860.18    130911.69   -75.396133    36.851987 
164576000    296.00618    412.38231    288.86642    -130916.6    130930.73     123.5159    36.858119 
164580000     315.9857    293.19574    280.53294   -130935.49    130937.74    12.662798     36.85645 
164584000    274.52496    332.73161    287.51108   -130921.91    130953.47    45.220528     36.86038 
164588000    291.17791    331.21543     413.3077   -130922.26    130945.67   -82.092269    36.857903 
164592000    286.86152    339.49936    203.13536      -130948    130970.43    136.36401    36.858156 
164596000    292.77516    248.26157    231.03889   -130982.72    130996.24    17.222682    36.856174 
164600000     257.2441    198.03682    310.81809   -130988.46    131034.67   -112.78128    36.859045 
164604000     264.1745    232.71138    480.88829   -130991.82    131027.97   -248.17691    36.855658 
164608000    312.46735    502.75559     228.2118    -131024.8    131031.42    274.54379    36.857072 
164612000    289.07712    396.45253    223.34634   -131059.18    131065.07    173.10619    36.857312 
164616000    267.67253     181.9748    328.52028   -131064.19    131101.16   -146.54548    36.855817 
164620000     273.8166    409.77703    182.10587   -131107.19     131140.3    227.67115    36.853854 
164624000    291.58744    232.73465    221.69014   -131120.21    131158.21    11.044505    36.854026 
164628000    279.20883     426.8658    261.29372   -131156.12    131171.99    165.57208    36.857328 
164632000    301.27148    255.16796    385.77336   -131163.83    131177.78    -130.6054     36.85907 
164636000    286.69777    338.80968    262.75363   -131208.49     131219.6    76.056046    36.855173 
164640000    288.46392    339.29635    329.34108   -131228.81    131247.28    9.9552713    36.853131 
164644000    269.62536    268.57923    313.86173   -131236.24    131263.79   -45.282505    36.851825 
164648000    259.66712     313.8577    370.44904   -131242.41    131284.36   -56.591346    36.850165 
164652000     291.3616    519.70377    134.71051   -131266.31    131286.88    384.99326     36.85205 
164656000    269.42752    457.63788    278.77697   -131252.73    131280.77    178.86091    36.856656 
164660000    253.36625    244.06432    277.73561    -131255.7    131296.48   -33.671289    36.855913 
164664000    265.80851    532.63301    194.72201   -131290.83    131306.43    337.91099    36.859093 
164668000      279.123    435.21174    388.07136    -131292.4    131326.62    47.140381    36.859658 
164672000    270.04731    226.27177    344.45744   -131299.81    131338.62   -118.18568    36.859061 
164676000    301.42919    184.24594     284.5814   -131315.15    131315.14   -100.33546    36.854629 
164680000    288.98431    444.14176    331.06466   -131334.25    131330.11     113.0771    36.849298 
164684000    303.34905    527.61285    361.83692   -131342.45    131360.95    165.77593    36.851378 
164688000    274.17633    318.26293    214.65584   -131350.36    131378.26    103.60709    36.853189 
164692000    250.27267    195.13299    288.66772   -131351.69    131390.98    -93.53473    36.845456 
164696000    273.72037    362.86086    245.43813   -131369.59    131405.57    117.42273    36.845284 
164700000    299.34515    430.30856    303.67991   -131404.03     131408.5    126.62865    36.841045 
164704000    290.05802    307.90915     273.3977   -131412.74    131405.64    34.511449    36.838655 
164708000    304.48245     464.5027     169.4894   -131413.67    131427.15    295.01329    36.837916 
164712000    287.91137    274.99971    184.92046   -131419.02    131442.33    90.079255    36.837508 
164716000    288.56081    427.05983    404.84355   -131436.96     131466.3    22.216283     36.83881 
164720000    321.75516    458.40733    374.43235   -131449.86    131448.09    83.974975    36.839245 
164724000    281.71331     371.7589    388.33785   -131451.28    131483.93   -16.578947    36.834919 
164728000    260.74914     201.4296    205.43978   -131458.94    131498.12   -4.0101824    36.830398 
164732000    297.15725    254.47733    423.01291   -131476.77    131499.72   -168.53558    36.831547 
164736000    301.16564    542.27847    319.76036   -131506.98    131509.68     222.5181    36.831547 
164740000    280.22803     407.9192    336.79217    -131533.5    131550.29     71.12703    36.832995 
164744000    296.62434    247.43742    586.52802   -131539.79    131548.48    -339.0906    36.839481 
164748000    256.30104    300.45365    290.06676    -131551.4    131604.19    10.386897    36.840746 
164752000     261.6033    230.20833     369.3085   -131588.73    131641.52   -139.10016    36.838352 
164756000    297.52965    497.10417    513.03138   -131641.35    131656.35   -15.927208    36.837927 
164760000    269.34334    384.06325    328.73802    -131667.7    131685.23    55.325233    36.839613 
164764000    274.97525    269.42286    294.95288   -131697.84    131715.89   -25.530019    36.835575 
164768000    290.18094     443.7573     379.1215   -131735.98    131746.74    64.635801    36.832366 
164772000    303.69498    425.09267    358.93815   -131749.64    131763.36    66.154517    36.832238 
164776000    278.22394    422.01019     343.6355   -131774.69    131793.66    78.374695    36.831048 
164780000    297.60041    478.14229    456.70111   -131797.29    131806.82    21.441188     36.82699 
164784000    277.34577    531.96038    332.71951   -131819.46    131836.17    199.24087    36.824892 
164788000    289.29751    217.17887    181.71837   -131829.33    131848.13    35.460494    36.823467 
164792000    262.69876    336.34983    308.74884   -131852.93    131896.76    27.600986    36.824389 
164796000    270.18791    368.36046    347.77746   -131892.38    131912.45    20.582996    36.821623 
164800000    303.54925    332.06628    282.55992   -131916.92    131930.86    49.506357    36.822039 
164804000    286.71371    387.28508    729.27352   -131934.43    131956.79   -341.98844    36.820115 
164808000    273.82826    360.58747    171.32828    -131966.3    131999.14    189.25919    36.823734 
164812000     276.5291    362.37537    327.64099   -131990.26    132021.72    34.734378    36.823735 
164816000    263.79038    307.39149      282.298   -131998.64    132031.94    25.093492    36.825902 
164820000     268.3127    511.06744     253.8922   -132018.25    132048.36    257.17524    36.833515 
164824000    283.02112    336.42509     301.4746    -132043.1    132079.38    34.950491    36.830729 
164828000    292.89348     597.6117      260.909   -132066.27    132102.53     336.7027    36.830458 
164832000    279.61887    339.59104    428.09564   -132074.76     132108.8   -88.504607    36.827153 
164836000    272.55321    281.57802    253.32553   -132085.94    132122.99    28.252491      36.8233 
164840000    319.73637    401.05581     405.2711   -132135.88    132131.55   -4.2152816    36.823836 
164844000    286.43127    351.96081    243.08181    -132156.9    132160.51      108.879    36.825902 
164848000    308.70533    422.04698     174.2921   -132181.19    132196.75    247.75488    36.823487 
164852000    310.63571    524.97215    498.80657   -132198.35     132215.6    26.165577    36.822702 
164856000    294.28792    582.59127    381.74552   -132230.89    132233.38    200.84575    36.817313 
164860000    311.83342    346.27656    481.92975   -132244.51    132259.05   -135.65319    36.818905 
164864000    289.47893    356.96229    430.85861   -132250.11    132274.62   -73.896318    36.815739 
164868000    296.71844    377.80584    586.47453   -132279.38     132305.4   -208.66869    36.814939 
164872000    258.06365    342.45668    353.21783   -132308.52    132341.56   -10.761147    36.818545 
164876000    281.79986    236.91177    425.19257   -132323.79    132350.26    -188.2808    36.817946 
164880000    277.34039    425.04339    339.15969   -132367.11    132392.75    85.883695    36.817432 
164884000    276.22657    358.42123     250.5765   -132379.61    132408.36    107.84473    36.816932 
164888000    258.73602    396.95988    243.65056   -132383.92    132416.88    153.30932     36.82234 
164892000     260.5706    280.13645     191.7414    -132385.2    132419.83    88.395053    36.826018 
164896000    249.20102    272.00752    393.95773    -132382.6    132431.48   -121.95022    36.828042 
164900000     281.2672    329.66588    350.44012   -132433.91    132450.06    -20.77424    36.830908 
164904000    293.45003     276.5196    244.93974   -132452.08    132461.66    31.579864     36.82699 
164908000    294.67861    463.78343    200.59266   -132473.94    132502.23    263.19077    36.828058 
164912000    287.35089    239.34539    372.98948   -132500.33    132510.09   -133.64409    36.830018 
164916000    297.10145    366.42599    375.64069   -132528.43    132549.48   -9.2147021    36.829741 
164920000    293.73437    361.84195    265.38393   -132564.15    132579.45    96.458021    36.829956 
164924000    250.97392    603.67001    336.90048   -132556.81    132596.01    266.76953    36.825228 
164928000     312.1351    436.53073     407.1304   -132577.27    132582.16    29.400328    36.821944 
164932000    262.51493    249.87154    350.63352   -132555.36    132610.57   -100.76198    36.823149 
164936000    273.59658    277.48805    194.86707   -132578.96    132608.86    82.620971    36.823394 
164940000    287.46534    271.52361    353.64465   -132619.98    132637.63   -82.121035    36.827958 
164944000    304.89689    300.11417    332.59434   -132660.53     132663.3   -32.480169    36.827606 
164948000    286.78081    320.95296    326.93771   -132691.04    132693.26   -5.9847535    36.825314 
164952000    283.45683    420.19892    214.59955   -132718.19    132731.47    205.59937    36.829722 
164956000    291.30357    314.14832     424.2019   -132745.83     132774.9   -110.05358    36.828979 
164960000    323.82319     563.8452    431.14687   -132779.29    132776.32    132.69833    36.829053 
164964000    294.65727    397.24967    364.21775   -132782.01    132804.15    33.031926    36.827117 
164968000    283.51706    583.31091     376.6692   -132791.95    132818.76    206.64171    36.828985 
164972000    265.42102    320.76693    240.96854    -132817.8    132856.81    79.798388    36.827792 
164976000    271.25003    342.42833    285.57892   -132824.12    132856.05    56.849415    36.824046 
164980000    276.12402     393.4242    253.04885   -132838.96    132858.87    140.37535    36.826289 
164984000    297.69944    310.54314    294.84989   -132846.78    132864.89    15.693252     36.82657 
164988000     311.9423    549.22722    221.96436   -132878.07    132860.88    327.26286     36.82922 
164992000    302.64009    312.24115    212.17958   -132880.26    132894.39    100.06157    36.830503 
164996000    306.87626      325.649    443.75305   -132900.45    132910.21   -118.10405    36.823899 
165000000    253.34705    277.48143    213.30553   -132906.41    132949.79    64.175901     36.82356 
165004000    226.13641    258.31677    320.59166   -132893.03    132945.62   -62.274888    36.822109 
165008000    258.83623    285.02426    315.39084   -132917.35    132957.98   -30.366583     36.82921 
165012000    265.33342    429.28517    236.99472   -132923.02    132963.13    192.29045    36.827783 
165016000    260.11968    306.96778    244.52678   -132937.26    132970.18    62.440999    36.821648 
165020000    274.00813    407.59432    250.30281   -132950.98     132966.3     157.2915    36.822396 
165024000    288.03393    450.96924    436.36451   -132957.55    132985.93    14.604725    36.824401 
165028000    319.61854    448.69406     229.1908   -132962.09    132962.55    219.50326    36.831194 
165032000    277.34977    247.17752    231.46137   -132970.04    132983.13    15.716153    36.826993 
165036000    285.84939    515.79373    393.28725   -133002.43    133032.45    122.50648    36.828885 
165040000    285.04707    422.43046    376.97389   -133028.23     133047.6    45.456575    36.830005 
165044000    286.36722    379.27526    345.48943   -133060.53    133073.14    33.785831    36.830244 
165048000    269.45584     134.4074    259.02732   -133048.62    133094.48   -124.61993     36.83137 
165052000    274.69554    429.48577    137.99651   -133066.13    133098.04    291.48927    36.836594 
165056000     280.8559    364.71657    380.08693   -133081.18    133095.72   -15.370363    36.835654 
165060000    284.26235    208.10593     288.5762   -133096.33    133118.62   -80.470274    36.831095 
165064000    304.09273    251.78373    456.72191   -133139.44    133137.83   -204.93818    36.832884 
165068000     269.3839    259.15212    226.33883   -133133.28    133165.11    32.813296    36.834526 
165072000    300.25268    317.40774    375.92558   -133156.35    133164.01   -58.517835    36.834881 
165076000    304.95391    350.44749    247.59207   -133153.95    133158.52    102.85541     36.83656 
165080000    290.91984    381.96212    555.76001   -133156.77    133172.02   -173.79788    36.829925 
165084000    273.49491    553.39378    250.90338   -133168.21    133192.57    302.49039    36.833457 
165088000    290.27435    430.05556    337.95531   -133197.91    133219.13    92.100255    36.830026 
165092000    289.19721     454.9247    245.86396   -133239.26    133247.07    209.06074    36.827428 
165096000    291.41106    371.55025    332.32055    -133253.8    133273.99      39.2297     36.82373 
165100000    277.37754    288.26517    395.13888   -133257.64    133289.47   -106.87371    36.825459 
165104000     280.4083    557.20926    586.95928   -133303.21    133321.72   -29.750015    36.831397 
165108000    280.24854    296.21019    366.39938   -133327.47    133336.21    -70.18919    36.832519 
165112000    294.98997    679.20655    307.53294   -133350.91    133349.76    371.67361    36.835726 
165116000    298.40287    301.92793    400.14213   -133342.33    133358.86   -98.214191    36.832826 
165120000    284.23905    305.91294    463.55049   -133361.19    133388.57   -157.63755    36.830303 
165124000    258.20445    418.46265    265.14996   -133378.56    133417.85    153.31269    36.834155 
165128000    286.41923    448.76862    181.22589   -133407.25    133418.74    267.54274    36.834406 
165132000    292.98642    270.34994    400.47395   -133429.47    133442.73   -130.12401    36.835441 
165136000    297.10523    481.42415    200.02707    -133453.7    133471.59    281.39708    36.835016 
165140000     297.3912    274.03597    199.07973   -133485.46    133497.18    74.956236    36.837202 
165144000    290.22272    390.40228    278.00736   -133497.62    133516.98    112.39492    36.840595 
165148000    291.47074    187.76577     315.8603   -133531.59    133549.13   -128.09453    36.842388 
165152000     286.8581    441.34086     347.4479   -133551.83    133571.34    93.892966     36.84451 
165156000    286.59293    354.43723    226.77159    -133565.6    133596.88    127.66564    36.847939 
165160000    266.87792    283.02297    300.63176   -133568.49    133601.08   -17.608785    36.847165 
165164000    272.59738    348.01373    407.27613   -133594.91     133640.6   -59.262403    36.846479 
165168000    293.56789    438.07841    199.82003   -133647.22    133666.59    238.25839    36.845938 
165172000    268.01683     414.2344    180.58812   -133655.75    133699.65    233.64628     36.84614 
165176000     290.2578     524.8093    343.05671   -133690.42    133723.33    181.75258    36.844115 
165180000    304.90563    535.57598    425.60109   -133724.96    133725.39    109.97489    36.844238 
165184000    285.07249    391.92814    426.80521   -133746.28    133774.72   -34.877076     36.84476 
165188000    331.14111    331.72427    431.46754   -133777.65    133766.01   -99.743269    36.845349 
165192000    292.56843    397.97861    356.01016   -133787.24    133819.64    41.968446    36.846552 
165196000    301.59481    477.15074    458.25285   -133788.85    133801.89    18.897889    36.845631 
165200000    280.18588    310.48609     302.9253   -133805.33    133823.49    7.5607901     36.84004 
165204000    263.86846    322.87416    236.14751   -133844.35    133869.79    86.726642    36.839381 
165208000       291.27    467.48606    519.17429   -133865.18    133889.19   -51.688226     36.83863 
165212000    297.11016    374.43197    457.56735   -133890.19    133914.95   -83.135385    36.841217 
165216000    288.78465     383.0459    274.92471   -133889.06    133915.18    108.12119    36.836993 
165220000    250.15525    333.86451    252.53887    -133904.3    133933.62     81.32564    36.837779 
165224000    255.55302    443.69153    470.22879   -133919.98    133957.87   -26.537264    36.835263 
165228000    263.12679    322.92705    421.52341   -133942.58    133978.78   -98.596361    36.834496 
165232000    275.76242    263.99948     120.1327   -133989.89    134016.83    143.86678    36.840298 
165236000    260.27467    294.65139    325.10369   -134029.09    134054.26   -30.452304    36.839418 
165240000    284.81527    449.17535    313.09887   -134048.05    134076.37    136.07648    36.838753 
165244000    274.61661    351.82923    251.42956   -134075.06     134102.3    100.39967     36.83691 
165248000    291.03102    301.73592    324.17557   -134065.53    134086.53    -22.43965    36.835843 
165252000    274.23574    345.59875    281.87294   -134065.63    134098.12    63.725804    36.841711 
165256000    284.90734    443.23093    290.92606   -134084.02    134109.12    152.30487    36.846922 
165260000      273.418     263.3714    288.86268   -134093.29    134130.08   -25.491286    36.844581 
165264000    312.04043    455.48304     284.0408   -134112.68    134127.46    171.44224    36.844966 
165268000      260.426    285.68688    389.58144   -134121.67    134148.66   -103.89456    36.846887 
165272000      271.525    499.10372    255.68693   -134142.54    134184.82    243.41679    36.841262 
165276000    270.63741    384.27031    177.11233   -134152.78    134185.09    207.15798    36.844945 
165280000    289.90007    348.11351    166.54395   -134185.94    134193.86    181.56955    36.843802 
165284000    281.20041    439.15287    461.31435   -134193.56    134217.94   -22.161474    36.837024 
165288000    275.60223     189.8698    331.52806   -134206.19    134238.72   -141.65825    36.836036 
165292000    256.55869    377.45658    203.87338   -134206.42    134245.24     173.5832    36.838345 
165296000    255.76619    422.85848    379.72125   -134227.42    134255.52    43.137232     36.83759 
165300000     285.0649    367.92711    376.97939   -134234.52    134265.99   -9.0522766    36.836176 
165304000    299.34654    360.50039    309.89101   -134254.89    134278.59    50.609388    36.837635 
165308000    315.72454    459.24375    372.03273   -134266.44    134271.89    87.211023    36.837336 
165312000    291.39724    208.26992    225.64491   -134285.42    134317.95   -17.374989    36.834498 
165316000    291.16159    322.46391    300.09872   -134301.06    134320.11    22.365195    36.833811 
165320000    294.87661    330.06032    319.36947   -134344.32    134360.64     10.69085    36.836908 
165324000    258.36078     308.0095    293.85814   -134362.19    134386.52    14.151363     36.83452 
165328000    295.50606    420.45517    315.63711   -134415.09     134428.8    104.81806    36.832592 
165332000    289.63521    442.56474    340.05964   -134425.96    134428.84    102.50511    36.833874 
165336000    260.42936    291.18971     323.4817   -134437.23    134468.49   -32.291995    36.839047 
165340000    300.24218    265.23364    213.45211   -134457.32     134458.7    51.781533    36.841982 
165344000    286.84017    230.19186    313.59209   -134442.45    134465.16   -83.400231    36.841451 
165348000    287.13337    393.12862    193.66303   -134473.68    134477.05    199.46559    36.837977 
165352000    289.33941    282.17193    297.40626    -134469.4    134488.96   -15.234327    36.837386 
165356000    256.24217    505.33097    182.39633    -134494.4    134534.94    322.93463    36.836854 
165360000    300.25909    285.69554    215.94733   -134529.36    134544.46    69.748207    36.840544 
165364000    295.88945    686.62505    380.58068   -134574.22    134572.83    306.04437    36.840432 
165368000    287.04438    445.30964    311.86413   -134571.43    134583.71    133.44551    36.844265 
165372000    295.40816     582.2288     374.7714   -134574.45    134581.73     207.4574    36.840602 
165376000    299.30249    168.01164    377.53944    -134607.8     134622.2    -209.5278     36.83905 
165380000    270.34701    346.03579    465.06127   -134613.89    134636.54   -119.02548    36.836706 
165384000    321.79966    351.04419    505.58328   -134649.77    134660.47   -154.53909    36.833775 
165388000     264.6437    352.49249    471.19376   -134686.59    134699.82   -118.70127    36.828068 
165392000    272.04063    354.26987    169.99366   -134739.97    134768.96    184.27621    36.827623 
165396000    288.53852    473.60187    493.38796   -134744.03    134775.86   -19.786086    36.827357 
165400000     304.6445     331.5053    215.85736   -134754.96    134777.22    115.64794    36.822663 
165404000    296.33224    328.37527    305.12726   -134786.59    134799.88    23.248008    36.821105 
165408000    287.62182     289.5924    480.23639   -134785.44    134798.98   -190.64399    36.825743 
165412000    291.97542    398.18338    561.96479   -134795.14    134804.86   -163.78141    36.826572 
165416000     277.4052    487.83497    364.05573   -134777.79    134827.99    123.77924    36.825592 
165420000    286.75942    542.67316    203.24951   -134791.54    134830.45    339.42365    36.829298 
165424000    283.66668    289.13157    322.81162   -134808.71    134838.04   -33.680052    36.826451 
165428000    263.50732    303.43811    211.95877   -134839.62    134875.29    91.479341    36.830969 
165432000     254.6167    422.28301    92.997223   -134869.83    134890.72    329.28578    36.826473 
165436000    260.63742    284.59281    219.82778    -134879.4    134929.99    64.765038    36.831797 
165440000    296.81927    229.10755     386.2679   -134919.15    134931.22   -157.16035    36.833948 
165444000    284.70749    366.34417    108.58796   -134953.01    134970.78    257.75622    36.838417 
165448000    297.19463     433.6643    204.80776   -134961.29    134979.03    228.85654     36.84404 
165452000    279.79415    406.46829    264.97877   -134979.15    134997.45    141.48952    36.842527 
165456000    273.23956    415.72547    225.49386   -134962.38    135006.35    190.23161    36.841866 
165460000    276.20909    402.21335    310.16709    -134992.5    135023.47    92.046255    36.843766 
165464000    286.90501    283.70848    340.85851   -135015.46    135033.23   -57.150023    36.842969 
165468000    293.27504    457.27304      276.063   -135046.33    135059.86    181.21004    36.844544 
165472000     283.8475    377.69139    352.10873   -135078.65    135088.96    25.582666    36.842321 
165476000    297.28409    382.48887    322.27047   -135102.36    135103.15    60.218395    36.840275 
165480000    284.66819    361.10457    204.08942   -135118.16    135124.22    157.01515    36.841265 
165484000    301.98815    183.74525    446.00646   -135123.09    135139.25   -262.26121    36.841218 
165488000    315.01792    333.85045    465.01326   -135148.01    135171.06   -131.16281    36.840183 
165492000    289.78931    268.45633    264.35267   -135172.39    135189.95    4.1036605    36.838818 
165496000    302.00264    357.61195    308.02483   -135197.71    135208.36    49.587115    36.834893 
165500000    314.18572    451.47743    274.67355   -135253.73    135244.13    176.80388    36.832714 
165504000    261.93561    248.50946     371.5117   -135249.73     135273.7   -123.00224    36.827852 
165508000    285.76815    417.20255    325.28754    -135258.9    135287.63    91.915004    36.831341 
165512000    287.51781    329.92304    195.84745   -135269.29    135304.57    134.07559    36.834746 
165516000    276.57873    447.91357    300.50624   -135285.47    135291.34    147.40733    36.831564 
165520000    278.19901    233.79515     341.5394   -135302.41    135322.76   -107.74425    36.835046 
165524000    254.95212     132.6965    354.60914   -135320.11    135362.47   -221.91264    36.837455 
165528000    284.79615    438.87372    373.53369   -135365.56    135383.82    65.340031    36.839362 
165532000     286.7549    346.37917    389.74782   -135385.09    135384.14   -43.368641      36.8428 
165536000    312.02683    305.66231     331.7612   -135399.19    135394.69   -26.098891     36.84509 
165540000     249.4741    395.90831    342.25756   -135400.27    135441.12     53.65075     36.84453 
165544000    277.35288    419.97359    555.32146   -135440.09    135472.67   -135.34787    36.846194 
165548000    269.07879    461.60041    383.32551   -135477.52    135505.71    78.274904    36.844148 
165552000    301.29891    292.89493    379.46144   -135503.93     135522.9   -86.566511     36.84277 
165556000    288.70046     549.4942    274.27522   -135543.61     135569.4    275.21897    36.844574 
165560000    263.29146    374.15288    237.35379   -135555.47    135597.48    136.79909     36.84253 
165564000    260.62244    381.25534     279.1473   -135591.27    135640.96    102.10805    36.840488 
165568000    298.03939    282.02182    466.66619   -135628.28    135649.19   -184.64436    36.835577 
165572000     293.9324    389.48299    255.73801   -135644.79     135669.2    133.74498    36.840826 
165576000    261.62079    442.77983    192.78747   -135645.17    135680.44    249.99236    36.841381 
165580000    257.62822    319.13469    337.53575   -135645.54    135678.71   -18.401065    36.836515 
165584000     260.9499    238.60264    330.41145   -135670.06    135683.51    -91.80881     36.84081 
165588000    302.53074    162.44359    336.82142   -135652.35    135677.94   -174.37783    36.838092 
165592000    278.41979    300.29265    253.13122   -135667.37       135690    47.161423    36.838231 
165596000     298.0928    415.52358    260.45493   -135715.72     135709.1    155.06865    36.840948 
165600000    280.28636    280.92533    241.63079   -135723.11     135748.8    39.294545    36.842588 
165604000      289.156     380.8659    223.69112   -135748.48    135771.37    157.17478    36.837905 
165608000    296.60852      271.397    407.62011   -135770.49    135793.96   -136.22311    36.846074 
165612000    265.86637    321.28899    292.35986   -135773.42    135815.67    28.929132    36.845354 
165616000    279.14455    203.69262    306.84338   -135792.61    135834.33   -103.15076    36.842857 
165620000    282.74697    444.57669    395.39865   -135833.61    135833.64    49.178046    36.844353 
165624000    269.41319    541.14088    410.49931   -135859.32    135877.49    130.64156    36.841124 
165628000    281.90676    556.79542    169.03524   -135859.28    135876.72    387.76019    36.838732 
165632000    274.41262    471.39306    341.26939   -135829.57    135870.24    130.12366    36.842124 
165636000    256.74849     182.4336    214.01263    -135844.5     135874.4   -31.579021    36.843502 
165640000    288.08079    321.07492    304.10098   -135865.86    135885.08    16.973938    36.847876 
165644000    282.47258    326.12713    237.13659   -135881.95    135904.72    88.990533     36.84661 
165648000    312.43455    325.43859    338.77289   -135908.62    135923.13   -13.334301    36.850498 
165652000    273.72178    322.56753     362.6421   -135914.93     135943.1   -40.074577    36.849404 
165656000    253.59687    410.40661    182.32265   -135915.47    135960.77    228.08396    36.850119 
165660000    263.18367    381.77196    242.31752    -135945.1     135992.6    139.45444    36.850301 
165664000    281.67585     198.5831    265.98104   -135968.58    136014.08   -67.397944    36.852885 
165668000    281.43627    233.63632    409.30331   -135993.76    136005.23   -175.66698     36.84964 
165672000    283.45321    329.66737     355.3128   -136011.87    136039.94   -25.645436    36.855909 
165676000    273.37706    374.23527    338.79289    -136035.7    136050.69    35.442373     36.85287 
165680000    272.56082    262.61415    169.06083    -136031.9    136065.31    93.553319    36.852018 
165684000    288.28919    278.43368     317.1321    -136080.9    136090.79   -38.698422    36.854175 
165688000    297.95575    461.78722    304.03337   -136109.92    136122.16    157.75385    36.852624 
165692000    271.90957    142.02402    139.95144   -136115.69     136161.6    2.0725796    36.850474 
165696000     273.0344    434.39016    457.94378   -136150.57    136187.37   -23.553616    36.858276 
165700000    284.93464    237.95801    609.91237   -136150.15    136175.08   -371.95436    36.853337 
165704000    291.33474    527.56377    341.53617   -136180.28    136208.93    186.02761     36.85542 
165708000    253.09863    375.56167     270.0628   -136185.26    136226.39    105.49886    36.856144 
165712000    288.65861    403.83065    429.28695   -136211.97    136239.47   -25.456301    36.858725 
165716000    280.85445    463.08192      263.457   -136227.07     136248.8    199.62492    36.857981 
165720000    281.84972    302.27224    482.32475   -136246.15    136265.43   -180.05251    36.866915 
165724000     263.0212    380.44406    348.53042   -136259.54    136287.77    31.913646    36.867345 
165728000    288.10939    299.84216    288.80336   -136294.31    136307.13    11.038802    36.871446 
165732000    287.65087    581.46425    311.07915   -136304.36    136330.49     270.3851     36.87308 
165736000     295.9203    259.49453    257.57251   -136311.66    136334.08    1.9220237    36.865961 
165740000    273.11105    323.72318    354.38877   -136304.28    136348.68   -30.665583    36.861565 
165744000    281.81171    435.57861    229.45432   -136336.83    136365.95    206.12429     36.86394 
165748000    290.37713    355.80649    550.82548   -136364.63    136378.92   -195.01899    36.854221 
165752000    263.10427    282.47535    413.62636    -136377.3    136414.55   -131.15101    36.852997 
165756000    261.16148    308.00763    171.83451   -136394.34    136432.61    136.17312      36.8518 
165760000    273.67673    519.93267    198.11497   -136416.44     136431.7    321.81771    36.856074 
165764000    297.97558    439.10651    184.86645   -136442.04    136459.36    254.24006    36.856392 
165768000     290.6911    439.14884    386.30638   -136454.25    136488.38    52.842464    36.854039 
165772000    264.58773    215.06182    498.34994   -136478.22    136497.61   -283.28812    36.855454 
165776000    311.32985    327.85346    294.07985   -136495.73    136479.85    33.773604    36.855889 
165780000    270.07308    345.78586    257.44343   -136491.88    136511.16     88.34243    36.862005 
165784000    298.47672    472.03855    399.50477   -136508.23    136515.55    72.533782    36.862973 
165788000    270.49125    415.82212    280.96474   -136518.05    136540.39    134.85737    36.857962 
165792000    262.13958    590.48799    285.13739    -136543.1    136568.12     305.3506    36.860768 
165796000    280.58773    477.09563    234.69888   -136573.27     136597.1    242.39675    36.858956 
165800000    328.29727    413.76384    399.63464   -136589.97    136587.91    14.129208    36.860908 
165804000    281.06361    352.32424    397.91973   -136605.56    136608.73   -45.595488    36.864227 
165808000     302.4459    373.79015    300.15778   -136617.83    136629.66    73.632363    36.866067 
165812000    285.05307    344.55031    488.59284   -136610.77    136643.44   -144.04253    36.863916 
165816000    302.09163    731.71838    342.19083   -136650.32    136655.08    389.52756    36.861864 
165820000     272.1456    255.12173    400.93077   -136644.89    136678.53   -145.80904    36.857968 
165824000    267.34885    494.93134    287.61658   -136646.03    136666.45    207.31476    36.859012 
165828000    299.13298    659.46483    395.65521   -136664.63    136693.07    263.80962    36.862767 
165832000    288.31415    505.92369    274.47378   -136682.28    136700.26    231.44991    36.866573 
165836000    296.73254    312.71213     446.1591   -136696.18    136722.69   -133.44697    36.865154 
165840000      280.945    214.85792    313.40607      -136708    136749.73   -98.548147    36.860471 
165844000    279.78765    196.81336     251.5577   -136757.04    136777.57   -54.744337    36.857113 
165848000    284.61138    292.65489    154.75457   -136780.28    136799.43    137.90032    36.852904 
165852000    268.73843    267.48664    279.05608   -136784.79    136822.93   -11.569442    36.849736 
165856000    297.93382    288.39337    494.16461   -136822.74    136834.04   -205.77124    36.848081 
165860000    286.62345    452.69547    248.48798   -136828.28    136857.44    204.20749    36.852568 
165864000    280.11176    320.32867    377.43998   -136851.15    136855.58   -57.111305    36.850662 
165868000    270.22671    507.59017    269.49785    -136861.2    136886.57    238.09232    36.850451 
165872000    252.84964     351.8364    268.27341   -136876.08    136897.18    83.562991    36.850662 
165876000    283.71033    249.15873    189.60319    -136897.6    136910.64    59.555543    36.850037 
165880000    288.23623    455.67118    438.67402   -136926.65    136945.86    16.997167    36.848336 
165884000    272.12833    388.54957     254.9087   -136929.02    136950.81    133.64087    36.845256 
165888000    305.86129    423.67294    234.19763   -136957.07    136974.49    189.47532    36.843208 
165892000    296.40875    450.00816    401.75344   -136946.44    136972.87    48.254717    36.847005 
165896000    270.02074    297.32063    439.27989   -136942.85    136979.47   -141.95926    36.842589 
165900000    299.32486    347.06908    275.28463   -136950.75    136976.64     71.78445    36.841086 
165904000    249.20608    284.13013    342.98499   -136943.18    136983.53   -58.854859    36.841083 
165908000    300.82623    285.62532    476.52464   -136959.72    136978.87   -190.89933    36.838722 
165912000    285.69886    226.44847    416.89683   -136960.97    137001.76   -190.44836    36.842668 
165916000    295.35483     423.2526    409.32514    -136993.1    137007.65    13.927452    36.843614 
165920000    311.87962    340.41692    263.23832   -137020.33    137023.65    77.178602    36.840999 
165924000    296.31965    461.83312    485.20335   -137025.07    137036.79   -23.370233    36.842746 
165928000    295.20927    238.62041    335.19412   -137037.23    137029.34   -96.573703    36.844722 
165932000    322.47133     387.4417    205.47445   -137059.45    137056.23    181.96725    36.845908 
165936000    317.95719    288.64112    349.01191   -137073.13    137075.47   -60.370792    36.846175 
165940000    302.94349     307.8809    397.00254   -137066.08     137086.2    -89.12164    36.847198 
165944000    300.92487    412.68754    273.51452   -137095.08    137096.69    139.17302    36.845482 
165948000    288.72955    523.41591    338.07518   -137120.16    137133.72    185.34072    36.840354 
165952000    291.52936    363.30475    278.17258   -137147.89    137162.38    85.132176    36.836925 
165956000    295.57325    271.59534    321.74236   -137162.11    137174.93   -50.147018    36.832967 
165960000    276.68833    392.94225    245.58009   -137179.92       137217    147.36216    36.835254 
165964000    268.17549    459.46679    404.93893   -137198.59    137234.43    54.527859    36.833796 
165968000    264.72173    244.15554    304.59747    -137203.5    137236.42   -60.441938    36.831093 
165972000    276.69397    476.66114    432.70091   -137233.53    137245.57    43.960222    36.829729 
165976000    307.45141    387.05636    317.82415    -137280.1    137281.03    69.232203    36.830349 
165980000     261.5513    353.78351    384.81209   -137288.04    137325.75   -31.028575    36.828431 
165984000    263.16811    191.24675    297.87375   -137301.74     137344.5     -106.627    36.826282 
165988000    309.26233    408.37028    400.84269   -137369.81    137360.61     7.527594    36.821961 
165992000    298.77131    462.97653    363.88916   -137387.95    137395.09    99.087368    36.822746 
165996000     283.8427    255.41849    347.37966   -137396.02    137425.47   -91.961171     36.82157 
166000000    283.56717    382.23066    293.16903    -137440.8     137454.6    89.061631    36.821391 
166004000    278.80317    301.99672    336.24208   -137446.98     137479.3   -34.245362    36.819865 
166008000    282.27958    445.80079    360.73473   -137482.41    137513.86    85.066062    36.819596 
166012000    259.96013    358.51784    211.59239   -137486.99    137536.98    146.92546     36.81902 
166016000     268.6574    552.64331    226.77782   -137501.37    137548.69    325.86549    36.819963 
166020000    290.94644    508.20648     294.4746   -137515.93    137547.92    213.73189    36.821585 
166024000     292.7216    565.52834     267.3633   -137549.96    137582.66    298.16504    36.816904 
166028000    282.51096    288.68288    267.09524   -137561.01     137597.2    21.587635    36.814189 
166032000    283.80129    402.30605    323.28647    -137599.6    137614.55    79.019579    36.809616 
166036000    309.94951    334.04614    360.72557   -137599.66     137614.6   -26.679428    36.809161 
166040000    279.14954    328.98741    401.24906   -137617.04    137639.18   -72.261652    36.813678 
166044000    295.15823    243.72297    349.63659   -137649.32     137655.9   -105.91363    36.810769 
166048000    279.08702    389.92591    428.01705   -137670.57    137683.45   -38.091134    36.812217 
166052000    293.77663    425.66905    311.03511   -137710.61    137714.03    114.63394    36.812722 
166056000    287.92768    521.93088    282.27883   -137699.73    137713.27    239.65205    36.812911 
166060000    271.98674    318.29526    273.83437   -137678.65     137705.8    44.460894    36.814535 
166064000    308.07023    696.41517    383.51007   -137726.04    137743.22     312.9051    36.820021 
166068000    248.66987    275.71497     358.2263   -137705.79    137755.78   -82.511329     36.81871 
166072000    284.45085    385.32941     246.4147   -137743.62    137760.91    138.91472     36.82169 
166076000    262.41232    185.38967    327.93307   -137762.79    137799.96    -142.5434    36.824274 
166080000    290.29781    159.81243    454.20104   -137797.07    137803.92   -294.38862    36.829532 
166084000    310.61076    264.45769    335.81758   -137828.99    137821.69   -71.359889    36.833571 
166088000    289.87916    413.66098    288.96125   -137817.36    137841.02    124.69973    36.840789 
166092000    295.45581    358.37953    454.90516   -137831.55    137859.74   -96.525629    36.841139 
166096000    297.13819    295.12046    401.68144   -137870.42    137872.22   -106.56098    36.843093 
166100000    275.37615     282.8235    305.72079   -137866.04    137888.65   -22.897288    36.839807 
166104000    280.87435    240.93555    305.66181   -137879.94    137904.59   -64.726261    36.844811 
166108000     249.9485    343.23211    198.08344   -137895.35    137940.66    145.14867    36.848346 
166112000    268.91701    307.39215      255.147   -137919.94    137959.33    52.245154    36.848351 
166116000     272.7681    281.89975     456.0965   -137948.97    137977.77   -174.19675    36.849751 
166120000    292.29901    319.96427    298.09998   -137951.36    137981.71    21.864284    36.850028 
166124000    285.76831    367.68051     322.4489   -137959.32    137992.47    45.231612    36.851208 
166128000    249.61297    402.42727    215.64747   -137969.41    138008.66     186.7798    36.854385 
166132000    298.98539    377.03422    327.55193   -137988.43    138019.19    49.482294    36.854645 
166136000    317.79056    325.35261     277.0702   -138015.52    138015.83    48.282413    36.855697 
166140000    260.30764    489.26052    321.08262   -138029.84    138062.16     168.1779     36.85234 
166144000    263.79833    355.64975    312.75535   -138042.29       138068    42.894403     36.85409 
166148000    283.53662    543.05002    215.16284    -138054.5    138085.83    327.88718    36.857936 
166152000    303.95947    468.00736    193.67833   -138085.69    138102.96    274.32903    36.860951 
166156000    248.65655     326.6474    355.83205   -138076.85    138130.78   -29.184652    36.865114 
166160000    291.98702    445.23402    350.23943   -138105.28    138138.46    94.994589    36.868178 
166164000     281.2291    240.91809    299.57997   -138103.82     138134.5   -58.661875    36.869921 
166168000    309.42923    535.19359    488.86941   -138130.28    138161.36    46.324187    36.873671 
166172000    289.63439    227.15748     361.7926   -138172.26    138191.73   -134.63512    36.874863 
166176000    249.77964    330.72491    249.07074   -138174.07    138222.44    81.654172    36.871684 
166180000    276.71155    345.13352    360.75753   -138187.77    138215.84   -15.624011    36.872779 
166184000     269.8285     394.3295    295.96443   -138183.72     138219.5    98.365071    36.875606 
166188000    267.87921     299.1587    318.55127   -138190.84    138242.22    -19.39257    36.872634 
166192000    251.36188    331.10195    234.05423   -138217.97    138259.47    97.047721     36.86784 
166196000    275.54785    356.43319     548.8991   -138231.72    138260.39   -192.46591    36.866661 
166200000     288.6535     253.2818    400.27102   -138255.62    138268.97   -146.98922     36.86171 
166204000    273.87682    224.97742     251.2176   -138270.86    138307.48   -26.240184    36.860805 
166208000     297.0458      294.853    286.55458   -138286.05    138304.13    8.2984171    36.863555 
166212000    298.19971    333.78139    340.14741   -138306.46    138313.06   -6.3660215    36.864127 
166216000    254.33633    265.91421    299.69201   -138333.38    138364.27   -33.777796    36.866599 
166220000    262.26645    236.35684    356.67795   -138345.12    138381.57    -120.3211    36.863144 
166224000    283.36529    310.85821    262.37396   -138380.79    138409.94    48.484247    36.858427 
166228000    267.91005    414.57135    190.70636   -138387.34    138414.95    223.86498    36.857882 
166232000    268.16963    401.41368    264.03948   -138408.63    138433.21     137.3742     36.85896 
166236000    294.20219    521.68433    235.30874   -138450.03    138466.15    286.37559    36.854781 
166240000    265.76138    375.47146    337.91851   -138463.09    138507.96    37.552949    36.855476 
166244000    295.75604    317.88463    298.26266   -138544.84    138553.44    19.621974    36.855759 
166248000    301.50417    447.70806     252.0258   -138569.73    138567.13    195.68226    36.861578 
166252000    252.92885    247.93188    180.30818   -138557.98    138600.91    67.623699    36.859319 
166256000    303.99581    326.50837    458.46083   -138586.48    138596.56   -131.95246    36.857526 
166260000    257.93451    335.72351    162.52264   -138597.35    138632.87    173.20087    36.858308 
166264000    277.02642    230.37316    188.37633   -138599.08    138633.97    41.996839    36.862383 
166268000    267.75929    402.96421    374.87787   -138611.12    138670.87     28.08634    36.863321 
166272000    265.84204    448.09807    88.135672   -138635.36    138660.26     359.9624    36.863496 
166276000    276.93705    489.39609    267.82587   -138659.93    138694.69    221.57023    36.859216 
166280000    299.53786    247.08147    554.55543   -138676.74     138709.8   -307.47396    36.859024 
166284000    288.13876    223.18583    340.41403   -138713.96    138740.14    -117.2282    36.857533 
166288000    323.67035    551.17284    269.81274   -138749.83    138745.47    281.36009    36.858242 
166292000    281.19551    200.54995    292.05556   -138774.69    138780.66    -91.50561    36.862966 
166296000    288.00701    269.41152    328.66424   -138797.13    138824.91   -59.252715    36.854745 
166300000    276.59498    272.92455    203.46651   -138831.26    138848.61    69.458032    36.852319 
166304000    257.41725    394.11871    237.82194   -138843.67    138875.77    156.29676    36.848737 
166308000    309.02421    308.70261    401.58542   -138868.31    138885.83   -92.882816    36.842864 
166312000     253.0708    301.23168    200.35582   -138898.64    138918.38    100.87586    36.843364 
166316000    273.48448    299.69325      135.619   -138895.35    138922.76    164.07425    36.842973 
166320000    298.25259    244.85008    229.14943   -138920.65     138937.5    15.700643    36.841961 
166324000    298.27684    411.80969    450.30169   -138946.53    138973.09   -38.491996    36.841995 
166328000    291.32233    363.91655     257.0286   -138964.56    138977.45    106.88795    36.839536 
166332000    275.05713    335.24338    307.46363   -138990.64    139011.64    27.779747    36.839863 
166336000    267.96471    366.76442    250.32953   -139000.64     139033.8    116.43488    36.838587 
166340000     287.3373     314.1148    445.23194   -139013.35    139024.72   -131.11713    36.837641 
166344000    279.11495     184.0385    315.29121   -139013.08    139034.53   -131.25271    36.838754 
166348000    291.34616    372.06814    496.32135   -139020.13    139057.62   -124.25322    36.835557 
166352000    299.81827    648.44693    379.19266   -139047.32     139080.2    269.25427    36.835881 
166356000    267.68629    248.88857    171.08209   -139061.92    139078.74    77.806477    36.837136 
166360000    326.15063    192.91832    268.69633   -139091.75    139101.37   -75.778005    36.836589 
166364000    259.27467    329.00598    284.32287   -139105.76     139148.4    44.683113     36.83439 
166368000    301.41683    323.51347    377.77601   -139124.21    139143.82   -54.262536    36.833059 
166372000    276.35665    430.92534    321.78289   -139129.11    139172.71    109.14246    36.838239 
166376000    284.50937    611.54466    353.26466   -139158.27    139200.25    258.28001    36.840723 
166380000    284.08141    538.71069    376.12805   -139184.32    139195.17    162.58264     36.84133 
166384000    247.68367    207.72925    218.81927   -139216.62    139256.62   -11.090017    36.843103 
166388000    244.24471      449.633    419.16489   -139251.62    139295.97    30.468107    36.840842 
166392000    297.15075    316.08154    261.57561   -139292.61    139289.23    54.505936    36.842403 
166396000    268.88447    506.68338    145.35194   -139317.86    139331.56    361.33144    36.846928 
166400000    282.35453    466.77315    241.24588   -139316.09     139342.6    225.52727     36.84185 
166404000    265.95863    382.89797    332.58071   -139338.57    139351.16    50.317256    36.841622 
166408000    306.59364     258.9802    256.97599    -139361.1    139362.94    2.0042043    36.846724 
166412000    322.11045    360.52444    277.39262      -139388    139379.09    83.131814    36.845332 
166416000    266.09942    357.55765    250.36104    -139398.6    139419.36    107.19661    36.849688 
166420000    252.94705    303.09099    270.01292   -139403.63     139448.8    33.078065    36.857157 
166424000    291.27198    443.38014    527.87832   -139448.94     139471.6   -84.498185    36.853435 
166428000    276.48516    299.53166    177.92281   -139478.79    139515.92    121.60884    36.854242 
166432000    284.79183    444.00327    295.30147   -139496.72    139524.99     148.7018    36.854559 
166436000    269.62009    456.48362    267.76114   -139511.93    139541.27    188.72248    36.848718 
166440000    276.10222     641.0423     143.2027   -139533.19    139563.09    497.83959     36.85025 
166444000    286.97877    324.65015    145.84273   -139559.68    139573.21    178.80742    36.850967 
166448000    291.78942    418.76647    400.25633   -139572.23     139580.3     18.51014    36.850824 
166452000    283.75074    350.61889     278.4686   -139597.28    139606.72    72.150284    36.848079 
166456000     307.5749    354.62398    298.94609   -139625.17    139628.38    55.677889    36.846783 
166460000    293.56981    317.98065    242.26052   -139616.42    139634.83    75.720124    36.848573 
166464000    270.95921     378.3069    313.37776   -139621.36    139654.24    64.929138    36.851085 
166468000    275.63718    324.77934    393.46625   -139661.71    139681.36   -68.686917     36.85003 
166472000     293.6168    544.51955    485.99597   -139680.29    139694.89    58.523586    36.850655 
166476000    296.97655    405.82288     383.0391   -139705.52    139714.75    22.783776     36.85276 
166480000     289.8437    323.56277    321.40942   -139738.93    139746.33    2.1533443    36.854202 
166484000    254.36697    300.69641    379.02307   -139763.83    139791.94   -78.326659    36.852064 
166488000     278.1256    371.76105    442.15199    -139771.1    139793.69   -70.390941    36.847911 
166492000     272.7247    298.21356    434.06361   -139760.14     139805.6   -135.85005    36.843333 
166496000    284.15556    295.24353    397.86997   -139792.12    139808.81   -102.62644    36.846174 
166500000    282.86612    439.69436    323.23658   -139844.54    139848.37    116.45778    36.844748 
166504000    277.36004    269.95024    343.17979   -139848.41    139883.15   -73.229555    36.848246 
166508000    280.84549    337.34727    240.91486   -139889.25    139890.18    96.432411    36.841312 
166512000    300.98681     305.5274     368.4676   -139908.03    139921.55   -62.940195    36.840681 
166516000    294.16852    376.21992     280.7196   -139908.13    139920.09    95.500322    36.844917 
166520000    283.12807    328.31893    326.78112   -139942.64     139963.9    1.5378122    36.846793 
166524000    291.38117    406.10038    251.94208   -139988.47    139995.43     154.1583    36.849136 
166528000    309.04968    321.66928    336.69681   -139993.03     140002.9   -15.027533    36.845014 
166532000     307.1771    317.78844    305.16964   -140021.47    140035.44    12.618798     36.84655 
166536000    296.97045    236.25443    274.44203   -140056.92    140056.07   -38.187602    36.843293 
166540000    272.64936    496.13239    322.63242   -140075.91    140109.02    173.49996    36.846161 
166544000    272.52629    286.41086    292.39069   -140107.36    140147.68    -5.979824    36.842065 
166548000    291.37895    294.98604     305.6423    -140110.6    140134.54   -10.656259     36.83939 
166552000    257.06014    427.52901    313.80874   -140124.13    140161.25    113.72026    36.838628 
166556000    263.80255    457.83853    217.75862   -140138.81     140172.9    240.07991    36.839709 
166560000    273.46915    296.18515    417.53933   -140153.99    140185.66   -121.35418    36.841063 
166564000    261.10179    479.73998     155.0752   -140192.07    140227.31    324.66478    36.844857 
166568000    304.98601    433.97984    267.46678    -140207.9     140230.9    166.51306    36.846006 
166572000    251.70282    350.07687    199.06731   -140253.46    140302.46    151.00956    36.846755 
166576000    260.25519    307.15656    231.09347    -140283.9    140317.84    76.063089    36.844721 
166580000    280.29001    179.53689    312.54286   -140312.56    140326.59   -133.00597    36.840804 
166584000    275.35364    405.42563    174.13477    -140319.6     140349.7    231.29085    36.841878 
166588000    274.28888    309.62187    428.46252   -140359.34    140392.92   -118.84065    36.840005 
166592000    276.55706    213.87497    192.59161   -140423.53    140447.95    21.283358    36.840446 
166596000    305.58921    464.14743    262.53925   -140449.72    140480.89    201.60818    36.838189 
166600000    260.48449    356.37014    266.69138   -140479.33    140522.03     89.67876    36.835623 
166604000    298.05012    494.39478     326.9161   -140525.64    140529.41    167.47868    36.838689 
166608000    246.86656    375.38411    304.40672    -140505.3     140550.3    70.977393     36.83508 
166612000    283.91851    249.69898      332.824   -140559.24    140567.41   -83.125016    36.834095 
166616000    278.13315    575.89905    273.72187    -140573.3    140596.51    302.17718    36.833754 
166620000    282.25766    274.97558    221.61894   -140584.71     140605.1    53.356638    36.831306 
166624000    312.41666    266.50123    246.44548   -140609.12    140610.59    20.055747    36.831953 
166628000    297.68383    331.49293    310.15503   -140633.27    140630.52    21.337901    36.837353 
166632000    287.86073    415.96376    363.09492   -140643.16    140656.76    52.868846    36.837596 
166636000     305.0158    297.37183    310.53863   -140667.04    140661.25   -13.166799    36.839147 
166640000    280.73432     409.1548    270.12995   -140671.01    140683.56    139.02485    36.841994 
166644000    300.20727    299.46123    264.35072   -140671.27    140697.88    35.110509    36.838847 
166648000    315.54593    735.83526    425.53872   -140675.49    140698.93    310.29654    36.839254 
166652000    296.15201    551.70448    456.49262   -140687.59    140702.58     95.21186    36.837609 
166656000    275.59686    324.88741    340.29115    -140695.7    140717.37   -15.403749    36.838654 
166660000    300.42199    489.91965    211.20943   -140693.14    140720.32    278.71022    36.844271 
166664000    289.74434    346.33573     267.8335   -140713.94    140719.25    78.502227    36.844218 
166668000    283.16401    341.36595    275.83289   -140738.02    140757.91    65.533066    36.841249 
166672000    272.19631    383.44078    297.95753   -140777.21    140795.96    85.483253    36.844353 
166676000    297.30193    384.36654    191.65896   -140803.03    140806.13    192.70758    36.847175 
166680000     279.5752    235.79482    254.24235   -140800.38    140821.18   -18.447533    36.844432 
166684000    303.57004     323.6926    641.10343   -140802.62    140814.41   -317.41083    36.845553 
166688000    291.55636     308.2519    241.36514   -140817.23    140848.61     66.88676    36.850727 
166692000    260.29769    373.61327    273.30129   -140843.05     140875.2    100.31198    36.850463 
166696000    305.88986    456.99231    465.55544   -140876.42    140891.75   -8.5631329    36.849526 
166700000     304.4802    347.00126    485.69083   -140887.47    140905.75   -138.68957    36.850433 
166704000    298.57709    507.30744    313.33593    -140909.1    140929.29     193.9715    36.849071 
166708000    274.96993    302.34443    262.32445   -140934.95    140964.32    40.019981    36.844643 
166712000    308.42199    410.42536    438.56446   -140952.31    140962.65   -28.139094     36.84354 
166716000    287.36498     353.2572    389.74368   -140973.17    140985.82   -36.486476    36.842762 
166720000    265.56113    87.739963    220.59626    -140965.5    141003.32    -132.8563    36.844758 
166724000    288.55519    250.89526    411.46285   -140995.08    141005.03    -160.5676    36.848016 
166728000      298.614    362.13143    287.49268   -141029.88     141041.4    74.638749     36.84915 
166732000    314.75123    419.55984    235.90054   -141060.44    141085.24     183.6593    36.851527 
166736000    271.08886    232.23812    323.60501   -141073.08    141110.49   -91.366887    36.846824 
166740000    279.18738    304.09503    300.53045   -141125.23    141130.31    3.5645751    36.852753 
166744000    303.36189     282.5465    384.66996   -141150.75     141151.9   -102.12346    36.856678 
166748000    320.59872    322.67199    325.83533   -141157.04    141153.61   -3.1633426    36.857065 
166752000    266.02418    236.26915    203.34416   -141148.05    141183.49    32.924985    36.859316 
166756000     274.6889    372.53956    281.93629   -141179.18    141207.82    90.603274    36.860111 
166760000    297.81495    608.87944    520.14983   -141208.42    141215.31    88.729613    36.855708 
166764000    270.65606    381.27576    158.99531   -141220.06    141249.01    222.28045    36.861097 
166768000    303.29359    296.98806     457.8821   -141229.39     141256.8   -160.89404    36.862656 
166772000    273.42757    405.88272    316.33157    -141241.6     141260.2     89.55115    36.860161 
166776000    262.96215    374.85252    368.64932   -141261.86    141295.13    6.2031946    36.865004 
166780000    280.79892    282.75701    381.72531   -141262.97    141301.11   -98.968298    36.860174 
166784000    300.07219    339.30993    208.72227   -141293.61    141303.47    130.58767    36.864199 
166788000     304.8001    441.52117    328.28853   -141302.09    141310.57    113.23264    36.861149 
166792000    300.18481    731.28286    348.43746   -141328.39    141335.98     382.8454    36.869699 
166796000    271.72572    403.51078    356.39916   -141319.06    141354.32    47.111616    36.873346 
166800000    275.84786    255.68624    315.54681   -141332.64     141348.9   -59.860563    36.873694 
166804000    277.92338    446.87123    367.91712   -141320.79    141354.15    78.954108    36.869385 
166808000    267.47395    390.40884    189.24928   -141352.57    141377.82    201.15956    36.871395 
166812000    244.41639    247.09965    245.07736   -141364.71     141399.6    2.0222945    36.871014 
166816000    291.43931    352.92919     342.7541   -141396.79    141416.36    10.175089    36.874654 
166820000    253.98255    333.17642    367.86033   -141373.61    141429.74   -34.683914    36.871279 
166824000    273.70831    689.16156    233.81707   -141425.88    141448.43    455.34449    36.874583 
166828000    268.00779     305.3531    405.66861   -141442.38    141455.63    -100.3155    36.870212 
166832000     295.4646    318.62363     316.1791   -141465.27    141481.48    2.4445312    36.868587 
166836000    264.30445    441.01952    300.01678   -141475.11    141510.13    141.00274     36.86854 
166840000    287.52807    638.58133    330.97104   -141502.97     141520.7    307.61029     36.86854 
166844000    234.53839    323.39306    334.97293    -141492.7    141545.13    -11.57987    36.871957 
166848000    262.92367    372.01936    200.31105      -141524    141561.26    171.70831    36.869925 
166852000    309.22472    415.84948    306.27746   -141558.59     141567.4    109.57202    36.872425 
166856000    268.91625     283.0434    321.01185   -141546.34    141577.31    -37.96845    36.877256 
166860000    270.10559     512.0138     397.5552   -141543.09    141570.17     114.4586    36.881581 
166864000    282.85272    363.13302    455.18839   -141566.23    141586.93   -92.055371    36.881576 
166868000    261.22125    390.00548    233.65748   -141576.29     141622.2      156.348    36.876921 
166872000    295.33463    542.29099    373.07631    -141623.4    141623.14    169.21469    36.877063 
166876000    305.90414    463.37653     276.1429   -141616.23    141624.97    187.23363    36.874882 
166880000    295.52817    497.73526    385.74853   -141638.88    141643.31    111.98673    36.872154 
166884000    282.58742    438.08337    344.66868    -141662.1    141678.69    93.414688    36.873523 
166888000    287.24864    219.59267    439.41369   -141690.39    141705.89   -219.82102    36.875783 
166892000    296.60053    452.55583    296.73521   -141711.36    141710.61    155.82062    36.873433 
166896000    313.36223    509.75986     242.3566   -141752.73       141742    267.40327    36.868125 
166900000    304.46189     302.4747    449.35175   -141788.84    141783.45   -146.87705    36.865615 
166904000    290.01813    452.07494    379.70793   -141781.41    141807.27    72.367012     36.86497 
166908000    268.00323    221.37949    316.58049   -141783.12    141812.03   -95.200992    36.870362 
166912000    296.10785    277.53328    435.78311   -141814.64    141838.43   -158.24984    36.874245 
166916000    269.49386    351.80324    386.81164   -141849.62    141877.06   -35.008394    36.875304 
166920000    285.14754    287.13156     231.7489   -141889.71    141895.16    55.382668     36.87529 
166924000    284.21484      260.218    249.37853    -141904.3    141923.68    10.839467     36.87441 
166928000    301.53453     263.2554    274.78091   -141922.61     141947.5   -11.525516    36.876577 
166932000    290.45761    342.35072    269.09646   -141939.61    141945.29    73.254268    36.876209 
166936000    288.74213    312.69624    256.80365   -141936.19    141954.07    55.892589    36.871651 
166940000    273.72224    249.76212    489.89888   -141956.71    141988.63   -240.13677    36.869954 
166944000    253.70934    318.70258    266.48923   -141976.42    142010.99    52.213348    36.874409 
166948000     269.9378    236.11615    279.42157   -142009.22    142056.59   -43.305415    36.870923 
166952000    260.69744    430.75018    225.41678    -142013.3     142064.4    205.33339    36.872753 
166956000    288.30122    282.18901    628.55431   -142024.52    142054.64    -346.3653    36.873584 
166960000    286.61713    276.80844    328.89625   -142030.25    142049.65   -52.087812    36.871496 
166964000    253.32442    335.45753    299.91032   -142053.32    142075.31    35.547209    36.870975 
166968000    263.58187    282.96061    301.88806    -142052.5    142096.32   -18.927456    36.863078 
166972000    275.80542    558.29416    232.10416   -142105.07    142137.55       326.19    36.864809 
166976000    284.11293    478.69268    457.52875   -142133.84     142162.5    21.163921     36.86254 
166980000    264.94244    262.27876    377.86101   -142143.57    142182.23   -115.58225    36.859923 
166984000    278.89842    479.12304    251.26167   -142180.55    142203.89    227.86137    36.857945 
166988000    287.27438    387.06095    306.53853   -142196.03    142225.49    80.522422    36.856557 
166992000    284.67258    312.19769    355.06233   -142210.92    142237.86   -42.864639    36.854869 
166996000    268.52996    409.91832    377.94076   -142230.51    142279.64     31.97756    36.854969 
167000000    282.81396    245.69217    278.54451   -142253.72    142277.71   -32.852343    36.858532 
167004000    277.56156    357.87075    283.32937   -142277.89    142306.29    74.541375    36.863406 
167008000    276.58286    338.34536    354.22471    -142296.6    142312.81   -15.879346    36.863604 
167012000     286.9883    459.27078    304.11193   -142329.95    142354.82    155.15885    36.866355 
167016000    305.94012    729.64899    437.12612   -142348.37    142372.16    292.52287    36.869405 
167020000    291.92063    322.37964    201.18239   -142383.97    142392.38    121.19726    36.867175 
167024000    297.72516    389.29916     281.9124   -142401.44     142409.3    107.38676     36.86615 
167028000    305.36117    375.32224    210.52017   -142423.53    142427.88    164.80207    36.860389 
167032000    299.09714    352.37132    220.20028   -142453.69    142471.66    132.17104    36.857512 
167036000    279.51996    173.35891    447.69335   -142490.61    142500.96   -274.33444    36.861178 
167040000    254.58785    355.60273    274.59298   -142497.72    142548.05    81.009743    36.860548 
167044000    264.21487    348.15811    359.96106    -142514.9     142551.3   -11.802955    36.857894 
167048000    273.20099    382.96739    213.30678   -142537.93    142565.79    169.66061    36.856455 
167052000    275.91827    250.65691    294.09163   -142546.76    142578.31   -43.434712    36.867596 
167056000     298.8942      280.369    391.39894   -142604.25    142614.46   -111.02994    36.861986 
167060000    289.61986    328.04946     423.4409   -142641.82    142650.79   -95.391443    36.861924 
167064000    291.33904     321.6009    255.50651   -142652.16    142663.01    66.094381    36.854474 
167068000    277.20495    273.83279    376.47348    -142675.5     142700.4   -102.64068    36.855597 
167072000     300.3442    420.50913    312.88169    -142703.5    142705.08    107.62744     36.85402 
167076000    279.36325    400.11909    338.59912   -142714.08     142730.9    61.519966    36.847648 
167080000    253.79827     485.9794    232.91466   -142725.85    142770.55    253.06474    36.847599 
167084000    267.67783    389.49375    586.09692    -142733.5    142772.01   -196.60317    36.841442 
167088000     286.6922    410.00834    427.98504   -142773.16    142797.55   -17.976696    36.844188 
167092000    295.69137    375.55955    371.24866    -142804.2    142819.13    4.3108885    36.840154 
167096000    259.71195    485.33366    265.56548   -142812.87    142847.76    219.76818     36.84406 
167100000    253.90537    342.59098     402.8765    -142835.3    142870.43   -60.285517    36.844178 
167104000    283.47615    494.58292    424.86387   -142840.74    142859.19    69.719049    36.847162 
167108000    283.24488    302.58056    317.82903   -142855.54    142889.41    -15.24847    36.847366 
167112000    307.77625    503.64859    437.34971   -142901.71     142899.2    66.298882    36.843939 
167116000     294.5734    342.77474    445.52168   -142896.64    142920.34   -102.74693    36.843597 
167120000    267.49607    340.12213    297.57216   -142911.29    142929.41    42.549963    36.842412 
167124000    307.01035    287.90033    308.46989   -142932.13    142939.49   -20.569562    36.845299 
167128000    288.90225    336.62642    302.29221   -142935.01    142957.54    34.334211    36.843798 
167132000    254.03703    258.38113    236.39578   -142937.96    142991.24    21.985348    36.843406 
167136000    251.85948    301.31114    206.29935   -142980.43    143023.79    95.011784    36.842795 
167140000    294.23249    421.89517    484.85118   -143026.96     143041.3   -62.956014    36.842856 
167144000    285.25789    269.96529    326.07285    -143036.7    143075.62   -56.107563    36.841271 
167148000    273.32272     273.2935    375.69354   -143067.96    143104.66   -102.40003    36.843048 
167152000    304.33895    296.75415    428.67344   -143088.21    143106.92   -131.91928    36.839362 
167156000    291.34272    528.82622    368.74218   -143129.09    143136.43    160.08404    36.841669 
167160000    261.44084    563.98694    403.46202   -143136.37     143184.8    160.52492    36.839509 
167164000    264.01776    453.56966    183.62467   -143180.62    143206.72    269.94499    36.842818 
167168000    292.49715    168.88704     344.1826   -143198.35    143208.61   -175.29556    36.838529 
167172000    308.38827     312.5783    263.87962   -143238.79    143246.02    48.698672    36.838614 
167176000    292.36248    358.81294    490.73329   -143248.54    143268.83   -131.92034    36.838863 
167180000    300.02477    291.37793    456.24499   -143246.56    143279.77   -164.86707    36.834658 
167184000    270.19951    303.10285    338.15678   -143268.82    143307.22   -35.053934    36.835864 
167188000    267.31212    225.46876    361.39351   -143264.89    143306.18   -135.92475    36.830417 
167192000    300.31788    296.11758    594.19556   -143304.58    143319.23   -298.07799    36.830509 
167196000    326.64567    555.46465    369.02013   -143320.47    143313.39    186.44452     36.83041 
167200000     273.6059    340.16616    436.90698   -143316.96    143334.79   -96.740813    36.831248 
167204000    288.52022    477.19927    370.95369   -143349.92    143366.88    106.24558    36.830677 
167208000    284.72819    390.06372    263.74181   -143361.58    143387.93    126.32192    36.836138 
167212000    288.16451    335.17624    267.01769   -143406.18    143426.93    68.158547    36.835915 
167216000    302.52651    417.45928    361.75557   -143427.04    143423.71    55.703718    36.832804 
167220000     293.3832    358.31419    188.48007   -143444.68     143471.4    169.83412    36.833136 
167224000    274.27628     267.4057    313.96727   -143456.29    143479.43   -46.561569    36.833183 
167228000    301.87305    385.42581    320.99306   -143460.93    143494.04     64.43275    36.829436 
167232000    294.50497    380.45457    194.11732    -143494.4    143501.77    186.33726    36.823291 
167236000    303.53983     307.0112    261.08602   -143528.52    143542.07    45.925182    36.818481 
167240000    282.93341    415.61112    426.47496   -143533.93     143544.6   -10.863835    36.820577 
167244000    282.45727    230.36818    331.73385   -143568.33    143581.97   -101.36566    36.824847 
167248000    269.28623    523.81612    220.61609    -143576.9    143601.74    303.20003    36.824623 
167252000    266.14483    278.00319    191.00381   -143595.26    143619.58    86.999375    36.822255 
167256000    270.24442    268.95367    227.38198   -143615.85    143643.89    41.571689     36.82243 
167260000    301.37815    278.05283    342.43543    -143653.9     143649.4   -64.382605     36.82379 
167264000    304.28696    332.23411    450.58145   -143678.18     143683.1   -118.34734    36.822104 
167268000    279.38428    179.19744    229.38109   -143709.32    143737.42   -50.183652    36.820479 
167272000    275.96889    296.15023     201.5015   -143733.46    143768.52    94.648729    36.818944 
167276000    303.95382    509.71981    294.81369   -143748.92    143761.97    214.90612    36.822449 
167280000    310.09907    287.03666    233.04328    -143774.4    143779.22    53.993377    36.824625 
167284000    283.49431    455.10279    326.42386   -143762.49    143800.09    128.67893    36.829479 
167288000    259.78356    265.17149    249.30044   -143800.79    143810.49    15.871045    36.834522 
167292000    265.84417    169.54393    322.13765   -143816.97    143845.93   -152.59372    36.833536 
167296000    277.46214    320.51051    382.99498   -143835.48    143863.81   -62.484464    36.837277 
167300000    302.73797     461.6496    494.74378   -143850.56    143868.14   -33.094188     36.83576 
167304000    312.70589    260.01241    405.86061   -143883.25    143880.26    -145.8482    36.836893 
167308000    305.91101    389.83737    367.98584    -143898.7    143898.23    21.851531    36.839244 
167312000    302.03778    394.25072    270.52296   -143927.72    143929.76    123.72776    36.844002 
167316000     291.6142    487.85238    215.84088   -143930.33    143947.58     272.0115    36.842964 
167320000    289.71796    406.47574    390.71454   -143960.77    143973.35    15.761203    36.842991 
167324000    281.83638    206.86927    290.34776   -143970.45    144001.38   -83.478491    36.841867 
167328000    272.85034    170.21048    385.57869   -143990.81    144019.83   -215.36821    36.848195 
167332000    277.37502    254.15452    170.63382   -143990.27    144016.66    83.520701    36.846571 
167336000    266.94938    268.66085    218.17165   -144013.68    144048.51      50.4892    36.846677 
167340000    285.57876    249.15009    356.91597    -144030.1    144059.34   -107.76588    36.846919 
167344000    251.45504    267.90461    222.63931   -144056.06    144100.08    45.265296    36.839489 
167348000    307.83071    488.57339    215.27533   -144102.84    144106.79    273.29806    36.843033 
167352000    303.57585    511.75206    389.92561   -144128.06    144144.01    121.82645    36.842758 
167356000    258.83415    372.17806    270.80397   -144115.87    144168.09    101.37409    36.842663 
167360000     287.0072    613.36195    340.74201   -144157.18     144173.7    272.61994    36.848384 
167364000    294.42911     249.7099     288.2861   -144181.61    144203.18   -38.576205    36.848645 
167368000    259.90261    313.17593    376.38278   -144203.94    144228.37   -63.206848    36.852551 
167372000    265.79003    532.61072    213.17182   -144213.01    144253.31     319.4389    36.854676 
167376000    309.22437    411.06629    265.26463   -144248.35    144247.04    145.80167    36.855088 
167380000    272.40058    223.72955    322.78251   -144235.38    144253.43   -99.052953    36.847441 
167384000    294.79206    532.09949    264.47054   -144242.84       144245    267.62895    36.849642 
167388000    259.35428    371.57462    164.75809   -144248.28    144270.91    206.81653    36.843987 
167392000      267.241    359.29869    323.45579   -144263.01     144288.5      35.8429    36.844878 
167396000    305.61026    373.21392    403.70773   -144302.05    144296.89   -30.493818    36.840623 
167400000    287.40599    276.74258     344.3196   -144328.48    144363.03   -67.577022    36.836772 
167404000     280.6135    561.95264    321.62442   -144358.57    144363.22    240.32822    36.840668 
167408000    260.55122    307.03556    182.00317   -144353.28    144399.63    125.03239    36.841329 
167412000     286.2949    429.77615    292.76657   -144364.77    144384.16    137.00958     36.83764 
167416000     257.7156    242.34705    314.69559   -144357.99    144392.86   -72.348538    36.835633 
167420000    284.27701    371.24367    238.70396   -144370.17    144398.71    132.53971     36.83325 
167424000    269.49229    370.73554    363.51278   -144384.65    144401.07    7.2227606    36.839131 
167428000    271.46117    271.40389    234.46613   -144389.52    144424.84    36.937761    36.839416 
167432000    301.01123    438.01382    360.04733    -144421.3    144438.69    77.966489     36.83986 
167436000    299.90624    248.88137    462.69922   -144434.65    144449.98   -213.81784     36.83419 
167440000    254.05994    326.05502    368.58049   -144435.34    144465.98   -42.525468    36.834748 
167444000    274.10061    298.98418    251.56694   -144448.58    144473.26     47.41724     36.83295 
167448000    288.23393    331.19222     203.7632   -144476.92    144485.55    127.42902    36.833744 
167452000     294.5682    498.87251     430.0291   -144488.37    144499.24    68.843404    36.839947 
167456000    282.84183    496.83749    302.67277   -144491.93    144506.78    194.16471    36.843661 
167460000    308.87154    385.08535    255.45687   -144520.02    144525.28    129.62848    36.839638 
167464000    304.82998     345.1809    282.31105   -144545.56    144535.29    62.869851    36.839662 
167468000    262.03707    296.87327    315.50097   -144548.76    144579.86     -18.6277    36.836674 
167472000    274.79339    441.77267    265.42221   -144561.65    144591.61    176.35046    36.834127 
167476000    284.64575    555.88785    439.73856   -144567.13    144596.18    116.14929    36.837853 
167480000     293.7231    392.94984    399.15327   -144604.28    144629.03   -6.2034262    36.839952 
167484000     285.1587    466.86313    214.54543   -144606.22    144650.35     252.3177    36.843714 
167488000    251.77579    410.03759    286.12144   -144637.19    144678.71    123.91615    36.842769 
167492000    265.94597      160.795    201.41685   -144667.79    144686.45   -40.621855    36.838392 
167496000    291.80769    261.99084     319.4053   -144686.74    144708.86    -57.41446    36.838206 
167500000    269.45884    226.55795    278.51729   -144734.85    144763.94   -51.959332     36.83538 
167504000    294.78936    299.28625    401.55764   -144735.81    144765.05   -102.27139    36.835821 
167508000    291.77848      443.076    458.85791   -144770.93    144780.11   -15.781911    36.834869 
167512000    292.95931    424.77641    332.15933   -144747.38    144781.07     92.61708    36.836138 
167516000    308.52727    436.20945    296.33964   -144809.11    144813.65    139.86981    36.835155 
167520000    254.77293    261.95902    395.93193   -144825.69    144863.72    -133.9729    36.839627 
167524000    269.88592    234.91269    427.56803   -144831.77    144853.08   -192.65533    36.839657 
167528000    259.98838    316.93894    401.30835   -144841.04    144874.26   -84.369407    36.841181 
167532000    272.04579    290.69653    501.67967   -144856.04    144889.44   -210.98314    36.840746 
167536000    291.97366    230.11906    400.12884   -144868.94    144885.43   -170.00978    36.838282 
167540000    292.41191     286.3645    336.47699   -144902.72    144919.47   -50.112486    36.836098 
167544000    271.18265     364.5613    229.77426    -144904.7    144906.24    134.78704    36.835336 
167548000    273.81384    258.94145     284.0455   -144910.97    144923.99    -25.10405    36.834218 
167552000    256.98005    435.75919    278.80285    -144909.7    144942.14    156.95633    36.831896 
167556000    305.58547    356.17706    355.59428   -144921.33    144935.84   0.58277749    36.835178 
167560000    271.77959    411.80338    470.45232   -144921.87    144958.25   -58.648941    36.837078 
167564000    279.05009    286.41129     327.5754   -144927.61    144947.92   -41.164108    36.836173 
167568000    253.29126    428.18815    333.85448   -144921.68    144967.15    94.333661    36.839052 
167572000    263.34445    383.47644     317.6761   -144927.11    144956.49    65.800341    36.843756 
167576000    265.79061    335.23685    288.53131   -144944.89    144978.45    46.705545    36.843365 
167580000    300.17877     286.9799    379.17526   -144966.86    144984.86   -92.195358    36.846966 
167584000    278.93187    664.64585    295.81869   -144985.91    145014.21    368.82716    36.852579 
167588000    277.58544    453.50797    270.13488   -145019.42    145061.71    183.37309    36.851519 
167592000    280.06253    402.70513    398.95829    -145035.7    145069.47    3.7468401    36.848913 
167596000     275.5579    480.39874    211.35836   -145067.09    145079.06    269.04038    36.847705 
167600000    273.95451    316.71499    537.20767   -145079.93    145103.13   -220.49268    36.847159 
167604000    303.64402    370.98519    217.60042   -145094.67    145115.78    153.38477    36.844575 
167608000    282.53875    430.21174    343.93913   -145110.93    145154.53    86.272608    36.847173 
167612000    278.94102    376.91662    427.67366   -145146.18    145164.21   -50.757035    36.849032 
167616000    306.36143    187.75885    380.93398   -145165.99     145169.3   -193.17514    36.841309 
167620000    311.07596    437.00753    226.29726   -145183.18    145189.05    210.71028    36.846491 
167624000    264.97511    556.34048    324.88486   -145186.55    145238.38    231.45563    36.845367 
167628000    301.45115    250.80262     489.7902   -145209.34    145220.76   -238.98758    36.844064 
167632000    286.18546    577.95545    307.50526   -145205.29       145215    270.45019    36.848492 
167636000    256.05881    232.67454    329.91445   -145199.07    145234.12   -97.239914    36.844057 
167640000    261.44244    400.49928    303.45661   -145215.89    145261.57    97.042673    36.843181 
167644000    281.29802    286.37667    215.75509   -145245.78    145277.38    70.621578    36.843368 
167648000    276.26766    269.94052    389.90292   -145256.86    145288.56    -119.9624    36.840287 
167652000    277.83158    396.54432    306.89018    -145270.5    145295.68    89.654136    36.838399 
167656000    286.17716    230.69225    473.41223   -145291.63    145311.94   -242.71998    36.842561 
167660000    283.14149    612.96327      226.774   -145323.02    145352.32    386.18927    36.842022 
167664000    269.07617    416.56432    278.86424   -145334.52    145369.87    137.70008    36.839891 
167668000    263.96979    264.93789    326.31509   -145327.19    145362.22   -61.377209    36.843295 
167672000    286.42981    142.91857    434.33038   -145357.39    145386.45   -291.41181    36.838675 
167676000    293.89489    335.06409    576.10459   -145361.09    145368.72    -241.0405    36.834118 
167680000    313.02037    721.55161    275.86827   -145366.65    145371.84    445.68335    36.841106 
167684000    280.44326    401.91196    303.80574   -145373.25       145404    98.106227    36.840349 
167688000    259.71011    454.67409    391.15284    -145389.2    145410.61    63.521248    36.840814 
167692000    238.21008     392.0104    184.53526   -145385.54    145441.23    207.47514    36.840675 
167696000    262.11878    330.02737    272.19332   -145405.16     145442.9    57.834054    36.842393 
167700000    288.15181    255.83561    226.57722   -145449.45    145472.81    29.258395    36.844351 
167704000    266.00712    552.04579    405.44054   -145453.83    145495.17    146.60525    36.844129 
167708000    293.51116    425.46277    391.91482   -145482.88    145498.59    33.547947    36.849973 
167712000    287.68016    374.02477    341.85851   -145499.97     145502.3    32.166262    36.849056 
167716000    281.06807    418.05844    326.82991   -145506.22    145530.13    91.228527    36.850833 
167720000    307.62942    508.05984    244.40914    -145540.9    145523.95     263.6507    36.853942 
167724000    263.99874    472.52963    455.35719   -145528.08    145568.16    17.172437    36.856658 
167728000    288.53161    492.63282    330.25514   -145553.23     145562.9    162.37768    36.855525 
167732000    295.25289    282.70562    288.13963    -145576.6    145587.77   -5.4340021     36.85381 
167736000    289.00162    458.43313    205.95266    -145592.7    145607.61    252.48047    36.853165 
167740000    299.69427    405.07962    226.20093   -145593.17    145612.66     178.8787    36.856277 
167744000    286.50372    375.03777     240.5248   -145594.65    145604.27    134.51297    36.857891 
167748000    262.33673     478.7838    240.42249   -145594.36    145629.28    238.36131    36.860099 
167752000    290.40992    563.18554    445.76069   -145604.35    145630.35    117.42485    36.857949 
167756000     270.1392    259.73889    338.80211   -145607.51    145644.74   -79.063224    36.856932 
167760000    264.94494      269.494    421.30703   -145622.46    145654.09   -151.81303    36.856119 
167764000     302.3579    451.32002    294.14001   -145648.95    145666.18    157.18001     36.85959 
167768000    285.67225    207.21269    195.30175    -145662.5    145687.07    11.910942    36.859897 
167772000    285.33743    298.60413    194.43017   -145662.57    145698.22    104.17397    36.860697 
167776000    296.15048    368.18577    223.70132   -145707.41     145707.3    144.48445     36.86667 
167780000    317.48471    694.23888    225.97005   -145743.41    145753.87    468.26884     36.86656 
167784000     252.6713    304.33551    258.56756   -145763.02    145792.47    45.767956    36.864107 
167788000    275.47733    192.21658    320.06477   -145771.08    145795.96   -127.84819        36.86 
167792000     261.6746    275.62633    462.90115   -145785.87    145831.29   -187.27482    36.857539 
167796000    297.77836    214.35105     267.4573   -145822.88    145834.77    -53.10625    36.854299 
167800000    281.77892    390.86201    298.86889   -145832.64    145863.16    91.993122    36.853667 
167804000    309.38342    341.23146    274.52962   -145843.54    145857.64    66.701839       36.854 
167808000    276.43032    325.53656    262.42452   -145866.22    145893.21    63.112043    36.851676 
167812000    291.57331    653.13302    482.58219   -145905.21    145903.37    170.55082     36.85507 
167816000    315.86865    563.23898    357.62538   -145905.11    145914.98    205.61359    36.857343 
167820000    263.07508    276.26262    246.32309      -145899    145937.13    29.939528    36.857839 
167824000    272.01796    271.76948     442.5151    -145908.3    145938.02   -170.74561    36.856193 
167828000    254.28384    192.17617    317.69775   -145902.87    145948.38   -125.52158    36.855048 
167832000    284.09534    373.81349    447.50178   -145940.97    145964.05   -73.688289     36.85593 
167836000    299.34689    511.04425    130.45981   -145986.23    146003.78    380.58444    36.861881 
167840000    265.16381    449.78919     301.3727   -145984.42    146008.68    148.41649    36.868178 
167844000    264.33256    304.08717    255.58282   -145975.75    146025.18    48.504345    36.876074 
167848000    277.87287    581.57899     212.6867   -146028.95    146063.93    368.89229    36.879456 
167852000    278.21827    308.11954     336.8874   -146048.75    146071.36   -28.767859    36.879537 
167856000    269.46418    453.47392     340.5983   -146061.69    146081.01    112.87562    36.883771 
167860000    240.84817    345.12756    351.75251   -146074.77    146105.19   -6.6249504    36.886045 
167864000    280.27905    353.94679    291.30137   -146100.61    146131.73    62.645417    36.886509 
167868000    286.92444    418.58784    293.91602   -146134.17    146144.71    124.67181    36.887492 
167872000    279.84724     483.8948    377.53591    -146136.8    146166.92    106.35889    36.891116 
167876000    257.88545    385.13253    421.99902   -146158.04     146185.3   -36.866488    36.893332 
167880000    270.75649    245.01993     147.7241   -146172.13    146220.11    97.295831    36.892932 
167884000    291.53604     294.8777    340.25424   -146208.21    146224.93   -45.376543    36.896462 
167888000    316.15398    499.28833    351.35989   -146226.31    146229.03    147.92844    36.902596 
167892000    278.19904    388.90526    342.21528   -146218.51    146241.69    46.689984    36.901071 
167896000    279.89039    585.53861    239.95734   -146245.74    146270.52    345.58126    36.903803 
167900000       296.98    263.45365    312.25335    -146262.6    146277.85   -48.799697     36.90318 
167904000    269.12067    244.81899    319.91324   -146278.23    146309.99   -75.094255    36.900926 
167908000    307.26649    331.79396    329.34871   -146317.76    146323.54    2.4452467    36.897243 
167912000    271.23348    320.27865    512.96005   -146315.29    146352.88    -192.6814    36.893608 
167916000      297.766    228.64893    280.32428   -146341.58    146359.09   -51.675348    36.894689 
167920000    280.05937    137.99257    496.58583   -146351.67    146380.88   -358.59326    36.894772 
167924000    279.59244    312.76566    153.25402   -146363.47    146401.25    159.51164     36.89243 
167928000    263.08123    411.95781     344.8092   -146388.42    146415.79     67.14861    36.890711 
167932000    293.68274     216.8298    223.86026   -146385.91    146411.77   -7.0304592    36.885212 
167936000    290.99706    427.65889    451.35323   -146431.32    146449.63    -23.69434    36.888339 
167940000     264.3477    320.26411    292.07335   -146433.47    146470.74    28.190764    36.887027 
167944000    269.81856     300.8108     300.9784   -146491.72    146498.03  -0.16760431    36.882082 
167948000    295.76327    374.80925    257.75348   -146526.01    146552.98    117.05576    36.881618 
167952000    281.55622    352.30114    312.61126   -146525.27    146563.91    39.689879    36.886425 
167956000    323.17641     264.9799    414.57252   -146558.96    146557.24   -149.59261    36.886359 
167960000    295.77385    298.09787    318.61758   -146563.33    146590.03   -20.519708    36.886014 
167964000    283.34814    640.90635    190.06405      -146576    146616.49    450.84229    36.887284 
167968000    306.86539    450.11696    174.99782   -146617.24     146627.3    275.11914    36.886359 
167972000    308.36165    420.48164    447.02782   -146613.76    146634.15    -26.54618    36.892803 
167976000    283.13841    325.25309    399.30417   -146621.29    146641.23   -74.051079       36.899 
167980000    255.87373    342.47509    207.30965   -146624.34    146657.62    135.16544    36.895979 
167984000    285.38663    404.82875    551.52387   -146623.54    146647.66   -146.69512    36.895968 
167988000       270.46    351.82083    350.66736   -146626.29    146664.52    1.1534712    36.893987 
167992000    296.00362    446.17243     300.9648   -146635.66    146671.68    145.20763    36.898492 
167996000    280.73956    308.30347     284.4764   -146658.13    146685.55    23.827066    36.895842 
168000000    302.20193     245.5056    274.92078   -146688.07     146698.1   -29.415174    36.896981 
168004000    267.15864    309.79564    367.82463   -146699.98    146721.88   -58.028989    36.898442 
168008000    267.38646    325.70006    242.50189   -146724.62    146750.29    83.198169    36.898446 
168012000    303.52974    275.31138    293.49788   -146789.84    146784.32   -18.186498    36.894889 
168016000    276.74852    191.10183    302.09318   -146796.14    146827.14   -110.99135    36.897555 
168020000    279.87238    418.66827    273.06665   -146794.08    146829.36    145.60162    36.893781 
168024000    266.35446    295.03714    316.37283   -146812.86    146848.04   -21.335692    36.891603 
168028000    272.69447    432.92145    221.67983   -146806.74    146842.77    211.24162    36.891961 
168032000    269.45675    363.48719    190.35636   -146805.56    146845.36    173.13083      36.8939 
168036000    286.97968    308.66126    163.66729    -146805.4    146842.99    144.99397      36.8961 
168040000    272.63773    302.38789    327.61488   -146811.09    146836.52   -25.226987    36.896393 
168044000    263.82261    254.22735    495.03434   -146801.88    146837.26   -240.80699    36.894424 
168048000    283.90051    275.71174    230.31983   -146842.41    146861.71    45.391908    36.893207 
168052000    281.38518     480.1101    267.75881   -146862.55    146880.25    212.35129    36.891017 
168056000    278.31847    354.41483    371.93459   -146890.86    146910.15   -17.519761    36.890822 
168060000    292.24667    298.17015    339.09045   -146917.92    146953.33   -40.920304    36.886395 
Loop time of 5353.81 on 1 procs for 32000000 steps with 196 atoms

Performance: 645.521 ns/day, 0.037 hours/ns, 5977.049 timesteps/s
99.9% CPU use with 1 MPI tasks x no OpenMP threads

MPI task timing breakdown:
Section |  min time  |  avg time  |  max time  |%varavg| %total
---------------------------------------------------------------
Pair    | 1584.5     | 1584.5     | 1584.5     |   0.0 | 29.59
Bond    | 2691.5     | 2691.5     | 2691.5     |   0.0 | 50.27
Neigh   | 46.606     | 46.606     | 46.606     |   0.0 |  0.87
Comm    | 9.3966     | 9.3966     | 9.3966     |   0.0 |  0.18
Output  | 3.9571     | 3.9571     | 3.9571     |   0.0 |  0.07
Modify  | 988.16     | 988.16     | 988.16     |   0.0 | 18.46
Other   |            | 29.73      |            |       |  0.56

Nlocal:    196 ave 196 max 196 min
Histogram: 1 0 0 0 0 0 0 0 0 0
Nghost:    0 ave 0 max 0 min
Histogram: 1 0 0 0 0 0 0 0 0 0
Neighs:    3850 ave 3850 max 3850 min
Histogram: 1 0 0 0 0 0 0 0 0 0

Total # of neighbors = 3850
Ave neighs/atom = 19.6429
Ave special neighs/atom = 5.87755
Neighbor list builds = 219151
Dangerous builds = 0

write_restart FINALCONFIG

Total wall time: 1:33:42
