LAMMPS (16 Mar 2018)
# 1. INITIALIZATION
#allows pair, bond, bending and dihedral interactions
atom_style molecular

  # periodic (video game) boundaries in all cartesian directions
boundary p p s

  # uses real units (instead of units based on pair potential parameters).  List of units used in manual
units real

###########
# 2. ATOM DEFINITION
##########

   ##
   # Read in data from starting configuration file
   ##

#read_data chainconfig.dat

 #use to restart
read_restart RESTART
  orthogonal box = (-400 -400 -0.0371672) to (400 400 123.895)
  1 by 1 by 1 MPI processor grid
  196 atoms
  194 bonds
  192 angles
  190 dihedrals
  2 = max # of 1-2 neighbors
  2 = max # of 1-3 neighbors
  4 = max # of 1-4 neighbors
  6 = max # of special neighbors

   ##
   # Specify the nature of the bond interactions
   ##


bond_style harmonic
bond_coeff 1 450 1.54

special_bonds lj 0.0 0.0 0.0 angle no dihedral no

angle_style harmonic
angle_coeff 1 62.1  114.00

dihedral_style opls
dihedral_coeff * 1.4110 -0.2708 3.143 0.0

mass * 14.0

pair_style lj/cut 14.0
pair_coeff 1 1 0.0912 3.95 14.0
#pair_modify tail yes

group twistables type 3
6 atoms in group twistables
group freeze type 2
6 atoms in group freeze
fix startend freeze setforce 0.0 0.0 0.0
fix startend0 twistables setforce 0.0 0.0 0.0

################
# 3.  Simulation Settings
###############

neighbor        2.0 bin
neigh_modify    every 1 delay 0 check yes



# Define some variables
variable Lx          equal xhi-xlo   # Ang
variable Ly          equal yhi-ylo   # Ang
variable Lz          equal zhi-zlo   # Ang

variable dz          equal ${Lz}/30  # Ang
variable dz          equal 123.931948666893/30  

variable zzlo        equal zlo+0.05  # Ang
variable zzhi        equal zhi  # Ang
variable vol         equal ${Lx}*${Ly}*${Lz}  # Ang^3
variable vol         equal 800*${Ly}*${Lz}  
variable vol         equal 800*800*${Lz}  
variable vol         equal 800*800*123.931948666893  
variable TEMP        equal 300.00 # K
variable TThi        equal 320.00 # K
variable TTlo        equal 280.00 # K
variable dt          equal 1.25 # fs

timestep     ${dt}
timestep     1.25

variable zlo1      equal ${zzlo}+2.7
variable zlo1      equal 0.0128327665533126+2.7
variable zlo2      equal ${zzlo}+8.4
variable zlo2      equal 0.0128327665533126+8.4
variable zhi1      equal ${zzlo}+115.5
variable zhi1      equal 0.0128327665533126+115.5
variable zhi2      equal ${zzlo}+121
variable zhi2      equal 0.0128327665533126+121

# heat layers

region          hot  block  INF INF INF INF ${zlo1} ${zlo2}
region          hot  block  INF INF INF INF 2.71283276655331 ${zlo2}
region          hot  block  INF INF INF INF 2.71283276655331 8.41283276655331
region          cold block INF INF INF INF ${zhi1} ${zhi2}
region          cold block INF INF INF INF 115.512832766553 ${zhi2}
region          cold block INF INF INF INF 115.512832766553 121.012832766553
compute         Thot all temp/region hot
compute         Tcold all temp/region cold


# 1st equilibration run
fix             1 all nvt temp ${TEMP} ${TEMP} 50
fix             1 all nvt temp 300 ${TEMP} 50
fix             1 all nvt temp 300 300 50
thermo          100
run             8000
Unused restart file peratom fix info:
  fix style: STORE, fix ID: layers_COMPUTE_STORE
Neighbor list info ...
  update every 1 steps, delay 0 steps, check yes
  max neighbors/atom: 2000, page size: 100000
  master list distance cutoff = 16
  ghost atom cutoff = 16
  binsize = 8, bins = 100 100 16
  1 neighbor lists, perpetual/occasional/extra = 1 0 0
  (1) pair lj/cut, perpetual
      attributes: half, newton on
      pair build: half/bin/newton
      stencil: half/bin/3d/newton
      bin: standard
Per MPI rank memory allocation (min/avg/max) = 9.689 | 9.689 | 9.689 Mbytes
Step Temp E_pair E_mol TotEng Press Volume 
134452000    256.51756    724.38483    3017.4907    3890.9784   -6.6466497     79316447 
134452100    297.96924    716.33668    3034.7348    3924.2684   -6.7790513     79316447 
134452200    296.06394    719.16782    3029.5742    3920.8316   -6.7805747     79316447 
134452300    295.74012    698.41898    3031.2364    3901.5567   -6.8716846     79316447 
134452400    297.34561    707.30004    3052.4233    3932.5579   -6.8092287     79316447 
134452500    277.40162    736.74185    3010.6263      3908.61   -6.5927071     79316447 
134452600    282.08285     711.2677      3009.71    3884.9406   -6.7661722     79316447 
134452700    309.83847    723.34178    3021.1491    3924.5869   -6.5407716     79316447 
134452800    289.56651    708.18468    3040.4884    3916.9859     -6.59834     79316447 
134452900    307.64815    693.68979    3030.9162    3903.4289    -6.566724     79316447 
134453000    307.32139    727.35096    3015.4855    3921.4694   -6.3444771     79316447 
134453100    260.20569    718.40673    3015.2521    3884.9055   -6.3991665     79316447 
134453200    298.14974    736.72067    3005.7406    3915.7632   -6.2426963     79316447 
134453300    319.06917    714.38949    3027.6869    3927.5378   -6.5033741     79316447 
134453400    271.77417    718.15484    3033.2723     3909.398   -6.4586792     79316447 
134453500    323.68618    724.29625     3026.641    3939.0824   -6.5911428     79316447 
134453600    300.37082    717.36102    3021.2069    3913.1609   -6.6739712     79316447 
134453700    282.01612    755.08094     2998.711    3917.7161   -6.5410376     79316447 
134453800    336.88162    745.79988    3014.2373    3955.8523   -6.6397749     79316447 
134453900    303.10696    715.17482    3022.8971    3914.2552   -6.6765068     79316447 
134454000    307.66558    683.37217    3077.4386    3939.6438   -6.9364004     79316447 
134454100    295.77378     682.0582     3046.646    3900.6251    -6.818575     79316447 
134454200    331.41424    712.59106    3021.4728     3926.701   -6.5581197     79316447 
134454300    289.62754    752.54218      2980.67    3901.5605   -6.2416537     79316447 
134454400    322.39543    766.21571    2970.2281    3923.8387   -6.1719282     79316447 
134454500    293.28413    762.71529    2984.9892    3918.1782    -6.260955     79316447 
134454600    294.88512    739.46603    2988.8315    3899.7019   -6.3459717     79316447 
134454700    279.26546    713.79465    3044.2358    3920.3557   -6.5501266     79316447 
134454800    302.27146    699.82872    3058.8799    3934.4063   -6.7107964     79316447 
134454900    282.01683    699.82797    3037.7193    3901.4718   -6.7503702     79316447 
134455000    296.68007    708.01363    3051.6938    3932.1551   -6.7121505     79316447 
134455100     304.0123    724.79032    3013.5051     3915.005   -6.5684267     79316447 
134455200    325.08949    730.75164    3015.7295     3935.442   -6.6144756     79316447 
134455300    292.40247    697.35395    3051.0317    3918.3469   -6.8540024     79316447 
134455400    283.88778    713.23851    3038.3764     3916.627   -6.7227896     79316447 
134455500    339.00089    747.41472    3000.4629    3944.9246   -6.5052518     79316447 
134455600    295.87017    771.78188    2972.7128    3916.4716   -6.2683295     79316447 
134455700    308.57481    739.45042    3011.1754    3929.9874   -6.3510164     79316447 
134455800    298.77773    727.35857     3017.361    3918.3865   -6.4444367     79316447 
134455900    296.48604    715.93536    3024.9322    3913.2024   -6.5299014     79316447 
134456000    315.52301    724.38768    3037.1387    3944.9267   -6.5024806     79316447 
134456100    306.62183    725.17898     3016.446    3919.8514   -6.4233963     79316447 
134456200    281.77449    711.89493    3029.9528    3905.6314   -6.5408799     79316447 
134456300    315.82301    717.49968    3033.6885    3934.7628   -6.5479514     79316447 
134456400    274.38951    722.34564    3036.7946    3918.6314    -6.669844     79316447 
134456500    326.58738    703.54872    3047.7156    3941.0958   -6.7159429     79316447 
134456600    293.17001    700.05876    3051.3367    3921.8029   -6.7306289     79316447 
134456700    286.96371    706.55678    3047.5127    3920.8695   -6.6731508     79316447 
134456800    333.47075    725.72403    3025.9558    3945.5123   -6.4700602     79316447 
134456900    293.66348      725.158    3019.4551    3915.3074   -6.4930684     79316447 
134457000    316.84666    714.41611    3027.9301    3926.5158   -6.5433098     79316447 
134457100     301.6159    708.22501    3060.8376    3944.3793   -6.6216864     79316447 
134457200    302.84146    715.82777    3020.2054    3912.0622   -6.5342656     79316447 
134457300    314.88274    741.99625    3026.3763    3951.4007   -6.4719879     79316447 
134457400    314.86373    735.02179    3002.8048    3920.8436   -6.5951925     79316447 
134457500    295.79009    727.65409    3012.6684    3912.2529   -6.6469749     79316447 
134457600    331.99037    709.27323    3043.4712    3945.7164   -6.7504544     79316447 
134457700    296.78578     717.6551    3019.7119    3909.8761   -6.6920287     79316447 
134457800    331.14394    733.54458    3007.8556    3933.8803   -6.6134302     79316447 
134457900    284.56527    736.10945    3007.7029    3909.2182   -6.5627749     79316447 
134458000     288.5329    739.08188    3017.9216    3924.7156   -6.5481383     79316447 
134458100    307.06169     765.4754     2996.743    3940.7005   -6.2629842     79316447 
134458200    292.90759    762.57679    2970.6851    3903.5167   -6.1699698     79316447 
134458300    306.47601    721.52306    3037.1729    3936.8376   -6.3956686     79316447 
134458400    284.73113    693.04874    3052.2311     3910.782   -6.5903421     79316447 
134458500    271.51871    686.11242    3070.5587    3914.4935   -6.6883546     79316447 
134458600    333.34862    686.37726    3052.5511    3932.6899   -6.7284728     79316447 
134458700    335.37093    742.32701    3004.3784    3941.6425   -6.4787571     79316447 
134458800    293.71331    742.88363    2998.2218    3911.8286   -6.3750819     79316447 
134458900    324.17595      737.716    3012.5267    3938.6725   -6.5210264     79316447 
134459000     280.3957    741.60997    3003.4285    3908.0207    -6.547965     79316447 
134459100    319.17901    712.59304     3019.504    3917.6224   -6.7122174     79316447 
134459200    307.30432    721.23113    3047.9972    3947.8514   -6.8145369     79316447 
134459300    294.65305    720.35613    3019.8623    3911.4879   -6.7817145     79316447 
134459400    309.79329    720.68782     3029.571    3930.3287   -6.7402784     79316447 
134459500    277.84664    710.02901    3035.4676    3906.9972   -6.6894688     79316447 
134459600    286.66356    681.83887    3070.6231    3919.0874   -6.7287736     79316447 
134459700    293.17797    698.60976    3061.6333    3930.6551   -6.6653164     79316447 
134459800    270.38641    720.94733    3040.3415    3918.4531   -6.3734594     79316447 
134459900    316.48703    723.30182    3038.2556     3945.518   -6.4808389     79316447 
134460000    292.73702    745.47233    2993.2935    3908.9215   -6.3148522     79316447 
Loop time of 1.09993 on 1 procs for 8000 steps with 196 atoms

Performance: 785.503 ns/day, 0.031 hours/ns, 7273.177 timesteps/s
99.9% CPU use with 1 MPI tasks x no OpenMP threads

MPI task timing breakdown:
Section |  min time  |  avg time  |  max time  |%varavg| %total
---------------------------------------------------------------
Pair    | 0.39932    | 0.39932    | 0.39932    |   0.0 | 36.30
Bond    | 0.64798    | 0.64798    | 0.64798    |   0.0 | 58.91
Neigh   | 0.0068474  | 0.0068474  | 0.0068474  |   0.0 |  0.62
Comm    | 0.0020788  | 0.0020788  | 0.0020788  |   0.0 |  0.19
Output  | 0.00050926 | 0.00050926 | 0.00050926 |   0.0 |  0.05
Modify  | 0.035994   | 0.035994   | 0.035994   |   0.0 |  3.27
Other   |            | 0.007202   |            |       |  0.65

Nlocal:    196 ave 196 max 196 min
Histogram: 1 0 0 0 0 0 0 0 0 0
Nghost:    0 ave 0 max 0 min
Histogram: 1 0 0 0 0 0 0 0 0 0
Neighs:    3869 ave 3869 max 3869 min
Histogram: 1 0 0 0 0 0 0 0 0 0

Total # of neighbors = 3869
Ave neighs/atom = 19.7398
Ave special neighs/atom = 5.87755
Neighbor list builds = 32
Dangerous builds = 0
velocity        all scale ${TEMP}
velocity        all scale 300
unfix           1

# Second Equilibration
fix             1 all nve
fix             hot all langevin ${TThi} ${TThi}  50.0 599804  tally yes
fix             hot all langevin 320 ${TThi}  50.0 599804  tally yes
fix             hot all langevin 320 320  50.0 599804  tally yes
fix             cold all langevin ${TTlo} ${TTlo} 50.0 27859 tally yes
fix             cold all langevin 280 ${TTlo} 50.0 27859 tally yes
fix             cold all langevin 280 280 50.0 27859 tally yes
fix_modify      hot temp Thot
fix_modify      cold temp Tcold


variable        tdiff equal c_Thot-c_Tcold
thermo_style    custom step c_Thot c_Tcold f_hot f_cold v_tdiff
thermo          4000
run             1600000
Per MPI rank memory allocation (min/avg/max) = 10.44 | 10.44 | 10.44 Mbytes
Step c_Thot c_Tcold f_hot f_cold v_tdiff 
134460000    352.54514    386.00621           -0           -0   -33.461064 
134464000    409.46063    351.25809   -1.8149933    25.050204    58.202542 
134468000    412.27623    277.14717   -45.015134    47.822699    135.12906 
134472000    346.31938     169.2777   -82.902648    85.496878    177.04168 
134476000    218.29461     299.6036   -88.959175    115.25346   -81.308996 
134480000    301.18522    478.76813   -135.29976    153.63554   -177.58291 
134484000    171.90898    340.69073   -166.25737    192.68941   -168.78175 
134488000    414.95446     220.7209   -182.00123    200.90475    194.23356 
134492000    446.93208    384.16512    -190.9792     207.3796    62.766961 
134496000     309.9341    170.44788   -222.48817    246.60459    139.48622 
134500000    436.54453    270.71934   -267.40376    289.45758    165.82518 
134504000     382.5913    267.64327   -295.58291    305.62054    114.94803 
134508000    279.94664    281.00128   -321.67339    326.63324   -1.0546432 
134512000    321.60693    296.07981   -326.90779    365.49318    25.527117 
134516000    561.35968    164.85717   -378.20328    383.48181    396.50251 
134520000    222.40174    374.20383    -395.1877     424.1458   -151.80209 
134524000     335.7249    388.53828   -391.86307    405.94003   -52.813383 
134528000    302.03978    154.15785   -429.16322    447.71607    147.88193 
134532000    267.39027    305.52081   -466.63261    469.80758    -38.13054 
134536000     185.7645    360.51699   -468.89182    478.61468   -174.75248 
134540000    499.86327    503.02003    -496.9828    491.09014   -3.1567589 
134544000    310.01406    276.37005   -525.24545    510.81582    33.644015 
134548000    390.99385    402.32771   -550.01983    538.84574   -11.333857 
134552000    287.46002    247.41944   -571.18768    580.70885    40.040586 
134556000    196.41947    597.81166   -574.10405    601.27719   -401.39219 
134560000     256.9467     253.1954    -581.4608    594.85496    3.7512957 
134564000    343.58036     410.1406   -584.53156    592.55185   -66.560241 
134568000    322.26743    193.55929   -625.97007    617.64613    128.70814 
134572000    306.34959    278.31804   -649.28128    656.35827    28.031553 
134576000    444.28184    262.55836   -655.83079    663.53096    181.72348 
134580000    497.52536    343.01168   -705.17448     684.4444    154.51368 
134584000    356.20503     374.0545    -732.7985    723.80357   -17.849473 
134588000    340.19036    305.46963   -757.53323    769.81191    34.720735 
134592000    301.66946    278.41189   -761.37998    783.07856    23.257569 
134596000    375.65571    232.05149    -801.8578     806.0865    143.60422 
134600000    180.39758    269.61342   -812.05032    827.88155   -89.215832 
134604000    415.46406    384.77795   -819.15104    858.63746    30.686114 
134608000    396.33167    548.16439   -867.13967     868.8191   -151.83272 
134612000    627.69379    423.47113   -890.10363    905.43197    204.22266 
134616000     209.0806      347.115    -905.9187    916.37323    -138.0344 
134620000    291.76176    366.10621    -936.8739    945.39383   -74.344444 
134624000    410.14252    363.22745   -971.37004    969.42243    46.915069 
134628000    336.07411    371.41991   -986.74691    1003.2114   -35.345798 
134632000    355.91855    299.04248   -1010.4305    1024.3351    56.876075 
134636000    311.53469    322.34878   -1038.7336    1018.1999   -10.814092 
134640000    333.87736    398.47423   -1062.7279    1051.3272    -64.59687 
134644000    415.25342    393.60074   -1081.1532    1100.8337     21.65268 
134648000    514.11425    385.27081   -1123.9113    1118.8364    128.84344 
134652000    286.87189    317.50314   -1155.5738    1171.2951   -30.631251 
134656000    492.88842    390.71589   -1171.0139    1193.8604    102.17253 
134660000    416.90532    329.75404   -1181.0106    1178.5711    87.151282 
134664000    401.37803    218.80732   -1224.1279    1232.2551    182.57071 
134668000      408.205    217.98239   -1252.4419    1271.9917    190.22261 
134672000    416.85166    207.75689   -1265.9251    1289.8183    209.09477 
134676000    274.90733    208.22623   -1280.6197     1291.965      66.6811 
134680000    415.69051    352.76284   -1307.8916    1310.2066    62.927675 
134684000    309.58648    163.84066   -1337.8363    1356.6623    145.74581 
134688000    402.32043    305.24361    -1350.501    1377.4386    97.076826 
134692000    310.99336    440.52615   -1362.1593     1385.819   -129.53278 
134696000    327.04611     485.2972   -1396.1427    1413.4503   -158.25109 
134700000    369.87566    264.75595   -1431.2694    1441.1367    105.11971 
134704000    245.54237    224.08516   -1440.7612    1433.3012    21.457206 
134708000    415.85379    424.50189   -1442.4828    1458.8562   -8.6481037 
134712000     434.5243    139.69383   -1452.1843    1481.2898    294.83047 
134716000    590.28666    287.61154   -1490.7797      1510.49    302.67512 
134720000    250.40718    321.98253   -1502.8446    1508.5162   -71.575348 
134724000    374.37058    393.85096    -1520.836    1545.1168   -19.480379 
134728000    436.74827    485.91346    -1532.552    1552.3083   -49.165189 
134732000    363.63056    337.40899   -1584.2913    1596.2281    26.221577 
134736000    248.02487    253.46553   -1641.5095    1646.8757   -5.4406576 
134740000    382.19992    374.13344   -1656.2374    1654.0631    8.0664731 
134744000    304.62478    377.24979   -1686.5277    1680.3377   -72.625011 
134748000    395.66144    350.32135   -1707.8953     1715.694    45.340094 
134752000    310.05727    478.99185    -1705.344    1698.8456   -168.93458 
134756000    436.56211     408.3275    -1734.213    1742.6585    28.234616 
134760000    494.95453     444.5013   -1747.4857    1767.8256    50.453231 
134764000    366.91602     447.2002   -1802.5581    1811.2375   -80.284175 
134768000    247.35313    210.13949   -1789.5018    1847.3273    37.213643 
134772000    393.97168    238.54019   -1814.7385    1843.3851    155.43149 
134776000    290.39559     256.8327   -1840.5224    1860.3416    33.562886 
134780000    219.13252    259.47002   -1886.7744     1878.254   -40.337501 
134784000    294.44448    284.78863   -1905.5831    1921.5035    9.6558533 
134788000    335.30291    371.99929   -1920.6253    1943.3455   -36.696381 
134792000    275.17338    325.68339   -1967.1287    1969.5213   -50.510016 
134796000    371.56206    260.59848   -1974.1473    1999.3009    110.96358 
134800000    513.59402    304.25715   -2007.9987    2024.4097    209.33686 
134804000    344.58687    227.17617    -2067.354    2067.0601     117.4107 
134808000    219.91417    245.22498   -2075.3981    2106.5426   -25.310807 
134812000     542.0655    349.90857   -2115.1713    2096.7001    192.15693 
134816000    367.86785    287.66292   -2142.9281    2145.6759    80.204937 
134820000    390.01103    222.48692   -2158.4833    2152.4258    167.52411 
134824000    299.66442    259.56611   -2174.2959    2196.4175     40.09831 
134828000    443.93127    361.84569   -2220.9227    2226.5711    82.085581 
134832000    196.02087    156.77813   -2243.6426    2257.3392    39.242739 
134836000    481.34368    476.56812   -2278.1774    2288.3656    4.7755544 
134840000    460.15475    300.86887   -2316.3972    2349.9449    159.28589 
134844000    258.42189    159.16496   -2347.7446    2350.4702    99.256934 
134848000    340.11596    367.71898   -2363.5364    2362.3961   -27.603016 
134852000    356.95605    255.76549   -2360.0792    2384.5246    101.19056 
134856000    475.81254     395.1635   -2368.6669    2380.6915    80.649041 
134860000    347.75072    155.53309   -2382.8423    2408.8088    192.21763 
134864000    580.99393    244.16647   -2401.4358    2425.6438    336.82746 
134868000    377.01901    196.78471   -2401.4383    2414.1494     180.2343 
134872000     432.0796    318.18753   -2434.0146    2448.8817    113.89208 
134876000    208.76435    381.62962   -2451.4576    2466.9443   -172.86527 
134880000    249.31238    319.01361   -2502.0145    2527.1556   -69.701231 
134884000    301.60476    427.99787   -2535.9108    2547.4675   -126.39311 
134888000    291.81617     306.7176   -2545.7285    2540.8818   -14.901431 
134892000    266.37783    314.10643   -2548.8351    2576.3552   -47.728605 
134896000    351.13184    220.72793   -2588.0246    2586.8364    130.40391 
134900000    293.75126    186.29193      -2598.2    2599.9685    107.45933 
134904000    478.81769    341.21423   -2623.1113    2623.2958    137.60346 
134908000     452.4308    430.29533   -2646.5712    2667.6225    22.135464 
134912000    240.88035    401.59425   -2667.7156    2675.8475   -160.71389 
134916000    300.88286    325.54399   -2674.2253    2718.6648   -24.661129 
134920000    234.23044    354.35143   -2695.4509     2723.988   -120.12099 
134924000    328.26745    333.27661   -2748.5469     2763.907   -5.0091665 
134928000    291.39499    314.08534    -2774.164    2777.7166   -22.690345 
134932000    356.56385    416.02263   -2774.6678    2796.7265    -59.45878 
134936000    227.59317    209.33062   -2792.4007    2806.8225    18.262552 
134940000    411.40186    219.15838   -2826.1817    2829.6758    192.24348 
134944000    426.28198    257.00986   -2845.4061    2872.7731    169.27211 
134948000    402.18212    183.38891   -2893.0361    2894.5341     218.7932 
134952000     325.7191    420.68732   -2902.0291    2924.2517   -94.968217 
134956000    196.50648    376.16317   -2932.4692    2930.6433   -179.65669 
134960000    318.20707    404.32873   -2931.7349    2965.5085   -86.121657 
134964000    407.68119    490.36682   -2949.2423     2973.335    -82.68563 
134968000    464.22559    382.43705   -2964.8318    3005.8385    81.788537 
134972000    424.49752     400.7121   -3010.0887     3035.146    23.785415 
134976000    418.68147    328.55033   -3043.4811    3067.6072     90.13114 
134980000    281.46199    233.89359   -3094.9089    3084.6613    47.568396 
134984000    374.72728    299.24362    -3127.945    3140.6194    75.483661 
134988000    443.12121    366.23844   -3167.6991     3191.979    76.882777 
134992000     431.0431    448.83777   -3181.8739    3193.9453   -17.794672 
134996000    482.93917    603.84395   -3218.0661    3213.1551   -120.90477 
135000000    307.97703    245.24474   -3274.1737     3286.423    62.732288 
135004000    445.34096    425.32045   -3302.5248    3305.6328    20.020505 
135008000    196.52157    248.21121   -3320.7942    3346.6637    -51.68964 
135012000     237.2609    361.11106   -3319.7142    3332.7535   -123.85016 
135016000    278.85652    311.98891   -3352.2615     3358.029   -33.132391 
135020000    203.16621    436.03136   -3366.8866    3364.6427   -232.86515 
135024000    408.98433    368.92191   -3422.1026     3414.843    40.062414 
135028000    359.28103     484.4481   -3433.3894    3429.1884   -125.16707 
135032000    194.75465    539.07205   -3450.9978    3456.6395    -344.3174 
135036000    293.78356    399.72973   -3463.3133    3475.9494   -105.94617 
135040000    401.68745    294.16989   -3494.1978    3489.9269    107.51756 
135044000    324.86397    257.11184   -3511.9715    3505.3086    67.752131 
135048000    376.51859    466.98392   -3528.0125    3526.8672   -90.465329 
135052000    377.62832     322.4502   -3540.1081    3540.5169    55.178121 
135056000    286.68168    280.18712     -3558.96    3580.4358    6.4945607 
135060000    483.22832    134.01075   -3571.8175    3588.6654    349.21758 
135064000    401.87922    338.38855   -3608.9789    3603.9881    63.490677 
135068000    499.00224    422.22097   -3632.6102     3630.288     76.78127 
135072000    217.13558      521.666   -3635.8676    3649.4248   -304.53042 
135076000    389.36551     450.3342   -3671.8041    3684.5151   -60.968699 
135080000    389.85705     241.5982   -3714.4714    3728.0621    148.25885 
135084000    257.39729    243.28805   -3708.3163    3741.3491    14.109242 
135088000    282.10552    376.01399   -3733.2948    3762.2184   -93.908465 
135092000    640.86996    154.35119   -3766.8438    3780.9777    486.51876 
135096000    390.24322    260.27537   -3790.6339    3827.3769    129.96785 
135100000    445.87145    481.05661   -3807.4108     3835.651    -35.18516 
135104000    146.96763    377.68471   -3860.3429    3870.9007   -230.71708 
135108000    497.08659    217.74769   -3866.3164    3884.0265    279.33889 
135112000    199.08236    395.23189    -3868.159    3889.0384   -196.14953 
135116000     394.1964    352.42854   -3897.3527    3914.5831    41.767861 
135120000    266.34122    374.73989   -3918.6117    3940.8851   -108.39867 
135124000     397.3571     481.0231    -3958.035    3965.0252   -83.665999 
135128000    232.20102    332.54289   -3977.4983    3982.7073   -100.34187 
135132000    312.53667    234.63279   -4013.2837    4013.4387    77.903875 
135136000     259.9288    246.51211   -4028.8835    4045.0672    13.416692 
135140000     195.5173    269.70637   -4054.7584    4066.5537   -74.189067 
135144000    322.17125    343.92422   -4064.0549    4073.8958   -21.752973 
135148000    321.99412    249.79062   -4096.7479    4092.5056    72.203502 
135152000    299.40794    466.27334   -4128.5022    4122.9557    -166.8654 
135156000    491.52751    543.02121   -4123.0354    4132.2931   -51.493705 
135160000    457.65582     278.2364   -4182.2577    4176.2524    179.41942 
135164000    421.98695    346.85461   -4212.7898    4186.7335    75.132333 
135168000    328.76603    338.07225    -4205.792    4230.8575   -9.3062192 
135172000     396.0058     367.8911   -4246.3101    4245.8516    28.114692 
135176000    226.01683    270.87614   -4223.2834    4264.8757   -44.859304 
135180000    559.12865    472.81016   -4254.8262     4272.787    86.318489 
135184000    357.75018    237.85383   -4293.5872    4323.8186    119.89635 
135188000    599.64788    400.75461    -4322.745    4346.5228    198.89327 
135192000    399.25951     449.6812   -4344.5288     4347.936   -50.421688 
135196000    323.40895    261.51568   -4362.2411     4377.248    61.893273 
135200000     490.2616     308.9074   -4378.8253    4394.5106     181.3542 
135204000    269.56953    223.50348   -4406.0807    4417.0719    46.066055 
135208000    453.65728    136.30678   -4438.8104    4443.3685     317.3505 
135212000    322.19513    391.75482   -4443.9395    4479.6803   -69.559687 
135216000    221.26461     268.5031   -4477.6678    4489.1754   -47.238496 
135220000    331.18381    236.03032   -4514.9118    4524.5918    95.153489 
135224000    232.11399    313.46305   -4532.9882    4538.6551   -81.349065 
135228000     475.8486    298.26203   -4560.4996    4556.3812    177.58657 
135232000    298.13226    339.01425    -4596.295    4596.6007   -40.881991 
135236000    307.88983    331.09395   -4622.5899    4640.1205   -23.204123 
135240000    213.41081    318.52208   -4631.3549    4658.6695   -105.11127 
135244000     404.3774    297.80783   -4656.8788    4683.1063    106.56957 
135248000    386.77565     231.2648   -4707.8478     4729.788    155.51085 
135252000    175.36934    305.06074   -4730.5811    4753.2403    -129.6914 
135256000    111.79494    418.13765   -4776.4382    4813.2309   -306.34271 
135260000    351.32076    532.66183   -4811.7938    4818.9886   -181.34107 
135264000    230.76454    244.69701   -4840.1261    4847.2138   -13.932472 
135268000    333.18245    290.50754   -4871.1498    4888.3287    42.674907 
135272000    330.58299    226.31693   -4894.9834     4907.986    104.26606 
135276000    422.27638    189.88979   -4930.0446    4943.3802    232.38659 
135280000    283.85434    119.30347   -4960.2481    4956.2271    164.55087 
135284000    431.15958    380.44587   -4966.6481    4995.4198    50.713708 
135288000    224.32318    352.66215   -4994.8737    4993.4812   -128.33897 
135292000    260.97015    288.11713   -5036.9373    5027.1982   -27.146981 
135296000    359.50552    319.57783    -5042.929    5054.1811     39.92769 
135300000    531.37011    148.59125   -5058.1749    5047.1616    382.77885 
135304000    292.08945    270.75605   -5031.6306    5065.9474      21.3334 
135308000    372.53447     378.5648   -5070.9416    5091.4649   -6.0303263 
135312000    188.46545    414.39334   -5046.5793    5085.4807   -225.92789 
135316000    429.43254    156.36938     -5064.88    5098.6432    273.06316 
135320000     428.1503    362.07786   -5088.4701    5104.4583    66.072439 
135324000     167.2689    257.51286   -5093.5785    5118.6158   -90.243959 
135328000    432.18012    493.15845   -5132.9912    5139.2409   -60.978324 
135332000     252.8658    333.48973   -5140.6968    5142.5466   -80.623928 
135336000     379.9945    273.77278   -5144.3515     5163.514    106.22171 
135340000    348.51603    352.46973    -5173.678    5181.5358   -3.9537077 
135344000    442.86409    483.48879   -5191.3537    5201.9407   -40.624695 
135348000    372.24504     486.6466   -5197.3405    5230.5733   -114.40156 
135352000    291.07418    267.45576   -5218.7951    5229.3803    23.618428 
135356000      428.951    241.78608   -5225.9528    5239.1899    187.16492 
135360000    394.54423    290.86017   -5235.1358    5243.8921    103.68406 
135364000    188.91489    359.45358   -5256.5049    5268.6667   -170.53868 
135368000    315.80486    364.22731   -5264.7061    5303.8824   -48.422454 
135372000    205.58173    263.24947   -5305.2952    5333.1418   -57.667738 
135376000    140.70849    323.12903    -5340.429    5367.5149   -182.42055 
135380000    311.53783    247.58566   -5369.6581    5380.3758    63.952167 
135384000    267.17944    199.66517   -5376.1581     5412.582    67.514272 
135388000    225.30809    474.26523   -5393.9362    5422.4398   -248.95713 
135392000    323.27423    292.26059   -5424.1966    5444.7847    31.013638 
135396000    468.81165     267.6741   -5473.5024    5483.7887    201.13755 
135400000    312.79555    385.79165   -5497.0504    5522.0331   -72.996096 
135404000     762.0908    320.83097    -5523.471    5540.7419    441.25983 
135408000    354.70124    450.94203   -5544.2388    5558.7711    -96.24079 
135412000     225.4439    489.84675   -5574.9927    5578.6078   -264.40284 
135416000    381.66069    345.29125   -5605.3831    5603.2766    36.369437 
135420000    300.17177    273.38847   -5642.8067    5640.4957    26.783298 
135424000    492.57228    311.01332   -5664.4885    5667.4548    181.55896 
135428000    444.77712    245.05748   -5690.8675    5681.7899    199.71965 
135432000     525.6868    287.40939   -5704.6455    5707.4591    238.27742 
135436000    217.59279    256.56442   -5704.8202    5707.8177   -38.971631 
135440000    274.63273     383.2708   -5729.3961     5748.346   -108.63807 
135444000     361.0023    403.39242   -5772.9298    5787.2243   -42.390115 
135448000    303.78497    310.66438   -5812.6233    5830.5617   -6.8794101 
135452000    319.70203      421.209   -5829.9161    5836.4176   -101.50697 
135456000    292.13568    226.03534   -5839.5692    5852.0234    66.100341 
135460000    346.89203     397.6265   -5866.5827    5878.3684   -50.734476 
135464000    223.69085    156.63392   -5885.3351     5899.634    67.056935 
135468000    373.99733    366.67898   -5889.3025    5901.5801    7.3183519 
135472000    491.74102    314.26018   -5912.7526     5929.405    177.48084 
135476000    399.14976    266.88043   -5927.9705    5955.2622    132.26933 
135480000    395.71421    423.37093    -5957.896    5967.4349   -27.656711 
135484000    312.06895    273.52601   -5988.7315    5981.8423    38.542942 
135488000    322.65528    327.32268   -6013.8757    5988.8863   -4.6673948 
135492000    353.78313    437.05406   -6024.6164    6033.4023   -83.270934 
135496000    438.26098    233.98806   -6051.9427    6058.9075    204.27292 
135500000    239.18865    320.35002   -6053.0432    6085.9652   -81.161366 
135504000    337.17427    299.67784   -6103.0568    6113.4952    37.496424 
135508000    333.11112    465.96827   -6160.1094    6160.1421   -132.85715 
135512000    202.84394    408.27446   -6167.5573    6186.7256   -205.43052 
135516000    162.48134    232.00141   -6178.2823    6198.0711   -69.520068 
135520000    446.85055    220.13172   -6210.5243    6211.4525    226.71882 
135524000    317.51488    194.69194   -6226.7825    6237.9642    122.82294 
135528000    411.25021    499.35456    -6238.387    6252.8785    -88.10435 
135532000    608.53016    345.42263   -6249.6517    6259.6339    263.10753 
135536000    276.73711    380.50798    -6270.549    6281.1268   -103.77088 
135540000    389.41617    252.09409   -6278.4236    6306.9872    137.32208 
135544000    369.66336    434.03136   -6317.5916    6295.4401   -64.368001 
135548000    333.91008    307.41443   -6354.8934    6375.3966    26.495649 
135552000    360.17459    560.66795   -6384.7577    6379.3125   -200.49336 
135556000    354.46377    637.74578   -6413.5874    6420.8124     -283.282 
135560000    348.81953    229.50724   -6414.8506    6450.6263    119.31229 
135564000     377.0812    476.64847   -6439.4343    6435.8594   -99.567266 
135568000    275.62353     242.6622   -6456.6558    6468.2822    32.961329 
135572000     297.3943    375.93323   -6455.1961    6470.0127   -78.538925 
135576000    389.01319    371.35585   -6496.3968    6507.4121    17.657335 
135580000    483.64694    293.67559   -6549.3271     6547.535    189.97135 
135584000    428.41706    253.66188   -6601.3136    6598.2291    174.75519 
135588000    277.38522    415.01424   -6598.2252    6611.3349   -137.62901 
135592000    397.79127    412.42742   -6609.2654    6621.9644   -14.636147 
135596000    494.69783    291.45519   -6618.3825    6657.4957    203.24263 
135600000    298.45659    401.40285   -6642.9009    6655.7396   -102.94626 
135604000    643.09705    358.51031    -6688.479    6685.9301    284.58673 
135608000    492.93377    372.19433   -6709.1648      6720.15    120.73944 
135612000    480.88366      251.354   -6725.9776    6747.7107    229.52966 
135616000    532.43708    549.81306   -6743.1492    6750.1602   -17.375989 
135620000    645.09665     328.7957   -6795.6394    6781.9256    316.30094 
135624000    436.52889    250.89384   -6811.1113    6814.4829    185.63505 
135628000    507.39159    444.77585    -6837.282    6854.6423    62.615739 
135632000    361.75074    495.22969   -6861.0776    6871.8573   -133.47895 
135636000    324.98472    489.00618   -6914.9564    6914.4418   -164.02146 
135640000    415.84136    321.98645   -6935.6117    6939.9629    93.854902 
135644000    287.20406    416.45515   -6966.4578    6974.3611   -129.25109 
135648000    435.83564     313.9673   -7005.8958    7009.1243    121.86834 
135652000    254.93148    299.59748   -7005.7185    7042.9817      -44.666 
135656000    233.96176    419.04652   -7037.6729    7059.1307   -185.08476 
135660000    328.56361    263.80247   -7062.9675    7092.9907    64.761143 
135664000    317.70291     445.6316   -7087.7856     7101.181   -127.92869 
135668000    303.28665    530.66399   -7091.9865    7110.3157   -227.37734 
135672000    385.00479    106.85499   -7120.1121    7138.0087     278.1498 
135676000    286.94791    185.52295   -7117.1424    7146.4272    101.42496 
135680000    432.20037    190.11543   -7152.2493    7156.7826    242.08494 
135684000    721.53364    219.09075   -7177.2214    7198.9092    502.44289 
135688000    462.54054    280.53488    -7183.929    7210.1002    182.00566 
135692000    517.63312    278.87988   -7215.0807    7233.7094    238.75324 
135696000    309.23153    310.83446   -7232.2037    7238.9295   -1.6029293 
135700000    468.40655    349.57367   -7234.6251    7253.5413    118.83288 
135704000    340.82372    264.25416   -7268.8504    7259.9166    76.569568 
135708000    483.18345    401.54379    -7295.886    7291.4277    81.639657 
135712000    427.32647    330.48966    -7305.883    7325.4955    96.836817 
135716000    213.67682    152.70421   -7336.6158    7356.6213    60.972615 
135720000    385.55065    434.11268   -7361.4565    7379.4875   -48.562027 
135724000    325.63031    302.29063   -7372.1609    7394.1668    23.339672 
135728000    299.32143    287.59525   -7409.3172    7423.2165    11.726179 
135732000    365.83809    179.40846   -7422.3074    7433.8826    186.42962 
135736000    281.44864    283.62326   -7454.3932    7468.8988   -2.1746207 
135740000    364.12612    196.71047   -7487.4197    7478.7387    167.41565 
135744000    485.23263    287.91632   -7471.6189    7484.9557    197.31631 
135748000    302.49082    206.38799   -7479.7984    7500.2435    96.102839 
135752000     373.0718    272.29731   -7494.0019    7520.3318    100.77449 
135756000    227.55212    230.82255   -7513.6075     7525.569   -3.2704257 
135760000    202.86148    299.13402   -7540.7263    7562.2076   -96.272542 
135764000    382.98663    316.36836   -7560.8855    7591.8406    66.618266 
135768000    353.81747    363.62246   -7577.3788     7597.181   -9.8049884 
135772000    353.04504    556.50346   -7593.6723    7616.7112   -203.45842 
135776000    430.92321    371.26102   -7608.9573    7637.6998    59.662185 
135780000    428.59827    279.96356    -7627.113    7658.1558    148.63472 
135784000    235.61851    290.22787   -7653.6893    7683.9252   -54.609366 
135788000     284.6125    200.15414   -7655.0197    7696.7571    84.458356 
135792000    530.69148    342.03253   -7690.6773    7700.7594    188.65895 
135796000    283.04118    277.71615   -7745.9988    7767.1925    5.3250325 
135800000    239.08851    483.37965   -7779.4471    7787.1796   -244.29114 
135804000    310.18071    308.87829   -7762.1806    7781.5601    1.3024245 
135808000    261.24061    385.01424   -7777.1159     7771.178   -123.77363 
135812000    190.23121    282.00049   -7804.8383    7797.7314   -91.769277 
135816000    428.98544     174.7484   -7804.2464    7808.3014    254.23704 
135820000    415.55041    245.12968   -7804.2148    7821.2891    170.42074 
135824000     301.8045    372.86594   -7824.3249    7858.6823   -71.061438 
135828000    324.87012     248.9284   -7873.7069     7883.865    75.941728 
135832000    424.92609     182.6951   -7891.6197    7907.7718    242.23099 
135836000    296.32712    270.24876   -7902.8942    7917.6575    26.078363 
135840000    368.02753     470.0665   -7908.1271    7937.6261   -102.03898 
135844000    315.31147    206.52215   -7931.6783    7943.2898    108.78932 
135848000    318.96799    261.16716   -7933.3525    7980.4308    57.800824 
135852000    354.13153     365.4614   -7971.6652     7963.787   -11.329871 
135856000    438.94932    404.76591   -8001.3986    8007.5384    34.183414 
135860000    400.99249    303.96729   -8017.1377    8038.4204      97.0252 
135864000    274.93564    426.85625   -8044.1798     8059.676   -151.92061 
135868000    329.65117    381.17619   -8095.0129    8119.4857   -51.525023 
135872000    477.38261    421.64074   -8105.1157    8112.1031    55.741873 
135876000    534.81843    422.33403   -8146.2688    8153.5405     112.4844 
135880000    510.62342    166.11642   -8168.4722    8185.7773    344.50701 
135884000    401.28746    352.06507   -8172.7745    8173.6308    49.222395 
135888000    229.42367    368.65939   -8189.8544     8214.264   -139.23572 
135892000    237.56018    336.12876   -8200.7039    8227.3507   -98.568573 
135896000    383.21924    454.13318    -8217.945    8247.2765   -70.913936 
135900000    585.76389    146.42577   -8250.6442    8259.6281    439.33812 
135904000    378.95296    253.24974   -8263.5557    8290.0618    125.70322 
135908000    380.03839    181.76413   -8272.7829    8279.2389    198.27426 
135912000     274.8126    305.89475    -8276.383    8278.4934   -31.082146 
135916000    422.71419    376.17801   -8310.7943    8318.2616    46.536178 
135920000    506.13095     345.9982   -8319.9689    8329.0012    160.13275 
135924000    447.93575    334.81223    -8315.581    8328.6705    113.12353 
135928000    550.18175    405.27298   -8328.9782     8325.863    144.90876 
135932000    307.18357     425.7308    -8325.927    8342.4731   -118.54724 
135936000    457.00259    241.86446   -8339.0522    8359.3359    215.13814 
135940000    514.61337    488.04765    -8368.354    8377.5727     26.56572 
135944000    410.64742    209.59308   -8387.7274    8392.7951    201.05433 
135948000    622.26068     286.7124   -8410.3493    8407.6542    335.54829 
135952000    381.33238    345.88053   -8435.3387     8434.121    35.451843 
135956000    370.58007     228.2763   -8453.8277    8460.5372    142.30377 
135960000    264.49114    180.64677    -8477.967    8500.9281    83.844373 
135964000    247.02574    298.58415   -8512.0704    8528.9364   -51.558414 
135968000    433.86611    338.27519   -8552.6852    8556.8983    95.590922 
135972000    267.33214    357.64805   -8567.0436    8585.3232   -90.315915 
135976000    455.42289    198.79634   -8584.2895    8604.5806    256.62655 
135980000    100.00079    227.37675   -8581.8863    8620.1163   -127.37596 
135984000    306.22958    213.73816    -8586.487    8604.1804    92.491419 
135988000     626.0654    457.48712   -8614.9983    8628.4101    168.57828 
135992000    606.32704    385.09201   -8615.7492    8634.1869    221.23502 
135996000     263.0409    403.51735   -8616.7723    8632.3361   -140.47645 
136000000    230.39205    496.94386   -8622.5377    8664.0952   -266.55181 
136004000    476.79707    201.98981   -8642.9448    8648.1847    274.80725 
136008000    446.12373    229.03559    -8678.634    8671.5348    217.08814 
136012000    203.64744    335.79646   -8676.8124    8684.0963   -132.14902 
136016000    468.60374    308.37229   -8719.4892    8731.3283    160.23145 
136020000    339.25153    369.53281   -8710.0414    8738.9474   -30.281274 
136024000    237.83869    300.86843   -8746.3476    8757.1049   -63.029744 
136028000    374.71331    414.14875    -8737.782    8760.8832   -39.435439 
136032000    471.67084    184.57611   -8759.3131    8786.0872    287.09473 
136036000    448.52385     247.9367   -8747.4788    8792.0453    200.58715 
136040000      327.134    275.38618   -8770.1085    8804.5554    51.747817 
136044000     410.1196    206.53378   -8803.9248    8817.6646    203.58582 
136048000    483.24724    220.24934   -8817.3402    8852.5177     262.9979 
136052000    246.49577    461.02243    -8819.171    8821.3048   -214.52666 
136056000    523.88309    336.41953   -8838.9121    8849.4675    187.46357 
136060000    238.16885    428.13429    -8832.009    8854.5048   -189.96544 
Loop time of 261.931 on 1 procs for 1600000 steps with 196 atoms

Performance: 659.717 ns/day, 0.036 hours/ns, 6108.487 timesteps/s
99.9% CPU use with 1 MPI tasks x no OpenMP threads

MPI task timing breakdown:
Section |  min time  |  avg time  |  max time  |%varavg| %total
---------------------------------------------------------------
Pair    | 79.568     | 79.568     | 79.568     |   0.0 | 30.38
Bond    | 129.41     | 129.41     | 129.41     |   0.0 | 49.41
Neigh   | 1.1867     | 1.1867     | 1.1867     |   0.0 |  0.45
Comm    | 0.46353    | 0.46353    | 0.46353    |   0.0 |  0.18
Output  | 0.0041544  | 0.0041544  | 0.0041544  |   0.0 |  0.00
Modify  | 49.816     | 49.816     | 49.816     |   0.0 | 19.02
Other   |            | 1.484      |            |       |  0.57

Nlocal:    196 ave 196 max 196 min
Histogram: 1 0 0 0 0 0 0 0 0 0
Nghost:    0 ave 0 max 0 min
Histogram: 1 0 0 0 0 0 0 0 0 0
Neighs:    3868 ave 3868 max 3868 min
Histogram: 1 0 0 0 0 0 0 0 0 0

Total # of neighbors = 3868
Ave neighs/atom = 19.7347
Ave special neighs/atom = 5.87755
Neighbor list builds = 5539
Dangerous builds = 0
unfix 1


# PRODUCTION

fix             1 all nve
fix             hot all langevin ${TThi} ${TThi}  50.0 52804  tally yes
fix             hot all langevin 320 ${TThi}  50.0 52804  tally yes
fix             hot all langevin 320 320  50.0 52804  tally yes
fix             cold all langevin ${TTlo} ${TTlo} 50.0 297859 tally yes
fix             cold all langevin 280 ${TTlo} 50.0 297859 tally yes
fix             cold all langevin 280 280 50.0 297859 tally yes
fix_modify      hot temp Thot
fix_modify      cold temp Tcold


variable        tdiff equal c_Thot-c_Tcold
thermo          4000

dump gigo all atom 40000 dump.cords_xyz.dat
dump_modify gigo scale no
dump vfgigo all custom 4000 dump.velo.dat id vx vy vz fx fy fz

# thermal conductivity calculation
# # reset langevin thermostats to zero energy accumulation
#
compute         ke all ke/atom
variable        temp atom c_ke/1.5/0.0019872

fix             ave all ave/time 100 40 4000 v_tdiff ave running
thermo_style    custom step temp c_Thot c_Tcold f_hot f_cold v_tdiff f_ave

#compute         layers all chunk/atom bin/1d z lower 0.05 units reduced
compute         layers all chunk/atom bin/1d z lower ${dz} units box
compute         layers all chunk/atom bin/1d z lower 4.1310649555631 units box
fix             2 all ave/chunk  100 40 4000 layers v_temp file profile.langevin

dump mydump2 all xyz 40000 prod-coord.xyz
dump_modify mydump2 element C S S

run             32000000
Per MPI rank memory allocation (min/avg/max) = 11.82 | 11.82 | 11.82 Mbytes
Step Temp c_Thot c_Tcold f_hot f_cold v_tdiff f_ave 
136060000    281.84478    238.16885    428.13429           -0           -0   -189.96544            0 
136064000     263.1227    439.33966    248.26167   -41.793685    34.225759    191.07799    -3.142626 
136068000    282.62805    385.70532    422.22899   -45.159162    46.214213   -36.523671     18.09747 
136072000    320.16836     560.0905    329.34692   -86.652757    61.427516    230.74358    13.434921 
136076000     293.7123    344.43661    407.92782   -84.681295    76.580423   -63.491204    17.034043 
136080000     281.5518    337.87998    364.05347   -110.52791    111.13175   -26.173484    17.845889 
136084000     279.2511    304.79226    328.10742   -135.11791    141.28293   -23.315162    22.679488 
136088000    262.46144    329.09447    224.12061   -159.58041     159.0868    104.97386    21.340784 
136092000    279.12226    200.48346     449.3551   -187.08395    176.85616   -248.87163    25.326349 
136096000    261.55574    229.62426    441.70665   -206.89602     204.5202   -212.08239    26.772501 
136100000    281.37677    395.13671    427.92751   -228.48786    233.19282   -32.790794    27.046407 
136104000    282.09254    457.65045    300.50785   -266.64059    265.43443    157.14259     28.77013 
136108000    288.35108    355.03467    408.00234   -289.68226    278.79514   -52.967666    27.975353 
136112000    282.80924    267.90552    334.38513   -300.35884    309.99622    -66.47961    27.458063 
136116000    288.17855    582.48767    260.37829   -338.24056    320.48458    322.10938    29.097679 
136120000    240.07205    241.75619    259.50062    -344.9123    381.52077   -17.744439    28.448665 
136124000    273.52174    227.71377    433.52825   -364.33636    393.13442   -205.81448    29.086915 
136128000    287.00025    320.62499    283.46885   -412.80022    389.70732    37.156135    29.290484 
136132000    311.79214    310.63212    289.20224   -420.08616    397.85117    21.429886    30.407097 
136136000    309.08116    218.43259    248.79459   -449.39597    425.65674   -30.362003     30.27306 
136140000    309.42463    256.69893    500.59721   -463.63817    442.31238   -243.89827    29.082076 
136144000    279.46322    366.21764    264.50614    -502.6232    488.38976     101.7115    28.237732 
136148000    278.29957    267.42478    340.60234   -506.60937    508.63801   -73.177564    28.514045 
136152000    319.13955    302.72641    365.78023   -529.40148    497.36313   -63.053815    27.876513 
136156000    280.97438    408.94816    266.44141   -521.37082    502.51279    142.50675    28.545435 
136160000    304.50856    460.59678    275.57843   -538.26723    516.04735    185.01835    29.200297 
136164000    292.15518    213.31506    512.18328    -534.5945    534.43426   -298.86823    28.964885 
136168000    291.45253    570.01995    282.30308   -569.30947    551.95393    287.71688    29.135102 
136172000    322.46579     373.6663    275.47422   -566.34831    540.17168    98.192081    29.647944 
136176000    269.98209    375.13589    324.03619   -561.08216    557.89354     51.09969    30.100349 
136180000    277.59537    186.90459    264.08982   -566.71985    585.15808   -77.185227    29.954296 
136184000    296.39218    388.58004    414.43978   -607.62622    592.52768   -25.859739    30.140905 
136188000     291.0274    435.97379    365.28538   -631.07945    627.39354     70.68841      31.7943 
136192000    265.05755    515.25455    354.01799   -680.48142     670.3822    161.23656    31.374748 
136196000    278.72963    224.60947    337.48689   -679.66474    690.72402   -112.87742    31.149674 
136200000    297.02367    561.41098    398.93061   -709.05375    704.26194    162.48037    32.276536 
136204000    267.25836    276.55892    222.89747   -724.97146    728.03325    53.661445    32.057037 
136208000    308.61575    222.06295    369.59362    -740.6464    725.95096   -147.53068    32.177587 
136212000    307.46603    174.50466      278.323    -773.8692    741.71545   -103.81834    32.824942 
136216000    243.30984    284.27299    225.21668   -778.39169    799.80513    59.056307    33.621874 
136220000    271.96331    330.07286    162.04528   -787.36056    805.80853    168.02758    32.882023 
136224000    290.05655     311.2471    369.91756   -835.00729    822.69561   -58.670464    32.464038 
136228000    277.14335    392.34456    255.39581   -873.08734     864.0896    136.94875    32.069294 
136232000    278.81969    354.43544    310.13395   -907.21137    881.78332    44.301488    32.367858 
136236000    278.70322    489.71301    271.31282   -917.98942     920.3842    218.40019    33.422498 
136240000    282.64877    273.36577    294.34319   -932.36803    944.86746   -20.977424     33.54403 
136244000    279.12794    397.17425    224.76089   -969.94699    967.11834    172.41336    33.577582 
136248000    293.27173    424.13286    427.29469   -1010.2754    976.14578   -3.1618302    33.695676 
136252000    284.58469     386.7884    143.22214   -1017.6448     1015.973    243.56625    33.542097 
136256000    338.68245    630.17817    395.61854   -1073.3271    1037.5813    234.55963    33.418952 
136260000     293.5929    564.84519    247.22438   -1090.2106    1065.6683     317.6208    33.045894 
136264000    284.59774    317.88772    336.29413   -1062.3192    1059.6019   -18.406408    33.000071 
136268000    274.52164     295.7424     353.9582   -1077.8237     1075.577   -58.215792    33.000465 
136272000    250.15106    317.15107     171.5454   -1082.4344    1102.1596    145.60567    33.769262 
136276000     278.0347    257.69136    371.86782   -1115.1779    1112.5815   -114.17646    33.699812 
136280000     302.4573    565.94154    250.94767   -1159.3609    1138.3051    314.99387    34.316384 
136284000    271.94535    361.36033    396.77262   -1175.1895    1164.6748   -35.412292    33.899037 
136288000    258.14814    241.81934    391.32049   -1176.6374      1180.08   -149.50115    33.711404 
136292000    287.45848    400.24264    446.71374   -1231.0087    1204.3675   -46.471101    33.357036 
136296000    290.30442    375.82091    450.00826   -1237.3028    1230.1834   -74.187351    33.361321 
136300000    326.57857    333.73032     354.7381   -1298.3168    1258.5907   -21.007776    33.450499 
136304000    313.73496    332.30358     430.2722    -1312.178     1291.893   -97.968618    33.200925 
136308000    278.45472    272.34933    340.86368   -1349.7353    1348.1512   -68.514348    33.082992 
136312000    277.18733    370.49403    518.15111   -1356.2214    1365.9815   -147.65708    32.448311 
136316000    289.28231    477.36877    419.90888   -1376.8166    1374.8207    57.459889    32.268522 
136320000    279.49919    467.75811    189.57388   -1392.3384    1400.2779    278.18423    32.777873 
136324000    263.71402     365.6733    384.57713   -1420.8827    1418.1193   -18.903826     32.61446 
136328000    270.59015    302.25501    240.46773   -1441.4955    1429.8958    61.787277    32.782011 
136332000    305.73509    480.38702    263.99889   -1457.5607     1436.832    216.38813    33.189106 
136336000    308.75183    405.16974    318.79511   -1499.0449     1472.079    86.374636    33.100626 
136340000    301.92497     439.4384    219.37052   -1511.9608    1500.6146    220.06788    32.729384 
136344000    272.20191    208.06549    346.71008   -1522.6777    1527.7193   -138.64458     32.71951 
136348000    264.71597    360.57072    217.60295   -1548.1959    1562.8904    142.96777     32.23651 
136352000    308.22273    546.37038    300.20919   -1580.0125    1557.3447    246.16118    32.744927 
136356000    285.82529    287.36542    343.17129   -1586.0488     1583.399   -55.805871    32.808294 
136360000    283.80911     345.0289     319.1693   -1608.5883    1603.1575    25.859597    32.764537 
136364000    274.46778    380.65728    387.65479   -1629.4071    1643.9519   -6.9975134    33.507975 
136368000    269.08634     509.3864    232.16917   -1641.9241    1646.7299    277.21722    33.591137 
136372000     259.5909    290.30006    280.97571    -1668.415    1678.8011    9.3243515    33.754159 
136376000    277.90888    297.91266    446.09982    -1691.246    1684.1629   -148.18716    33.329599 
136380000    270.73459    337.92766    365.82743   -1707.1811    1713.7605    -27.89977    33.575068 
136384000    273.32848    329.36492    307.60459   -1724.3977    1715.3946    21.760329    33.675462 
136388000    296.21929     241.4894    453.67614   -1753.6059    1744.2768   -212.18675    33.413491 
136392000    257.77107    310.35991    221.33182    -1773.571    1767.7349    89.028095     33.61267 
136396000    308.40592    402.19281     255.7183   -1797.9911    1772.2303     146.4745    33.666283 
136400000    284.19898    455.33918    212.64711   -1796.2548    1800.7119    242.69207    33.382081 
136404000    306.04676    368.41617    512.41737   -1832.3068    1813.5679    -144.0012    33.712942 
136408000    277.38411    213.97826    465.39357   -1867.1894    1859.3094   -251.41531    33.825021 
136412000     321.9081    429.85468    369.19122   -1910.6351     1873.088    60.663456    33.944218 
136416000    288.79455    389.07855    435.55137   -1921.0749    1904.8043   -46.472815    33.525409 
136420000    275.62262     374.0286     238.8786   -1947.1142    1957.3761       135.15    33.215538 
136424000    274.62349    257.26103    290.64716    -1977.223    1970.8295   -33.386133    33.289991 
136428000    281.05359    277.24238     235.8725   -1999.3697    1986.9555     41.36988    33.143459 
136432000    301.49848    327.93588    208.38244   -2044.2812    2033.1249    119.55344    33.712975 
136436000    270.00851    219.48687    201.99738   -2035.7155     2040.977    17.489486    33.741979 
136440000    298.37022    217.32728    179.76595   -2056.9108    2027.9573    37.561324    33.855249 
136444000    297.90733    372.18969    218.43853   -2074.7776    2039.5339    153.75116    33.892985 
136448000     320.0144    317.75179    317.99639   -2068.5382    2049.5937  -0.24460068    34.200678 
136452000     297.8015    293.58433    339.74834   -2082.0157    2074.4075   -46.164008    34.154465 
136456000    272.68676    320.05253    431.12569   -2098.7027    2105.4233   -111.07316    33.953888 
136460000    282.53816    448.20635    443.24792   -2138.4063    2139.8422    4.9584273    33.716827 
136464000    249.27115    289.98655     254.7453   -2184.5774    2204.0114    35.241244    33.917052 
136468000    300.01767    286.79371    257.73975   -2217.0649    2222.4863    29.053956     33.65156 
136472000    287.91948     506.3034    392.02016   -2231.4102     2214.402    114.28323    33.528339 
136476000    285.39505    405.33139    251.61918   -2241.6603    2237.1981    153.71222    33.431224 
136480000    298.86252    307.20398    344.82619   -2271.0457    2250.8919   -37.622204    33.630797 
136484000    292.81767    284.08386    268.20751    -2261.795    2257.9038    15.876349    33.740602 
136488000    262.64349    297.75438    348.97155   -2259.9405    2266.8243   -51.217168    33.833789 
136492000    292.33792    564.44484    252.22433   -2315.8114    2305.2899     312.2205    33.965292 
136496000    295.06331    276.99212    450.18446   -2323.6523    2320.0932   -173.19234    33.773121 
136500000    291.01479    326.28795    387.49236   -2356.4832    2334.4355   -61.204411    33.530131 
136504000    275.09351    166.31097    320.22415   -2367.1166    2368.2241   -153.91317    33.428248 
136508000    238.30506    324.07914    373.71404   -2379.6463    2412.0762   -49.634902    33.560085 
136512000    248.50226    351.07429    241.11478   -2396.4083    2410.3191    109.95951    33.564687 
136516000    249.67135     290.5184    206.87957   -2411.9504    2422.0203    83.638825    33.701931 
136520000    295.10764    316.16453    227.95673   -2442.0252    2413.6853    88.207806    33.598318 
136524000    307.21001     251.5073    325.17669     -2452.25    2426.2535   -73.669388    33.176162 
136528000    280.70697    321.47068    425.83432   -2448.1524    2454.0822   -104.36364    33.591499 
136532000    268.77531    238.97462    412.36617   -2453.1613    2453.5033   -173.39155    33.562629 
136536000    282.04486    522.98296    596.78229   -2486.3236    2481.0224   -73.799328    33.673791 
136540000    295.95597    475.18855    451.12679   -2511.6457    2496.0157    24.061768     33.71343 
136544000    288.75065    227.58572    380.15379   -2537.0038    2529.1932   -152.56806    33.421988 
136548000    257.50911    311.30663    255.87287   -2572.1211    2578.8222    55.433761     33.44938 
136552000    281.63696    369.78384    342.64461   -2579.2799    2589.7348    27.139228    33.362299 
136556000    289.60683    380.26689    198.58763   -2622.4694    2621.2292    181.67927    33.244856 
136560000    264.38329    459.04319    307.76482   -2628.8673    2629.2058    151.27837    33.559114 
136564000    290.34284    504.78682    341.11381   -2679.1574    2652.6648    163.67301    33.676799 
136568000    286.04999    434.56235    461.45957   -2682.9447    2678.2211   -26.897218    33.487777 
136572000    280.85308    294.93744    212.17933   -2695.5836    2707.2974     82.75811    33.213865 
136576000    302.55659    392.17419    262.15931   -2753.2513    2736.6215    130.01487    33.482878 
136580000     299.7672    335.99872    338.29391   -2762.8022     2753.363   -2.2951838    33.336521 
136584000    301.94085    434.01638    331.23157   -2773.2579    2769.2517    102.78481    33.261088 
136588000    281.45737    276.11423    227.29703   -2803.5997    2788.5314      48.8172    33.440153 
136592000    288.56232    287.44048    275.75347   -2821.3003    2824.0103    11.687007    33.145337 
136596000    258.90373     455.7109    122.86471   -2827.0458    2857.2278    332.84618    33.467451 
136600000     277.2795    300.79493    250.75841   -2846.5802    2859.1929    50.036527    33.479498 
136604000    322.10743    256.54482    462.50256   -2889.5897    2865.0323   -205.95774    33.627992 
136608000    279.09689    302.26641    375.98955    -2930.404    2920.7484   -73.723139    33.525962 
136612000    296.65586    270.05313    317.42254   -2953.2449    2955.1309    -47.36941    33.330654 
136616000    260.60435    300.49493    331.69858   -2962.2148    2971.3539    -31.20365    33.303536 
136620000    254.28786    358.03288    313.12267   -2982.9693    2981.4722    44.910206    33.299922 
136624000    266.09395    279.98105    346.32969   -2977.2558    2982.3731   -66.348642    33.234073 
136628000    275.75655    218.16117    313.45623   -3002.4661    2997.4636   -95.295061    33.571171 
136632000    289.51369    394.70337    348.92705   -3042.9741    3024.8619    45.776326    33.194458 
136636000    293.57842    373.95342     207.8826   -3058.5527    3040.0361    166.07082    33.255862 
136640000    292.50907    545.07918     264.4059   -3054.5892    3067.4094    280.67328     33.27984 
136644000    256.77188     517.9328    240.45951   -3086.8687    3089.8842     277.4733    33.290278 
136648000    259.75422    307.48458    223.58067   -3113.4187    3137.0454    83.903908    33.447034 
136652000      297.503    463.64961    402.21114   -3138.6452    3137.3175    61.438468    33.365924 
136656000     287.1345     425.7345    441.00266   -3164.4566    3142.5087   -15.268163    33.379909 
136660000    275.45493    321.41502    210.99564    -3201.054    3193.1745    110.41938    33.624314 
136664000    265.24695     287.5883    301.33472   -3217.4713    3218.8873   -13.746424    33.685845 
136668000    292.48532    280.14837    343.92072   -3266.6148    3253.4613   -63.772347     33.96936 
136672000    315.45523    323.16566    289.12721   -3281.5647     3268.435    34.038451    33.979479 
136676000    289.97388    300.02638    375.36096   -3304.9165    3305.7194   -75.334575    34.092233 
136680000    292.31384    187.29694    236.46813   -3325.1744    3319.7976   -49.171191    34.003513 
136684000    263.24585    530.19102    448.84006   -3322.3717    3331.6424    81.350963    34.026502 
136688000    259.00189    251.99378    246.53931    -3344.307    3340.9677    5.4544724     33.89764 
136692000    285.13566     458.3861    363.89169   -3375.2798    3363.5087    94.494408     33.83362 
136696000    261.01905    245.09971    302.07778   -3400.2637    3412.3056   -56.978071    33.915881 
136700000    260.10295      395.002     287.3216   -3448.0668    3458.6292     107.6804    33.951088 
136704000    277.31669    258.78944    231.40251   -3448.0869    3447.6481    27.386929     34.11451 
136708000    275.41906    493.20686    364.48569   -3462.7532     3458.879    128.72117    34.074278 
136712000    280.07466    228.23773    378.98811   -3489.7058    3474.1206   -150.75037     34.05497 
136716000    283.06263    361.94102    309.38031   -3486.3442    3492.2386    52.560715    33.918284 
136720000    286.76569    432.93816    509.83836   -3518.0237    3522.2377   -76.900202    33.934153 
136724000    289.97373    264.33441    240.65608   -3572.5302    3577.9616    23.678328    33.953795 
136728000    275.28986    357.74986    483.80689   -3580.8258    3582.5869   -126.05703    33.914604 
136732000    265.66912    254.20131    459.95763     -3618.28     3612.352   -205.75631    33.722115 
136736000    296.45799    387.37424    203.00531   -3628.2392    3616.3799    184.36893    33.638058 
136740000    290.10963    481.10097    437.30633   -3638.7185    3620.6131    43.794644    33.860546 
136744000     302.6346      527.506    284.94483   -3682.0794    3655.1263    242.56116    33.887178 
136748000    267.71073    199.33642    381.07145   -3704.3223    3692.8764   -181.73503    33.965852 
136752000    334.56918    562.49142    278.11741   -3751.7869     3695.589    284.37401    34.159679 
136756000    298.78846    343.11079    413.86314   -3737.0457    3716.7042   -70.752353    34.134771 
136760000    297.06332     456.7398    337.97846   -3757.6635    3757.7569    118.76135    34.134063 
136764000    306.17358    467.13322    319.95004   -3794.4566    3790.2126    147.18317    33.994004 
136768000    288.07149    300.38167    291.68628   -3836.1692    3836.3098    8.6953871    33.865101 
136772000    284.50382     209.1398    612.44384   -3855.6687     3854.986   -403.30405    33.802447 
136776000    305.45038    574.04902    394.06251   -3886.1926    3883.0006    179.98651    33.633236 
136780000    315.93251    351.14873    313.51298   -3916.3494     3893.368     37.63575    33.706131 
136784000     289.4337    362.82785    335.79796   -3913.2534    3904.8215     27.02989    33.876759 
136788000    285.13764    341.46226    466.09409   -3931.1617    3913.7883   -124.63184    33.807254 
136792000    289.20758    290.12272    433.53427   -3922.0824     3935.404   -143.41155    33.864232 
136796000    253.92242    216.48382    438.32753   -3962.2088    3973.7284   -221.84371    33.745553 
136800000    272.70186    438.21657    195.73239   -3989.5902    4002.0389    242.48417    33.821565 
136804000    289.63612    371.16537    506.30221   -3995.2657     3985.665   -135.13683     33.92182 
136808000    293.92383     374.7408    364.12193   -4017.9737    4013.7209    10.618873    33.823794 
136812000     297.6538    319.66279    351.94179    -4062.539    4036.5621   -32.279003    33.754297 
136816000    317.39186    386.66311    347.50673   -4088.2375    4058.1973    39.156376    33.822834 
136820000    273.91557    412.52617    397.31175   -4081.4102    4087.8391    15.214413    33.619138 
136824000    282.05449    206.85057    485.86682   -4106.0144    4111.5523   -279.01625    33.632116 
136828000    286.78425    192.56684     403.6086    -4154.852    4139.9765   -211.04176    33.455352 
136832000    302.84134    469.79279    418.56683   -4181.9096    4170.5966    51.225959    33.396304 
136836000    273.47009    198.28571    324.88619   -4189.6816    4212.2939   -126.60048    33.319451 
136840000    281.75732     482.0076     240.0608   -4232.2273    4233.6297     241.9468    33.264705 
136844000    260.78144    263.94245    301.87943   -4237.2844    4261.1952   -37.936977    33.124294 
136848000    302.99369    445.68896    409.60879   -4268.5594    4249.6884    36.080173    33.141062 
136852000    293.10527    375.41237    227.44231   -4283.2778    4273.6054    147.97006    33.188781 
136856000    285.94455    302.60994    287.18053   -4301.0089    4287.2875    15.429407    33.199562 
136860000    307.38619     403.4301    263.93179   -4314.0416    4297.1119    139.49831    33.079791 
136864000    297.83093    485.95547    391.11919   -4337.7164     4322.614    94.836284    33.143424 
136868000    264.77099    365.34261    315.07199   -4339.6482    4334.9628    50.270627    33.236176 
136872000    279.44079    322.18008    287.00029   -4351.8731    4336.6158    35.179792    33.118678 
136876000    306.64773    196.22582    264.42976   -4378.3482      4360.82   -68.203949    33.173816 
136880000    278.41091    276.72473    425.16078    -4420.028     4405.183   -148.43605    33.025985 
136884000    269.68813    415.28379     303.4726   -4433.3996    4434.5967    111.81119    33.060314 
136888000    293.53621     238.0711    244.08568   -4434.3056    4431.2673   -6.0145759    33.046004 
136892000    285.42232    463.21907    290.54587   -4479.0451     4481.836     172.6732    33.116955 
136896000    288.64865     403.4341    244.68937   -4497.6297    4504.7734    158.74473    33.198711 
136900000    265.38861    259.11625    167.95653   -4497.3382    4516.8063    91.159729    33.417896 
136904000    279.31109    370.22808    238.72666   -4533.6985     4556.689    131.50142    33.559807 
136908000    295.65425    380.77602    491.79823   -4560.6439    4541.5995   -111.02222       33.541 
136912000    284.06643    372.47896    377.47727   -4595.4924     4592.711    -4.998303    33.521685 
136916000    264.79326    323.82754    197.14294   -4589.9643    4621.4823    126.68459    33.627937 
136920000    277.82576    530.75147    376.71128   -4622.5941    4630.8974    154.04018    33.657562 
136924000    278.50816    447.40833    250.21379   -4662.4976    4657.4388    197.19454    33.693648 
136928000    256.69025    363.23149    235.46562   -4670.0804    4690.9264    127.76587    33.711334 
136932000    308.10123    433.83438    358.72271   -4717.8584    4696.9436    75.111666    33.812047 
136936000    314.21724    342.08766    557.74666   -4746.2374    4725.4169     -215.659    33.824721 
136940000     299.2571    440.09589    375.09145   -4758.4803    4767.6059    65.004438    33.915209 
136944000    305.95107    327.20328    227.24957   -4801.4628    4790.1192    99.953706    34.072247 
136948000    287.57324    600.58246    345.98886   -4850.9907    4844.7128    254.59361    33.985238 
136952000    299.63273    369.47237    373.96923   -4877.0802    4885.4488   -4.4968575     34.01191 
136956000    271.83956    307.88471    274.07876   -4906.6224    4898.9889    33.805948    34.072448 
136960000    263.73326    417.55427    339.87128   -4905.5877    4903.6656    77.682993    34.285606 
136964000    281.15402    377.99199    433.31864   -4930.9386    4935.8839   -55.326657    34.137855 
136968000    290.69775    346.29343    312.82193   -4968.5482    4962.4592    33.471499    34.182606 
136972000     279.1725    387.70134    298.61631   -4972.9398    4979.9076    89.085033    34.361078 
136976000      266.904     417.0641    372.86815   -4993.6343    5001.5667    44.195948    34.413716 
136980000    293.72709    291.61652    253.83631   -5023.7023    5024.6057    37.780206    34.376125 
136984000     292.0536    218.37521    300.45854   -5050.7017    5055.9952   -82.083328     34.37103 
136988000    262.10464    222.63314    363.05628   -5066.4739    5084.7096   -140.42315    34.245788 
136992000    280.72101    439.35665    396.96875   -5094.1926     5101.709    42.387902    34.145782 
136996000    268.43645    248.92713    198.77171   -5137.9254    5148.2068    50.155417    34.111332 
137000000    300.06142    432.17734    374.77833   -5179.1242    5160.6282    57.399005    34.008323 
137004000    270.57466    173.53773    261.83716   -5176.7675    5186.4872   -88.299431    33.881049 
137008000    286.81828    306.91956    202.05248   -5208.9736    5218.8625    104.86708    34.021907 
137012000    294.27385    272.48651    173.33025   -5262.5716    5247.5945    99.156257    33.918177 
137016000    268.19012    342.55122    292.15418     -5296.41    5294.0335    50.397037    33.953582 
137020000    259.43999     491.7859    294.51542   -5316.4642    5329.3731    197.27047    33.921763 
137024000    268.17487    441.02456    323.31961   -5348.5928    5350.5365    117.70495    34.097698 
137028000    268.48148     272.9318    303.62822   -5391.7785    5403.1343   -30.696421    34.008329 
137032000    286.37757    431.73685    204.70492   -5437.2208      5423.53    227.03193    33.955614 
137036000    282.47012    264.29308    365.61898   -5467.8043    5464.9348    -101.3259    33.882151 
137040000    252.30281    403.39409    264.67327   -5482.0925    5493.9602    138.72082    34.005503 
137044000    252.31441    247.21185    196.53072   -5517.4644    5536.5449    50.681129    34.006503 
137048000    243.89481    256.41493    275.52693   -5522.4874    5537.6207   -19.112004    34.059862 
137052000    265.50135    328.12147    348.95256   -5550.2441    5560.3567   -20.831099    33.999817 
137056000    268.19137    245.26321    229.24934   -5595.5349    5580.1405    16.013868    34.170087 
137060000     266.6632    257.30227    263.27309   -5613.7866       5623.9   -5.9708203    34.243652 
137064000    289.73445     458.0931    258.60707   -5613.3474    5630.3419    199.48603     34.12573 
137068000    272.60559    445.43746    402.08351   -5610.7889    5633.1837    43.353947      34.0627 
137072000    261.75328    249.86543    406.82388    -5637.005    5646.6177   -156.95845    33.994556 
137076000    283.22653    300.18675    246.77678   -5643.3493    5662.1674    53.409975      34.0138 
137080000    293.21528    227.44364    206.92678   -5690.3339    5677.1668    20.516858    33.995367 
137084000    265.04092      249.027      391.387   -5695.9463    5712.3267   -142.36001    33.992108 
137088000    302.60253    688.45454    435.91304    -5742.568    5722.5135     252.5415    34.318542 
137092000    295.30947    440.17506    279.74318   -5777.1021    5770.7815    160.43188    34.302158 
137096000    299.38656    241.40789    389.98141   -5790.7663    5795.3056   -148.57353    34.314074 
137100000    274.88957    399.96521    294.49622   -5824.4785    5818.5588    105.46898    34.412913 
137104000    264.69976    303.85033    337.63594   -5874.9962    5896.3043   -33.785614    34.371522 
137108000    261.65378    409.40142    304.99941    -5931.407    5938.5444    104.40201    34.343908 
137112000     271.6961    229.40761    276.54714   -5948.8561    5972.2784   -47.139523    34.218632 
137116000     281.1591    409.92317    245.86595   -5997.2736     6006.554    164.05723    34.288946 
137120000    283.34531    375.13692    310.29427   -6017.4183    6020.6327    64.842652     34.19945 
137124000    267.19382    314.29888     261.0936   -6041.7902    6032.4668    53.205284    34.121576 
137128000    262.67347    117.51708    385.07081   -6053.4263    6038.1138   -267.55373    33.967367 
137132000    291.84063    407.89406    385.12803   -6053.7913    6054.7124    22.766034    33.969184 
137136000    314.35626    412.95262    413.08307   -6079.6118    6067.7924  -0.13045477    33.955083 
137140000    307.63187    261.74788    294.22997   -6121.7485    6095.4172   -32.482095    33.986726 
137144000    275.79299    433.29051    426.64564    -6109.949    6127.0731    6.6448682    33.966493 
137148000    297.42068    402.91382    274.93476   -6153.3505     6163.985    127.97905     34.07289 
137152000    286.38601    242.47927    507.98197    -6180.208    6165.5646    -265.5027     34.02157 
137156000    283.82316    308.46399    300.68665   -6190.9898    6193.8191    7.7773386    34.191553 
137160000    290.77907    346.67607    248.77575   -6198.5713    6203.4894    97.900319    34.186683 
137164000    297.47939    234.07545    414.56846   -6235.1434    6222.7159   -180.49301    34.021735 
137168000    276.01863    364.96654    414.08669   -6264.9979    6254.1181   -49.120149    34.019226 
137172000    273.96194    352.54783    230.38834   -6289.7029    6289.8055    122.15949    34.047272 
137176000    287.44112    368.62677    289.76971   -6317.2889     6328.882    78.857059    34.290446 
137180000    286.85406    440.55065    311.75723   -6340.1853    6333.7156    128.79342    34.408521 
137184000    279.10504    318.29566     303.7069   -6338.7523    6336.8815    14.588769    34.452205 
137188000    274.50912    303.95608    369.02718    -6339.403    6351.1538   -65.071097    34.461992 
137192000    294.64813    222.26388    258.32214    -6353.257    6362.2133   -36.058255    34.508462 
137196000    255.30508     352.7039    284.06701   -6367.6309    6384.9275    68.636882    34.450852 
137200000    297.61089    308.39773      408.834   -6397.3681    6390.0218   -100.43627    34.335292 
137204000    304.53517    573.24308    212.47304   -6420.1677    6413.0911    360.77005    34.425129 
137208000    275.75316    275.90309     347.8799    -6447.867    6437.2394   -71.976812    34.407795 
137212000    257.93729     271.2916    279.85271   -6470.1636     6455.245   -8.5611014    34.429768 
137216000    279.83733    238.12544    178.66638   -6482.3096    6480.2025    59.459055    34.282521 
137220000    300.45311    497.18091    593.04449   -6493.0228     6492.131   -95.863578    34.425647 
137224000    286.88414     213.6559    241.41821    -6520.201    6499.9777   -27.762317    34.326644 
137228000    327.02016    350.65506    445.48649   -6547.5495     6514.016   -94.831426    34.262805 
137232000    295.97379     414.9387    380.50948   -6563.6017    6554.0387    34.429215     34.28704 
137236000    276.28377    196.10886    354.67505    -6554.675    6567.9239   -158.56619    34.309219 
137240000    246.88207    248.80421    351.78392   -6582.2431    6604.2215   -102.97971    34.285605 
137244000    290.18983    316.65404    424.97507   -6628.9261    6634.8953   -108.32103    34.422338 
137248000    293.44164    511.06964    273.67272   -6668.3121    6643.7407    237.39692    34.419847 
137252000    316.67286    343.82694    387.53493   -6697.3827    6665.2671   -43.707987    34.540106 
137256000    269.07729    389.52543    180.70728    -6692.155    6682.9527    208.81815    34.479787 
137260000    317.25614     504.1787    380.51193   -6718.0382    6700.2777    123.66677     34.53231 
137264000    312.67898    315.52929    157.81779   -6737.3017    6713.2466     157.7115    34.644297 
137268000    269.61721    284.93265    314.63937   -6745.4154    6756.8359   -29.706719    34.567187 
137272000    269.14574    320.48042    375.39991   -6745.1254    6764.3307   -54.919488    34.588176 
137276000    303.00131    394.68411    280.33358   -6789.7473    6783.9037    114.35054    34.549888 
137280000    292.73546    327.81727    331.86686   -6803.9462    6809.5719   -4.0495869    34.514431 
137284000    230.28258    268.62555    287.06806   -6826.5445    6841.5557   -18.442505    34.373325 
137288000    280.63651    377.07999    148.08245   -6849.8573    6858.8168    228.99755    34.414744 
137292000    306.76032    456.12159    235.64011   -6884.0467    6872.2442    220.48147    34.332887 
137296000    323.01607    441.87538    353.90273   -6915.0296    6890.5053    87.972652    34.277942 
137300000    279.49652    286.69475    224.55544     -6931.83    6937.4659    62.139315    34.232377 
137304000    297.30217    176.65217       533.01   -6978.8268     6977.318   -356.35783    34.241221 
137308000    269.32628    296.07256    277.55076    -7014.211    7018.8285    18.521804    34.194333 
137312000    284.75734    498.11463    307.11684   -7047.0134    7050.6896    190.99779    34.245549 
137316000    291.26738    289.07822    379.85004   -7068.5199     7068.173   -90.771825    34.262086 
137320000    297.90136    324.55455    515.17253    -7077.948    7063.4259   -190.61798    34.281894 
137324000    274.70369     225.4209    337.81318   -7101.9832    7104.5979   -112.39228    34.213983 
137328000    301.45359    268.80532    404.76806   -7145.7919    7126.8937   -135.96274    34.257364 
137332000    279.23269    458.60933    418.49977   -7139.0235    7148.8048     40.10956    34.128819 
137336000    287.03205    524.80872    712.68859   -7169.9462    7172.3992   -187.87987    34.076609 
137340000    272.77461     355.8429    506.56997   -7203.1934    7217.8837   -150.72706    34.101325 
137344000    280.88349    240.94627    325.15768    -7226.336    7244.9835   -84.211406    34.092281 
137348000    280.42799    454.15099    215.25421   -7272.0871    7272.0236    238.89678    34.148487 
137352000    243.65891    338.42491    312.89399   -7290.4535    7303.9717    25.530921    34.122418 
137356000    276.77603    376.75875    398.34408    -7323.604    7327.0725   -21.585323     34.07325 
137360000    311.95145    457.01428    332.24949   -7336.4409    7318.4284    124.76479     34.04449 
137364000    278.18682    234.97807     294.8137   -7343.5147    7354.9118   -59.835629    34.118182 
137368000    297.36256    575.09724     311.4418   -7399.8474    7386.4945    263.65544    34.141268 
137372000    276.16289    322.81417    237.58789   -7417.5631    7414.9362    85.226286    34.129844 
137376000    286.01941     492.1435    370.54104   -7465.6986    7448.2841    121.60245    34.070508 
137380000    264.99602    313.97706    126.12289    -7467.534    7473.1589    187.85417    33.969643 
137384000    291.07696    245.39365    505.82041   -7493.7073    7485.6336   -260.42676    33.996615 
137388000    277.31323    364.88742    353.24312   -7501.8907    7496.5371      11.6443    33.975215 
137392000    268.97899    260.70431    262.80466   -7501.7319    7515.6214   -2.1003535      33.9789 
137396000    268.51079    460.68806    207.64329   -7512.0219    7529.1238    253.04477    33.953289 
137400000    298.38199    356.57661    299.53166   -7551.4343    7547.8555    57.044951      34.0941 
137404000    276.88547    260.87506     356.6455   -7561.4925    7559.0952   -95.770435    34.111456 
137408000    292.02245    367.05573    273.31499   -7593.0112     7580.528    93.740745    34.146412 
137412000    252.46124    355.90012    314.96992   -7614.0084    7616.3036    40.930204    34.121788 
137416000    302.65512    458.76375    339.40069   -7629.7726    7618.4858    119.36306    34.066407 
137420000    279.51552    347.19519    334.59567   -7654.3288    7646.0599    12.599515    34.124166 
137424000    285.53477    333.55296    310.34384   -7715.2818    7711.8034    23.209117    34.131323 
137428000    263.32143    328.25484    267.40201   -7717.2031    7745.6311    60.852834    34.101865 
137432000    295.01296    303.59271    465.16007   -7765.0572    7752.1178   -161.56737    34.152637 
137436000    270.22757    359.87005    491.93697   -7779.1935    7784.2204   -132.06692    34.003027 
137440000    281.04262    441.71233    355.57863   -7793.3176    7791.4504    86.133703    34.037405 
137444000    280.15696    257.33265     451.0007   -7814.1684    7827.4605   -193.66805    34.069888 
137448000    268.15811     427.3227    280.27691   -7873.7084    7874.4391    147.04579    34.173463 
137452000    289.72519    479.65483    405.41099   -7890.4335    7868.8146    74.243836    34.302346 
137456000    292.39688    365.15436    404.07127   -7916.1621    7917.9785   -38.916915    34.296333 
137460000    301.88995    386.71389    326.82085    -7974.497    7968.4185    59.893034    34.361943 
137464000    287.91203    585.45854    214.63535   -8002.3023    7994.3105    370.82318    34.351936 
137468000    278.56953     571.8345    477.98851   -8033.0625    8039.1569    93.845985    34.349049 
137472000    268.64916    220.26704     240.5577   -8057.0204    8079.2259    -20.29066    34.278584 
137476000    308.79503    255.04395    368.76124   -8108.9306    8103.5746   -113.71728    34.276879 
137480000    243.90482    431.12837    203.22928    -8124.148    8141.2942    227.89909    34.236844 
137484000    262.83608    330.45955    371.50342   -8183.3064    8186.8831   -41.043873    34.243334 
137488000    309.32016    440.46891    363.35177   -8195.7763    8183.8987    77.117141    34.261872 
137492000    280.36236    342.68247    229.06215   -8192.3471    8198.3373    113.62032    34.253725 
137496000    278.63466    380.66392    398.08485   -8209.3815      8226.24   -17.420936    34.193874 
137500000     258.1207    392.64345    302.15787   -8252.7087     8264.642    90.485583    34.254605 
137504000    276.43762    245.39206    290.16617    -8264.656    8277.4136   -44.774108    34.237001 
137508000    263.14066    331.33416    312.70619   -8265.3455    8284.5511    18.627961    34.337119 
137512000     243.5326    345.29777    231.80916   -8266.8191     8303.102    113.48862    34.219797 
137516000    286.89038    349.79866    432.22159   -8334.0757    8321.9775    -82.42293    34.210875 
137520000    289.68999    373.44874    385.79419   -8370.2913    8370.7075   -12.345457    34.248251 
137524000    276.45679    464.36417    326.89028   -8405.6389    8418.7294    137.47389    34.310406 
137528000    303.19064    586.04062    290.03412   -8440.7895    8430.4815     296.0065    34.281447 
137532000    273.02802    226.14552     352.1409   -8453.2885    8467.3925   -125.99538      34.2384 
137536000    296.57752    274.28832    410.02427   -8474.7198    8474.3393   -135.73594    34.269242 
137540000    264.99134    373.03928    320.80775    -8490.251    8502.6347     52.23153    34.235608 
137544000    309.75398    541.71126     485.9154   -8517.5326    8511.9486    55.795855    34.240324 
137548000    297.97398    395.80307    327.77132   -8562.9842    8551.4073    68.031742    34.313351 
137552000    276.21433    349.88098    275.86439   -8567.1544    8577.0178    74.016596    34.451977 
137556000    318.45583    346.68159    357.91712   -8624.7969     8598.551   -11.235528    34.458029 
137560000    294.48512    341.06632    319.56586   -8665.8772    8647.0141    21.500453    34.382138 
137564000    293.49823    377.67439    186.59101   -8696.8879    8679.9082    191.08338    34.409631 
137568000    296.03028    579.75171    254.89282    -8731.264    8717.0346    324.85889    34.415119 
137572000    275.80945    417.34856    411.44874   -8770.8144    8761.2091    5.8998256    34.429425 
137576000    272.45462    215.64783    295.65809   -8786.2898    8785.5108   -80.010263    34.383086 
137580000    296.76573     390.6099     320.3229   -8823.2851    8813.4781    70.286999    34.466528 
137584000    259.45276    349.14208    116.70521   -8848.5151    8865.2813    232.43687    34.507558 
137588000    277.55505    408.69666    287.21856   -8888.8578    8888.7626    121.47809    34.462701 
137592000    262.54222    494.13628    392.27451   -8919.3667    8924.8202    101.86177    34.408999 
137596000    312.06033     655.2178    286.43201   -8973.6994    8930.4958    368.78579    34.464855 
137600000    278.88395    345.09922    247.61402   -8988.7339    9001.6894    97.485202    34.516812 
137604000    275.71598    538.85595    318.71385   -9007.0059    9001.1739     220.1421    34.637328 
137608000    238.99206     282.4423    254.30438   -9038.3028    9060.9157    28.137927    34.744977 
137612000    293.46003    599.74264    379.83208    -9078.587    9096.9777    219.91057    34.777623 
137616000     288.8859    351.46845    386.70018    -9098.357    9100.5691   -35.231727    34.736361 
137620000    279.98258    520.78957    355.76087   -9126.4543    9137.3264    165.02869    34.625458 
137624000    299.29793     578.7368    197.48375   -9162.3849    9144.9813    381.25305    34.610633 
137628000     301.3895    420.56412    329.91205   -9192.2686    9172.8966    90.652069    34.467908 
137632000    268.34119    328.58516     212.8587   -9200.0047     9222.707    115.72645    34.506234 
137636000    265.29606    271.00984    351.26465   -9215.9108    9237.8502   -80.254803    34.402314 
137640000    254.17052    474.17093    270.54946   -9233.8973    9253.6524    203.62147    34.359328 
137644000    270.15205    462.84274    356.95567   -9248.3593    9269.6562    105.88707    34.282564 
137648000    269.94156    368.48558    224.15132   -9272.5157    9272.9381    144.33426    34.338508 
137652000    253.97228    440.90726    333.47213   -9295.4432    9308.6058    107.43513    34.303136 
137656000    284.35807    468.10555    256.39037   -9338.4828    9336.6111    211.71518    34.413518 
137660000    287.61046    238.40246    333.78704   -9368.3675    9357.6332   -95.384582    34.464137 
137664000    294.07876    515.65609    292.52963   -9394.5391    9389.8878    223.12645    34.479403 
137668000    314.82215    396.44486    402.72084   -9401.9597     9396.031   -6.2759798    34.422298 
137672000    291.25953    563.37864    437.03295   -9439.3474     9434.772    126.34569    34.407857 
137676000     298.1371    249.37655    509.21763   -9439.9398    9435.2288   -259.84108    34.353322 
137680000    276.26948    388.21224     347.3442    -9435.641    9443.4416    40.868045    34.265781 
137684000    301.68197    186.67162    316.40231   -9464.9544    9450.4472   -129.73069    34.282838 
137688000    295.24556    314.41264     367.5077   -9473.3898    9460.8974   -53.095059    34.266395 
137692000    314.31783     394.7528    246.93892     -9517.26    9499.8246    147.81389    34.233611 
137696000    283.34084     182.8857    510.13525   -9551.4935    9541.9038   -327.24955    34.176022 
137700000    318.79511     486.4324    255.22511     -9572.27    9583.3238    231.20729    34.154163 
137704000    270.37609     384.7428    294.30433   -9580.2244    9584.8624    90.438466    34.136232 
137708000     264.6338    226.68088    416.86707   -9605.6571    9601.9796   -190.18619    34.152504 
137712000    260.79586      358.324    428.46532   -9613.8493    9619.8829   -70.141315    34.201969 
137716000    281.85972    196.17601    315.82331   -9636.7948     9627.499    -119.6473    34.168156 
137720000    296.91887    428.80379    231.76109   -9668.3486    9645.3937     197.0427    34.192049 
137724000    312.97062    343.68345    335.47599   -9704.6991    9676.3112    8.2074623      34.1385 
137728000    302.77191    304.71746    297.91649   -9707.6508    9676.4979    6.8009709    34.201173 
137732000    317.71808    419.79579    468.00386   -9732.7684    9699.9155   -48.208072      34.2107 
137736000    260.74386    338.28407    404.82704   -9749.5108    9759.5438   -66.542975    34.230874 
137740000     315.6672    280.04967    292.31992   -9784.8519    9766.3072   -12.270253    34.320331 
137744000    295.90777     351.0388    306.26516   -9820.6833    9808.3799    44.773638    34.350479 
137748000     275.2175    282.86719    312.34023   -9850.7414    9855.1493   -29.473044     34.29843 
137752000    283.86048    347.74411     306.4349   -9869.8954    9878.6546    41.309204    34.287837 
137756000    280.03921    577.00202    352.99745   -9892.1222    9902.1224    224.00456    34.267718 
137760000    278.92698    316.87503    397.53673   -9920.7673    9938.5494   -80.661707    34.135087 
137764000    297.08387    401.99487    324.68423   -9963.0872    9939.8108    77.310634    34.084403 
137768000    294.02139     407.2478    336.81389   -9983.9585    10000.822     70.43391    34.007688 
137772000     295.8597    357.10642    332.91452    -10000.01    10013.235    24.191905    34.072093 
137776000    287.25174    394.36445    308.54904   -10036.813    10025.526    85.815415    33.979591 
137780000    240.54658    240.62465    201.11055   -10041.721    10066.757    39.514092     33.98247 
137784000    264.03468    446.94024    195.36642   -10079.974    10096.075    251.57382    33.982101 
137788000    270.16192      452.208    264.24506    -10128.96    10117.621    187.96294    34.029062 
137792000    284.81292    489.07878     433.0108   -10151.714    10131.832    56.067984    33.949954 
137796000    299.87857     283.0423     191.2525   -10184.484    10179.577    91.789807    33.927197 
137800000    284.31051    208.66496    311.31773    -10218.36    10217.421   -102.65277    33.941728 
137804000    286.69996    309.65351    237.83267   -10254.575    10241.634    71.820844    34.034888 
137808000    299.40458    465.88662    389.68365   -10284.369     10289.06    76.202965    34.045109 
137812000    278.04968    122.95522    424.34983   -10316.807     10323.34   -301.39461    33.934258 
137816000    288.00602    534.14481    356.32805   -10347.336    10349.019    177.81676    33.972459 
137820000    278.34863    204.62116    287.32227   -10376.764    10374.284   -82.701114    33.983576 
137824000    299.99198    411.48521    347.05418   -10396.415    10392.728    64.431023      34.0267 
137828000     279.9524    605.97444    414.88287   -10409.465    10417.713    191.09157    34.098651 
137832000    260.19137    319.57081    284.49429   -10399.255    10419.078    35.076512    34.167065 
137836000    289.12889    428.59873    215.70456   -10429.616    10427.939    212.89416    34.147153 
137840000    283.06899    409.88125     363.9086   -10452.449    10449.116     45.97265     34.22365 
137844000    246.65343    426.86981    273.12051   -10453.237    10484.777    153.74929    34.188422 
137848000    252.61025    338.54334    303.55122   -10496.376    10526.301    34.992121    34.160285 
137852000    284.07057    263.58299    377.64749   -10522.808    10514.144    -114.0645    34.145811 
137856000    283.19524    319.72479     472.6522   -10549.326     10556.17    -152.9274    34.028073 
137860000    294.06705    544.08285    350.76165   -10554.811      10547.1     193.3212    34.092293 
137864000    308.36105      294.829    234.24295   -10607.624    10589.547    60.586053    34.085405 
137868000    294.64915    225.64898     357.2313   -10634.957    10644.623   -131.58232     34.04531 
137872000    275.11654    347.31934    240.02559   -10664.472    10667.414    107.29375    34.078143 
137876000    285.23753    380.60202    290.76505   -10677.242    10687.748    89.836964     34.09776 
137880000    260.21385    275.61134    258.95033   -10676.581    10699.644    16.661014    34.067681 
137884000    255.57952    305.92386    303.30802   -10704.146    10704.594    2.6158466    34.019742 
137888000    265.69816    324.80063    417.41977   -10731.339    10730.971   -92.619143    34.056967 
137892000    278.96204     172.8986    465.64511   -10747.381    10753.158   -292.74652    34.055696 
137896000    271.53578     384.0522    163.15164   -10764.687    10761.623    220.90056      34.0383 
137900000     268.6337    279.95837     382.5595   -10779.814    10791.184   -102.60113    34.125948 
137904000    285.12306    286.50378    342.64291   -10792.437    10797.053   -56.139127    34.123833 
137908000    296.07939    229.91024    434.85586   -10834.523      10834.1   -204.94562    34.074948 
137912000    279.83539     340.3358    303.58233   -10845.678    10868.023    36.753472     34.12996 
137916000    270.33636    429.54433    294.67806   -10865.839    10872.535    134.86627    34.153964 
137920000    274.03301    352.59337     348.8944   -10877.267     10883.63    3.6989617    34.146292 
137924000    301.05053    468.38064    370.53124   -10897.323     10898.41    97.849401    34.160644 
137928000     288.8478    339.54083    376.37685   -10916.774    10921.501   -36.836023    34.143132 
137932000    296.45253    273.61284    277.05387   -10950.222    10940.274    -3.441031    34.232319 
137936000    292.44486    240.60766    339.32427   -10990.605    10977.667   -98.716608     34.24522 
137940000    270.26338    162.73717    299.32881   -11010.717    11008.182   -136.59164    34.205694 
137944000    279.61539    368.12717    189.35232   -11051.464     11057.37    178.77485    34.173408 
137948000    259.53585    366.84042    294.98189   -11074.175    11083.519    71.858537    34.195306 
137952000    243.02663    216.47003    350.61643   -11065.501     11089.03   -134.14641    34.220131 
137956000    282.60231    258.83811    380.38928   -11091.734    11092.676   -121.55117    34.254791 
137960000    284.02417    426.26561    302.76799   -11117.344    11117.421    123.49763    34.229413 
137964000    253.13144    185.14382    383.97512   -11151.345     11169.75    -198.8313    34.165925 
137968000      283.798    346.17159    236.20948   -11183.765     11177.58    109.96211    34.190956 
137972000    260.63428     342.1799     473.0674   -11193.073    11202.057   -130.88751    34.246535 
137976000    257.42337    240.79006    351.24817   -11214.559    11239.675   -110.45811    34.222659 
137980000    276.36564    377.56377    375.27919   -11260.105    11270.159    2.2845843    34.219172 
137984000    282.54365    208.25262    272.68392   -11274.465    11281.776   -64.431309    34.226421 
137988000    278.75733    290.01997    272.03838   -11277.814    11281.846    17.981599    34.212988 
137992000    285.83832    397.70438    229.49808   -11317.412    11314.016     168.2063    34.177292 
137996000    294.32356    438.98013     251.3271   -11330.302    11312.978    187.65302     34.17914 
138000000    270.63209    359.07884    232.29715   -11318.053     11328.81    126.78169    34.103515 
138004000    307.68125    526.73276    212.15083   -11338.878    11329.741    314.58193    34.066246 
138008000    305.01754    366.43652    244.91996   -11349.246    11338.022    121.51656     34.11928 
138012000    277.57895    350.78574     259.3741   -11330.654     11333.76     91.41164    34.084987 
138016000    270.05057    446.57831    276.70726   -11379.375    11381.476    169.87105    34.137344 
138020000    293.61617    441.25144     330.6623   -11422.162    11416.342    110.58914    34.197333 
138024000    253.88307    351.89715    210.40403   -11405.536    11418.928    141.49312    34.183758 
138028000    282.42787    173.82505    305.23196   -11430.333    11428.064   -131.40691    34.207246 
138032000    306.74795    615.16181    240.02873   -11460.459     11463.52    375.13308    34.307825 
138036000    285.87786    212.80822    245.38249    -11468.48    11483.256   -32.574273    34.252857 
138040000    282.79562    324.55231    302.70472   -11516.832    11514.238    21.847591    34.308333 
138044000     294.3608    284.20053    390.63546   -11575.067    11545.587   -106.43493    34.318071 
138048000    288.43157    387.70205    201.25013   -11580.643    11575.521    186.45192    34.349965 
138052000     272.0868    406.76137    246.73908   -11572.502    11582.747    160.02229    34.270341 
138056000    263.90775    282.65662    172.71939   -11603.581    11609.469    109.93722    34.295975 
138060000    296.77353    327.23946    438.54162   -11644.547    11630.158   -111.30216    34.306228 
138064000    265.15055    265.52807    289.44848   -11650.848    11664.908   -23.920406    34.344324 
138068000    303.29939    395.78101    600.77953   -11669.294     11660.01   -204.99852    34.323945 
138072000    271.84196     280.1517    196.75677   -11675.112    11694.684     83.39493    34.337195 
138076000    272.80368    437.84066    393.71646   -11704.848    11726.207    44.124201    34.324262 
138080000    283.57367    339.38288    437.06949   -11723.172    11733.046    -97.68661    34.294602 
138084000    293.44997    435.21437    303.75027   -11753.628    11750.574     131.4641    34.324626 
138088000    286.53571    352.47709    346.78199   -11759.719    11752.921    5.6950998    34.366432 
138092000    246.19292    206.43794    442.48993   -11777.115    11785.734   -236.05199    34.309168 
138096000    315.19141    365.32074    185.12485    -11826.99    11815.868    180.19589    34.219198 
138100000    316.08455    345.34041    292.75039    -11849.54    11838.889    52.590022     34.23481 
138104000    275.69234     361.6255    271.44805   -11870.663    11879.297    90.177455    34.225947 
138108000    271.83862    370.35775    337.58135   -11895.522    11899.604    32.776398    34.266662 
138112000    275.50531    215.29582    422.36619   -11935.927    11935.211   -207.07038    34.234646 
138116000    299.40751    341.14181    374.66023   -11964.567    11970.713   -33.518427    34.194526 
138120000    259.91965    422.60518    502.31101   -11938.524    11966.421   -79.705832    34.184159 
138124000    283.69747    281.69243    335.63264   -11963.749    11982.371   -53.940205    34.216241 
138128000    269.80491    314.15344    252.37788   -11996.136    11997.399     61.77556    34.211372 
138132000    315.40092    525.20063    322.16438   -12023.509    12007.981    203.03625    34.265811 
138136000     258.5576    517.79231    339.93794   -12048.116    12055.349    177.85437    34.202465 
138140000    307.06174    349.32866    241.66152   -12070.614    12039.155    107.66713    34.176161 
138144000    299.06355    515.26663    376.99827    -12075.88    12079.718    138.26836    34.122503 
138148000    295.87053    366.40725    342.78137   -12115.432    12121.135    23.625878    34.136468 
138152000    296.54295    548.58548    346.95628   -12134.251    12125.388    201.62919    34.097516 
138156000    281.62651    221.95003    213.54168   -12139.825     12137.69    8.4083546    34.130483 
138160000    299.79708    288.97219    350.58102   -12159.832    12154.503   -61.608824    34.174849 
138164000    294.65726    344.20233    217.78866   -12174.688    12180.004    126.41366    34.212888 
138168000    289.49704    347.06763    221.97093     -12199.1    12191.245     125.0967    34.190367 
138172000    312.15978    279.76877    185.56528    -12213.82    12202.647    94.203484    34.181748 
138176000    280.03401    303.23901    204.57172   -12222.079    12226.443    98.667285    34.183202 
138180000     288.4487    285.45503    258.72588   -12267.145    12250.507    26.729153    34.174116 
138184000    269.97764    373.48363    322.86269   -12272.656    12262.792    50.620941    34.199167 
138188000    292.18016    133.60158     369.6583   -12260.314    12265.533   -236.05672    34.183486 
138192000    282.33235    233.74796    313.42811   -12301.475    12298.216   -79.680147    34.189912 
138196000    306.37261    361.74841    556.17483   -12365.446    12344.612   -194.42642    34.189358 
138200000    300.51045    444.57829    197.38217   -12387.314    12385.677    247.19613    34.185525 
138204000    297.81172    349.49143    261.29387    -12411.31    12417.835    88.197566    34.137474 
138208000     278.9109    149.42024    275.13022   -12418.961    12425.707   -125.70998     34.19199 
138212000    285.11305    318.42393    263.22514   -12436.322    12438.978    55.198791    34.205622 
138216000     271.8906    402.43719    446.68366   -12461.659    12490.465   -44.246467    34.236738 
138220000    284.00655    308.75695    326.80354   -12497.161    12505.037   -18.046596    34.262548 
138224000    284.64401    303.81351     286.9022   -12531.528    12533.548     16.91131    34.267407 
138228000    280.02595    508.52899    201.18707   -12545.467    12546.793    307.34192    34.298069 
138232000    262.28389    406.35212    365.27528   -12562.335    12574.043    41.076843    34.317606 
138236000    270.18324    206.64503    240.60214    -12567.42    12577.806   -33.957107    34.293792 
138240000    298.05224    87.794279    288.08801   -12619.174    12600.455   -200.29373    34.331775 
138244000    311.92192     345.6412    464.37874   -12650.242      12624.3   -118.73754    34.308356 
138248000    293.60134    254.57558    427.47949   -12644.263    12633.727    -172.9039    34.304499 
138252000    275.71108      437.362      389.539   -12647.732    12653.439       47.823    34.369932 
138256000    288.95101    437.95866    434.10532   -12659.528    12670.084    3.8533435    34.409172 
138260000    260.00032    434.80131    349.88657   -12665.857    12698.186    84.914744     34.40346 
138264000    283.45104    289.01306    415.05924   -12722.945    12717.868   -126.04619    34.469794 
138268000    268.32003    257.86831    313.58145    -12722.16    12745.444   -55.713144    34.429649 
138272000    294.45834    300.69952     329.0727   -12745.054    12747.069   -28.373178    34.432148 
138276000    293.63805    513.39893    223.01044   -12768.984    12766.939    290.38849    34.460749 
138280000    288.44341    372.06816    534.04984   -12787.833    12789.443   -161.98168    34.428525 
138284000    272.72641    266.25097    427.75799   -12811.946    12827.066   -161.50702    34.410279 
138288000    253.00056     231.4987    237.13248   -12839.967     12856.47    -5.633783    34.383233 
138292000    346.11551    314.94215    388.86144   -12863.071    12840.212   -73.919289    34.332393 
138296000    291.29374    389.56994    322.65055    -12865.42    12862.115    66.919391     34.32165 
138300000    299.07681    342.62502    271.36388   -12895.602    12891.535    71.261144    34.354277 
138304000    295.12574    543.68494    404.80915   -12934.746    12919.256    138.87579    34.340618 
138308000    303.65171    573.61443    451.13976   -12945.284    12935.117    122.47467    34.362323 
138312000    283.90999    363.33471    249.35715   -12983.912    12992.744    113.97755    34.352297 
138316000    292.00959    797.69429    389.93838   -13015.646    13005.584     407.7559    34.390217 
138320000    276.90832    164.48971    358.92286   -13034.786    13055.026   -194.43315    34.442939 
138324000    304.53436    390.27536    455.01733   -13087.487    13063.352   -64.741973    34.454957 
138328000    278.88183    243.98132    208.85227   -13098.931    13098.166    35.129044    34.379531 
138332000      288.674    471.83339    409.13316   -13095.406    13111.381    62.700232    34.344894 
138336000    279.32493     341.2851    411.06389   -13123.493    13124.403   -69.778787    34.346492 
138340000     297.9341    385.53642    233.71032   -13153.701    13153.934     151.8261    34.411818 
138344000    286.92554    318.82753    318.74534   -13163.186    13161.825  0.082193754    34.423687 
138348000    287.08805    407.94951    325.61191   -13180.019    13169.208    82.337598    34.471413 
138352000    265.94883     288.5776      228.441   -13182.653    13185.899    60.136598     34.51976 
138356000    293.97871    287.92934    403.05179   -13213.244    13207.076   -115.12246    34.505156 
138360000    257.35741    256.49977    362.75259   -13230.926     13242.92   -106.25281     34.52496 
138364000    299.94643    285.12881    351.36409   -13234.934    13241.401   -66.235282    34.539368 
138368000    272.31927     274.7528    302.43794   -13270.861    13286.685   -27.685143    34.464014 
138372000    273.29313    265.96177    385.51123    -13289.16    13300.632   -119.54947     34.46654 
138376000    279.34259    341.84259    223.22271   -13323.982    13337.164    118.61988    34.505753 
138380000    306.32438    545.37725    378.71632   -13339.566    13337.864    166.66093    34.461283 
138384000    279.90482    548.33291    234.37132   -13365.454    13386.949    313.96159    34.438456 
138388000    250.11033    220.76772    194.72624   -13389.357    13418.851    26.041476    34.430091 
138392000    277.75025    467.81831    310.47999    -13394.92    13415.135    157.33832    34.462423 
138396000    260.67622    418.71659    337.30021     -13430.9    13453.594    81.416384    34.451266 
138400000    274.72458    340.40388    245.66898   -13471.162    13478.529      94.7349    34.394005 
138404000     279.8426    402.80881    367.38907   -13516.358     13518.29    35.419738    34.428277 
138408000    282.47838     476.9953    288.33968   -13508.865    13529.258    188.65561    34.467458 
138412000    268.22361    452.36536    503.02748   -13532.154    13547.697   -50.662113    34.472655 
138416000    278.53773    273.81291    221.85534   -13542.548    13568.816    51.957564    34.472105 
138420000    274.15935    376.30271    219.40354   -13578.886    13597.014    156.89917    34.491473 
138424000    252.71306    321.56978    233.14578   -13595.696    13612.762    88.423999    34.503346 
138428000    265.57403    234.97683    285.93116    -13636.76    13664.563   -50.954328    34.508398 
138432000    280.23984    539.60144    331.23935   -13665.534    13669.869    208.36209    34.533854 
138436000    276.24934    339.08206     251.0003   -13704.746    13703.589    88.081762    34.463404 
138440000    324.80988    431.93924     431.9107   -13765.525    13748.744  0.028544354    34.517877 
138444000    261.81571    319.74404    339.57275   -13768.627    13789.616   -19.828708    34.492378 
138448000    265.94149    298.28672     307.5219   -13805.477    13821.849   -9.2351788    34.512783 
138452000    257.44355    233.39854    267.63982   -13845.817     13870.25   -34.241288    34.566074 
138456000    225.34315    223.18987    226.07834    -13867.01     13908.04   -2.8884622    34.641713 
138460000    245.09274     350.8673    201.47128    -13880.93    13917.795    149.39602    34.565716 
138464000    286.74741    329.02927    373.09953   -13920.736    13929.686   -44.070256     34.54243 
138468000    269.72407    324.84999    175.45564   -13922.825      13941.7    149.39434    34.535201 
138472000    268.32864    413.44912    319.10984    -13952.57    13961.652    94.339285    34.574236 
138476000    293.09372    334.44102     351.3234   -13967.255    13974.708   -16.882385    34.478652 
138480000     288.6577    261.84796    274.84153   -13979.118    14004.807   -12.993575    34.458022 
138484000    302.53419    312.41295    244.74007   -14011.804    13992.496    67.672882    34.457845 
138488000    277.79937    484.34711     295.4714   -14003.428    14007.853    188.87571    34.507938 
138492000    299.57147    508.96298    253.03055   -14051.673    14044.656    255.93244    34.477636 
138496000    295.08604     293.6396    307.02764   -14095.004    14072.134   -13.388033    34.459449 
138500000    264.59085    571.76801    314.63156   -14107.659     14106.35    257.13645    34.470491 
138504000    282.88029     574.7253    215.66253   -14118.508    14122.863    359.06276    34.519057 
138508000    275.51304    238.08091    315.32893   -14134.149    14144.796    -77.24802    34.501356 
138512000    291.45888    425.03322    569.24425   -14140.552    14156.829   -144.21103    34.469872 
138516000    283.01507    470.53524    269.77724   -14169.838     14163.87      200.758    34.466391 
138520000    265.53539    353.50478    399.08463   -14175.635    14188.598   -45.579851    34.468076 
138524000    298.41252    366.46961    192.60982   -14219.438    14207.184    173.85979    34.426164 
138528000    282.91438    341.98265    337.39862   -14231.909    14230.787    4.5840278    34.424288 
138532000    312.25388    398.38609    249.28857   -14277.526    14266.801    149.09752    34.413206 
138536000    285.49922    431.54887    183.87109   -14301.215    14313.969    247.67779    34.453863 
138540000     267.9931    271.75057    230.92416    -14324.53    14350.535    40.826414    34.475928 
138544000    269.92507    374.42358    403.51269   -14352.129    14352.159   -29.089115    34.485323 
138548000    301.46519    582.08443    374.91398   -14406.241    14390.643    207.17045    34.548712 
138552000    257.57101    193.33507    281.19159   -14420.654     14442.82   -87.856519    34.513879 
138556000    258.00752    236.67401    224.08307   -14431.816    14457.108    12.590933    34.478034 
138560000    273.64276    411.30818    248.86716   -14482.772    14506.389    162.44102     34.48035 
138564000    282.34678     355.0648    161.18587   -14501.599    14515.823    193.87893    34.437844 
138568000    273.40007    360.31045    153.42909   -14511.481    14512.812    206.88136    34.487346 
138572000    277.61758    331.36923    197.11653   -14516.934    14523.243     134.2527    34.510225 
138576000    272.68737    295.27283    268.55746   -14513.748    14535.712    26.715368    34.534905 
138580000    278.25608    371.87476    341.39697   -14521.182    14534.726    30.477799    34.541962 
138584000     279.8256    435.79063    400.59328   -14562.921     14573.24     35.19735    34.546869 
138588000     288.9934    256.11768    403.72979   -14585.378     14577.28   -147.61211     34.56568 
138592000    313.97207    352.42437    332.79705    -14591.75    14586.212    19.627318    34.578684 
138596000     291.2739    368.48312     214.3323   -14593.193    14604.243    154.15082    34.605813 
138600000    273.82556    335.68181    234.68648   -14603.685    14616.195    100.99533    34.606918 
138604000    276.46238    281.53973    370.68347    -14624.59    14653.463   -89.143734    34.615368 
138608000    268.38987    185.59692    254.82181   -14663.862    14688.791   -69.224884    34.566327 
138612000     271.8396    521.80573    309.53966   -14681.081    14714.374    212.26607    34.608177 
138616000    293.18774    679.66646      274.735   -14707.171    14715.446    404.93145    34.559218 
138620000    272.74225    383.23625    358.13488   -14703.656    14730.445    25.101365    34.572743 
138624000    269.18145    219.88839    221.95104   -14730.983    14749.099   -2.0626527    34.575398 
138628000    282.93227    313.06818    367.91702   -14763.438    14778.439   -54.848842    34.565384 
138632000    249.23061    355.43408    189.23245   -14815.396    14838.254    166.20163    34.602099 
138636000    262.35246     362.9551    167.90592    -14815.26    14843.438    195.04918    34.611079 
138640000    292.42129    514.36275    315.71222   -14830.234    14831.311    198.65053    34.651053 
138644000    280.66129    428.10212    319.80649   -14835.787     14864.22    108.29563     34.76076 
138648000    257.76049    291.80781    264.71557   -14865.676    14887.396    27.092243    34.685925 
138652000    287.83139    475.49054    246.65636   -14917.506    14920.532    228.83418    34.684218 
138656000    263.57462    339.46405     248.7268   -14926.758    14957.669    90.737252    34.665359 
138660000    304.70491    525.18124    348.56585   -14977.122    14964.352     176.6154    34.657802 
138664000    261.37463    263.71153    383.74874   -14984.524     15001.75    -120.0372    34.683326 
138668000    302.32107    260.45999    514.88588   -14999.891    14991.706   -254.42589    34.706346 
138672000    289.90323    200.30201    296.32313   -14996.436    14996.246   -96.021118    34.729775 
138676000    271.33255    507.45922    237.57092     -15036.8    15048.417     269.8883    34.766638 
138680000     257.2065    357.19916    296.45546   -15074.553    15056.539    60.743701    34.760081 
138684000    286.13011    400.51753    172.21031   -15074.866    15078.813    228.30722    34.740061 
138688000    276.84189    324.94893    159.06123   -15106.811    15100.554    165.88771    34.736175 
138692000    298.96664    148.58246    250.00775   -15097.705    15101.247   -101.42529    34.747304 
138696000    266.49411    296.32966    329.44999   -15119.314    15138.374   -33.120329    34.763275 
138700000    271.23937    493.65358    212.43737   -15148.177    15173.446    281.21622    34.736754 
138704000     289.4211    397.40437    337.33455   -15173.958    15168.903    60.069822    34.748146 
138708000     295.2384     325.7576    473.77931   -15192.737    15203.621   -148.02171    34.746122 
138712000    313.72765    335.76521    443.57474   -15230.336    15230.229   -107.80953    34.793075 
138716000    239.46298    221.64855    286.03955   -15250.574    15285.309   -64.391002    34.806812 
138720000    278.09938    252.89523     323.2486   -15279.272    15288.404   -70.353369    34.851396 
138724000    281.22036    173.71219    156.13188   -15293.484    15302.438     17.58031    34.860484 
138728000    320.68917    340.82403    328.93281   -15341.482    15316.298    11.891218    34.773973 
138732000    283.46925    372.59344     294.9979   -15375.244    15352.939    77.595546    34.804078 
138736000    284.85239    240.31234    264.82379   -15402.926    15408.704   -24.511445    34.777513 
138740000    265.00219    453.69289    283.68189   -15392.644    15427.202    170.01101    34.773616 
138744000    290.17978     378.4084    297.94932   -15440.472    15432.331    80.459078    34.725497 
138748000    303.00899    387.99163    305.07896    -15450.19    15454.773    82.912665    34.739215 
138752000    275.16645    280.49909    342.12534   -15464.754    15466.782   -61.626253    34.693424 
138756000     243.1631    387.66025    386.32265    -15435.92     15456.91    1.3375998    34.660078 
138760000    270.84863    288.95532    276.83332    -15460.26    15482.292    12.121998    34.641022 
138764000    281.67214    481.35684    289.09433   -15491.603    15512.258     192.2625    34.644083 
138768000    260.39698    467.79902    308.77808   -15513.631    15536.445    159.02094    34.655787 
138772000    272.85997    358.30083    291.76644   -15517.911    15525.012     66.53439    34.614385 
138776000    292.61676    326.91498    230.76183   -15536.232    15543.559    96.153155    34.564173 
138780000    282.93952     570.0794    357.63995   -15559.014    15549.487    212.43945    34.525188 
138784000    293.28225    414.98021    242.36254   -15554.592    15564.938    172.61767       34.552 
138788000    285.37942    379.89259    249.37401   -15549.752    15554.627    130.51858    34.576076 
138792000     284.3518    308.43013    269.82191   -15574.581    15584.287    38.608222    34.580396 
138796000    288.96245    282.42501    287.05498   -15577.788    15578.524    -4.629967    34.558795 
138800000    281.96867     245.6636    278.19752   -15616.303    15607.477   -32.533922    34.578938 
138804000    266.38197     335.8696    379.45901    -15635.32    15623.946   -43.589407     34.62658 
138808000    273.89669    371.57019    220.17474   -15666.091    15663.006    151.39544    34.701232 
138812000    297.41695    498.63498    290.75902   -15708.157    15696.612    207.87596    34.727655 
138816000    270.70869    198.89426      205.798   -15701.641    15717.978   -6.9037413    34.690034 
138820000    276.57353    255.79047    323.19291   -15721.473    15731.056   -67.402438    34.710028 
138824000    286.40654    356.01402    335.94425    -15745.82      15742.3    20.069769     34.77766 
138828000    297.22303      362.397    214.28503   -15770.829    15782.684    148.11198    34.800022 
138832000    300.00385    387.21006    377.53409   -15818.884    15830.804    9.6759745    34.753178 
138836000    306.15906     389.5557    442.70159   -15879.095    15875.673   -53.145885      34.7131 
138840000    308.59253    608.71683    323.69934   -15905.606     15913.36     285.0175    34.746213 
138844000    266.44428    250.30257    199.42031   -15904.047    15924.389     50.88226    34.716156 
138848000    349.54021    380.12375    302.32928   -15935.452    15901.212     77.79447    34.666354 
138852000    281.90615    415.15034    266.71258   -15923.895    15929.364    148.43776    34.678419 
138856000    276.60852    341.78639    329.39008   -15948.142     15961.42     12.39631    34.679999 
138860000    295.21989    557.32711     576.6551   -15961.559    15946.238   -19.327988    34.706365 
138864000    285.37282     305.5759    594.69449   -15971.382      15974.1   -289.11858    34.712657 
138868000    285.49858    410.69548    346.01777   -15980.565    15991.025    64.677714     34.69116 
138872000     290.4649    511.05593     495.0327   -16012.293    15999.132    16.023228    34.660067 
138876000    303.61796    376.17453    391.05151   -16034.011     16027.02   -14.876981    34.635028 
138880000    270.46107    292.82434    265.03138   -16055.485    16049.571    27.792961    34.611664 
138884000    263.01517    398.71447     224.0614   -16090.297    16106.742    174.65307    34.616596 
138888000    297.18293    570.00299    286.33112   -16131.072    16144.517    283.67187    34.591267 
138892000     292.0336    614.95919    313.44789    -16149.34    16147.591    301.51129    34.605058 
138896000    278.71901    384.82971    221.69882   -16168.628    16186.671    163.13089    34.684204 
138900000    305.11069    322.26172    429.63794   -16194.941    16196.027   -107.37622     34.70618 
138904000    273.98015    360.85742    200.80687   -16217.352    16230.043    160.05055    34.688675 
138908000    279.58874    273.19486    208.34313   -16235.821     16245.41    64.851729     34.74877 
138912000    263.17244     378.0683     332.1677   -16281.622     16288.02      45.9006    34.735158 
138916000    310.77312    464.30767     423.2525   -16315.805    16307.649    41.055172    34.738686 
138920000    297.50388    345.42207     456.7819   -16296.273    16307.385   -111.35984     34.71753 
138924000    302.05636    303.46605    343.90767    -16308.91    16311.692   -40.441622    34.755467 
138928000    281.29361    465.09475    151.62621   -16314.236    16330.825    313.46854    34.813652 
138932000    295.49343    409.44222     189.6924   -16334.774    16335.635    219.74982    34.849678 
138936000    280.92317     450.9172    383.93705   -16345.392    16359.058    66.980153    34.884398 
138940000     270.6921    318.92491    197.14989   -16384.155    16399.042    121.77502    34.924006 
138944000    297.94014    370.54336    237.83668   -16440.058    16419.042    132.70669    34.893989 
138948000    308.41286    253.37663    344.33364   -16441.417    16441.069   -90.957006    34.902854 
138952000    276.36889    242.91646    397.44853   -16471.551    16476.051   -154.53207     34.90537 
138956000     294.4811    334.05135    374.00563   -16503.867    16496.081   -39.954281    34.893943 
138960000    297.29558    554.24934    189.19488   -16537.958    16546.436    365.05446    34.890517 
138964000    292.14247    319.06003      367.252   -16553.097    16562.728   -48.191972    34.900832 
138968000    280.84219    398.18628    301.33398    -16587.56    16594.803      96.8523    34.866138 
138972000    297.62707    443.68565    418.96315   -16607.909    16615.604    24.722505    34.872235 
138976000    282.57045    316.19922    224.04277   -16639.289    16659.395    92.156445    34.875908 
138980000    271.58595    332.06262    213.40526   -16649.169    16663.479    118.65735    34.868592 
138984000    291.01789    393.35077    288.78156   -16687.624     16687.51    104.56921    34.851562 
138988000    276.61885    452.38988    324.16289   -16706.207    16727.828    128.22699    34.869318 
138992000    278.77264    583.80121    331.38969   -16743.734    16752.806    252.41152    34.846265 
138996000    271.22893    258.69938    298.28096   -16769.175    16790.371    -39.58158    34.850761 
139000000    270.19079      352.963    371.50598   -16793.994    16815.043   -18.542978    34.835804 
139004000    301.36488    298.49099    460.99678   -16804.237    16804.461   -162.50579    34.839301 
139008000    304.63875     573.2166    427.18226   -16851.821    16832.007    146.03434    34.905462 
139012000    306.82488     359.9998    406.41523   -16861.796    16844.452    -46.41543     34.90081 
139016000    286.43391    314.78244    292.22469   -16881.307    16847.885    22.557756    34.930431 
139020000    285.65508    571.12389    340.27608   -16887.434     16887.51    230.84781    34.946702 
139024000    286.66834    512.43336    352.87969   -16915.451     16912.53    159.55367    34.949128 
139028000    295.05331    321.88702    189.89471   -16921.813    16933.012     131.9923    34.970028 
139032000    270.63259    420.08449    307.51358   -16912.359    16930.761    112.57091    34.991806 
139036000    271.37614    432.48111     459.1698   -16921.659    16922.751   -26.688685    34.971815 
139040000    261.04542    409.88291    225.43832   -16924.372     16937.47    184.44458    34.921456 
139044000    289.66866    370.86752    319.85806   -16957.576    16962.042     51.00946     34.89776 
139048000    271.31562    477.49852    262.25484   -16961.895    16968.713    215.24369    34.840751 
139052000     258.0284    319.42694    289.60709   -16974.738    17002.862    29.819848    34.815683 
139056000    297.05707    490.83597    264.30084   -17010.473    17015.828    226.53513     34.79818 
139060000    293.68433    680.68192    452.28022   -17028.335    17040.607     228.4017    34.738101 
139064000    258.02892    398.95839    253.57742   -17045.524    17076.413    145.38096    34.724119 
139068000    292.83806    639.20239    387.52992   -17097.203    17103.837    251.67247    34.738758 
139072000    298.61686    439.37689    281.56245   -17116.644      17122.8    157.81444    34.776442 
139076000    268.10179    412.21625    181.97551   -17147.245    17168.288    230.24074    34.755277 
139080000    263.98173    279.39826    252.37679   -17170.044    17192.107    27.021474    34.769255 
139084000    268.18935    307.36879     232.5213   -17200.437    17211.034    74.847487    34.760549 
139088000    274.93315    415.19189    299.40789   -17214.051    17224.421      115.784    34.773506 
139092000    284.75134      313.574    375.47781   -17251.879    17241.355   -61.903818    34.776179 
139096000    280.63921    362.59991    322.99978   -17251.379    17260.177    39.600132    34.715577 
139100000    287.48486    404.52537    267.18092   -17286.286    17278.935    137.34445    34.692319 
139104000    302.83906    399.32728    265.71364   -17319.371    17297.378    133.61365    34.648073 
139108000    291.54788    428.48146    391.88612   -17328.287    17309.819    36.595339    34.623538 
139112000    249.01156    282.78844    338.05933   -17362.409     17374.17   -55.270891    34.609589 
139116000    297.11695    368.13238    384.95291   -17414.647    17413.163   -16.820532    34.567546 
139120000    271.59935    417.82868    347.31418   -17444.701    17452.257    70.514497    34.543752 
139124000    294.59457    336.47988    245.84163   -17452.654    17451.752    90.638246    34.516109 
139128000    289.14288    303.16664     397.3521   -17456.878    17451.234   -94.185456    34.513754 
139132000    295.26748    453.94765    436.01803   -17464.865    17466.399    17.929617    34.511965 
139136000    293.98106    706.19225    403.28903   -17493.724    17496.366    302.90322    34.543565 
139140000    312.78463    275.98142    324.26826    -17557.25    17546.538    -48.28684    34.531618 
139144000    305.29979    339.49462    274.98203   -17598.811     17579.68    64.512592    34.546534 
139148000    267.17309    347.83044    195.57739   -17601.303    17612.725    152.25305    34.595419 
139152000    290.41963     384.8067    363.57421   -17655.196    17661.013    21.232482     34.62086 
139156000    273.36736    380.29099    340.35933   -17709.642    17706.052    39.931661    34.611876 
139160000    300.42994    411.90165    254.57616   -17719.225    17724.144     157.3255    34.597304 
139164000    293.47101    505.33815    244.81328   -17746.951    17742.293    260.52488    34.610048 
139168000    291.46233    503.44976    526.79561   -17779.938    17774.301   -23.345845    34.660178 
139172000    290.90697    420.07202    447.94121   -17793.219    17796.658   -27.869183     34.64779 
139176000    302.81024    300.92563    376.76156   -17816.415    17799.823   -75.835931    34.625455 
139180000    303.32722    167.63142    257.52144   -17851.104    17822.354   -89.890025    34.609368 
139184000     272.8711    243.84516    380.19748   -17853.435     17871.74   -136.35233    34.624482 
139188000    270.15062    277.26857    408.06096   -17888.681    17902.075   -130.79239    34.571469 
139192000    309.30548    531.20087    313.78364   -17941.741    17948.916    217.41722    34.613518 
139196000    282.62547    667.97077    202.04584   -17968.276     17974.74    465.92493    34.637943 
139200000    266.14634    217.22625    256.40909   -17984.157    18004.653   -39.182844    34.630255 
139204000    282.82084    350.56977    372.19105   -17997.554    18004.029   -21.621279     34.62431 
139208000    279.88828    432.27114    350.84147   -18048.025    18040.944    81.429673     34.62283 
139212000    293.77246    274.54804    386.38634   -18087.288    18086.271   -111.83829    34.642023 
139216000    294.24175    280.40769    266.20265   -18125.331    18124.477    14.205038     34.66761 
139220000    299.50217    284.62595     488.5219   -18163.768    18173.871   -203.89595     34.70249 
139224000    291.90126    351.66969    202.53399   -18201.784    18191.221     149.1357    34.747123 
139228000    289.12857    205.23151    287.40006   -18216.142    18204.504    -82.16856    34.730018 
139232000    293.29802     275.3793    273.41879   -18281.446    18262.244    1.9605083    34.747813 
139236000    268.26677    287.27881    310.30881   -18267.069      18274.8   -23.030005    34.736711 
139240000    305.05321     334.7083    403.06729   -18294.864    18297.391   -68.358996    34.726022 
139244000    303.64844    357.19803    382.76774   -18313.903     18311.64   -25.569708     34.72622 
139248000    274.60743    460.58564    321.08968   -18328.677    18340.335    139.49595    34.751867 
139252000    296.12703    485.44908    182.35191   -18370.478    18357.991    303.09716    34.758174 
139256000    289.06087     337.8589    426.14797   -18385.552    18391.315   -88.289072    34.776284 
139260000    304.15488    362.57101    476.20697   -18404.557    18397.816   -113.63597    34.779695 
139264000    272.85829    351.34531    425.63851   -18426.282    18433.456   -74.293198    34.767923 
139268000    267.22048     496.6149    338.42918   -18441.257    18461.758    158.18572    34.781351 
139272000    293.34738    175.48074    190.15055   -18463.217    18469.767   -14.669811    34.787087 
139276000    272.05798    382.75517    305.76285   -18500.123    18503.989    76.992319     34.80701 
139280000    278.77948     485.4526    185.10321   -18512.458    18526.008    300.34938    34.804243 
139284000    271.98484    276.01203    303.42262   -18546.381    18552.179   -27.410586    34.798702 
139288000    293.20369    362.55231    386.09382   -18594.413    18593.364   -23.541512    34.780628 
139292000    294.96376    510.01698     255.0926   -18615.699    18623.295    254.92438     34.79562 
139296000    268.19522    158.51796    305.77408   -18618.894    18628.699   -147.25613    34.812583 
139300000    233.57145     325.4277    143.34675   -18621.548    18640.538    182.08095     34.80261 
139304000    275.01059    277.47876    364.18106   -18642.055    18653.786   -86.702294     34.78245 
139308000    306.87908    397.96035    342.51392   -18672.075    18661.383    55.446433    34.814887 
139312000    282.34595    399.36875    264.55648   -18679.309    18677.123    134.81226     34.82834 
139316000    253.33287    322.99777    258.04365   -18671.271    18681.765    64.954124      34.7947 
139320000    297.20996    305.28556     365.1985    -18716.15    18715.024   -59.912941    34.777682 
139324000    287.85772    299.42152    316.83074   -18744.389    18747.603   -17.409226    34.783681 
139328000    293.77212    302.26494    352.60127   -18779.115    18775.717   -50.336325    34.768588 
139332000    261.03219    308.97054    251.04031   -18784.321    18821.331    57.930237    34.756981 
139336000    276.79918    377.24252    169.73266   -18815.744     18829.07    207.50987    34.771599 
139340000    269.47413     402.3803    585.43845    -18829.72    18838.562   -183.05815    34.729276 
139344000    246.16259    480.56755    143.60167   -18854.845    18892.562    336.96587    34.766063 
139348000    280.36751    347.86941    265.03184   -18893.742    18903.356    82.837565    34.733137 
139352000    259.19576     187.5356    282.81001   -18919.489    18943.206   -95.274408    34.706736 
139356000    260.46258    295.91053    260.29653   -18955.662    18976.322       35.614    34.708255 
139360000    299.11067    321.66845    545.99779   -18989.077    18980.914   -224.32934     34.69473 
139364000    303.44331    290.87033    791.39048   -19014.187    18998.486   -500.52015    34.688261 
139368000    262.88948    325.92434    246.21223   -19038.777    19050.443     79.71211    34.695441 
139372000    278.16561     415.0611    336.44818   -19073.788    19068.877    78.612921     34.64441 
139376000    286.07858    356.86018     225.7678   -19125.594    19126.083    131.09238    34.682814 
139380000    268.97231    417.52077    205.87799    -19142.81    19162.696    211.64278    34.693772 
139384000    281.85072    283.79513    390.02781   -19176.224    19183.604   -106.23268    34.700637 
139388000    268.25368    320.65541    296.73476    -19216.16    19211.655    23.920645    34.689874 
139392000    298.91459    314.79023    481.42464   -19234.836    19246.192   -166.63441    34.666448 
139396000    267.80134    273.81855    238.93855   -19276.256    19288.064    34.879997     34.67757 
139400000    323.60192    264.65166    397.80027   -19344.701    19315.222   -133.14861    34.693791 
139404000    258.97694    341.29849    213.93176   -19349.089    19360.906    127.36673    34.702358 
139408000    280.09925    259.66319    253.67958   -19353.521    19361.637    5.9836099    34.680328 
139412000    295.37801    576.67556    534.27924   -19391.465    19385.301     42.39632    34.676542 
139416000    314.07297    342.27483    341.74919    -19397.99    19400.525   0.52563914    34.715927 
139420000    305.67835    319.66634    565.05462    -19413.35    19415.205   -245.38829    34.745827 
139424000    262.63429    255.25226    301.62869   -19441.565    19448.089   -46.376435    34.709691 
139428000    288.47301    411.56763     265.6944   -19453.704    19441.475    145.87323    34.737225 
139432000    293.39512    493.63375    446.06437   -19481.756    19487.339    47.569384    34.719579 
139436000    290.78492    201.92579    334.42213   -19505.821    19519.594   -132.49634    34.701413 
139440000    287.09032    378.37396    344.61217   -19512.535    19532.679    33.761783    34.689973 
139444000    291.48075    192.26915    308.69082   -19520.066    19532.884   -116.42167    34.662976 
139448000    276.65104    325.68918    362.52552   -19534.203    19545.642   -36.836342    34.659708 
139452000    293.14887    343.86641    311.52689   -19532.243    19531.539    32.339527    34.655101 
139456000    317.97538    404.70051    400.06315   -19568.363    19546.306    4.6373611     34.63839 
139460000    282.16203    192.34803    458.75659   -19584.749    19573.893   -266.40855    34.639074 
139464000    314.18786    395.59715     409.9214   -19606.201    19581.546   -14.324255    34.685492 
139468000    278.79866    244.53894    149.03883   -19647.203    19640.762    95.500111    34.659294 
139472000    291.71609    433.00407    299.48462   -19650.566    19639.408    133.51946     34.65208 
139476000    298.63223    513.94217    243.74581   -19651.314    19654.323    270.19636    34.641385 
139480000    316.70266    339.36873    426.91506   -19653.965    19644.552   -87.546322     34.63344 
139484000    278.79818    416.22561    229.45241   -19679.755    19683.773     186.7732    34.644599 
139488000    265.76792    182.63862    281.81164   -19705.324    19723.165   -99.173021    34.667934 
139492000    280.55732    296.20937    487.89031   -19721.463    19736.326   -191.68094    34.664844 
139496000    271.28236    194.85859     465.4122   -19729.569    19750.994   -270.55361    34.642497 
139500000    281.08553    342.21315     192.4198   -19764.854    19767.175    149.79335    34.642768 
139504000    299.58786    341.96145    327.61434   -19800.204    19779.859    14.347107    34.616398 
139508000    295.96181    410.52618    491.89096   -19831.127    19828.739   -81.364783      34.6744 
139512000    295.22281    280.82253    302.43498   -19871.745    19859.851   -21.612455    34.622805 
139516000    296.97461    545.44482    386.70196   -19899.175    19884.081    158.74285    34.624248 
139520000     275.4449    365.30118    251.22586   -19915.479    19926.161    114.07531    34.619658 
139524000    302.32147    437.99807    367.35295    -19946.44    19933.738    70.645121    34.620929 
139528000    307.56831    405.10564    267.09226   -19961.881    19950.692    138.01337    34.661256 
139532000    317.76911    336.88901    449.17943     -20001.3    19965.761   -112.29042    34.665246 
139536000    297.70724    462.17361    282.02705   -20004.145    19992.307    180.14655    34.721378 
139540000     297.8549    379.18713     350.5514   -20015.352        20015     28.63573    34.673389 
139544000    289.42823    558.03239    303.77301   -20042.838    20030.423    254.25938    34.697093 
139548000    261.08399    391.25284    220.81039   -20027.594    20052.814    170.44245    34.693333 
139552000     292.5093    425.51195    376.82662   -20068.483    20064.465    48.685334    34.653027 
139556000    293.47672    375.09487    241.03985   -20071.912    20084.454    134.05502    34.666327 
139560000    269.67655    483.74086    361.16704   -20086.868    20088.441    122.57381    34.672176 
139564000    282.39204    320.48017    236.26941   -20113.904    20122.483    84.210756    34.667763 
139568000    287.35282    413.29705    193.69394   -20155.798    20161.273    219.60311    34.659549 
139572000    269.59012    283.20778    439.19991   -20183.497    20191.752   -155.99213    34.620232 
139576000    277.93059    250.77709    301.69211   -20210.353    20209.609   -50.915019    34.607037 
139580000    279.38756    491.43264    295.18892    -20219.54    20251.531    196.24372    34.641357 
139584000     277.0157    292.61687     476.9868    -20245.25    20256.121   -184.36994    34.592738 
139588000    275.37819    376.87626    377.93498    -20274.71    20278.406   -1.0587231    34.546457 
139592000    293.42773    535.19333    271.74028    -20303.82    20282.249    263.45305    34.584019 
139596000    297.96943    424.46371    309.08423   -20336.402    20329.727    115.37949    34.627648 
139600000    286.68791    459.45151    326.82845    -20334.05    20341.515    132.62306    34.620609 
139604000    287.35516      300.987    236.07031   -20362.561    20371.507    64.916691     34.61142 
139608000    264.11227    384.83247    226.80676    -20387.41     20398.44    158.02571    34.628961 
139612000    320.28295    286.59036    564.30488   -20402.627    20389.943   -277.71453    34.614423 
139616000     251.5689    315.63843    319.08926   -20404.165    20419.959   -3.4508333    34.621858 
139620000    316.33178     421.8297    443.51877   -20411.657    20405.156   -21.689068    34.592719 
139624000    326.09593    456.51573    211.10004   -20437.423    20412.038     245.4157     34.59405 
139628000    273.65573    144.24114     437.3981   -20444.219    20447.656   -293.15697    34.613867 
139632000    280.28069    394.76825    380.92784   -20468.161    20484.227    13.840409    34.608681 
139636000    277.64278    200.46906    230.88627    -20509.12    20533.017   -30.417206    34.622745 
139640000    264.67038    338.54327    273.51974   -20524.619    20532.698    65.023528    34.618389 
139644000    303.08517    339.56984    382.55751   -20514.992    20529.538   -42.987665    34.620432 
139648000    301.81852     457.2312    253.20374    -20525.16    20531.111    204.02747    34.622106 
139652000    261.58879    298.60658    150.49989   -20538.251     20567.66    148.10669    34.643209 
139656000    275.96848    331.89068    235.40794   -20608.378    20601.344    96.482744    34.629826 
139660000    268.41254    409.02028    312.75571   -20640.065    20654.739    96.264576    34.624616 
139664000    284.05091    405.08064    239.73891   -20683.899    20666.172    165.34173    34.633822 
139668000    308.10525    302.94812    529.51169   -20695.101    20692.655   -226.56357    34.623674 
139672000    269.62594    423.43209    321.05716    -20696.32    20704.763    102.37493    34.627356 
139676000    301.15821    301.56196    289.14453   -20703.682    20709.754    12.417436    34.572824 
139680000    246.44214    393.07065    374.66375   -20712.967    20752.753    18.406896    34.583378 
139684000    291.47201    480.63539    297.75268   -20735.229    20732.911    182.88271    34.566707 
139688000    315.05014    466.30694    309.77395   -20755.809    20755.646    156.53299    34.512484 
139692000    277.21024    289.79125    412.51181   -20744.109    20756.503   -122.72056    34.497574 
139696000     283.8217    461.56136    447.42098   -20753.014    20759.336    14.140379    34.455638 
139700000     268.0945    319.17354    231.16151   -20777.435    20772.794    88.012027    34.459814 
139704000    304.27921    371.77109    352.97354   -20807.536    20804.135    18.797546    34.428132 
139708000    269.47022    378.95744    333.83319   -20816.161    20823.443    45.124246    34.449916 
139712000    287.30272    373.75711    387.87631   -20818.452     20815.97   -14.119193    34.430327 
139716000    244.59999      366.471    405.74156   -20812.432    20842.519   -39.270558    34.427885 
139720000    306.43662    283.76407    494.64449    -20861.45    20855.816   -210.88042    34.423552 
139724000    271.48058    297.07298    404.48449   -20868.505    20878.105   -107.41151    34.463111 
139728000    271.70457    296.85946    253.08895   -20883.151    20904.505    43.770506    34.434983 
139732000    246.27844    381.05412    163.69196    -20908.51    20927.444    217.36216     34.43711 
139736000    256.02214    366.21256    297.64872   -20945.519    20960.751    68.563833    34.464201 
139740000    260.31386    254.73114    289.29507   -20971.743    20988.884   -34.563934    34.465205 
139744000    291.34332    287.68053     286.3682   -21021.172    21026.479    1.3123273    34.482158 
139748000    289.54381    342.44954    565.82838   -21038.956    21036.621   -223.37884    34.474042 
139752000    295.34471     401.4864     262.2988   -21080.853    21064.417    139.18759    34.499361 
139756000    271.68151    277.74274    378.04358   -21103.563    21110.859   -100.30084    34.507216 
139760000    270.84297    600.06034    305.27449    -21130.95    21134.183    294.78584    34.493879 
139764000    254.28348    266.33931    269.82658   -21153.759    21189.397   -3.4872714    34.498737 
139768000    285.88573    247.67425    273.92734    -21186.93    21192.817   -26.253088    34.511133 
139772000    289.07567    304.19534    396.74008   -21235.603    21230.796   -92.544739    34.445339 
139776000     279.6833    308.20554    299.80124    -21261.04    21268.971    8.4042965    34.429174 
139780000    273.56693    339.85484    399.59431   -21253.356    21266.481   -59.739465    34.430045 
139784000    310.02386    349.53571    299.06652   -21299.281    21296.273    50.469193    34.456714 
139788000    278.64164     373.4469    465.50209   -21329.875    21340.586   -92.055194    34.454473 
139792000    262.79014    422.14331    280.89667   -21356.647    21342.531    141.24663    34.462558 
139796000    259.21823    195.02595    253.73882   -21369.161    21387.672   -58.712868    34.467489 
139800000    315.82237    524.45569    473.47324   -21411.151     21413.84    50.982451     34.46356 
139804000     305.5656     503.5529    406.27396   -21433.464     21452.46    97.278942    34.450854 
139808000    296.71301    433.35653     407.0569   -21465.841    21475.772    26.299628    34.464944 
139812000    262.66196    288.29453    370.81068   -21467.635    21490.379   -82.516157    34.446486 
139816000    294.97859    385.45922    400.11242   -21525.177    21509.932   -14.653202    34.450881 
139820000    307.77321    525.04763    249.67267   -21561.019    21563.306    275.37497    34.463625 
139824000    259.26725    217.28615     336.8039   -21574.422    21578.538   -119.51775    34.480298 
139828000    283.75629    363.53744    202.50469    -21585.07    21587.964    161.03274    34.475641 
139832000    283.80969    416.14736    184.04818   -21598.755    21603.871    232.09918    34.491141 
139836000    253.50394    475.61281    278.92423   -21618.545    21635.326    196.68858    34.534803 
139840000    294.20031    242.15923    364.10305   -21631.551    21632.904   -121.94382    34.482698 
139844000    279.42899    350.76109    303.84772   -21636.013    21634.757    46.913375    34.493189 
139848000    275.02842    308.33894    278.31005   -21653.439    21669.628    30.028889    34.523856 
139852000    259.67941    191.03112    307.73658   -21667.038    21669.533   -116.70546    34.487629 
139856000    274.71207    443.85485    339.89178   -21691.158    21699.732    103.96307    34.480954 
139860000    287.71656    375.40818    207.39754   -21709.611    21724.974    168.01064    34.492267 
139864000    288.36688    221.43569    402.65597   -21733.739    21729.959   -181.22029    34.482699 
139868000    276.94523    416.85695    227.54172   -21749.418    21779.054    189.31523     34.49606 
139872000    263.52015    425.67275    225.57277   -21760.681    21796.687    200.09998    34.531973 
139876000    268.55304    267.54775    361.40839   -21784.524    21790.799   -93.860638    34.544772 
139880000    276.25541    397.52804    420.00332   -21808.722    21812.007   -22.475278     34.54982 
139884000     286.8352    320.62953    401.09751   -21840.265    21839.555    -80.46798    34.554067 
139888000    283.75381    376.81641    309.03105    -21879.63    21885.932    67.785359    34.558069 
139892000    244.75225    300.92118    251.84147   -21891.909    21924.863    49.079702    34.558376 
139896000    295.61461    642.59584    296.43095   -21938.427    21937.597     346.1649    34.581633 
139900000    271.49757    414.60393     257.8348   -21958.033    21960.977    156.76914    34.600152 
139904000    255.46612     459.2468     378.1642   -21967.032    21988.784    81.082596    34.620397 
139908000     253.8506     226.0174    218.05952   -22018.626    22041.556    7.9578811    34.626648 
139912000    279.29075     500.4303     388.7857   -22038.265    22040.128     111.6446    34.590192 
139916000    263.77636    366.47959    202.35933   -22027.249    22051.742    164.12027    34.567453 
139920000    278.89708     312.5831     348.5904    -22074.96     22083.03   -36.007297    34.564078 
139924000    246.83374    394.75086    188.92473   -22078.641    22111.223    205.82614    34.540451 
139928000    266.68252    329.44219     238.8612   -22115.935    22142.287     90.58099    34.527979 
139932000     254.9114    398.37946    242.86557   -22140.219    22166.271    155.51388     34.51512 
139936000    244.86417    172.38432    315.34759   -22136.688    22182.405   -142.96326     34.49642 
139940000    290.44888    389.34856    386.02013   -22168.723    22183.235    3.3284323    34.491592 
139944000    275.29682    359.40599    322.01957   -22201.164    22214.162    37.386418    34.457686 
139948000     279.5383    320.21088    294.27038    -22234.87    22225.475    25.940507    34.464268 
139952000     280.8936    425.76862    481.77747   -22267.542     22283.46   -56.008846    34.473754 
139956000     298.4585    271.29978    291.01149   -22308.234     22289.43   -19.711714    34.495015 
139960000     283.6173    477.44069    261.52029   -22296.875    22308.622     215.9204    34.528525 
139964000    292.87976     443.9362    286.45908   -22347.615    22327.182    157.47712    34.521111 
139968000    282.56005    317.25177    374.25232    -22333.66    22345.794   -57.000555    34.522199 
139972000    272.41251     304.7827    250.15839   -22356.798    22370.777    54.624316    34.554588 
139976000    291.73999    449.71986    351.32302   -22359.151    22373.489    98.396846    34.592558 
139980000    272.46042    382.39167    334.45292   -22361.768    22374.208    47.938744    34.581171 
139984000    277.99779    426.64254    409.79468   -22383.792    22391.785    16.847858    34.586792 
139988000    257.43698      247.073    219.31024   -22371.553    22404.859    27.762761    34.622912 
139992000     282.8363    310.22406    338.81518    -22408.23    22407.623   -28.591119    34.622423 
139996000    288.99451    341.26713    379.10068   -22422.472    22440.891   -37.833547    34.639786 
140000000    293.10726    339.32192    230.35836   -22468.488    22475.637    108.96356    34.646055 
140004000    303.21681    428.39901    357.38059   -22487.485    22482.854    71.018413    34.600769 
140008000    296.81485    311.76343    416.71973   -22512.123    22519.239    -104.9563    34.617139 
140012000    296.68497    285.21387    262.82025   -22515.782    22519.674    22.393614    34.609471 
140016000    256.92759    426.63633     273.3072   -22554.175    22573.539    153.32912     34.63508 
140020000    271.30112    513.51454    235.38923   -22611.067    22606.148    278.12531    34.682995 
140024000    281.98846    453.59002     309.5706   -22604.802    22617.956    144.01942    34.680828 
140028000    271.38424    279.70921    192.44367   -22631.912    22642.672    87.265539    34.683749 
140032000    280.28629    180.27557    150.33046   -22647.999    22660.716    29.945115    34.692015 
140036000    290.11764    338.82187    250.32564    -22684.37    22692.738     88.49623    34.673535 
140040000    289.45335    423.21287    200.46683   -22707.772    22702.693    222.74604    34.716694 
140044000    287.46817    466.86919    414.15132    -22744.99    22732.423    52.717867    34.709731 
140048000    275.79808     526.0119    305.57914   -22741.158    22738.367    220.43277     34.75072 
140052000    255.28441      439.173    489.67219   -22722.753    22756.685    -50.49918    34.761762 
140056000    240.71543    225.01814    308.83995   -22727.616    22762.302   -83.821806    34.758544 
140060000    266.48805    221.33328    417.66358   -22754.108    22780.946    -196.3303     34.75718 
140064000    275.89922    439.45535    309.77342   -22795.896    22828.357    129.68193    34.781601 
140068000    301.00943    548.67927    428.05072    -22842.13    22843.787    120.62855     34.79953 
140072000    299.47763    333.11318    313.84416   -22859.412    22848.121    19.269016    34.802687 
140076000    292.71238    272.73224     517.0192   -22859.036    22852.952   -244.28695    34.783919 
140080000    291.79277    176.03832    364.27623   -22889.515    22868.506   -188.23791     34.75097 
140084000    284.77828    271.72191    203.86874   -22873.016    22880.781    67.853172    34.790017 
140088000    296.61501     348.1986    361.88802   -22906.943    22884.971   -13.689421    34.782236 
140092000    273.82033    281.21806    462.57685   -22894.812    22898.787   -181.35879    34.787305 
140096000    275.40763    524.37025    215.62807   -22912.143    22918.092    308.74218    34.807644 
140100000    285.24714    654.13926    149.88377   -22937.826    22941.808    504.25549    34.809909 
140104000    277.18818    253.99756    256.33744   -22977.846    22969.756   -2.3398806      34.8109 
140108000    293.23176    283.11614    326.77792   -22963.822    22969.122   -43.661778    34.835506 
140112000    327.25645    388.64974    277.54404   -22994.486    22980.474     111.1057     34.84692 
140116000    290.89672    431.08858    298.39389   -22992.622    22988.518    132.69469    34.841806 
140120000    283.37794    173.98587    319.60237   -23006.443    23011.201    -145.6165    34.821938 
140124000    273.22706    466.43227    192.88203   -23032.688    23025.551    273.55024     34.82844 
140128000    276.45929     281.7153    322.81479   -23039.535    23042.726   -41.099496    34.779002 
140132000    281.62452     557.5218    195.89733   -23067.921    23074.211    361.62447    34.793948 
140136000    288.30964     301.7663    230.02437   -23091.359    23097.111    71.741926    34.784708 
140140000    284.86454    420.79562     359.3152   -23112.981    23111.846     61.48042    34.786053 
140144000    254.28953    421.80962    342.06015   -23133.827    23159.225    79.749471     34.80241 
140148000    266.75024    324.93374    339.18323   -23166.877    23186.338   -14.249484    34.819104 
140152000    302.88439    538.14209    388.32252   -23196.464    23212.781    149.81957    34.800591 
140156000    243.08195    250.70067    336.06919   -23241.168    23271.976   -85.368519    34.787914 
140160000    277.21184    231.25829    292.55052   -23286.277    23304.288    -61.29223      34.7986 
140164000    281.05754    436.42209    257.13264   -23343.266     23341.41    179.28945    34.818942 
140168000    265.28982    323.99096    319.53886   -23340.448    23369.931     4.452101    34.843574 
140172000    288.26563    368.54987    295.17401   -23365.068    23363.402     73.37586    34.880696 
140176000    285.84519     487.2307     360.8444   -23375.483    23361.971     126.3863    34.918738 
140180000    299.50984    384.93951    412.75227   -23362.398      23358.2   -27.812766    34.966949 
140184000    271.81208    391.40929    298.14226   -23403.073    23393.618    93.267024    34.993236 
140188000    284.85806     194.3691    341.47322   -23443.406     23437.23   -147.10413    34.972565 
140192000    301.34182    319.36016    403.57941   -23448.597    23451.398   -84.219249    34.980839 
140196000    267.83814    408.30142    273.76304    -23461.39    23480.387    134.53838    34.966629 
140200000    289.24138     354.9464    416.78661   -23484.969    23496.703    -61.84021    34.911627 
140204000    289.65718    392.04939    322.26953   -23506.016    23504.366    69.779859    34.888691 
140208000    252.57519    374.03477    321.46027   -23505.083    23530.722    52.574496    34.920196 
140212000    270.37348     460.6764    336.68071   -23566.634    23567.772    123.99569    34.932813 
140216000    289.11749    262.45243     489.8754   -23572.138    23575.423   -227.42297    34.901407 
140220000    303.03236    401.20454     241.2111   -23594.356    23583.829    159.99345    34.898971 
140224000    281.26062    406.44688    301.63115   -23585.673    23591.195    104.81573    34.903247 
140228000    258.21791     409.4735    186.94531   -23587.257    23601.662    222.52819    34.917462 
140232000    273.07712     433.3272    478.64809   -23603.615    23605.298   -45.320897    34.927411 
140236000    286.93511    301.33436    239.42892   -23626.248    23624.205    61.905437    34.992192 
140240000    299.61339     305.7613    311.52467   -23652.587    23647.757   -5.7633706    34.974288 
140244000    264.58391    472.67018    264.82705   -23660.648    23692.036    207.84313    34.983503 
140248000    281.31545    400.71839    214.43326   -23703.276    23712.705    186.28513    34.999764 
140252000    299.62332    600.33361     289.7773    -23742.04    23742.957    310.55631    34.994073 
140256000    257.04596    224.01683    273.55772   -23739.125    23777.124   -49.540891     35.00457 
140260000    280.86426    233.20069    410.99853   -23761.572    23778.933   -177.79784    34.998301 
140264000    278.78081    230.87524    488.48063    -23779.15    23793.303   -257.60539    34.965349 
140268000    273.09948    425.48508    94.496257   -23798.034    23806.182    330.98882    34.969746 
140272000    293.56293     347.3487    324.98121   -23828.918    23833.782    22.367497    34.948968 
140276000    277.58058    379.26024    334.49195   -23861.701    23869.837     44.76829    34.965187 
140280000    288.71216    284.68951    284.30261    -23885.67    23885.233   0.38690189     34.97437 
140284000    303.86019    492.05402     285.0715   -23903.896    23894.928    206.98252     34.98069 
140288000    287.33273    298.40816    310.17766   -23901.347    23898.594   -11.769495    34.958017 
140292000    281.11819    302.88432    436.77128   -23905.232    23909.709   -133.88697    34.931885 
140296000    275.61596      292.008    212.74877   -23928.797    23928.057    79.259237    34.941931 
140300000    261.58437    165.04905    449.56283   -23908.155    23920.581   -284.51377    34.900328 
140304000    278.52898    390.62434    178.09434   -23970.882    23973.846       212.53    34.891341 
140308000    272.85442     288.9053    342.32876   -23982.826    23989.559   -53.423463    34.859115 
140312000    273.41774    283.28968    302.66084   -23998.851    24019.332   -19.371159    34.842326 
140316000    328.73884    563.07618    310.24913   -24045.631    24023.903    252.82705    34.861901 
140320000    284.51011    302.43475    285.55013   -24031.098    24048.782    16.884625    34.868147 
140324000    294.74217    238.95815    434.77364   -24050.289    24047.381    -195.8155    34.852488 
140328000    321.85377    260.00173    172.09561     -24078.9    24053.657    87.906124    34.838093 
140332000      291.627    253.24464    229.94208   -24104.188    24101.588    23.302565    34.824417 
140336000    277.37671    437.03361    455.28265   -24102.419    24115.316   -18.249038     34.77923 
140340000    331.10559    317.35884    247.99885    -24113.11    24095.893    69.359989    34.791522 
140344000    286.33702    516.66813    296.52212   -24105.579    24117.944    220.14601    34.809232 
140348000    300.34747    376.08197    617.71886   -24131.196    24138.918   -241.63689    34.793793 
140352000    312.42281    438.50208    414.95754   -24153.372    24155.982    23.544539     34.78874 
140356000    306.90489     320.1292    403.16102   -24168.314    24174.103   -83.031826     34.80366 
140360000     278.6878    457.79085    314.76499   -24188.831    24202.551    143.02586    34.780683 
140364000    266.24179    377.41081    300.84632   -24187.152    24214.027    76.564482    34.782885 
140368000    291.16798    434.03643    299.54018   -24233.673    24246.973    134.49624    34.850108 
140372000    283.51008    254.42372    227.66823   -24277.369    24298.971     26.75549    34.828685 
140376000    261.89197    383.45826    281.73184   -24319.489     24339.14    101.72641    34.824385 
140380000    276.06708    226.83155    338.06921   -24348.669    24370.225   -111.23767    34.816842 
140384000    273.54026    433.64947    380.85627   -24398.438     24422.24    52.793202    34.808214 
140388000    261.16346    447.70577    400.24954   -24429.591    24438.935    47.456229    34.850045 
140392000    303.30655    302.51531    354.14343   -24463.554    24478.431   -51.628125    34.845138 
140396000    250.55282    305.69946    461.98249   -24496.721    24514.724   -156.28302    34.815041 
140400000    300.97029    355.79732    447.53436   -24536.139    24532.206   -91.737043    34.777674 
140404000    266.73724    298.51363    412.03689    -24516.45    24540.574   -113.52326    34.781956 
140408000    277.73604    431.85528    348.59073    -24553.22    24559.832    83.264552    34.784967 
140412000    314.58193    231.94947    364.43508   -24578.435     24570.47   -132.48561    34.772557 
140416000    265.71079    264.52191    243.23909   -24580.006     24609.58     21.28282    34.778089 
140420000    286.59718     484.8274    398.48081   -24571.048    24589.215     86.34659    34.740577 
140424000    257.77295    281.72923    242.16183   -24605.984    24634.477    39.567402    34.759819 
140428000    287.60968    448.81908    246.12247   -24636.497    24643.515    202.69661    34.762599 
140432000    273.05856    437.30288    314.11259   -24649.152    24669.736    123.19029    34.757432 
140436000    279.86535    511.93492    335.47568   -24666.382    24690.454    176.45924    34.777459 
140440000    285.11897    377.42859    364.46895    -24686.38    24688.242    12.959644    34.777236 
140444000     271.0212    351.49028    317.85366   -24672.038    24680.118    33.636618    34.778073 
140448000    286.43074    385.14451    332.79094   -24666.611    24670.818    52.353569    34.808837 
140452000    305.52776    557.60516    335.00933   -24709.616    24696.396    222.59583    34.796257 
140456000    309.87542    447.84264    355.79497    -24748.87    24729.394    92.047675    34.780585 
140460000     270.6036    478.53475    308.83047   -24747.598    24770.873    169.70428    34.779904 
140464000    269.00826    201.46153    338.09765   -24746.586    24760.605   -136.63612    34.755645 
140468000    300.23235    290.78323    624.94357   -24784.056    24765.989   -334.16033    34.716848 
140472000    265.31675     156.4066    270.03436   -24809.526    24809.266   -113.62776    34.712898 
140476000    325.19032    464.69661    297.19124   -24846.423    24830.801    167.50536    34.729861 
140480000    287.09597    326.55119    219.32933   -24862.639    24883.487    107.22186    34.715813 
140484000    286.22528    354.73431    178.95205   -24867.486    24866.165    175.78226    34.722945 
140488000    258.78332    347.40789    181.49811   -24860.497    24888.421    165.90978    34.734348 
140492000    262.69273    302.52527    201.25787   -24888.794    24902.833    101.26741    34.743682 
140496000    288.23493     416.5562    537.87287   -24900.909    24915.544   -121.31667    34.738429 
140500000    255.69338    99.039799    344.42608   -24932.478    24947.667   -245.38628     34.73849 
140504000    300.45105    574.01431    469.56523    -24947.99     24950.62    104.44908    34.740339 
140508000    270.19568    389.98721    321.25725   -24948.772    24967.287    68.729959    34.703842 
140512000     284.4157    309.25679    375.27084   -24971.532    24977.981   -66.014049    34.714475 
140516000    295.78467    317.49644    217.42336   -25017.387    25004.491    100.07308    34.696051 
140520000    270.91752    294.10797    346.85285   -25023.348    25055.744    -52.74488    34.735294 
140524000    283.54853    379.94679    176.54805   -25056.702    25062.195    203.39874    34.748889 
140528000    294.57444    318.82216    393.84637   -25079.599    25070.463   -75.024215    34.726872 
140532000     280.1235    335.35047    378.38155   -25122.419    25121.549   -43.031075    34.701302 
140536000    290.87654    603.32957    332.44466   -25125.227    25136.988    270.88491    34.694452 
140540000    292.25765    377.52934    549.22064   -25146.673    25146.332    -171.6913    34.699211 
140544000     281.6798    476.40095    242.48835   -25169.053    25176.033     233.9126    34.695298 
140548000    285.08415    414.37359    352.48061   -25203.152    25192.813    61.892985    34.683767 
140552000    264.44966    275.88215    475.97964   -25209.261    25234.808   -200.09749    34.690482 
140556000    265.39926     366.3296    308.02552   -25244.497    25254.819     58.30408     34.69645 
140560000    295.23443    300.44826    431.95926   -25277.867    25279.066     -131.511    34.694204 
140564000    286.51604    323.04299     322.0817   -25298.306    25312.691   0.96129059     34.69639 
140568000    280.41493    341.73575    332.98621   -25306.065    25333.497    8.7495425    34.687842 
140572000    267.27884    332.52907    208.72638   -25325.553    25344.953    123.80269    34.681559 
140576000    281.96298    191.87732    358.83886    -25349.28      25344.6   -166.96154    34.681787 
140580000    297.95459    443.66358     181.4304   -25384.715    25384.237    262.23318    34.675801 
140584000    293.99434    222.86962    193.87295   -25416.051    25406.973     28.99667     34.66361 
140588000    283.70465    249.58701    360.63136   -25415.284    25405.768   -111.04435    34.680509 
140592000    303.33464    398.03953    355.07035    -25458.36    25440.082    42.969171    34.684166 
140596000    267.74349    391.30776    448.51866   -25465.582     25479.11   -57.210903    34.655194 
140600000    308.48949    213.84565    461.88026   -25493.125    25510.911    -248.0346     34.64667 
140604000      269.415     274.9956    323.58335   -25493.701    25525.303   -48.587745    34.649109 
140608000    295.36897    410.63014    197.40111   -25552.689    25570.055    213.22902    34.670815 
140612000    288.47999    417.01281    252.23318   -25569.094    25590.555    164.77963    34.656599 
140616000    272.18943    420.22208    486.42437     -25564.3    25594.678   -66.202298    34.649848 
140620000    288.93208     517.2696    341.22196   -25621.628    25629.026    176.04764    34.643189 
140624000    287.92339      215.509    364.00477   -25635.888    25632.818   -148.49578    34.651004 
140628000     316.0964    365.01977    327.96577   -25669.391    25658.291    37.054007     34.66912 
140632000    287.15971    355.86292    185.32941   -25685.903    25674.011     170.5335    34.650958 
140636000    260.83842    419.16749    199.59009   -25686.038    25700.151     219.5774    34.663736 
140640000     309.0757    536.12576    254.01707   -25729.527    25716.678    282.10869    34.664396 
140644000    314.29295    278.12973    401.62879   -25753.241    25731.271   -123.49906    34.646013 
140648000     264.9476    462.78976    358.08323   -25758.506    25766.554    104.70653    34.617554 
140652000    265.68338    264.71177    345.18933   -25767.602     25801.14   -80.477561      34.6381 
140656000    276.81883    298.17842    422.58022   -25804.448    25808.021    -124.4018    34.637805 
140660000    285.64175    282.87561    440.49107   -25832.388    25833.062   -157.61546    34.649669 
140664000    290.91246    442.90564    367.91917   -25874.181    25854.566    74.986467    34.661591 
140668000    280.84321    354.70254    353.20358   -25874.252    25894.154    1.4989599    34.620531 
140672000    246.42652    451.06439    273.70184   -25915.641    25939.955    177.36255    34.621386 
140676000    301.96296    320.38034    709.32479   -25937.903    25934.356   -388.94445    34.636091 
140680000    296.95938    483.35054    516.60875   -25942.851    25960.816   -33.258205    34.648895 
140684000    255.63705    342.26596    294.87102   -25956.218    25972.181    47.394941    34.625615 
140688000    285.09673    234.16146    569.52765   -25997.217    26011.295   -335.36619    34.628304 
140692000    287.86932    427.33067    227.22608   -26027.652    26023.255    200.10459    34.644468 
140696000    308.60867    494.57292    476.14258   -26065.926    26060.648    18.430345    34.652378 
140700000    285.96197    210.03576    488.61258   -26100.327    26089.075   -278.57682    34.655055 
140704000    287.41729    722.08157    335.53136   -26138.378    26128.428    386.55021    34.647772 
140708000    281.02297    435.92575    292.93952   -26172.911     26181.88    142.98623    34.661563 
140712000    315.74433    359.63954    502.32104   -26195.896    26193.291    -142.6815    34.696327 
140716000    288.55739    451.97626    267.69933   -26209.665    26205.264    184.27693    34.712493 
140720000    304.85016    485.05492    287.05951    -26242.15    26234.051    197.99542    34.683383 
140724000       264.37    233.42388    369.45428   -26246.728    26267.332    -136.0304    34.669064 
140728000     251.3787    334.85805    332.53598   -26260.899    26287.749    2.3220689    34.706324 
140732000    279.27951    517.49243    298.26262   -26308.252    26322.521    219.22981    34.713615 
140736000    278.34182    212.16849    245.08179    -26306.18    26321.388   -32.913301    34.705668 
140740000    268.10081     363.4437    279.59617   -26321.848     26334.72    83.847528    34.709953 
140744000     280.9172    280.89934    249.41685   -26345.288    26349.267    31.482486    34.729079 
140748000    286.58478    256.68085    438.21822   -26365.437    26366.552   -181.53737    34.713884 
140752000    273.09307    344.36427     328.4334   -26374.053    26380.902    15.930865    34.729129 
140756000    299.63323    440.51269    318.37311   -26416.567     26398.32    122.13958     34.74021 
140760000    279.89963    412.92778    268.69674   -26452.785    26455.306    144.23104    34.747748 
140764000    278.14618    254.23222    391.65887   -26454.853    26464.859   -137.42665    34.748465 
140768000    265.20954     494.0565    366.47139    -26478.83    26492.918    127.58511    34.733203 
140772000    312.59171    513.77531    240.35295    -26538.51    26515.019    273.42236    34.769467 
140776000    272.48959    567.07394    360.26093   -26527.981    26555.751    206.81301    34.779232 
140780000    278.33208    416.40733    234.66054   -26573.776     26588.74    181.74679    34.779027 
140784000     278.7074    374.06234    295.85536   -26582.797    26610.703    78.206978    34.759795 
140788000     302.7389      446.711    269.01358   -26621.335     26626.01    177.69741    34.763746 
140792000    275.08223    300.24124    345.95488   -26655.721    26675.026    -45.71364    34.764677 
140796000     276.8695    333.34476    343.73988   -26686.112    26690.738   -10.395127     34.79308 
140800000     267.4846    513.76249    346.57948   -26702.447     26721.28    167.18301     34.79195 
140804000    272.26197    225.41299    243.08467   -26690.666    26713.073   -17.671676    34.773776 
140808000    302.54575    564.99877    343.94411   -26703.087    26693.417    221.05466      34.7616 
140812000    242.08698    285.45312    159.17697   -26706.911      26739.7    126.27615    34.742371 
140816000    320.45457    592.47089    378.89848   -26725.864    26726.783    213.57241    34.738174 
140820000    296.99878    303.11455    246.15928   -26753.631    26755.648     56.95527    34.728478 
140824000    288.58561    226.45935    406.44813   -26764.667    26774.016   -179.98878    34.741625 
140828000    291.94298    347.10183    294.78246   -26770.032    26786.963    52.319367    34.744127 
140832000    272.99903    402.12346    496.12299   -26788.458    26794.902   -93.999529    34.764891 
140836000    283.19188    336.97923    399.85537   -26793.701    26798.208   -62.876135    34.752515 
140840000    255.86825    420.40646    257.09281   -26821.544      26835.5    163.31365    34.742423 
140844000    253.76173     341.4426    185.28636   -26826.818    26850.275    156.15624    34.747808 
140848000    267.59524     313.3607    447.62091   -26853.895    26869.274   -134.26022    34.743117 
140852000    279.22405    322.19557    499.20835   -26864.955    26878.778   -177.01278    34.715015 
140856000    312.18883    374.04688    180.98058   -26921.361    26893.083     193.0663    34.742292 
140860000    312.27708    382.93752    437.35556   -26953.106    26916.952   -54.418045    34.737643 
140864000    290.27594    323.18193     330.6762   -26942.909    26951.591   -7.4942778    34.746344 
140868000    274.22477    260.04769    377.22041   -26974.835    26983.518   -117.17272    34.767044 
140872000    311.94045    463.65114    367.42808   -27006.084    26999.997    96.223057    34.773868 
140876000    281.82676     312.0435    314.39968   -27005.126    27002.902   -2.3561851    34.779282 
140880000    296.80794    452.30799    327.71362   -27028.589    27032.172    124.59437    34.795798 
140884000    270.02227    270.80565    327.90557   -27048.409    27045.754   -57.099915    34.783983 
140888000    283.75804    478.81345    305.13732   -27088.717    27102.266    173.67613    34.789181 
140892000    262.33803    252.97964    337.81533    -27112.42    27125.505   -84.835691    34.779941 
140896000    282.57927    345.02026    375.61727   -27127.387    27122.379    -30.59701    34.769877 
140900000    281.16712    389.46584    354.02328   -27156.019    27162.912    35.442567    34.790768 
140904000    291.23094    420.00028     281.4444   -27187.842    27189.256    138.55588    34.788192 
140908000    245.10927    400.25997    254.90683   -27176.559    27214.732    145.35315    34.759188 
140912000    271.78917    285.43836    269.70294   -27187.622    27202.479    15.735414    34.767251 
140916000    301.95915     342.4815     228.0982   -27236.105     27231.39    114.38329    34.795004 
140920000    291.20283    354.50602    267.91622   -27220.179    27245.733    86.589799    34.837444 
140924000    249.26082    350.49318    284.12208   -27248.528    27278.713    66.371095    34.863765 
140928000    264.31505    232.86413    379.91841   -27263.201    27299.137   -147.05428    34.869959 
140932000    264.92809    342.83929     218.3219   -27280.137     27296.94    124.51739    34.884255 
140936000    292.94699    261.15264    474.45348   -27318.991    27312.677   -213.30085    34.870648 
140940000    283.29808     475.2488    254.51216   -27327.813    27326.742    220.73665    34.881672 
140944000     272.6382    421.20872    420.66233   -27343.501    27356.855   0.54639177    34.850631 
140948000    288.02152    271.02709    496.32988   -27381.111    27393.013   -225.30279    34.881819 
140952000    300.31503    302.72071    372.85527   -27411.547    27418.863   -70.134557    34.875951 
140956000    272.62428    218.46642    329.45691   -27436.367    27446.917   -110.99049    34.870852 
140960000    271.98787    572.13058    287.64886   -27474.159    27483.968    284.48171    34.869545 
140964000     284.2182     263.0419    230.13011   -27480.372    27496.524     32.91179    34.860774 
140968000    287.86976    374.98444    405.61144   -27516.681    27513.185   -30.626997    34.846763 
140972000     326.3311    494.16219    383.78378   -27555.073    27550.127    110.37841    34.838677 
140976000    279.61921    317.83987    399.43842   -27567.535    27577.922   -81.598548    34.845874 
140980000    291.17288    369.92944    315.98411    -27581.67    27595.997     53.94533    34.832716 
140984000    266.38035    327.23166      414.497   -27596.427    27619.639   -87.265343    34.845212 
140988000    285.67392    471.96007    405.35878   -27630.801    27654.427    66.601288     34.84797 
140992000    277.80343    301.49028    196.65902    -27671.99     27698.29    104.83126    34.855045 
140996000    279.17719    238.48166    287.83044   -27692.417    27705.202   -49.348776    34.858583 
141000000     284.3012     241.8142    320.38251   -27703.422    27711.038   -78.568315    34.875321 
141004000    265.83631    366.89213    321.17331     -27707.4    27732.081    45.718821    34.840204 
141008000    284.07704    437.53171    182.67748   -27721.639    27732.619    254.85423    34.803029 
141012000    286.33169    337.57522     324.2295   -27729.153    27738.169    13.345718    34.798401 
141016000    257.37461    363.67583    336.68947   -27741.679    27782.215    26.986355    34.777645 
141020000    268.39927    368.43514    380.13259    -27768.36    27788.181   -11.697451    34.772112 
141024000    309.32035    491.96636    341.29768   -27815.755    27811.766    150.66868    34.776421 
141028000    276.50491    484.10215    280.22781    -27856.27    27854.398    203.87434    34.786993 
141032000    292.98668    424.82007     290.0651    -27873.84    27880.508    134.75498    34.801093 
141036000    273.06228    175.50881    280.54148   -27884.151    27916.515   -105.03267    34.788147 
141040000    267.89199    324.05587    231.17506   -27934.081    27950.486    92.880811    34.789548 
141044000     262.7309    309.82794    160.77054   -27954.722    27968.532     149.0574    34.792071 
141048000    281.91525    420.89308    412.35013   -27994.515    28002.481    8.5429443    34.792186 
141052000    254.06277    483.68436    306.78363   -28005.076    28049.543    176.90073    34.799012 
141056000    270.89976    273.35084    476.02237   -28031.741    28048.049   -202.67153    34.784527 
141060000    311.66668     454.4063    257.58794   -28055.254    28054.606    196.81836    34.781313 
141064000    299.43504    540.49779    306.25349   -28119.718    28095.007     234.2443    34.771112 
141068000    286.99834    369.12214    408.61706   -28111.463    28120.571    -39.49492    34.782721 
141072000     273.5304    344.03527    295.79293   -28117.333    28132.668    48.242332     34.78018 
141076000    255.53729    422.72607    315.52879    -28123.09    28154.297    107.19729    34.769586 
141080000    286.31687    387.05292    164.49843   -28154.233    28164.733    222.55449    34.803846 
141084000    293.64143    402.76995     273.4023   -28180.603    28197.739    129.36765    34.813188 
141088000    269.00208    440.39173    341.20198   -28187.852    28206.339    99.189749    34.825981 
141092000    300.82654    331.28454    427.92073   -28215.309    28224.855   -96.636193    34.814303 
141096000    302.89677    340.96881    323.90497   -28244.638    28258.251    17.063839    34.799121 
141100000     296.6596    328.75132    277.75573   -28275.957    28293.132     50.99559    34.792613 
141104000     282.2239    440.93749    289.67258   -28311.709    28319.487    151.26491    34.810133 
141108000    265.71053    234.05763    317.53582   -28317.667    28331.245   -83.478193    34.820111 
141112000    282.54054     308.6509    183.07225   -28339.531    28360.624    125.57865    34.824905 
141116000    305.24868    243.03069     531.1102   -28372.569    28370.881    -288.0795    34.800364 
141120000    288.50624    600.18296    284.29816   -28395.063    28408.262     315.8848    34.797227 
141124000    302.40841     406.3787    143.75346   -28431.593    28435.661    262.62524     34.80648 
141128000    289.89898    369.12489    333.81049   -28439.856    28445.741    35.314399    34.796969 
141132000    288.84304    312.21786    282.38532   -28451.535    28471.208    29.832545    34.807543 
141136000     291.5478    379.36565    404.82197   -28483.457    28490.412   -25.456323    34.791925 
141140000    275.00518     349.6846    319.81533   -28515.041    28514.445    29.869266    34.804693 
141144000     301.5067    286.36124    171.32046   -28550.786    28549.745    115.04078    34.820118 
141148000    291.75415    386.66389     235.7455   -28556.041    28578.174    150.91839    34.807966 
141152000    270.57867    446.56804    327.85205   -28572.987    28593.568      118.716    34.861115 
141156000    314.87541    387.21452    313.07164   -28600.211     28612.98    74.142884    34.848589 
141160000    283.37875    244.46937     463.9662   -28652.159    28666.224   -219.49683    34.806197 
141164000    258.57807    295.36931    404.72219   -28685.761    28702.865   -109.35288     34.79729 
141168000    270.46794    426.61888    370.90114   -28708.974    28729.429    55.717744    34.804498 
141172000    252.36121    292.65405    143.11321   -28696.325    28732.343    149.54084     34.79903 
141176000    278.81808    477.51432    249.92516   -28729.509    28742.114    227.58917    34.802007 
141180000    296.52663    268.02524    410.36073   -28768.313    28781.443   -142.33549    34.806666 
141184000     269.1696     222.2348    246.98633   -28777.767     28793.24   -24.751532    34.794207 
141188000    284.73719    489.17053    222.01013   -28787.551    28796.412     267.1604    34.811626 
141192000      289.487    319.58958     451.6796   -28798.588     28804.05   -132.09002    34.801107 
141196000    273.65752     260.4332    234.98693   -28824.791    28837.364    25.446276    34.835818 
141200000    288.69442    371.67368    323.51179   -28837.916    28843.853    48.161895     34.79698 
141204000    281.34022    297.93844    234.43513   -28827.943    28851.856    63.503308    34.805551 
141208000    283.64367    234.44624    385.85856   -28850.536    28872.521   -151.41232    34.826654 
141212000    245.86935    299.85557    315.92928   -28864.173    28887.195   -16.073704    34.798621 
141216000    272.25675    502.33957     285.2594   -28878.408    28908.567    217.08017     34.83995 
141220000    260.47104    265.89339    268.87736   -28926.366    28929.417    -2.983977    34.858404 
141224000    299.66124    291.76631    265.79104   -28975.751    28968.169    25.975275    34.853699 
141228000    291.27607    293.48618    503.63168   -29003.367    28993.791   -210.14549     34.82807 
141232000    296.82432    489.96933    336.76586   -29022.796    29024.858    153.20348    34.843703 
141236000    271.95782    209.07532    379.42467   -29031.353    29067.549   -170.34934    34.851223 
141240000    231.59979    412.91023      216.931   -29046.143    29101.327    195.97923    34.858434 
141244000    270.49542    371.90639    364.73103   -29090.882    29115.449    7.1753596    34.851233 
141248000    296.30412    500.19656    323.22907   -29124.822    29129.767    176.96749     34.85648 
141252000    277.18061    467.17079    294.45838   -29120.507    29149.574     172.7124    34.862013 
141256000    268.70705    210.01733    444.64726   -29127.394    29145.863   -234.62993    34.874831 
141260000    256.48884    160.63912    400.20819   -29153.193     29197.07   -239.56907     34.88826 
141264000    296.14974     442.6186    298.89827    -29186.66    29193.387    143.72033     34.87616 
141268000    296.64472    283.08672    339.23219   -29181.412    29202.065   -56.145476    34.864563 
141272000    273.15285    304.71308    359.99019   -29205.628    29218.099   -55.277113    34.886849 
141276000    305.01122    260.93237    229.92927   -29219.642    29211.243    31.003106    34.910787 
141280000    318.66047      468.131    388.32736   -29254.215     29251.47    79.803639    34.908352 
141284000    283.57812    465.60926    222.67655   -29266.644    29281.363     242.9327    34.889683 
141288000    278.97174    209.93694    381.03392     -29264.7     29279.08   -171.09697    34.869927 
141292000    301.12729    181.04145    600.70554   -29308.381    29301.626   -419.66409    34.870406 
141296000    267.78621    424.99921     238.0943   -29336.085    29349.476    186.90491    34.887708 
141300000    282.84775    373.95666    180.95334   -29371.022     29372.88    193.00332    34.911397 
141304000    283.70938     198.3638    247.18827   -29358.336    29379.378   -48.824478    34.897799 
141308000    298.25754    278.24118    474.03858   -29426.352     29413.11    -195.7974    34.882408 
141312000     273.3771    333.84122    193.60655     -29410.5    29441.302    140.23467    34.865845 
141316000    302.41246    463.95396    387.18684   -29429.433    29437.011    76.767124    34.897002 
141320000    279.93707    385.19603    210.70715   -29425.943    29440.735    174.48888    34.903478 
141324000    265.28438    262.93156    256.94757   -29445.068      29463.4    5.9839904    34.890401 
141328000    278.78074     390.5447    451.66211   -29464.692    29470.469   -61.117411    34.886814 
141332000    258.61064    272.39377    411.29375   -29468.745    29502.802   -138.89998    34.902727 
141336000    252.78171    431.10603    304.67886    -29495.48    29519.582    126.42717    34.916372 
141340000    276.09863    468.12948    308.06747    -29516.46    29530.015    160.06201    34.916326 
141344000    277.31586    397.10025    176.36447   -29539.716    29555.711    220.73578    34.905645 
141348000     277.3886    249.21373    392.74515   -29563.288    29579.142   -143.53142    34.925771 
141352000    289.09845     348.3306    319.43581   -29591.083    29607.388    28.894796    34.926773 
141356000     274.9381    391.34034    268.52639   -29618.377    29614.506    122.81395    34.927506 
141360000    260.05679    260.34855    536.82622   -29613.837    29627.871   -276.47767    34.924986 
141364000    273.16601    300.05054    350.03969    -29628.31    29654.276   -49.989154    34.931664 
141368000    285.94068    492.61448    272.66852   -29659.826    29661.775    219.94597    34.907564 
141372000    264.85112    353.75947    405.03734    -29670.01    29693.356   -51.277871    34.883871 
141376000    288.62443    229.70819    204.21469   -29699.579    29703.886    25.493502    34.883947 
141380000    263.34131    418.02864    182.23079   -29725.805    29739.518    235.79785     34.88353 
141384000    257.40212    272.00373       311.49   -29746.306    29764.865   -39.486271    34.894691 
141388000    306.61817    301.36212    433.20026   -29799.498    29807.138   -131.83814    34.894777 
141392000    292.73256    401.12392    290.47879   -29807.669     29825.26    110.64513     34.88224 
141396000    285.40474    364.44075    508.41086    -29834.97    29838.423   -143.97012    34.883615 
141400000    273.01346    339.50557    405.24138   -29865.886    29861.672   -65.735813    34.877376 
141404000    282.24399    457.42877    257.74415   -29865.983    29879.785    199.68462    34.865452 
141408000    297.43821    325.17353    538.18702   -29869.866    29873.451   -213.01349    34.852829 
141412000    308.08985    296.69607    359.89736   -29918.056    29914.854   -63.201295    34.829381 
141416000    297.87436    293.93941    437.51182   -29947.861     29945.81    -143.5724    34.823031 
141420000      290.401    391.67704    352.02391   -29972.885    29978.427    39.653129    34.834578 
141424000    297.79739    295.49677    412.43239   -30015.814    30008.286   -116.93563    34.821376 
141428000    290.24329    361.34854    321.09015   -30039.696    30045.568    40.258389    34.806607 
141432000    288.55132    320.86813    581.97713   -30035.888    30042.105     -261.109    34.822105 
141436000    258.58722    473.99591    243.15518   -30031.396    30047.507    230.84073     34.80413 
141440000    294.17848    303.78333    467.56241    -30034.68    30040.105   -163.77908     34.81507 
141444000    297.61771    218.84567    330.40434   -30069.176    30061.462   -111.55866    34.803923 
141448000     301.4902    326.34707    219.76199   -30093.926    30082.932    106.58507    34.783361 
141452000    299.81626    386.17861    348.20323   -30134.443     30114.75     37.97538    34.807855 
141456000    327.66189    474.91464     398.7568   -30146.066    30122.538    76.157835    34.810804 
141460000    292.15977    371.77198    312.23515   -30166.109    30165.506    59.536825    34.820335 
141464000    284.08709    431.68027    321.93306    -30159.39    30173.948    109.74721    34.821037 
141468000    274.97591    356.22888    227.45791   -30197.262    30201.414    128.77097    34.834297 
141472000    279.92804    267.67825    450.13016   -30191.014     30204.51    -182.4519    34.829256 
141476000    288.97116    401.55178    438.92124   -30244.756    30239.383   -37.369461     34.81455 
141480000    299.22265      208.632    421.25136   -30254.769    30262.164   -212.61936    34.821668 
141484000    279.35327    385.31072    283.71807   -30291.831    30297.547    101.59265    34.825699 
141488000    315.40555    398.38113    464.25972   -30333.119    30315.549   -65.878585    34.803317 
141492000    305.29566    296.58306    301.05869   -30381.115    30337.481   -4.4756219    34.830632 
141496000    301.71917     431.6677     191.9548   -30368.432    30381.452     239.7129    34.857103 
141500000    266.84888    228.00758    316.80233   -30410.477    30420.954   -88.794752    34.881841 
141504000    247.93581    671.84655    228.59532   -30410.656    30433.233    443.25123    34.895474 
141508000    261.42297    217.06691    210.40702   -30418.782    30452.489     6.659889    34.890744 
141512000    310.63004    491.96645    399.41927   -30471.738    30481.288    92.547181    34.929137 
141516000    280.54551    242.20017    430.83518   -30496.218     30510.47   -188.63501    34.925395 
141520000    310.95839    406.95421    515.66511     -30499.5    30509.951    -108.7109    34.915872 
141524000    284.92742    294.18643    156.04888   -30519.184    30542.117    138.13755    34.927945 
141528000    299.12106    248.30463    368.38124   -30550.028    30549.094    -120.0766     34.91984 
141532000    301.84257    626.50428    171.05247   -30565.628    30566.757    455.45181    34.947099 
141536000    287.02231    473.23781    244.49702   -30588.396    30594.045    228.74078    34.929919 
141540000    286.47666    479.39624    301.64015   -30610.163    30627.513     177.7561    34.906734 
141544000    290.31648     415.3744    359.08202   -30649.336    30666.053    56.292386    34.890666 
141548000    298.55072    399.57357    473.63599   -30653.908    30659.809   -74.062415    34.890213 
141552000    269.61579    390.31972    353.83539   -30674.291    30676.374    36.484331     34.92708 
141556000    287.52732    285.21848     411.8677   -30664.129    30680.754   -126.64922    34.931072 
141560000    311.13534    694.40891    247.93513   -30683.459    30679.076    446.47378    34.911357 
141564000     308.3558    440.78841    512.37369   -30710.008    30722.755   -71.585287    34.911562 
141568000    321.52562    439.13433    243.92085   -30759.191    30748.729    195.21347    34.922183 
141572000    295.97939    427.68262    382.75812   -30774.348    30783.137    44.924498    34.906202 
141576000     291.9645    453.16778    288.16648   -30800.418     30823.68     165.0013     34.89826 
141580000     286.9589    101.91006    223.91934   -30861.549      30852.4   -122.00928    34.868824 
141584000     279.0373    268.51629    287.26652   -30882.881     30904.92   -18.750229    34.881198 
141588000    290.22784    358.12985    354.92235    -30910.94    30907.309    3.2075007    34.885684 
141592000    285.22303    280.46222    335.43484   -30940.293    30952.386   -54.972612    34.893301 
141596000    275.81491    426.42765    443.00827   -30946.783    30970.633   -16.580613    34.884496 
141600000    272.33344    263.28671    381.34172   -30953.448    30982.826   -118.05501     34.90863 
141604000    263.44857    507.31363    294.04894     -30977.4    31007.999    213.26469    34.907541 
141608000    281.23824     404.8631    348.51406   -31031.038    31053.959    56.349032      34.8987 
141612000    301.58021    311.29748    334.04402   -31067.236     31075.04   -22.746535    34.895932 
141616000    277.16942    357.06782     411.3138   -31091.691    31121.715   -54.245984    34.862418 
141620000    294.61232    384.97334    366.52798   -31132.031    31117.284    18.445356    34.865059 
141624000    307.85639    367.17508    264.44359   -31139.942    31130.645     102.7315    34.860097 
141628000    274.75574    158.88846    333.18556   -31151.898    31165.356    -174.2971    34.851379 
141632000    288.81376    241.35155    353.86289   -31170.609    31175.502   -112.51134    34.834371 
141636000    282.70903    387.83807    304.51911   -31182.277    31202.221    83.318968    34.859993 
141640000    279.19761    295.72433    340.49903   -31215.317    31221.267   -44.774704     34.87611 
141644000    304.45459    186.21699    243.49328   -31231.109    31231.268   -57.276295    34.874082 
141648000    279.42021    189.77564    228.51947   -31239.245     31262.18   -38.743837    34.877678 
141652000    315.99123    221.56941    440.72566   -31278.394    31262.343   -219.15626    34.852921 
141656000    290.49442    348.38329    337.89617   -31299.947    31304.766    10.487119    34.829075 
141660000    303.59093    292.40988    481.75878   -31335.032    31319.007    -189.3489    34.820088 
141664000    290.62048    349.69662    271.15054   -31329.696    31347.509    78.546073    34.808041 
141668000    266.67225    301.73209    386.86433   -31397.851    31382.033   -85.132239    34.804473 
141672000    282.10498    234.04956    332.98398   -31410.796    31409.257   -98.934426    34.814805 
141676000    281.70012    447.49418     300.2562   -31434.642    31458.267    147.23798    34.809158 
141680000    262.82276    416.00753    225.60523    -31438.38    31473.153     190.4023      34.8287 
141684000     290.7265    491.83204    315.80297   -31489.069    31508.696    176.02908    34.850206 
141688000    298.97622     590.2888     345.5234   -31530.212    31534.758     244.7654    34.827985 
141692000    278.48196    300.33353    326.81886   -31522.696    31536.382   -26.485325    34.810358 
141696000    306.30247    452.81067    264.55011   -31556.787    31552.991    188.26056    34.782794 
141700000    281.77832    351.01688    211.40327   -31586.858    31599.905     139.6136     34.77791 
141704000    282.11839    413.79673    421.81326   -31615.965    31616.959   -8.0165298    34.774832 
141708000    292.89959     328.0369    308.72867   -31641.565    31639.908    19.308231    34.776728 
141712000    282.71557    483.23081    336.76441   -31649.802    31658.793    146.46641    34.770293 
141716000    299.75151    326.42623    349.13123   -31664.183    31659.402   -22.705001    34.738495 
141720000    295.01855    257.61455    355.67433   -31677.925     31681.54   -98.059789    34.752809 
141724000    283.88017    308.71488    339.01174       -31713     31717.08   -30.296865    34.737119 
141728000    280.10711    255.73967    374.21825   -31726.234    31744.518   -118.47857    34.746076 
141732000    272.21329    297.05329    128.43109    -31756.23    31759.712     168.6222    34.747655 
141736000    297.64259    356.27566    165.97678   -31774.701    31779.561    190.29888    34.730182 
141740000    317.34441     375.6346    413.10194   -31789.323    31781.949   -37.467343     34.72127 
141744000     301.3869     278.1912    394.57225   -31802.338    31822.181   -116.38105    34.743483 
141748000    294.70299    250.37064    290.97534   -31847.437    31853.209   -40.604701    34.748566 
141752000    274.52046    391.06637    227.88472   -31846.987    31866.071    163.18165    34.755164 
141756000    279.00823    219.04413    230.50746   -31862.711    31891.074   -11.463331    34.757867 
141760000    292.39833    400.55724    441.84721   -31905.396    31911.786   -41.289976    34.753627 
141764000    288.02304    315.74736    398.02192   -31944.784    31964.711   -82.274566    34.755673 
141768000    271.23482    554.92453    221.46844   -31971.637    31988.176    333.45608       34.778 
141772000    299.68671    431.21457    360.48882   -32016.754    31999.986    70.725746    34.778518 
141776000    295.37543    246.48346    328.03916   -32032.755    32042.664   -81.555699    34.768714 
141780000    259.72154    263.67838    317.99636   -32047.034    32059.349   -54.317988    34.803461 
141784000    282.80128    304.71799     190.0811    -32064.36    32081.061    114.63689    34.801272 
141788000    293.96509    313.96617     396.6494   -32096.977    32103.741   -82.683232    34.823202 
141792000    298.59411    253.10392    210.40512   -32124.386    32131.492    42.698797     34.85153 
141796000    285.06983    396.75259    468.37706   -32157.021    32155.558   -71.624469    34.846265 
141800000    296.49708    546.92326    350.09155     -32176.8    32182.208     196.8317    34.834093 
141804000    262.01695    223.46106    364.42642   -32187.639    32213.619   -140.96537     34.83765 
141808000    305.22737    230.94768    330.06845   -32201.456    32195.298   -99.120774    34.868374 
141812000    298.29213    739.80817    520.60291   -32209.493    32226.683    219.20526    34.851857 
141816000    259.22807    624.49222    252.90666   -32208.107    32250.823    371.58557    34.859389 
141820000    254.45582    279.62215    101.26102   -32266.338    32288.834    178.36113    34.857225 
141824000    292.37413    362.79103    305.15327   -32274.613    32312.239    57.637759    34.882618 
141828000    245.41861    334.85793    176.07853    -32308.74    32332.292     158.7794    34.891577 
141832000    293.61565      309.138    335.24683   -32324.624    32328.635    -26.10883     34.87207 
141836000    302.78616    340.97778    385.35521   -32360.169    32375.139   -44.377438     34.88494 
141840000    289.18668    362.91313    431.57017   -32384.947    32405.447   -68.657034    34.867443 
141844000    294.90777    344.19285    333.42004   -32413.214    32436.057      10.7728    34.872397 
141848000    284.74044    340.70755    323.71303   -32462.964    32462.144    16.994522    34.878291 
141852000    267.18491    297.62459    213.13982   -32481.709    32491.918    84.484769    34.887458 
141856000    293.46652    362.51095    410.63508   -32513.191    32520.421   -48.124131    34.879731 
141860000    266.33148    423.64624     344.6794   -32518.361    32543.843    78.966838    34.885283 
141864000    271.96485    386.52021    131.13171   -32545.598    32576.641     255.3885    34.886147 
141868000    261.98028    221.36254    388.05021    -32579.63    32600.086   -166.68767    34.884298 
141872000    269.87844    333.98842    277.97035   -32576.198    32626.169    56.018076    34.873139 
141876000    263.76574    302.98128    357.05437   -32575.275    32611.173    -54.07309    34.857771 
141880000    274.55236    492.46879    307.81807   -32612.307    32624.172    184.65072    34.857607 
141884000    282.16323    270.14401    274.51059   -32650.706    32653.789   -4.3665793    34.884634 
141888000    277.12129    446.26854    392.01368   -32694.151    32703.852    54.254859     34.88616 
141892000    291.03952    479.60201    350.11647   -32719.032    32720.811    129.48554    34.905446 
141896000    280.73025    447.30748    315.01405   -32725.476    32748.513    132.29343    34.902335 
141900000    247.04166    241.09324    307.42215    -32736.78     32760.91   -66.328905    34.926682 
141904000    305.34401    346.95658    275.32056   -32763.559    32764.705    71.636012     34.92345 
141908000    286.60334    470.56742    389.37808   -32788.829    32796.002    81.189338    34.926646 
141912000    291.98662    337.34502    404.44446    -32801.77    32812.717    -67.09944    34.928013 
141916000    295.41597    541.78383    398.70091   -32823.933    32816.487    143.08292    34.909551 
141920000    293.96776    293.17736    350.92716    -32853.89    32844.872     -57.7498    34.907381 
141924000    284.58305    369.88212    263.16887    -32868.18    32873.747    106.71325    34.899256 
141928000     317.5077    265.70415    427.09078    -32909.19    32889.561   -161.38662    34.904915 
141932000    325.56045    384.10196    263.78323   -32923.384    32900.498    120.31873    34.906777 
141936000    287.76268    242.56556    311.19778   -32945.674    32944.129   -68.632216    34.900557 
141940000    282.32057    242.52238    371.00011   -32961.789    32961.874   -128.47772    34.893479 
141944000    307.36547    316.98538    349.74872   -32979.011    32968.861   -32.763334    34.893222 
141948000    297.78967    214.26604    340.58629   -33010.161    32992.184   -126.32025    34.891968 
141952000    325.85824    429.96004    473.04651   -33046.226    33019.577   -43.086468    34.895698 
141956000    303.28383    223.27676    340.15752   -33064.941    33064.185   -116.88076    34.892821 
141960000    272.26983     406.3846    359.70212    -33063.19    33100.667    46.682476    34.898022 
141964000    286.32464    351.53623    322.64094   -33103.356    33104.715    28.895282    34.896629 
141968000    294.54764    298.91705    366.84117   -33135.212    33143.195   -67.924112    34.882185 
141972000    290.85254    442.38305    312.19124   -33158.549    33173.258    130.19181    34.895341 
141976000    287.53397    276.35564    443.55429   -33186.355    33214.924   -167.19866    34.887972 
141980000    267.03606    369.93678    317.30505   -33227.547    33244.924    52.631735    34.884294 
141984000    260.61088    246.20375    285.21434   -33268.577    33275.068   -39.010586    34.863327 
141988000    257.74907    437.01751    274.36121   -33274.776    33308.242     162.6563    34.856304 
141992000    315.05783    500.47582    515.23734   -33305.073    33305.796   -14.761528    34.858611 
141996000    302.28393     407.5607    332.19111   -33308.136    33319.375    75.369592    34.855064 
142000000     296.9534    390.37744     387.3312   -33338.244    33330.704    3.0462439    34.868852 
142004000    287.14781    529.09066    191.20199   -33325.335    33345.636    337.88867    34.868056 
142008000    306.35945      419.078    295.05423   -33370.679    33352.172    124.02377     34.86789 
142012000    284.86983    361.47947     468.6987   -33353.107    33366.588   -107.21923    34.873202 
142016000    283.94943    264.97036    303.62392   -33399.777    33410.632   -38.653556    34.871473 
142020000     280.0749    360.58997    330.16105   -33407.723     33436.91    30.428915    34.845575 
142024000    276.33853    295.78281     184.0973   -33468.018    33460.348    111.68552    34.810862 
142028000    304.61261    170.96172    385.78939   -33483.471    33469.382   -214.82767    34.816448 
142032000    318.90506     388.1724    383.62223   -33503.894    33503.138    4.5501697    34.800578 
142036000    299.23518    695.51213    288.54449   -33513.007    33528.578    406.96764     34.80658 
142040000    282.12929    370.65042    293.73545   -33513.051    33535.795    76.914974    34.790981 
142044000    260.40983    373.41142    368.41381   -33534.908    33563.066     4.997603    34.828294 
142048000     265.7783    344.85232    218.86373    -33571.17    33596.997    125.98858    34.870533 
142052000    286.39597    446.89354    420.48478   -33625.607    33647.551    26.408754     34.85745 
142056000    311.75345    412.04175    322.93759   -33641.696    33648.193    89.104163    34.863304 
142060000    288.27966    270.85506    320.59632   -33641.842    33661.109    -49.74126    34.838242 
142064000    265.33578    324.41403    221.97436   -33671.969    33688.233    102.43967    34.817954 
142068000    265.80854    543.89242    261.65716   -33684.267    33710.755    282.23526    34.807556 
142072000     276.2194    376.88954    339.10488   -33722.011    33751.616     37.78466    34.779718 
142076000    294.63649    720.15005    238.29709   -33755.003    33780.561    481.85297    34.789814 
142080000    273.44896    336.50596     288.7932   -33770.887    33796.702    47.712757     34.79246 
142084000    285.82369    134.60507    665.39615   -33791.486    33808.789   -530.79109    34.782404 
142088000    267.10989    242.26086    409.50593   -33822.172    33864.999   -167.24506    34.757941 
142092000    258.45813    361.37192    330.37549   -33856.938    33890.318    30.996435    34.750743 
142096000    278.33663    322.60764     318.1684   -33880.788    33902.701    4.4392381    34.782811 
142100000     242.5879     524.6284    362.99091   -33901.702    33935.611    161.63749    34.806469 
142104000    279.50278    270.65152    303.49726   -33951.097    33978.432   -32.845742    34.794658 
142108000    268.09162    184.20819    196.97862   -33969.254    33994.961   -12.770429    34.784478 
142112000     291.2116    380.76638    201.61419   -34009.989    34004.224    179.15219    34.796809 
142116000    271.06135    326.75574    432.50114   -33987.795    34008.674   -105.74539    34.779098 
142120000    300.70688    326.55391    348.49089   -34047.603    34044.743   -21.936983     34.78167 
142124000    277.18397    345.63772    387.93263   -34065.676    34077.083   -42.294904     34.78417 
142128000    268.60566    242.13584    240.42413   -34065.461     34076.48      1.71171    34.781238 
142132000    273.21186    363.38535     400.8615   -34069.024    34073.686   -37.476144    34.799681 
142136000    274.67731    287.73691    156.97255   -34091.526    34107.746    130.76436    34.793043 
142140000    273.65793    438.58717    214.78003   -34110.084     34121.12    223.80714    34.801348 
142144000    291.15791     327.5134     427.2606   -34140.603    34151.065     -99.7472    34.833656 
142148000    294.52634    319.07456    293.03584   -34169.798    34176.523    26.038717    34.834827 
142152000    305.92513     651.0373    286.15811   -34220.415    34216.384    364.87919    34.815289 
142156000    268.56833    288.91327    309.46054   -34237.246    34236.206   -20.547268    34.826673 
142160000    252.10274    224.71391    386.96243   -34230.486    34273.289   -162.24852    34.841901 
142164000    295.85581    482.79379    326.03841   -34276.596    34279.387    156.75538    34.829801 
142168000    286.18039    368.53674    412.17258   -34289.896    34316.314   -43.635838     34.83328 
142172000    307.93254    505.60546    244.72525   -34335.208    34330.223    260.88021    34.833571 
142176000    286.64997    398.39151    341.72184   -34345.493    34352.064    56.669665    34.834092 
142180000    291.60273    274.44012    318.73363   -34357.413     34365.15   -44.293509    34.810335 
142184000    277.72551    460.12305    463.25803   -34386.534    34410.552   -3.1349804    34.836997 
142188000    266.35064    341.67098    114.30022   -34418.786    34437.013    227.37076    34.847402 
142192000    276.71098    277.05142    290.99963   -34439.832    34444.669   -13.948216    34.843168 
142196000    278.55741    258.08244    345.96376   -34456.708    34468.773   -87.881324    34.842314 
142200000    262.05477    429.37495    255.00899   -34458.365    34472.356    174.36596    34.848425 
142204000    286.05146    400.30064    418.42061   -34459.178    34476.962   -18.119969    34.828052 
142208000     276.9742    301.72108     362.7053   -34482.579    34496.788   -60.984215    34.825702 
142212000    246.44737    303.82286    227.21551    -34504.27    34540.263     76.60735     34.81979 
142216000    269.84857    390.63409    258.43041   -34534.777     34549.36    132.20368    34.801661 
142220000    285.41895    274.28594    386.05999   -34552.276    34545.938   -111.77405    34.803794 
142224000    289.97132    460.02562    215.82435   -34561.824     34586.45    244.20126    34.807176 
142228000    270.06793    350.99936    326.20296   -34602.394    34623.154    24.796394    34.819322 
142232000    286.40259    371.66701     355.9046   -34645.227    34646.617    15.762407    34.807963 
142236000    265.93352    261.38071    377.25717   -34652.648    34679.512   -115.87646    34.810055 
142240000    284.47599    312.20928    453.54472   -34679.109    34704.742   -141.33544    34.787853 
142244000    256.78962    363.71362    348.27083   -34692.151    34729.068    15.442788    34.786043 
142248000    256.85141    495.49835    230.95051   -34713.044    34754.726    264.54784    34.789164 
142252000    305.53603     393.8903    312.18588   -34759.279    34772.532    81.704416    34.802833 
142256000    314.28849    347.09334    222.20658   -34803.647    34789.809    124.88676     34.79413 
142260000    287.75042    473.35909     454.7829   -34819.457    34840.762    18.576189    34.779414 
142264000    295.44924    276.88702    155.24772   -34845.152    34850.281     121.6393    34.813483 
142268000    283.25455    281.29455    433.89384   -34862.646    34877.287   -152.59929    34.819087 
142272000    287.28891    384.81051    271.31607   -34917.729    34915.081    113.49444    34.848732 
142276000    270.87055    439.39297    262.90157   -34962.819    34961.781    176.49139    34.824045 
142280000    268.33319    276.14055    243.85975   -34985.085    35005.721    32.280794    34.838277 
142284000    279.51745    391.83334    255.82974   -35015.253    35031.623    136.00359    34.838616 
142288000    289.09024     390.9055    188.40925   -35051.084    35062.527    202.49625    34.859351 
142292000    299.12406    472.79894    263.92028   -35101.057    35113.388    208.87866    34.858977 
142296000    284.36876    394.60298    252.45052   -35141.491    35151.576    142.15246    34.856902 
142300000    314.48076    501.58323    436.35288   -35167.767    35180.638    65.230351    34.868875 
142304000    293.63062    275.06131    286.91372   -35202.046      35183.2   -11.852407    34.884294 
142308000    266.01496    240.54221    228.76513   -35192.802    35225.053    11.777083    34.899484 
142312000    247.70637    315.39078    184.10027   -35219.161    35248.199    131.29051    34.891149 
142316000     251.4061    347.85608    317.96239   -35247.415    35275.249    29.893696    34.878867 
142320000     279.1606    290.84807    509.28749    -35265.63     35273.09   -218.43942    34.867531 
142324000     291.8015    358.92041    231.15686   -35297.644    35275.267    127.76355    34.891431 
142328000    297.27329     307.0545    290.26815   -35315.767    35308.018    16.786353    34.901267 
142332000    273.60448     431.9391    337.35533   -35337.507    35351.733     94.58377    34.912683 
142336000    280.41071    353.48208    380.72861   -35363.809    35373.316   -27.246534     34.92674 
142340000    284.98442    320.98581     298.2052   -35397.767    35411.309    22.780607    34.916508 
142344000    285.94739    289.18434    226.63254   -35434.653    35440.129    62.551799    34.897925 
142348000    309.45706    555.72208    236.25681   -35462.788    35453.306    319.46527    34.884502 
142352000    293.09508    465.50888    234.96424   -35466.266    35471.724    230.54464    34.870167 
142356000    290.01424    254.20103    232.93044   -35487.792    35486.168     21.27059    34.865658 
142360000    264.97054    214.92608    321.25793   -35522.336    35541.196   -106.33186    34.872024 
142364000    260.11179     232.5447    373.55895   -35552.455    35586.392   -141.01426    34.860961 
142368000    291.65227    611.60697    252.18725   -35582.178    35594.523    359.41972    34.844647 
142372000    282.14678    418.64832    335.27353   -35602.603     35610.13    83.374793    34.851059 
142376000    248.06193     302.4624    343.03396   -35618.845    35646.236   -40.571558     34.82821 
142380000     271.3701    380.13311    176.33218   -35631.867    35644.445    203.80093    34.810395 
142384000    264.95841    401.59247    275.03388   -35620.191    35653.536    126.55859    34.782334 
142388000    276.86243    204.51634    331.81221   -35653.961    35666.405   -127.29587    34.772322 
142392000    266.66305    452.59577    316.62309   -35652.371     35681.22    135.97268    34.773026 
142396000    310.00837    299.15654    434.56382   -35678.635    35673.877   -135.40728    34.765787 
142400000    257.03787    380.11773     322.7243   -35681.684     35727.24    57.393437    34.753033 
142404000    295.09545    331.88737    274.60655    -35723.55    35727.075    57.280823    34.765857 
142408000    289.69061    335.78991    245.37018   -35751.746    35760.124    90.419727    34.772624 
142412000    283.78224    318.83853    375.38843   -35768.643    35769.479   -56.549895    34.765935 
142416000    307.22219    351.96614     285.2954   -35767.197    35770.217    66.670743    34.757886 
142420000    352.56183    472.94309    432.26032   -35801.938    35773.359    40.682774    34.746776 
142424000     278.8705    314.98225    568.95633   -35814.417     35816.45   -253.97409    34.729261 
142428000     323.1005    511.42037    155.48535   -35844.569    35850.264    355.93501    34.728168 
142432000    272.56768    277.57094     172.2953   -35847.216    35881.482    105.27563    34.729823 
142436000    283.97611    397.92742    332.50283   -35896.642    35890.192    65.424592    34.741288 
142440000    287.60631    322.38554    253.79566   -35926.833    35940.389    68.589877    34.723805 
142444000    274.16503    377.79417    251.70188   -35965.561    35984.637    126.09229     34.72368 
142448000    268.97934    316.50183    299.90831   -35996.411    36025.764    16.593522    34.727113 
142452000    276.12184    308.29492    335.78479   -36011.942    36024.676   -27.489873    34.713297 
142456000    304.24799    349.24124    280.46157   -36037.345    36050.235     68.77967    34.700235 
142460000    302.84239    356.40844     363.2501   -36097.325    36086.223   -6.8416548    34.689584 
142464000    305.05001    463.14052    373.05514    -36126.59    36118.381     90.08538    34.690999 
142468000    277.04166    331.67162    288.49078   -36138.193    36153.152    43.180842    34.713816 
142472000    275.13191    415.10441    430.37165       -36188    36200.721   -15.267235    34.714164 
142476000    277.73031    326.19612    260.36533   -36221.607    36215.104    65.830787    34.708424 
142480000    301.03636    387.12357    376.41512   -36246.741    36251.126    10.708453    34.700316 
142484000    295.58534    363.81483    339.07805   -36278.292    36294.449    24.736784    34.715264 
142488000    268.07881    399.71144    203.51409    -36283.91    36313.312    196.19734    34.732587 
142492000    299.26956    641.50177    290.54653   -36334.933    36329.889    350.95523    34.748545 
142496000     288.3185    412.24415    239.42511    -36359.85    36362.883    172.81904    34.726552 
142500000    307.90488    223.39138    308.81497   -36384.091    36375.349   -85.423589    34.740942 
142504000    300.41453    294.03181    357.01248   -36390.151    36385.328   -62.980669    34.734648 
142508000     295.9246    183.63934    291.50875   -36398.312    36409.382   -107.86941    34.732504 
142512000    293.16141     197.2094    267.44218   -36407.893    36420.343   -70.232782    34.726722 
142516000    297.15222       235.94    416.14518   -36410.059    36429.532   -180.20518    34.708183 
142520000    282.63997     396.3807    297.20206   -36432.476    36442.318    99.178633    34.699667 
142524000    308.48031    273.99854    384.20469   -36454.817    36444.015   -110.20615    34.685811 
142528000    277.97056    313.26466    171.02247   -36467.491    36485.116    142.24219    34.708571 
142532000    268.13922    453.68219    321.88373   -36484.222     36507.65    131.79846    34.706635 
142536000    252.47666    188.21659     183.0366    -36496.78    36523.309    5.1799884    34.702777 
142540000    280.56487    402.46338     245.9524   -36524.002    36527.193    156.51098    34.689568 
142544000    299.02461    424.75978    266.10441   -36564.173    36577.572    158.65537    34.682914 
142548000    286.52252    238.65707     241.6361   -36581.364     36589.39   -2.9790381     34.69499 
142552000     279.0877    555.13148    330.32668   -36621.119    36634.957     224.8048     34.70761 
142556000    287.66587    274.84523    209.35227   -36656.334    36667.781    65.492956    34.710386 
142560000    245.69382    260.03746    314.60397   -36674.803    36707.748   -54.566511    34.713157 
142564000    245.54792    229.37313    367.96678   -36680.991    36718.411   -138.59365    34.719814 
142568000    252.22743    320.20978    354.80548     -36704.1    36727.449   -34.595704    34.712524 
142572000    272.63131    370.10943    283.87565   -36736.705    36733.774    86.233777    34.754249 
142576000    259.34518    367.67163    266.32696   -36717.513     36768.39    101.34468      34.7669 
142580000    292.51641    285.37276     285.5745   -36744.143    36771.025   -0.2017347    34.759591 
142584000     283.9689     396.2744    399.49047   -36782.532    36794.438   -3.2160717    34.748225 
142588000     295.0058    361.51346    356.62381   -36802.295     36834.77    4.8896492    34.721121 
142592000    253.13997    559.43555    309.30308   -36817.916    36846.638    250.13248    34.748508 
142596000    264.57604    326.12583    214.28219   -36848.066    36876.306    111.84365    34.758326 
142600000    266.39022    531.21462    393.41886   -36876.539    36907.466    137.79577    34.767802 
142604000     268.4896    387.38043    220.23713   -36917.962    36944.084     167.1433    34.781088 
142608000    251.52466    249.62524    312.07248   -36923.223    36971.031   -62.447234    34.779466 
142612000    286.54635    325.49913    456.64511   -36965.445    36970.745   -131.14598    34.763301 
142616000    317.93532     288.2472    200.54402   -36980.268    36966.379    87.703176    34.760432 
142620000    306.11862    312.01447    411.06812   -37005.138    36984.439   -99.053652    34.773729 
142624000    279.53127    232.08897    254.77906   -37007.466    37029.247   -22.690098    34.769234 
142628000    264.66835    319.64931    327.23138   -37046.534    37060.962   -7.5820747    34.749002 
142632000    285.32641    257.66965    248.86034   -37049.856    37074.988    8.8093144    34.751534 
142636000    248.88107    346.47853    264.30029   -37092.161    37111.319     82.17824    34.760723 
142640000    259.04875    523.94411    295.81609   -37100.572    37139.483    228.12802    34.785188 
142644000    276.14175    502.84959    335.12073   -37134.204    37149.343    167.72886    34.785272 
142648000    267.23369    371.81558    294.03383   -37173.319     37191.95    77.781742    34.782676 
142652000    285.59835    386.29253    228.53614   -37205.928    37206.386    157.75638    34.768339 
142656000    271.22413    224.61232    392.44218   -37250.447    37258.075   -167.82985    34.770423 
142660000    285.28533    380.70132    336.88912   -37275.176    37278.673    43.812197     34.76903 
142664000    281.91574    371.89372    279.05884   -37292.583    37294.405     92.83488    34.757416 
142668000    280.54339    288.40792    229.92243   -37312.517    37324.816    58.485497    34.742257 
142672000    260.66944    347.16926    423.59956   -37333.756     37360.09   -76.430301    34.724683 
142676000     286.0207    348.74412    309.06604   -37359.986     37375.64    39.678084    34.730806 
142680000    289.30568    353.90552    361.53385   -37400.298    37403.682   -7.6283335    34.724622 
142684000    239.25575    409.44265     188.6447   -37420.233    37465.893    220.79795    34.769639 
142688000    268.40744    329.59904    170.84328   -37454.459    37486.765    158.75576    34.762384 
142692000    269.17774    428.36919    376.92473    -37476.81    37494.866    51.444464     34.76577 
142696000    257.20809    311.05524    469.97889   -37477.428    37504.979   -158.92364    34.753555 
142700000    275.90548    618.16508    254.77278   -37542.498    37560.838     363.3923    34.760948 
142704000    257.24056    308.79479    396.77535   -37576.054    37582.277   -87.980561    34.765337 
142708000    271.24295    259.91942    182.34861   -37578.288     37592.78    77.570808    34.762429 
142712000    290.43848    224.38033    314.73844   -37609.933    37611.236    -90.35811    34.747389 
142716000    253.27031    287.09496    395.54159   -37604.098     37636.46   -108.44663    34.739935 
142720000    296.75412    190.17779    449.86419   -37657.672     37636.06    -259.6864    34.751657 
142724000    274.96547    239.20711     338.8355   -37655.628    37662.207   -99.628398     34.72593 
142728000    307.67651    499.94573    318.45283   -37688.254    37684.593    181.49291    34.717788 
142732000    275.95051    327.71763    486.60195   -37689.985    37695.416   -158.88433    34.727517 
142736000    294.28065    357.62351    133.50321   -37714.055    37748.559     224.1203    34.741344 
142740000    290.93652    524.72234    466.23747   -37736.094    37745.172    58.484874    34.745232 
142744000     287.0558    290.29608    530.33595   -37734.868    37753.225   -240.03987    34.759689 
142748000    248.39874    322.58016     247.7214   -37739.312    37762.819    74.858756    34.760264 
142752000     301.1093    320.56931     311.6907   -37785.112    37798.596     8.878613    34.768448 
142756000    299.23269    410.23749    321.81728   -37824.094    37827.443    88.420209    34.778951 
142760000    311.55939    273.82404    430.79361   -37866.899    37845.791   -156.96956    34.789898 
142764000    277.32405    399.63143    352.75283   -37858.079    37854.013    46.878599      34.7887 
142768000    275.59898    279.94903    330.74158    -37861.93    37879.339   -50.792551    34.772677 
142772000    276.20649    341.84251    386.94548   -37905.674    37916.778    -45.10297    34.780166 
142776000    279.11932    472.40434    282.31236   -37906.402    37936.922    190.09198    34.776893 
142780000    281.38954    240.84057    287.95813   -37924.333    37933.438   -47.117562    34.763881 
142784000    290.80221    340.84727    490.96554   -37960.047    37970.485   -150.11827    34.784479 
142788000    316.51415    507.45863    233.15586   -37999.802    37994.776    274.30277    34.815068 
142792000    281.25785    260.80389    252.85986   -37999.078    38003.099    7.9440312    34.808633 
142796000    299.40239    305.10522    419.10328   -38034.162    38045.864   -113.99806    34.803589 
142800000      256.579    363.24205    272.97308   -38077.975    38096.711    90.268967    34.793836 
142804000    288.44532    312.27408    553.36786   -38115.827    38127.845   -241.09378    34.777417 
142808000    288.59459    283.99377    506.77253   -38158.415    38160.786   -222.77876    34.775666 
142812000    290.13995    262.52148    383.26658   -38177.386    38191.122    -120.7451    34.782508 
142816000    259.40712    343.68553    253.31905   -38197.868    38228.267    90.366481    34.804267 
142820000    277.09787    534.99239    255.49961   -38247.075    38265.891    279.49278     34.79944 
142824000    264.39311    255.46842     422.2219   -38297.052    38298.277   -166.75348    34.807899 
142828000    257.94121    212.28813     181.7486   -38306.935    38321.973    30.539532    34.790831 
142832000    290.16157    229.65804    236.95786   -38310.099    38322.721   -7.2998213    34.803014 
142836000    277.21814    366.39792    188.58479   -38335.069    38343.385    177.81313    34.816916 
142840000    305.57999    452.19079    340.82887   -38365.043    38364.327    111.36191    34.811664 
142844000    263.33503    287.52285    282.85817   -38368.578    38384.416    4.6646749     34.81766 
142848000    309.82632    374.75922    430.58798    -38413.64    38406.265   -55.828764    34.820193 
142852000    272.72316     348.2908    295.68243   -38426.966    38441.452    52.608368    34.814355 
142856000    287.58126    277.98874    184.21686   -38466.817    38479.235    93.771877    34.799342 
142860000    265.45874     331.4876    351.06466   -38491.987    38502.597    -19.57706    34.792188 
142864000    292.79596    556.06283    377.35798   -38526.052    38530.763    178.70485    34.797718 
142868000    286.44746    240.11031    449.84253    -38557.61    38563.269   -209.73222    34.771492 
142872000    319.92206    488.45678    298.42085   -38583.787    38593.957    190.03592    34.777147 
142876000     278.6549    618.82645    249.84178   -38634.197    38640.276    368.98468    34.776411 
142880000    277.16202    315.90681    366.96887   -38643.233     38658.81   -51.062055    34.777429 
142884000    285.43301    322.79054    220.36108   -38652.915    38658.484    102.42946     34.78125 
142888000    274.18686    256.72076    380.76695   -38671.289    38685.232    -124.0462    34.756183 
142892000    274.36919    266.90339    281.34139   -38692.066    38702.095   -14.438003    34.749431 
142896000    268.85734    337.30622    331.96091   -38719.175     38738.52    5.3453083    34.748519 
142900000    285.31948    369.69716    245.65924   -38746.704    38747.161    124.03792    34.754413 
142904000    275.35828    253.39196     309.1483    -38763.82    38790.375   -55.756339    34.767447 
142908000    275.33163    476.97329    274.22252   -38781.885    38801.992    202.75077    34.767262 
142912000    296.03854    529.19675     261.1322   -38830.013    38831.615    268.06454    34.790564 
142916000    279.47526    537.87054    305.14826   -38843.745     38843.17    232.72229    34.802788 
142920000    282.94193    198.02545    431.22293   -38860.555    38869.987   -233.19748    34.801777 
142924000    280.50424    352.41105    309.24171   -38881.372    38900.595    43.169336    34.805793 
142928000    277.95282    392.96152    258.62958   -38890.498    38898.778    134.33194     34.82391 
142932000     288.4437    407.01893    268.79885   -38929.972     38918.34    138.22008    34.843151 
142936000    257.40701    326.44465    316.49875   -38933.911    38942.876    9.9458941    34.835616 
142940000    296.68552    246.79261    339.41992   -38941.716    38945.911   -92.627316    34.810823 
142944000     292.5692     476.4197    252.94722    -38927.23    38936.892    223.47248     34.79201 
142948000    305.17295    301.74343    329.12324   -38957.486    38948.678   -27.379811    34.791738 
142952000    298.59252    347.62488    435.15035   -38965.638    38967.386   -87.525469     34.80087 
142956000    289.65741    398.87605    376.75698   -38969.398    38977.784    22.119077    34.823328 
142960000    276.33098    402.41448    176.76596   -38985.375    39008.505    225.64852    34.835474 
142964000    312.17416     469.4499     329.2082   -39017.623     39013.95     140.2417    34.839495 
142968000    260.98454    302.11303    327.12956   -39005.511    39029.119   -25.016528     34.85065 
142972000    275.81187     162.8093    327.60758   -39036.167    39060.734   -164.79827    34.862294 
142976000     274.8931    491.52882    226.22793   -39061.417     39088.06    265.30089     34.86594 
142980000    265.06988     163.6294    211.87071   -39075.696    39116.862   -48.241313    34.857524 
142984000     263.0859    411.75827    244.41963   -39106.861    39139.844    167.33864    34.861449 
142988000    291.68304    262.84872    240.44326   -39154.696    39167.427    22.405453    34.840922 
142992000    279.95721     280.2842    176.41637    -39176.98    39205.647    103.86783    34.853688 
142996000    282.45922    270.40739    190.69117   -39199.041    39225.518    79.716219    34.861888 
143000000     291.0643    175.89813    539.78918    -39213.91    39231.736   -363.89105    34.856252 
143004000    284.06081    526.71082    160.02599   -39249.974    39240.998    366.68483    34.855457 
143008000    279.76786    471.43447    300.07553    -39269.84    39277.348    171.35895    34.879598 
143012000    281.09167    420.58218     282.3193    -39314.15    39310.651    138.26288    34.872856 
143016000    278.32953    260.55268     398.2341   -39325.707    39333.715   -137.68142    34.848704 
143020000    264.06739    369.60325     219.4862    -39318.82     39345.44    150.11706    34.842194 
143024000    277.55898    361.55927    214.31548   -39344.432    39354.247    147.24379    34.819814 
143028000    273.42837    233.29521    305.87493    -39360.25    39376.671   -72.579712    34.803361 
143032000    299.75325    227.18915    230.93688   -39390.968    39385.666   -3.7477286    34.810786 
143036000    293.76513    327.91135    416.45509    -39402.21    39423.138   -88.543743    34.819107 
143040000    252.10558    353.77368    387.32516   -39420.621    39441.491   -33.551477    34.809049 
143044000    277.24071    382.43482    317.49928   -39426.791    39434.917    64.935542    34.822282 
143048000     283.0158    259.59495    385.94585   -39431.462    39437.338    -126.3509    34.824451 
143052000    288.17326    506.51548    242.35206    -39448.74    39453.209    264.16342    34.826644 
143056000    271.45791    294.82176    236.32701   -39459.426    39476.782    58.494748    34.830624 
143060000    300.17253    380.45946    342.83342   -39483.873    39505.254    37.626047    34.820284 
143064000    262.60138    354.77893    451.06024   -39518.947    39530.954   -96.281304    34.823835 
143068000    280.59349    246.17596    340.63795   -39547.185    39557.937   -94.461985    34.839816 
143072000    302.49867    395.18351    408.11225   -39579.052    39577.428   -12.928735     34.83492 
143076000    292.38254    219.09847    419.14898   -39581.258    39582.214   -200.05051    34.842519 
143080000    321.60782    401.06418    266.88546   -39614.858    39604.378    134.17872    34.814716 
143084000    292.85729    392.05875    301.49553    -39648.52    39639.214    90.563217    34.810701 
143088000    282.81515    405.46218    569.74348   -39654.171    39650.081    -164.2813    34.836078 
143092000    269.64914    360.44682    394.37037   -39674.632    39685.642   -33.923549    34.835596 
143096000    278.18778    294.98319    216.77865   -39697.585    39709.204    78.204536    34.830559 
143100000    324.79886    342.69497    437.47279    -39728.08    39713.647   -94.777824    34.818328 
143104000    281.57152    310.73077    216.13218   -39760.034    39764.814    94.598591     34.80584 
143108000    292.89346    373.60825    566.58932   -39777.305    39794.415   -192.98106    34.788548 
143112000    293.97999    240.63581    215.49277    -39800.92     39822.22    25.143041    34.797627 
143116000    275.15673    314.29506     271.9564   -39838.074    39848.328     42.33866    34.781706 
143120000    281.01465    376.67918    145.85861   -39842.755    39858.053    230.82058    34.772186 
143124000    310.69327    386.23297    376.72337   -39872.243    39846.418    9.5096018    34.774567 
143128000    292.32428    485.22054    396.96395   -39907.972    39899.077    88.256593    34.788256 
143132000    276.33897    302.40127    356.82702   -39930.909    39942.371   -54.425747    34.816374 
143136000    285.76648     520.8767    265.00218   -39935.448    39938.263    255.87453    34.831943 
143140000    308.24984    279.00627    494.76406   -39948.052    39946.042   -215.75779    34.828798 
143144000    293.74141    449.15339    251.52428   -39978.376    39969.964     197.6291    34.828968 
143148000     258.9372     222.4594    362.20933   -39990.112     39994.85   -139.74992    34.816493 
143152000     279.1383    222.80146    279.25816   -40002.281    40007.024   -56.456699    34.818568 
143156000    263.84698    379.19498    346.21876   -40024.842    40045.694    32.976218    34.823017 
143160000    269.42587    558.60458    158.35593   -40041.232    40069.093    400.24865    34.843042 
143164000    284.40527    400.18733     370.8068   -40081.147    40088.422    29.380527    34.868208 
143168000    307.85211    248.30561    480.13726   -40098.135    40078.123   -231.83165    34.839588 
143172000    276.81022    319.52187    291.68766   -40082.279    40100.794    27.834216    34.834062 
143176000    273.74358    396.05905    439.86491   -40101.132    40130.247    -43.80586     34.84414 
143180000     253.2634    325.34591    331.49423   -40126.271    40148.053   -6.1483215    34.847951 
143184000    300.13884    280.41825    370.90534   -40165.344    40163.448   -90.487095    34.864059 
143188000    278.61719    407.22771    354.52072   -40190.512    40191.239    52.706989    34.869136 
143192000    267.99793    213.60952    241.04503   -40211.157    40241.883   -27.435501    34.871499 
143196000    276.55467    344.46266     371.3147   -40229.665    40241.444   -26.852045    34.865737 
143200000    276.22988    256.65295    264.58628   -40221.989    40252.107   -7.9333287    34.863938 
143204000    282.27306    505.80985    234.15128   -40268.711    40280.667    271.65857     34.83771 
143208000    266.20129    413.41672    471.36181   -40276.014     40298.47   -57.945098    34.861558 
143212000     259.4846    332.13971     399.9186   -40302.942    40331.288   -67.778886    34.860408 
143216000    288.02833    578.67424    267.72401   -40322.084    40314.746    310.95023    34.861466 
143220000    315.67228    495.44275    248.30241   -40334.981    40337.001    247.14034    34.867891 
143224000    305.05714    257.16023    331.70459    -40351.96    40357.371   -74.544358     34.87487 
143228000    269.98222    344.97641    130.76468   -40375.929    40386.557    214.21173    34.888577 
143232000    259.49814    343.35732    282.80443   -40373.101    40402.025    60.552888    34.889784 
143236000    266.15216    552.57448    248.97762   -40398.499    40416.668    303.59686    34.895704 
143240000    256.13629    339.81441    248.46373    -40401.56    40437.131     91.35068    34.887966 
143244000    297.70192    423.60404    291.62208   -40446.351    40448.879    131.98196    34.879747 
143248000    262.67195    378.61873    394.53159   -40439.327    40465.927   -15.912858    34.873209 
143252000    300.20967    264.75188    419.85741   -40482.816     40485.54   -155.10553    34.861794 
143256000    277.18921    332.82919     281.0395   -40486.268    40509.171    51.789688    34.877143 
143260000    263.64121    276.92635    493.14703   -40482.988     40511.29   -216.22068    34.861188 
143264000    276.62891    502.32025    339.05937   -40513.179    40527.969    163.26088    34.855324 
143268000    287.74483    286.67678       346.68   -40532.889    40533.907   -60.003225    34.844634 
143272000      270.818     294.3957    270.27937   -40536.548    40558.534    24.116324    34.848311 
143276000     268.9568     507.1611    414.87401   -40545.612     40563.06    92.287087    34.832435 
143280000    304.20602    399.69973    468.39248   -40595.715    40582.678   -68.692744    34.833544 
143284000    282.78473    463.81708    373.99212    -40631.55    40635.104    89.824954    34.844259 
143288000    257.06991    398.89886    324.96641   -40656.507    40684.442    73.932451    34.842509 
143292000    279.35502    255.47519    301.52861   -40688.695        40717   -46.053425    34.846381 
143296000    282.45406    362.41824    295.76172   -40727.524    40728.781    66.656517    34.856914 
143300000    277.05799    327.99706    230.87673   -40780.722     40784.79    97.120335    34.877709 
143304000    279.30118    294.17978    423.90052   -40778.491    40789.328   -129.72075    34.881252 
143308000    284.33444    165.07564    293.58313   -40787.364    40813.154   -128.50749    34.898621 
143312000    319.08439    222.59355    578.67265   -40844.488    40828.042    -356.0791    34.894638 
143316000    282.78308     393.9949    243.57401   -40860.967    40861.358    150.42089    34.877277 
143320000    304.23774    378.73081    310.29249   -40869.108    40857.117    68.438328    34.891494 
143324000    268.63188    576.13446    181.53427    -40855.11     40862.57    394.60018    34.910695 
143328000    280.81018    445.98097    220.50122   -40877.567    40892.394    225.47974    34.925025 
143332000      288.588    223.02839    419.45555     -40901.8    40907.689   -196.42717    34.914219 
143336000    295.26764    264.88395    243.59519    -40912.25    40912.198    21.288752    34.922927 
143340000    272.18014    242.70387    310.52168   -40948.387    40946.352   -67.817811     34.90478 
143344000     281.6792    444.74235    321.09006   -40928.531    40934.054    123.65229    34.900166 
143348000    297.95425    419.38773    222.67897   -40940.512    40943.731    196.70876    34.915178 
143352000    270.39798    272.89037    272.95682   -40931.409    40962.587 -0.066443126    34.897579 
143356000    282.08079     582.1369    231.26061   -40985.959    41003.134    350.87629    34.905641 
143360000    272.30574    389.36527    224.07841   -40999.123    41012.737    165.28685    34.914474 
143364000    268.45238    333.05557    288.95844   -41034.392    41069.995    44.097125    34.923796 
143368000    277.62286    376.65735    444.08824   -41052.118    41067.336   -67.430887    34.919341 
143372000    284.19888    346.54117    416.17008   -41078.092    41087.888    -69.62891    34.938588 
143376000    269.24219    590.61594    378.78158   -41088.771     41132.35    211.83437    34.935743 
143380000    278.69627    167.01913     396.8463   -41135.856    41150.547   -229.82717    34.934197 
143384000    285.42652    309.59435    309.81433   -41165.432    41163.232  -0.21997791    34.926936 
143388000     261.8404    285.80638    358.22858   -41156.437    41184.924   -72.422196    34.922201 
143392000    306.38649    313.05106    364.86226   -41171.613    41183.395   -51.811199    34.938878 
143396000    256.95344    313.31869      197.051   -41193.541    41217.241    116.26769     34.96005 
143400000    275.24137    283.35353    442.34339   -41215.653     41227.09   -158.98986    34.949571 
143404000    290.45298    433.69897    343.96722   -41248.314    41252.365    89.731749    34.936924 
143408000    302.00296    264.84818     267.7513   -41279.337    41276.371   -2.9031181    34.942918 
143412000    317.73482    539.70148    349.38994   -41307.088    41298.363    190.31155    34.935977 
143416000    306.16052    279.24351    380.44035   -41319.389      41319.2   -101.19684    34.929143 
143420000      278.302     540.5817    483.17446   -41330.068     41335.05    57.407236    34.911504 
143424000    305.28534    601.67976     355.1847   -41353.048    41360.353    246.49506    34.927207 
143428000    275.49217    541.78376    313.77782    -41373.32    41390.199    228.00594     34.92679 
143432000     280.5945    613.99176     422.9598   -41377.463     41402.06    191.03196    34.916269 
143436000    288.49096     276.3077    386.25531   -41372.584    41378.609    -109.9476    34.932324 
143440000    293.70786    489.16851    569.18339   -41401.624    41412.422   -80.014882    34.947742 
143444000    269.38262    280.63608    238.08198   -41418.567    41450.418    42.554098    34.944632 
143448000     258.6515    457.02687     323.2195   -41458.159    41492.286    133.80736    34.944886 
143452000     270.6269     545.8897    458.60414   -41488.524    41515.754    87.285561    34.941855 
143456000    266.41241    344.46176     443.6785   -41516.833    41550.684   -99.216748    34.920151 
143460000    249.62995    283.91281    284.71005   -41555.454     41558.62  -0.79723852    34.937455 
143464000    254.94986    506.84025    198.14177     -41569.8    41600.261    308.69848    34.945882 
143468000     298.8681    303.52406    548.66852   -41633.938    41632.495   -245.14446    34.935278 
143472000    292.37007    283.55514     199.4684    -41663.02      41686.1    84.086742    34.930356 
143476000    284.36861    358.28816    255.99173   -41687.496    41709.961    102.29643    34.938052 
143480000    260.44891    416.47755    321.48332   -41711.245    41745.439    94.994224    34.927164 
143484000    281.77835    331.68595    291.15244   -41739.364    41767.058    40.533515    34.946521 
143488000    315.10005    461.01215    235.38001   -41802.993    41777.903    225.63214    34.934927 
143492000    303.67068    379.32777    490.64442   -41794.047    41801.221   -111.31665     34.93054 
143496000    280.73714    354.75774     311.7801   -41806.963    41828.777    42.977639    34.924531 
143500000    300.78626    418.68029    389.21407   -41858.326    41858.511    29.466227    34.918706 
143504000    296.62938    276.09107    456.97707   -41878.225    41885.927     -180.886    34.914011 
143508000    282.20108    367.45134    307.21633   -41886.175    41897.364    60.235018    34.926174 
143512000    264.66445    417.86474    334.52485   -41902.158    41925.157     83.33989    34.932797 
143516000    290.33496    391.83565    295.53201    -41908.15    41916.123    96.303644    34.935681 
143520000    268.12351    284.02369    318.41449   -41941.283    41943.347   -34.390794    34.916813 
143524000    310.43669    576.49582    310.35663   -41949.459    41946.658    266.13919    34.924584 
143528000    288.72954    207.90708    373.81536   -41963.932     41972.16   -165.90828    34.913837 
143532000    277.05194    233.91417    399.75574   -41999.177    42011.381   -165.84158     34.91959 
143536000    298.98497     362.2992    321.11434       -42048     42050.92    41.184862     34.91955 
143540000    301.02565    429.67765    522.41527   -42085.226     42098.53   -92.737622    34.928846 
143544000    264.53891    204.95997    391.79964   -42104.432    42111.381   -186.83967    34.937237 
143548000    264.50422    284.72222    348.29417   -42150.168     42167.48   -63.571951    34.943727 
143552000    284.87314    391.91396    273.88309   -42140.856    42178.322    118.03087    34.942214 
143556000    314.62773    406.56587    272.95425   -42178.278    42178.138    133.61162    34.944742 
143560000    285.55458    287.96396    243.09335    -42195.75    42209.252    44.870611     34.93823 
143564000    292.29461    343.48782    288.01139   -42236.708    42232.946    55.476427    34.946259 
143568000     291.1888    434.44711    335.37512    -42258.74    42262.762    99.071996    34.957541 
143572000    299.62648    461.57767    293.31592   -42270.549    42266.935    168.26174    34.950994 
143576000    287.79943    238.29267    492.98233    -42299.35    42308.616   -254.68966    34.954184 
143580000     272.1566    325.85911    404.24038   -42329.239    42317.825   -78.381268    34.957138 
143584000    316.45803    473.28554    501.78768   -42377.535    42354.832   -28.502141    34.964245 
143588000    287.41047    276.60924     521.4926   -42381.088    42379.548   -244.88336    34.963828 
143592000     286.1831    279.82668     405.2157   -42392.578    42389.348   -125.38902    34.969073 
143596000    267.00309    303.47199    268.43629   -42399.931    42410.825    35.035699    34.964293 
143600000    301.98176    366.18087    287.59575   -42441.022    42439.817    78.585127    34.954687 
143604000    285.10014    205.26203    335.03275    -42453.24    42459.009   -129.77072    34.948152 
143608000     264.0033    425.47632    278.34698   -42470.475    42502.712    147.12934     34.96064 
143612000    262.53517    456.48594     270.0239   -42476.287    42498.721    186.46204     34.95458 
143616000    314.09291    283.75131    320.91733   -42532.538    42514.269   -37.166026    34.961222 
143620000    312.74205    266.23299    310.93127   -42548.496    42561.859   -44.698274    34.949877 
143624000    278.35595     398.9532     240.4091    -42577.86    42602.767    158.54409    34.961408 
143628000    249.02278    246.59037    212.49918   -42586.882    42618.935    34.091186    34.959867 
143632000    294.94209    406.88415     324.4696   -42619.848     42630.42    82.414548    34.952633 
143636000    286.93145    444.05824    363.59413   -42656.815    42668.127    80.464116    34.954796 
143640000    278.62777    545.85073    205.17491   -42681.642    42701.802    340.67582    34.953366 
143644000    277.15833    389.84868    216.96621   -42703.519    42720.512    172.88247    34.948111 
143648000    292.96796    334.95229    337.08995   -42733.658    42734.655   -2.1376585    34.948733 
143652000    292.05331    338.49652    332.33789   -42743.553    42755.743    6.1586299    34.946395 
143656000    298.55735    267.75253    310.27993   -42781.417    42791.734   -42.527407    34.936761 
143660000    261.60452    351.51827    282.94305    -42783.18    42808.446    68.575218    34.938815 
143664000    282.15968    259.24129    371.12181   -42823.418     42840.91   -111.88053    34.933052 
143668000    278.04849     297.2397    358.21252   -42863.153    42866.018    -60.97282    34.957468 
143672000    290.47352    329.15264    281.21714   -42899.435     42902.55    47.935503    34.951676 
143676000    276.67845    261.21737    226.17052   -42911.491    42926.534    35.046846    34.936393 
143680000    299.12465    510.33029    261.04524   -42952.721    42955.849    249.28505    34.941138 
143684000    283.08897    358.93184    332.33456   -42974.892    42991.048    26.597278    34.946264 
143688000    297.96836    370.07581    334.83391   -43007.603    43004.413    35.241908    34.939607 
143692000    300.95387    365.10649    336.39761   -43005.862    43003.149    28.708874    34.946726 
143696000    297.05247    523.81632     107.0143   -43015.727    43000.358    416.80202    34.958142 
143700000     283.3881    319.75373    252.93523   -43033.145    43034.787    66.818502    34.955671 
143704000    273.53014    458.44957    203.89471   -43062.385    43072.037    254.55486    34.931604 
143708000     307.0689    478.85602    413.24869   -43100.291    43091.468    65.607324      34.9314 
143712000      274.228    499.90867    270.65642   -43128.855    43128.245    229.25224    34.921964 
143716000    317.87497    548.56072    360.09864   -43149.516    43159.118    188.46208    34.922093 
143720000    276.76963     505.3357    277.23093    -43186.01    43189.787    228.10476    34.919405 
143724000     299.6143    443.39509    475.10885   -43200.618    43206.467   -31.713765     34.92867 
143728000    292.34892    389.48342    253.24869   -43226.402    43233.353    136.23473    34.939813 
143732000    269.16024    174.47421    235.39542   -43240.737    43252.216   -60.921207     34.96537 
143736000    301.07016    262.79061    334.13916   -43283.665    43279.118   -71.348549    34.973031 
143740000    289.71158    163.44023    256.36237   -43278.097    43278.881   -92.922133    34.962565 
143744000     286.8938    337.63703    233.58429   -43281.557    43299.507    104.05275    34.957617 
143748000    273.81076    251.56516    375.98811   -43304.661    43310.006   -124.42295    34.967431 
143752000     278.6089    237.77471    420.92735   -43332.492     43356.54   -183.15264    34.969852 
143756000    289.45754    507.79003    355.79081   -43350.831    43359.978    151.99922    34.972251 
143760000    291.11954    434.32838    286.96416   -43369.457    43389.678    147.36422    34.979057 
143764000    287.16291    428.15794    309.69925   -43376.475    43401.199    118.45869    34.978521 
143768000    292.94555    450.27532    352.17257   -43412.746    43408.986     98.10275    34.967819 
143772000     284.5952    467.52131    210.58067   -43433.441    43446.292    256.94065    34.981298 
143776000    278.62123     320.5224    317.82847   -43448.641    43472.053    2.6939257    34.993198 
143780000    261.73054    367.92699     378.7855    -43460.61      43479.7   -10.858515    34.994212 
143784000    263.63244    349.27052    289.69281   -43500.479    43514.497    59.577706    34.999951 
143788000    263.49909    408.59023    307.39312   -43535.539    43566.309    101.19711    35.008849 
143792000    279.23434    329.00158    381.41397   -43565.897    43578.017   -52.412386    35.024226 
143796000    274.33291    353.08317     270.8879   -43593.145    43619.375    82.195279      35.0235 
143800000    278.36658    249.34168    264.88674   -43595.742    43613.145   -15.545056    35.027376 
143804000    312.27798    426.03016    340.78838   -43618.668     43634.88    85.241781    35.014915 
143808000    283.51663    566.05137    253.12918   -43673.457    43695.188    312.92218    35.007866 
143812000    266.70574    312.52434    446.54373   -43683.873    43711.895   -134.01939    35.003119 
143816000     289.4533    380.27435    375.83305   -43729.787    43730.598    4.4413015    34.996038 
143820000      276.382    383.71248    257.75606   -43725.848    43756.113    125.95642    34.984113 
143824000    268.18504    352.70884    325.50034   -43731.069    43766.501    27.208494    34.977639 
143828000    269.65208    431.95184    463.02389   -43746.206    43771.989   -31.072044    34.972207 
143832000    256.54434    426.99307    315.69296   -43759.344    43777.404    111.30011    34.968285 
143836000    304.91511    262.73464    183.92399   -43777.997    43791.202    78.810651    34.959716 
143840000    282.83097    398.29604    277.24741   -43787.059    43813.614    121.04863    34.950516 
143844000    269.26137    232.21639    383.13079   -43803.161    43810.252    -150.9144     34.96301 
143848000    289.16138    589.67349    407.07554   -43837.435    43847.018    182.59795    34.968084 
143852000    297.52624     365.1565    450.04713   -43834.322    43830.986   -84.890625     34.96424 
143856000    311.04318    417.64712    328.88815    -43853.22    43852.786    88.758966    34.963357 
143860000    267.28736    339.30897    362.86873   -43867.444    43882.624   -23.559762    34.943873 
143864000    279.06324    320.47928    234.06116   -43902.781    43909.238    86.418121    34.935654 
143868000    271.56297    244.70791    560.18878   -43919.808    43929.025   -315.48087    34.954066 
143872000    292.86007    422.69694    362.59456   -43947.901    43962.781    60.102379    34.943641 
143876000    271.19812    330.39568    290.50813   -43951.464    43980.299    39.887553    34.941518 
143880000     288.1292    323.15557    274.98903   -43995.598     44006.06    48.166539    34.941144 
143884000    297.63178    357.78987    437.02493    -44043.97     44034.58    -79.23506    34.929049 
143888000    307.92986    590.55803    371.72795   -44056.355     44069.36    218.83007    34.926182 
143892000    280.54481    400.60334    367.70253   -44068.923    44088.868     32.90081    34.922307 
143896000    271.38336    375.46608    266.78504   -44085.874    44103.521    108.68104    34.929406 
143900000    259.59986     440.8625    200.42682   -44105.553    44140.675    240.43568    34.925559 
143904000    262.46138     284.3093    194.27364   -44116.628     44139.95    90.035658    34.923655 
143908000    282.26724    417.92253     289.1459    -44140.64    44153.506    128.77663    34.949142 
143912000    274.53536    436.90033    371.96929   -44186.542    44207.422     64.93104    34.961761 
143916000     292.4626    339.90588     352.0275   -44211.042    44228.034   -12.121617    34.961816 
143920000    326.51109    629.26699    336.75342   -44234.487    44225.946    292.51357    34.962274 
143924000    299.95416    298.05476    429.48767   -44240.165    44242.087   -131.43291    34.954608 
143928000     312.5756    567.54873    441.60785   -44291.835    44292.629    125.94089    34.939176 
143932000    308.49194    234.09748    364.67472   -44313.892    44305.521   -130.57723    34.934702 
143936000    284.67444    471.88739    327.83518   -44327.479    44341.842    144.05221    34.940237 
143940000    274.11904    224.06971    347.71306   -44347.158    44383.839   -123.64335    34.925759 
143944000    269.73794    434.59554    228.84329   -44365.193    44395.933    205.75225    34.912583 
143948000    263.75165    355.33829    248.85487   -44401.168     44435.91    106.48343     34.89897 
143952000    290.86333    527.43341    537.57652   -44432.462     44442.77   -10.143112    34.901439 
143956000    275.61732    560.53984    442.39486   -44450.886     44466.67    118.14497    34.913413 
143960000    304.37257    476.12029    389.84659   -44488.411     44476.56    86.273699    34.923444 
143964000    271.66796    382.27121    279.35686   -44482.789    44501.175    102.91435    34.934481 
143968000    304.75859    397.65196    269.60382   -44526.206    44523.938    128.04814    34.928763 
143972000     276.8664    295.90035    332.92997   -44517.656    44546.409   -37.029621    34.917938 
143976000    292.76661    504.16506    403.15264   -44548.088    44566.808    101.01242    34.917173 
143980000    312.08949    348.34255      292.486   -44572.154    44563.892    55.856554    34.910976 
143984000    322.59826    428.51401    463.57821   -44602.566    44575.048   -35.064196    34.930484 
143988000    294.22345    325.89405    272.97244   -44634.396    44621.214    52.921615    34.922751 
143992000    307.40229    485.60122    418.31389   -44666.239    44661.873    67.287338    34.922296 
143996000    305.23148    318.27719    319.96947   -44702.704    44702.884   -1.6922802    34.917358 
144000000    313.80735    336.84098    476.14931   -44742.221    44737.744   -139.30833    34.920256 
144004000    291.40888     208.6249    298.72453    -44762.49    44766.892   -90.099628    34.915163 
144008000     271.0446    177.88691    236.38687    -44772.15     44786.97    -58.49996    34.908791 
144012000    255.17228    300.58615    251.08504    -44792.01    44838.722    49.501109    34.900548 
144016000    275.16024    307.09552    362.99124   -44819.048    44833.154   -55.895719    34.894304 
144020000    307.71835    367.39758    409.44459   -44855.498    44854.373    -42.04701    34.900662 
144024000    296.84225    604.86982    312.80316   -44869.337    44877.595    292.06665    34.904257 
144028000    278.65712      531.147     334.5567   -44906.588    44921.788    196.59029    34.908545 
144032000    273.15797    246.18646    374.65089     -44925.2    44950.191   -128.46443    34.917663 
144036000    290.23969    239.98794    340.24255   -44953.862    44957.325    -100.2546    34.925537 
144040000    282.91746    212.46841    354.61153   -44955.999     44974.77   -142.14311    34.908326 
144044000    268.16856    153.67091    293.89445   -44960.011    44975.889   -140.22354    34.901121 
144048000    286.41799    690.57957    332.34847   -45009.863    45014.003     358.2311    34.918741 
144052000    306.23131    267.56489    154.62657   -45017.895     45027.23    112.93832    34.919628 
144056000    278.86218    428.91388    158.02756   -45059.734    45062.947    270.88633    34.940466 
144060000    276.05662    313.03835    332.74616   -45095.242    45106.861   -19.707809    34.928816 
144064000    250.00419    222.70241    328.69356   -45105.055    45133.933   -105.99115    34.924985 
144068000    286.46616    310.31698    240.01197   -45120.691    45147.179    70.305012    34.918218 
144072000    303.28371    431.41304    302.31694   -45171.981    45178.408     129.0961    34.916677 
144076000    294.70253     310.6155    273.24973   -45209.531    45203.419    37.365771    34.912029 
144080000     313.6929    391.45283    278.47981   -45255.139    45251.397    112.97303    34.925786 
144084000    320.03891    454.88358    524.91123   -45292.056    45282.908   -70.027652    34.925004 
144088000    284.17179    392.01994    287.44891   -45301.849    45311.718    104.57104    34.923676 
144092000    266.50088    371.30407    291.83732   -45314.567    45342.092    79.466742    34.930035 
144096000     251.9818     278.7125     381.5757   -45330.043    45347.352    -102.8632    34.931788 
144100000     297.5701     337.4753     410.4814    -45335.68    45346.762   -73.006096    34.935362 
144104000    305.66487    571.35082    456.41953   -45390.292    45379.524    114.93129    34.950262 
144108000    274.72807    374.84304    410.90021   -45392.996     45406.83   -36.057165     34.92726 
144112000    286.57412    367.35386    370.28472   -45418.662      45436.6   -2.9308609    34.929844 
144116000    278.60494     357.6067     229.9323   -45431.696    45457.808     127.6744     34.93163 
144120000    267.36597    386.44697    390.55193   -45451.951    45485.017   -4.1049614    34.935073 
144124000    254.29585    228.83707    289.91291   -45482.055    45529.358   -61.075847    34.945085 
144128000    290.19395    450.01379    235.78639   -45505.024    45525.968     214.2274    34.966569 
144132000     295.4351    375.99125    509.21271   -45528.937    45534.162   -133.22146     34.96757 
144136000    287.51683    145.88042     150.1096     -45531.6     45549.79   -4.2291893    34.967624 
144140000    262.48054    356.89208    305.85863   -45538.231    45547.173    51.033457    34.972905 
144144000    277.68481    436.79827    126.80966   -45553.865    45570.657    309.98861    34.961085 
144148000    272.55065    283.93548    298.17517   -45545.898    45574.639   -14.239689    34.961465 
144152000    277.20362    338.97339    344.15401   -45547.427    45581.621   -5.1806197     34.94434 
144156000    268.71331    448.68927    288.85841   -45585.283    45611.045    159.83086    34.950125 
144160000    262.71497    306.99601    329.34918   -45596.305    45622.905   -22.353167    34.946507 
144164000     281.6124    303.98724    456.30305   -45632.904    45642.916   -152.31581    34.936504 
144168000    308.94212    352.41206    207.42772   -45663.365    45666.492    144.98434    34.925105 
144172000    297.15198    374.28118    334.41535   -45685.017    45678.936    39.865833    34.913992 
144176000    322.23577    255.55779    411.30963   -45703.897    45681.724   -155.75184    34.915581 
144180000    271.80489    152.19075    347.59199   -45688.578    45706.293   -195.40124    34.913355 
144184000    293.10528     266.7409    240.32205   -45719.613    45734.202     26.41885    34.929944 
144188000    312.26481    407.23607    314.84149   -45745.103     45764.01    92.394578    34.930052 
144192000    263.76292    378.51513    151.55812    -45779.16    45805.855    226.95701     34.91536 
144196000     269.5938    378.25079    288.12424   -45780.301    45797.564     90.12655    34.911918 
144200000    283.53405    247.68575    319.99315   -45839.621    45838.408   -72.307397    34.898553 
144204000    281.88376    337.18117    413.51503   -45853.501    45864.389    -76.33386    34.895711 
144208000     313.4671    778.69522    314.19296   -45898.697    45899.021    464.50226    34.898878 
144212000    270.22383    331.22966    223.88637   -45903.905    45933.369    107.34329    34.895028 
144216000    266.65681       442.82    274.28578   -45944.617    45954.278    168.53423    34.898169 
144220000    318.12092    457.29286    384.64394   -45967.009    45949.456    72.648911    34.881681 
144224000    297.26182    429.89015    379.93934    -45992.51    45994.991    49.950818     34.89709 
144228000    299.14423    449.81965    379.17175   -46027.449    46028.399    70.647897    34.892121 
144232000    280.81596    359.95812    355.97309   -46058.451    46072.928    3.9850278    34.879319 
144236000    276.59971    420.34174    225.67383    -46073.91    46106.652    194.66791    34.896372 
144240000    278.37455    434.54744    147.87192   -46110.135     46137.11    286.67552     34.90053 
144244000    291.90605    368.28195    350.97724   -46136.057    46145.706    17.304711     34.90442 
144248000     272.7083    336.93656    204.95079   -46140.281    46168.628    131.98577    34.906979 
144252000    273.72767    397.57069    254.06253   -46161.353    46193.801    143.50816    34.920595 
144256000    264.03968    328.43645    179.55705   -46180.299    46194.099    148.87941    34.924015 
144260000    275.15675    269.10454    233.04262   -46188.303    46212.385    36.061925    34.917628 
144264000    259.51543     230.6831      232.276   -46225.863    46242.348   -1.5929008    34.910174 
144268000    306.57131    482.21977    423.62144   -46247.662    46255.884    58.598332    34.920962 
144272000    329.18873    367.68036     618.6823   -46272.583    46270.354   -251.00194    34.919504 
144276000    271.32458    341.16327    356.99916   -46276.857    46305.427   -15.835882    34.909044 
144280000    254.50526    397.59664    368.97857   -46295.955    46337.039    28.618068    34.905799 
144284000    314.14758    269.76515    231.59053   -46342.691    46354.362    38.174623    34.919101 
144288000    275.73672    331.38205    646.65843   -46389.115    46400.449   -315.27638    34.908921 
144292000     268.5189    338.26835    252.79177     -46417.6    46446.164    85.476578    34.894355 
144296000    232.05024    282.07988    366.10724   -46430.742    46471.858   -84.027358    34.911097 
144300000    276.84123    491.61017    304.01134   -46452.862    46479.077    187.59884    34.920397 
144304000    286.95671    394.16298    296.18901    -46475.92    46496.844    97.973967    34.928069 
144308000    261.85768    534.02009    182.71305    -46519.24    46551.677    351.30703    34.939188 
144312000    270.35674    230.28045    282.28037   -46560.343    46586.037   -51.999915    34.943322 
144316000    309.41398    316.13782    383.90239   -46609.019    46621.304   -67.764569    34.949836 
144320000      285.484    237.50788    234.63647   -46641.612    46652.223    2.8714135    34.952334 
144324000    261.47192    310.65575     260.7916   -46653.077    46663.823    49.864148     34.96095 
144328000    265.05105    275.98899    448.93697   -46659.515    46697.249   -172.94798    34.950869 
144332000    291.04211    521.62433      529.856   -46701.961    46712.322   -8.2316742    34.952362 
144336000    274.79068    262.48866    180.42154   -46720.115    46740.397     82.06712    34.951409 
144340000    267.60291    340.57475    460.75934   -46721.747    46758.495   -120.18459    34.947906 
144344000    279.14352    334.74456     434.0178   -46730.815    46771.293   -99.273239    34.948789 
144348000    271.76399    436.50978     258.9706   -46771.327    46798.031    177.53918    34.948811 
144352000     280.2677     455.8793    381.07284   -46786.603    46814.452    74.806456    34.951825 
144356000     284.9267    251.33674    423.38701   -46819.151    46836.257   -172.05027      34.9414 
144360000    279.73246    351.23641    274.14182   -46841.759    46864.161    77.094589    34.940636 
144364000    277.40642    307.74496    276.36388   -46857.642    46903.441    31.381076    34.942927 
144368000    274.72365    132.71653    257.23204    -46890.53    46918.581   -124.51551    34.943898 
144372000    301.30934    241.74066    302.51465   -46943.313    46951.517   -60.773993    34.941677 
144376000    282.91035    435.29503    416.14918   -46969.904    46976.736    19.145849    34.939892 
144380000    300.20863    289.29267    186.96426   -46985.884     47005.89    102.32841     34.95039 
144384000    321.85493    398.23086    308.27804   -47024.013    47030.265    89.952819    34.971369 
144388000    274.27212    340.81859    325.34746   -47066.563    47080.998    15.471129    34.969487 
144392000    260.23632    249.62187    289.66064   -47092.333    47107.764   -40.038778    34.959369 
144396000    307.68853    279.82169    434.63041    -47145.72    47148.029   -154.80871    34.965696 
144400000    272.82566    574.12405    404.88901   -47175.868    47193.766    169.23504    34.967454 
144404000    304.29309    387.10312    572.64469   -47202.126    47203.601   -185.54157    34.966629 
144408000    310.53844    513.68436    390.48246   -47255.302    47247.993     123.2019    34.967659 
144412000    339.47038    496.14032    439.76759   -47295.479    47279.939    56.372737    34.966138 
144416000    283.79525    417.68341    334.83103   -47289.465    47301.846    82.852387    34.973877 
144420000     307.4007    300.81212     315.5827   -47312.802    47332.789   -14.770578    34.967643 
144424000    296.61363    344.30398    375.78763   -47341.561    47359.776   -31.483655    34.970476 
144428000    294.77909    402.53698    383.89143   -47367.998    47358.155    18.645548    34.973012 
144432000     283.9253    352.09114     344.2935   -47379.746    47396.531    7.7976349    34.988443 
144436000      282.874    234.67863    358.75153   -47360.796    47394.476   -124.07291    34.988072 
144440000    257.74573    404.79172    270.34127   -47376.667    47426.856    134.45045      34.9966 
144444000     277.3148    463.21997    288.70605   -47400.764    47422.706    174.51392    34.976044 
144448000    301.91833    430.18642    343.89328   -47444.014    47457.882    86.293139     34.96238 
144452000    269.84425    431.87571    356.01276   -47471.119    47486.557    75.862947    34.965785 
144456000    260.26089     395.1878    287.84716   -47487.116    47528.333    107.34064    34.961613 
144460000    267.84019    212.74393    263.47645   -47527.461    47546.832   -50.732523    34.959469 
144464000     288.1159      388.078    271.43984   -47555.548    47572.379    116.63816    34.949315 
144468000    292.07851    263.00937    299.07551   -47599.804    47600.611   -36.066147    34.950781 
144472000     279.1598    281.79432    399.43833    -47607.66    47621.298   -117.64401    34.958478 
144476000    261.07355    207.47367     477.3561   -47621.949    47649.282   -269.88242    34.955474 
144480000    277.74519    253.67628    281.52501   -47663.175    47698.862   -27.848726    34.948994 
144484000    298.79527    362.59422    269.11007   -47713.821    47730.113    93.484149    34.933072 
144488000    239.91189    276.98272    336.98788   -47727.402    47783.251   -60.005163     34.94195 
144492000    297.29292    436.93115    201.31292   -47763.731    47772.223    235.61822    34.931312 
144496000    305.47017    297.98288     381.7934   -47780.748    47778.124   -83.810517    34.929882 
144500000    285.08715    301.24882    282.88699   -47785.906    47787.328    18.361827    34.934121 
144504000    291.99513    313.20519    169.57879   -47791.609    47774.759     143.6264      34.9162 
144508000    297.83476    405.78629    369.34745   -47770.913    47785.076    36.438847    34.918494 
144512000    274.42593    322.42037    319.83263   -47778.961    47811.462    2.5877318     34.91301 
144516000    278.96069    394.16456    204.78803   -47839.722    47859.342    189.37653    34.922778 
144520000    260.66239    425.88265    275.19865   -47851.013    47882.671      150.684    34.907869 
144524000    269.07936    522.83625    113.42957   -47901.437    47913.029    409.40668    34.911595 
144528000    282.86006    406.52772    285.66746   -47915.457    47936.067    120.86025    34.941873 
144532000    329.51713    462.73249    382.93083   -47943.591    47923.458    79.801661    34.933587 
144536000     289.3924    263.72722    435.11973   -47919.997     47928.15   -171.39251    34.920981 
144540000    282.38845    323.29504    387.26756   -47944.654    47955.317   -63.972529    34.926168 
144544000    268.93851    289.69868    281.39158   -47973.552    47991.115    8.3071007    34.928536 
144548000    282.32271    304.84508    332.29275   -47992.337    48013.814   -27.447672    34.935253 
144552000    289.05161    193.11347    294.47993   -48011.053    48033.359   -101.36646      34.9401 
144556000    283.41348    336.01349    283.84668   -48036.486    48055.415    52.166807    34.941413 
144560000    276.70849    426.61746    241.66484   -48062.536     48078.83    184.95262    34.930633 
144564000    280.83487    513.61686    347.27416   -48076.216    48097.333     166.3427      34.9431 
144568000    276.69132     604.6042    244.27493   -48099.978    48128.878    360.32928    34.971723 
144572000    289.34124    363.50473    493.14477   -48112.528    48132.626   -129.64004    34.971584 
144576000    281.55396    487.72336    342.56491   -48131.466    48153.159    145.15845     34.96398 
144580000    303.93672    372.08834    220.89906   -48146.891     48162.38    151.18927    34.966749 
144584000    268.56254    310.40144      263.158   -48183.577    48201.801    47.243444    34.984629 
144588000    254.71919    533.73125    261.35129   -48215.991    48247.851    272.37996    34.973973 
144592000    273.91992    345.81969    334.20405   -48235.788    48262.007    11.615639    34.966441 
144596000    275.75413    354.11537      417.264   -48284.172    48268.518   -63.148628    34.979988 
144600000    276.13723     400.5852    317.96988   -48279.599    48301.377    82.615321    34.986453 
144604000    279.02445     343.2341    142.87524     -48287.3    48302.282    200.35886     34.99722 
144608000    293.04559    594.16285    707.11948   -48306.971    48312.996   -112.95663    34.991698 
144612000    277.72269    488.77206    415.39617   -48342.927    48343.074    73.375887    34.985765 
144616000    305.50244    268.63395    497.66262   -48346.876    48355.873   -229.02868    34.978608 
144620000     277.8858     701.7287    364.97733   -48365.035    48398.297    336.75137    34.977977 
144624000    257.46414    276.21221    320.86528   -48370.993    48407.598   -44.653064    34.991525 
144628000    295.70312    238.12641    529.86596   -48381.329    48402.693   -291.73955    34.988032 
144632000     269.1155    282.62249    230.13113   -48401.717    48438.428    52.491358    34.980323 
144636000    277.61536    554.46104    230.73576   -48432.531    48438.022    323.72528    34.976834 
144640000    291.73408    449.08612    309.86988   -48461.676    48478.585    139.21624    34.991881 
144644000    309.35403    642.14901    364.91613   -48464.972    48474.825    277.23288      35.0045 
144648000    301.44342    469.70428    401.18748   -48517.823    48529.594    68.516802    35.008239 
144652000    257.81539    377.30824    244.95316   -48558.807    48571.872    132.35508    35.009286 
144656000    277.75766     303.8264    361.49084    -48590.37     48613.48   -57.664439    34.999262 
144660000    291.85131    217.24649    631.23124   -48618.828    48632.559   -413.98476    34.990098 
144664000    297.59122    514.22568    222.57037   -48638.782    48666.192    291.65531    34.993294 
144668000    253.72475     420.5009    479.00827   -48643.474    48685.286   -58.507365    34.999437 
144672000    254.01401    381.88029    391.91005   -48668.611    48699.408   -10.029761    35.003471 
144676000    286.51665    438.10389      281.446   -48665.746    48698.212    156.65789    35.005142 
144680000    282.57093    404.48826    350.15572   -48708.236    48727.061    54.332535    35.002782 
144684000    253.97629    515.04312     281.1956   -48727.798    48767.049    233.84752    35.008812 
144688000    273.02786    409.85829    364.23479   -48743.548    48773.179    45.623502    34.997411 
144692000    296.58838    591.90128    387.35893   -48780.642    48791.193    204.54235      34.9942 
144696000    257.91007    191.36573    323.87061   -48786.905    48811.906   -132.50489    34.990893 
144700000    292.18586    567.90637     337.1632   -48829.234    48848.368    230.74317    35.003356 
144704000    260.64785     295.3575    193.71807   -48844.782    48879.264    101.63943    34.997915 
144708000     272.1907    251.37371    279.12685   -48851.344    48891.941   -27.753133    34.994182 
144712000    285.88374    334.23235     262.2593   -48874.135    48894.126    71.973058     34.99746 
144716000    275.18109    381.75723    310.33213   -48925.018    48937.308    71.425097    34.995543 
144720000    268.89372    341.87637    417.39805   -48947.016    48979.418   -75.521678    35.003229 
144724000     293.2388    432.78433    280.54496   -48991.168    49004.277    152.23937    35.006064 
144728000    279.06902    142.30456    369.31042   -49024.149    49051.915   -227.00586    35.015496 
144732000    289.86018    431.33268      350.507   -49055.429    49072.902    80.825689    35.003861 
144736000    276.10286    219.62019    220.86408   -49088.492    49087.421   -1.2438841    34.991825 
144740000    289.52799    430.89027    305.71343   -49116.514    49139.471    125.17684     34.97043 
144744000    270.53077    521.07294    225.51906   -49142.538    49162.404    295.55388    34.975551 
144748000    263.21997    430.66028    238.73192   -49175.318     49206.12    191.92835    34.990633 
144752000    296.02787    312.17083    334.06059   -49214.982    49228.987   -21.889759    34.981839 
144756000    273.07237    302.38678    478.84058   -49236.027    49265.846    -176.4538    34.980035 
144760000    290.04745    557.35343    331.33266   -49289.157    49298.516    226.02077    34.987162 
144764000    263.27279    324.15924     233.5516    -49307.24    49345.092    90.607642    34.990934 
144768000    289.37229    545.28006    483.50937   -49342.377    49360.905    61.770691    34.980004 
144772000    292.93831    448.68545    370.01774   -49378.468    49375.959    78.667707    34.979713 
144776000    288.54471    261.90985    385.13651   -49403.858    49411.347   -123.22665      34.9957 
144780000    276.45564    350.27318    221.78302   -49436.425    49448.997    128.49016    34.986157 
144784000    285.62414    321.10439    337.48769   -49474.493    49492.638   -16.383297    34.982724 
144788000    269.45645    313.88005    345.28742   -49472.064    49505.829    -31.40737    34.994625 
144792000    271.44172    231.96176     371.5564   -49484.231    49503.056   -139.59464    34.999544 
144796000    300.72177    525.00114    322.96285   -49505.803    49510.759     202.0383    35.010632 
144800000    273.31448    227.22128    359.18778   -49511.347    49517.936    -131.9665    35.022158 
144804000    293.43931    406.75103    323.39757   -49526.944    49532.049    83.353461    35.019051 
144808000     251.4407     287.5579    277.74183   -49548.305    49582.541    9.8160712    35.025588 
144812000    293.64329    393.08511    307.87134   -49585.791     49593.49    85.213767    35.028186 
144816000    276.08193    338.88043    363.94761   -49614.575    49628.168   -25.067175    35.025601 
144820000    257.40946    347.16279    330.10505   -49621.117    49653.217    17.057745    35.026708 
144824000    291.02523    587.28182    339.82224   -49626.112    49641.542    247.45958    35.038098 
144828000    288.29037    316.66529    348.12549    -49633.75    49664.987     -31.4602    35.018004 
144832000    267.16288    206.54903    345.93704   -49664.654    49693.339   -139.38801    35.026257 
144836000    272.86558    315.41194    201.45455   -49703.823    49722.227    113.95739    35.025039 
144840000    283.42518     198.6991    260.79732    -49721.68    49743.198   -62.098221    35.038355 
144844000    276.99073    285.69444    280.85727   -49728.368    49753.587    4.8371685    35.047116 
144848000    273.00124    232.88527    259.19937   -49769.864    49782.198   -26.314102    35.056383 
144852000    297.32162    393.33145     274.2534   -49812.433    49825.771    119.07805    35.040233 
144856000    300.80642    474.41902    337.18784   -49842.643    49846.041    137.23118    35.033194 
144860000    332.76481    427.16223    326.99924   -49876.397    49858.033      100.163     35.03841 
144864000    314.80023    395.05328    635.23322   -49880.066    49869.852   -240.17994    35.044661 
144868000    273.46424    342.45296    229.20165   -49883.252    49899.801    113.25131     35.04504 
144872000    320.06167    400.11275    293.60423   -49915.147    49905.466    106.50852    35.035993 
144876000    269.35384      366.452    325.65244   -49907.981     49935.88    40.799561    35.029794 
144880000    290.22349    300.65068    324.40914   -49952.764    49963.003   -23.758455    35.043642 
144884000    295.38521    396.92218    252.82607   -49974.954     49981.34    144.09611    35.031977 
144888000    319.32111    443.36075    317.20472   -49988.213    49979.517    126.15603     35.03831 
144892000     284.5716    273.65879    407.10827   -49997.468    50017.839   -133.44947    35.033207 
144896000     264.0974    518.06295    261.62495   -50069.456    50092.353      256.438    35.021235 
144900000    264.72148    361.89046    425.06098   -50095.479    50127.515   -63.170526    35.006989 
144904000    289.09303    685.55372    367.32767   -50156.077    50158.177    318.22606    34.991295 
144908000    276.40788    392.79237     335.3841   -50154.849    50174.352    57.408263    34.995818 
144912000    284.05884    461.49578    365.96356   -50182.548    50189.283    95.532215    35.020211 
144916000    311.82202    463.85257    550.32604   -50224.114    50221.651   -86.473471     35.01577 
144920000    286.60617    417.49161    278.92876   -50276.228     50287.82    138.56284    35.016004 
144924000    293.25335    415.08558    382.91553   -50296.058    50301.548    32.170049    35.011578 
144928000    294.00551    245.71843    206.99161   -50343.625     50354.48    38.726825    35.006872 
144932000    307.56547    309.64192    354.30961   -50379.681    50376.391   -44.667688    34.995223 
144936000    292.27577    275.63113    397.37393   -50407.495    50404.989    -121.7428    34.996563 
144940000    336.76349    348.86351    323.87626   -50458.529    50444.543    24.987256    35.006658 
144944000    260.84128    268.47713    422.99249   -50455.565    50492.846   -154.51535    35.009186 
144948000     293.5208    405.72819    294.72927    -50480.04    50498.864    110.99892    35.021782 
144952000    292.15799    281.19474    253.37105   -50506.779    50510.204    27.823692    35.021868 
144956000    276.98622    294.36291    404.57545   -50532.266    50551.886   -110.21254     35.03927 
144960000    287.76502    309.85936    220.13011   -50536.855    50554.268    89.729245    35.035151 
144964000    301.30107    268.80834    448.25884   -50571.893    50574.446   -179.45051    35.028842 
144968000    294.07249    309.64182    385.17824   -50586.362    50590.545   -75.536422     35.02599 
144972000    253.18524    329.93944    262.65861    -50599.56    50636.797    67.280839    35.013087 
144976000    292.62214    310.64801    236.22895   -50659.599    50664.787    74.419056     35.00101 
144980000    294.92063    149.72232    295.31403   -50687.801    50701.899   -145.59171    34.994948 
144984000    301.56794    419.74854    275.18823    -50751.28    50749.907    144.56031    34.993674 
144988000    286.27307    217.60563    483.33455   -50772.421    50784.925   -265.72891    34.997024 
144992000    268.41688    349.22847    321.38144    -50812.29    50843.208     27.84703    34.990973 
144996000    261.69616    690.67591    294.72886   -50826.545    50855.711    395.94705    34.976065 
145000000    253.84601    479.46589    365.63187    -50825.01     50873.67    113.83401    34.979094 
145004000    248.51991      316.648    306.50393   -50822.754    50872.998    10.144071     34.98207 
145008000    294.81527    532.26189     454.2644   -50840.941    50861.481    77.997489    34.995432 
145012000      292.755    440.34169    198.30274   -50877.906    50891.222    242.03895    34.981516 
145016000    315.28406    490.41686    280.68984   -50905.816    50901.512    209.72702     34.97747 
145020000    296.28063    291.15481    456.28129   -50935.072    50935.361   -165.12648    34.970643 
145024000    284.13192    509.61665    239.35748   -50967.903    50981.479    270.25917    34.974193 
145028000    270.55179    368.87067    405.79763   -50974.759    50997.083   -36.926953    34.973268 
145032000    297.68867    409.60376    448.66259   -50996.374    51002.833   -39.058832    34.967728 
145036000    291.44851    207.88445    371.29253   -51045.695    51034.839   -163.40808    34.976038 
145040000    286.67705    358.08244    239.62527   -51026.433    51057.204    118.45717    34.985483 
145044000    279.73678     400.5228    442.08168   -51048.995    51059.929   -41.558886    34.993118 
145048000    271.73514     339.4793    347.77461   -51039.092    51077.198   -8.2953057    34.994123 
145052000    293.71051    575.75511    224.86626   -51072.599    51097.919    350.88885    34.992768 
145056000    266.33984    339.58179     385.3991   -51087.635    51113.232   -45.817313    34.996372 
145060000    299.38922    656.88169     396.2805   -51118.189    51115.586    260.60118    34.992838 
145064000    300.15422    409.36587     174.0397   -51130.088     51132.03    235.32617    34.985213 
145068000    315.28264    343.31051       253.09   -51181.165    51156.371    90.220508    34.983264 
145072000    293.56409    463.93764    294.25413   -51178.993    51193.573    169.68351    34.974139 
145076000    295.84097    251.80192    415.38139    -51187.03      51200.7   -163.57947    34.969242 
145080000    249.65042    225.41118    291.54271   -51210.433    51250.689   -66.131528    34.965815 
145084000    285.27695    337.75361    350.13436   -51240.965    51265.561   -12.380744    34.974537 
145088000    268.21163    308.01453    205.90178   -51256.995    51266.876    102.11275    34.979994 
145092000      306.968    525.58924    320.40294   -51301.761    51296.836     205.1863    34.999275 
145096000     301.5035    502.90173    395.25701   -51323.955    51344.761    107.64472    35.004189 
145100000    282.39582    429.37372     271.3411   -51350.955    51374.517    158.03262    35.013312 
145104000     274.1795     370.2116    389.19646   -51358.204    51379.283   -18.984862    35.011422 
145108000    278.95584    316.48604    275.08439   -51409.191    51412.617    41.401643    35.022578 
145112000    250.39103    225.00834    160.17389   -51416.591    51443.512    64.834446    35.018338 
145116000    315.06075    255.43747    383.60561   -51457.411    51456.781   -128.16814    35.021592 
145120000     259.4216    361.33942    261.78174   -51466.921    51493.226    99.557685     35.02147 
145124000    262.87794    294.77053    344.78991   -51488.463    51516.579   -50.019383     35.00947 
145128000    300.22839    327.03086    301.64539   -51508.967     51528.08    25.385474    34.998163 
145132000    305.16906    418.03761    146.30474   -51540.916    51543.931    271.73287    35.005468 
145136000    283.00252    168.61417    248.56761   -51583.684    51612.652   -79.953438    34.996333 
145140000    275.39086    337.59397    320.53418   -51605.009    51626.171    17.059787    34.993708 
145144000    292.02218    378.59497    298.21002   -51630.327    51641.698    80.384949    34.988864 
145148000    270.54913    415.02546    385.42368   -51655.014    51690.786     29.60178    34.995293 
145152000    283.60568    426.68933    510.15555   -51681.699    51706.482   -83.466215    35.005216 
145156000    292.53525    448.73501    450.78244   -51693.314    51712.918   -2.0474232    35.001608 
145160000    265.69716     457.2698     512.3508   -51716.117    51743.959   -55.080998    34.994328 
145164000    288.11954    345.88524    398.96269   -51730.097    51732.926   -53.077447    34.988633 
145168000    262.14388    480.24473    227.16895   -51724.506    51765.767    253.07578    34.993085 
145172000    297.81159    483.10151    426.38333   -51726.642    51745.828    56.718177    34.991887 
145176000    283.19891    296.85356    499.20404   -51732.515    51738.524   -202.35048    34.989126 
145180000    283.01522    361.06342    268.98623   -51723.706    51745.476    92.077192    34.986782 
145184000    275.06228    454.47667    290.47378   -51711.423      51739.8    164.00289    34.982104 
145188000    265.29274    341.10142    301.10874   -51742.564    51764.295    39.992683    34.982793 
145192000    279.94072    339.56094      419.672   -51808.115    51814.208   -80.111065    34.992472 
145196000    276.17239    184.13518    447.54074   -51819.766    51845.341   -263.40556    34.998507 
145200000    269.35427     350.9796    232.62813   -51845.728    51873.978    118.35147    34.998832 
145204000    272.79597    285.58509    360.69466   -51848.302    51891.617   -75.109575    35.004548 
145208000    266.80276     237.8698    291.27215   -51897.418    51932.704    -53.40235    34.988854 
145212000    276.01734    237.73848    175.31926   -51934.817    51961.817    62.419218    34.979743 
145216000    308.98153    509.90186    610.14676   -51970.129    51978.572    -100.2449    34.966811 
145220000    309.17808    265.87695    437.44595   -51980.474    51971.081     -171.569    34.958284 
145224000    298.28934    438.31741    243.86951   -51992.761    52009.145    194.44789    34.958903 
145228000      292.321    328.07081    275.39742    -52050.86    52058.372    52.673391    34.945377 
145232000    291.51106    527.03808    463.72114   -52062.691    52078.718    63.316941    34.957097 
145236000    325.21638    372.40172    370.51292   -52104.676    52098.362    1.8888036    34.968612 
145240000    281.95222    296.92736     377.4553   -52105.777    52123.111   -80.527936    34.978358 
145244000     265.8091    180.99881    419.86773   -52129.769    52162.649   -238.86892    34.983711 
145248000    247.33261    342.35678    281.19423   -52125.763    52167.889    61.162554    34.980922 
145252000    255.92673    324.78888    452.75868   -52157.583    52183.563   -127.96979    34.985523 
145256000    281.17836    382.09976     466.7475   -52198.617    52205.363   -84.647734    34.968064 
145260000    284.50201    458.34783    320.89823   -52218.608    52225.082     137.4496     34.99352 
145264000    264.09277     371.2484    346.29839   -52223.387    52245.511    24.950012    34.974816 
145268000    294.62135    456.51701    324.13515   -52219.443    52242.332    132.38186    34.971375 
145272000    254.90677    265.17044    219.03477   -52234.167    52273.418    46.135667    34.952358 
145276000    259.53692    282.48677    308.68628   -52239.328    52271.207   -26.199511     34.95042 
145280000    277.34154    381.67482    443.44643   -52275.792    52287.128   -61.771609    34.955934 
145284000    302.05576    414.78242    487.16651   -52301.483    52299.442   -72.384094     34.95924 
145288000    276.84846    290.40894    449.21704   -52321.378    52330.053   -158.80811    34.966947 
145292000    311.62328    517.91807    336.33029   -52351.366    52357.858    181.58778    34.968476 
145296000    276.08574    500.88707    390.21925    -52362.43    52390.299    110.66782    34.957278 
145300000    300.18862    482.41198    289.97425   -52377.744    52388.551    192.43773    34.963184 
145304000    284.28165    253.08384    374.72552   -52388.673    52395.112   -121.64168    34.967585 
145308000     261.3283    458.67446    452.90257   -52414.384    52447.423     5.771894     34.95851 
145312000    260.53318    354.97889    400.53425   -52425.167    52463.171   -45.555359    34.959518 
145316000    265.70669     409.5792    477.39187   -52470.175     52495.28   -67.812669    34.954425 
145320000    277.22454     485.1894    243.29608    -52486.96    52503.375    241.89332    34.952189 
145324000     299.1171    349.81921     257.5011   -52535.532    52545.416     92.31811    34.937616 
145328000    277.84824    539.06338    235.96499   -52574.798    52596.723    303.09839    34.949618 
145332000    286.26513    333.87931    211.41332   -52628.773    52642.312      122.466    34.940584 
145336000    317.06332    400.56671    443.39995   -52664.823     52671.87   -42.833244    34.933564 
145340000     269.7659    208.84093    338.32978   -52666.682    52680.017   -129.48885    34.924378 
145344000    313.31001    509.89334    333.86878   -52704.602    52713.659    176.02456    34.933147 
145348000    317.96859    374.20788    356.01379   -52755.826    52751.624    18.194091    34.944582 
145352000    292.22226    514.46201    311.08108   -52789.086    52787.075    203.38093     34.92886 
145356000    298.49823     380.0367    228.00217   -52803.523    52807.787    152.03453    34.929607 
145360000    295.36811    333.53245    237.05387   -52810.904    52838.727     96.47858    34.926004 
145364000    272.88913    319.19097    410.26071   -52846.506    52875.086   -91.069735     34.93071 
145368000    274.63173    353.65005    287.84537   -52844.933    52868.953    65.804677    34.946844 
145372000    259.11244    253.37868    219.47659   -52893.817    52901.717    33.902088    34.955034 
145376000    273.87373    306.38101    267.89662   -52889.083    52921.489    38.484385    34.967544 
145380000    278.81626    222.61099    218.15988   -52925.922    52952.502    4.4511066    34.962446 
145384000    289.59407    533.87289    258.37334   -52960.814    52966.681    275.49955    34.946409 
145388000    282.89611    292.45353    564.23515   -52998.916    53020.492   -271.78162    34.939371 
145392000    269.15547    201.40976    374.18804   -52996.335    53034.757   -172.77828    34.928472 
145396000    276.22647    411.77717    253.79489   -53047.413    53077.484    157.98228    34.938469 
145400000    285.67732    198.25573     307.7238   -53061.252    53075.082   -109.46806    34.920436 
145404000    268.79913    259.25204    323.66161    -53081.82    53105.297   -64.409575     34.90398 
145408000    273.57849     369.8446    293.10084   -53079.991     53109.77    76.743763    34.897746 
145412000    278.79362    392.77744    174.66808   -53108.644    53137.556    218.10936    34.908007 
145416000    263.98138    278.23818    174.76466   -53133.916     53171.78    103.47353    34.911322 
145420000    267.09116    314.47314    363.66114   -53153.493      53175.2   -49.188003    34.899135 
145424000    322.23779    374.93806     555.3378   -53213.852    53203.916   -180.39974    34.899587 
145428000     283.8745    409.60417    325.80458   -53225.771    53237.053    83.799596    34.897649 
145432000    266.17186    191.65246    337.60258   -53242.184    53255.138   -145.95012    34.887607 
145436000    275.46227     306.6571    213.33335   -53245.188    53259.351    93.323751    34.897331 
145440000    289.19433    329.26833    226.93161   -53283.609    53323.457    102.33672    34.926479 
145444000    296.76396    224.07819    207.94778   -53317.935    53328.618    16.130405    34.908226 
145448000    315.01759    365.34605    420.50188   -53345.823    53350.109   -55.155827    34.924474 
145452000     303.0439    641.00784     311.7405   -53360.309      53361.5    329.26735    34.916466 
145456000    295.54981    361.49543    352.57811    -53376.56    53403.687    8.9173233    34.916783 
145460000    295.39883    308.53144    387.48637   -53395.436    53416.882   -78.954935    34.917953 
145464000    265.51562    309.61259      391.311   -53403.855    53431.836    -81.69841    34.929115 
145468000    265.05326    474.22598    342.70206   -53381.738    53425.937    131.52392     34.91966 
145472000    308.92999    306.33141    371.13129   -53402.823     53408.51   -64.799878    34.917911 
145476000    260.42112    317.66319    429.31328   -53412.283    53439.163   -111.65009    34.925201 
145480000    303.51588    429.09023    276.05838   -53427.618    53448.284    153.03185    34.927262 
145484000    281.12161    253.20388    254.28992   -53432.676    53452.209   -1.0860444    34.944109 
145488000    295.55407    283.24136    241.30139   -53450.043    53467.807    41.939967    34.943879 
145492000    271.61308    325.70073    289.10631   -53464.097    53490.528    36.594426    34.941915 
145496000    257.85012    257.76653    639.74889   -53481.431     53514.12   -381.98236    34.937806 
145500000    299.89725    475.37414    209.82694   -53494.079    53512.726     265.5472     34.93818 
145504000    276.64206    423.63665    230.57308   -53524.326    53552.092    193.06357    34.935391 
145508000    283.36742     309.6354    244.30764   -53536.275    53557.162    65.327755    34.933264 
145512000    256.01054    388.81153    379.03338   -53543.072    53563.658    9.7781506    34.923675 
145516000    303.31147    427.92098    321.06435   -53546.608    53559.299    106.85663    34.927734 
145520000    268.43455    421.89637    257.86435   -53556.587    53592.741    164.03202     34.92878 
145524000    289.51272    277.76568    420.60236   -53590.265    53598.197   -142.83668    34.927305 
145528000    294.80297    453.93325    574.68702   -53583.365    53601.384   -120.75377    34.927301 
145532000    262.88013    345.18866    369.36307   -53577.855    53612.581   -24.174413    34.931045 
145536000    292.53096    334.44817    225.24884   -53619.239    53646.383    109.19934    34.951671 
145540000    284.32457    371.78629    299.74442   -53628.336    53660.551    72.041876    34.952677 
145544000    253.61502    309.41196    229.80562   -53641.711    53660.678    79.606336    34.945689 
145548000    253.58168    264.31027    308.04179   -53653.527    53674.155   -43.731528    34.934049 
145552000    265.87487    202.24942    324.65845   -53649.057    53672.145   -122.40903    34.925015 
145556000    306.21737    340.62286    364.78267   -53697.863    53703.653   -24.159809    34.917369 
145560000    290.00685    444.57115    341.60651    -53737.14    53749.789    102.96464      34.9281 
145564000      265.753    433.33976    456.18192   -53769.026    53780.156   -22.842164    34.927508 
145568000    297.29147    448.97252    227.78616   -53758.729      53767.6    221.18637    34.905109 
145572000    282.94044    482.14144    327.85199   -53758.258    53771.218    154.28945    34.908017 
145576000    285.50337     444.9595    272.57428   -53743.869    53771.147    172.38522    34.912782 
145580000     268.2045    384.84414    270.07746    -53761.09     53783.75    114.76668    34.926245 
145584000    266.65495    309.46235    408.09181   -53779.781    53811.797   -98.629452    34.918537 
145588000    276.47029    214.66886    330.72391   -53799.406    53823.089   -116.05505    34.915097 
145592000    315.39186    329.18163    639.35288    -53819.74    53819.302   -310.17125    34.895749 
145596000    282.40674    322.50887     328.1829   -53821.031    53839.158   -5.6740348     34.90449 
145600000    268.04475    458.26681    335.01491   -53830.887    53863.887    123.25191    34.922316 
145604000    306.43124    317.44453    205.32812   -53870.605    53883.093    112.11641    34.935881 
145608000     288.3862    267.12204    197.98576    -53900.62     53908.85    69.136283    34.943231 
145612000    307.58768    293.89115    263.10952   -53935.288    53943.161    30.781632    34.927432 
145616000    285.20818    389.67652    363.93775   -53951.588    53977.152    25.738766    34.928948 
145620000    301.74552    260.07355    307.70423   -53982.926    53989.422   -47.630684    34.941214 
145624000    284.62508    449.67666     168.6379   -54009.958    54030.569    281.03875     34.95346 
145628000     299.6342    390.12527    351.13922   -54041.784    54049.813    38.986045    34.946338 
145632000    259.17529     422.5899    311.40864   -54062.358     54075.71    111.18126    34.961786 
145636000    288.87406    461.02334    530.90649   -54084.763    54104.462   -69.883151    34.954362 
145640000    293.03096    337.38686     488.2116   -54081.277    54093.259   -150.82475    34.956686 
145644000    293.00138    409.45569    222.70063   -54104.517    54123.756    186.75506    34.958891 
145648000    288.28401    423.39988    255.27734   -54119.987     54120.06    168.12254    34.953272 
145652000    274.21728    555.41349    268.61311   -54132.216     54167.48    286.80037    34.960217 
145656000    274.74518    342.69211    415.74046   -54144.401     54163.52   -73.048358    34.957415 
145660000     302.2785    474.22417    366.95165   -54178.591    54183.652    107.27252    34.938085 
145664000    273.46634    326.85691    322.09425   -54176.891    54207.076     4.762665    34.938895 
145668000    285.15208    360.02992     196.1324   -54209.591     54220.65    163.89752    34.938361 
145672000    249.20651    406.60995    301.75905   -54208.281    54253.343     104.8509    34.942518 
145676000    259.95975    462.74297    237.24771    -54233.24    54268.114    225.49526    34.932801 
145680000    278.94385    378.82959    285.32145   -54257.376    54290.083    93.508144    34.934204 
145684000    289.75119    535.13289    308.65029   -54286.961    54300.982     226.4826    34.924516 
145688000    259.72417     290.8475    207.13537   -54297.566    54328.322    83.712132    34.937355 
145692000    282.37529    545.57395    243.16543   -54335.677    54360.835    302.40852    34.944419 
145696000    261.79172    369.91127    349.06857   -54349.519    54385.036    20.842699    34.939154 
145700000    292.79054    504.00456    256.71508   -54404.049     54407.96    247.28948     34.92877 
145704000    304.08348    321.40915      403.414   -54420.399    54418.264   -82.004851    34.928297 
145708000    318.27558    544.20863    430.06899   -54473.183    54474.879    114.13964     34.91662 
145712000     307.3278    314.44981    471.07038   -54482.066    54489.724   -156.62057    34.907808 
145716000    268.50681    443.26081    153.11579   -54492.996     54518.17    290.14501    34.909183 
145720000    295.94149    494.47059    354.83449   -54514.512    54527.988     139.6361    34.916629 
145724000    276.38966    395.81465    149.12959   -54561.606    54578.259    246.68505    34.910199 
145728000    275.45058    365.02714    403.17317   -54583.208    54605.117   -38.146027    34.905498 
145732000    273.70476    568.39435    212.15699   -54598.135    54631.305    356.23736    34.902462 
145736000    288.46101    277.69098    230.68499   -54632.776    54622.967    47.005988    34.893141 
145740000    316.34226     176.0497    359.10187   -54647.165    54665.518   -183.05217    34.901422 
145744000     283.8955    329.28229    239.43658   -54699.474    54715.701    89.845712    34.909683 
145748000    286.70648     207.8944    315.36305   -54754.508    54765.281   -107.46866    34.907161 
145752000     294.2177    277.23161    388.67709   -54799.224    54822.292   -111.44548    34.899357 
145756000    293.16274    155.79266    286.93953   -54816.186    54843.836   -131.14686    34.893231 
145760000    276.96643    623.53568    391.55437   -54833.034    54868.438    231.98131    34.894952 
145764000    308.51805    435.78173     404.0359   -54868.905    54894.544    31.745829    34.892299 
145768000    301.08768    279.32289    376.22949   -54900.219    54899.442   -96.906594    34.901974 
145772000    270.19055    308.18011    209.29952   -54916.373    54924.642    98.880582    34.918207 
145776000     310.5162    306.73361    353.08121   -54940.907    54945.068   -46.347596    34.905359 
145780000    293.39329     411.8823    249.74074   -54968.716    54980.225    162.14156     34.90653 
145784000    269.98418    242.82489    177.24422   -54981.747    55015.969    65.580669      34.9073 
145788000    288.36547    332.63983     365.5814   -55026.999    55035.231    -32.94157    34.899698 
145792000    292.22146    405.29498    466.62054   -55037.967    55060.654   -61.325564    34.891799 
145796000    262.52729    251.44486    220.04895    -55067.86    55087.779    31.395908    34.886606 
145800000    302.02046    393.95415    439.22472   -55087.993    55099.285   -45.270576    34.889209 
145804000    280.33085    201.16967    334.89657   -55091.214    55121.478    -133.7269    34.890709 
145808000    271.23031    395.34881    258.06352    -55110.41    55131.152    137.28529    34.889797 
145812000    282.77267    418.79198    305.09964   -55148.156    55165.733    113.69233    34.881346 
145816000    279.26345    339.60661    427.16224   -55139.229    55172.956   -87.555626    34.871361 
145820000    300.17448    255.83951    154.87892   -55178.701    55181.362    100.96059    34.876145 
145824000    262.44507    312.45014    180.18174   -55182.915     55216.28     132.2684    34.885147 
145828000    263.19252    204.51283    237.60485   -55180.003    55222.586   -33.092018    34.873301 
145832000    280.57154    238.26476    311.95906   -55209.366    55232.116   -73.694305    34.871675 
145836000    288.84738    404.26932    251.99257   -55230.312    55236.143    152.27675    34.856071 
145840000    278.97765    399.41641    365.08399   -55220.701    55235.087     34.33242    34.859537 
145844000    277.57569    284.35288    382.98063   -55242.785    55258.909   -98.627746    34.854345 
145848000    237.49073    253.83006     154.3592   -55235.758    55274.853    99.470861    34.840446 
145852000    264.24509    462.13712    251.23077   -55234.631    55272.564    210.90636    34.818022 
145856000    292.04611    356.21999    419.24859   -55272.909        55292   -63.028606    34.806828 
145860000    296.34829    214.59796    247.10562   -55292.895    55306.401   -32.507665    34.808198 
145864000     285.5416    214.97465    316.52444   -55335.341    55336.006   -101.54979    34.822019 
145868000    305.00835    345.63167    402.97054   -55360.275    55345.763   -57.338867    34.822949 
145872000    279.72688    370.80195    233.39971   -55362.495    55396.338    137.40223     34.82248 
145876000    269.48279    291.70723    315.16786   -55362.586    55396.429   -23.460635    34.807746 
145880000    308.36553    579.34253    317.39942   -55406.803    55410.852    261.94311     34.81655 
145884000    305.66651    389.37987    439.31394   -55401.935    55420.696   -49.934069    34.812802 
145888000    247.97231    287.86853    395.04976   -55379.466    55424.598   -107.18124    34.815109 
145892000    286.12657    395.95645    316.92948    -55412.65    55425.785    79.026962    34.796874 
145896000    286.44986    295.48115    415.41357   -55437.486    55464.322   -119.93242     34.78924 
145900000    278.03675     348.5434    301.83662   -55468.182    55482.058    46.706774    34.786767 
145904000    292.03538    397.46076    331.59549   -55513.615     55510.82    65.865263    34.803737 
145908000    307.79813    479.54084    445.97447   -55515.929     55528.41    33.566372    34.803834 
145912000    295.17125    366.90938    371.84083   -55533.854    55547.693   -4.9314452    34.811049 
145916000      310.337    403.38666    344.58063   -55573.043    55573.958    58.806028    34.802551 
145920000     287.4069    298.69011    492.12757   -55596.174    55626.603   -193.43746    34.810133 
145924000    295.85471    271.05897    583.31658   -55610.253    55624.679   -312.25761    34.796005 
145928000    295.58868    394.55876    470.15047   -55616.502    55623.694   -75.591713    34.799983 
145932000    313.97978      393.569    336.30642   -55620.187    55613.513    57.262584    34.807843 
145936000    272.66343    346.86824    401.74447   -55636.212    55655.543   -54.876227    34.799107 
145940000    282.25507    469.47697    243.85892    -55673.05    55692.323    225.61805    34.801582 
145944000    286.73491    418.13215    482.88484   -55686.482    55707.644   -64.752689    34.796791 
145948000    302.67674    525.23578    341.93188    -55705.38    55701.963     183.3039    34.800727 
145952000    315.28473    282.27648    287.39494   -55738.532     55724.06   -5.1184654     34.78362 
145956000    252.37536    204.60164     283.1688   -55731.531    55772.096   -78.567163    34.801293 
145960000    291.09769    401.80516    250.68383   -55780.653    55816.812    151.12133    34.790983 
145964000    283.85419     400.4743    397.13238   -55813.573    55835.665    3.3419131    34.782817 
145968000    263.16708    269.82196     199.4256   -55844.373    55865.586    70.396359    34.788827 
145972000    254.59522    177.53667    305.37634   -55845.293    55887.302   -127.83967    34.787065 
145976000    279.67346    292.96384    332.18147   -55861.246    55875.098   -39.217627    34.796767 
145980000    265.32025    592.78429    362.24047   -55884.495    55922.815    230.54382    34.798955 
145984000    253.61503    358.92449    292.64432   -55910.768    55954.521    66.280167     34.80285 
145988000    276.42075    413.50785    361.87513    -55948.05    55976.387    51.632725    34.798438 
145992000    266.34951    273.95744    225.29806   -55981.744    56013.039     48.65938    34.811703 
145996000    286.33966    335.16153    351.84109   -56041.185    56054.238   -16.679559    34.810906 
146000000    304.91856    556.24993    264.42591   -56070.972    56083.486    291.82402    34.806631 
146004000    276.54178    442.64497    273.39517   -56067.241    56101.738    169.24981     34.81416 
146008000     284.3437    480.10474    377.91641   -56092.548     56113.51    102.18833    34.822553 
146012000    263.31582    434.94671    274.90594   -56126.624    56166.398    160.04078    34.833518 
146016000    269.39493    240.30862    407.80757   -56149.847    56177.048   -167.49895    34.843407 
146020000    303.15947    340.98412    297.05901   -56192.077    56196.407    43.925117    34.839619 
146024000    318.97076    382.79947     253.3085   -56206.191     56212.39    129.49097    34.860487 
146028000    289.02678    336.45237    438.26117   -56235.385    56248.307   -101.80881    34.872352 
146032000    254.50925     236.8005    404.05317   -56268.299    56308.278   -167.25268    34.877951 
146036000    298.56869    280.86355    167.50488   -56316.294    56325.389    113.35867    34.885538 
146040000    299.76291    383.74159    310.80031   -56321.795    56353.907    72.941281    34.874646 
146044000    284.31018    305.52362    329.69234   -56372.343    56381.358   -24.168721    34.876622 
146048000     276.3776    240.33501    451.32666     -56400.4     56433.94   -210.99165    34.868324 
146052000     267.4862     356.7315    320.03553    -56414.01     56467.62    36.695977    34.878396 
146056000    274.78234    446.28728    298.71923   -56433.747    56474.348    147.56805    34.879152 
146060000    297.53004    410.97292    291.27861   -56469.457    56481.886    119.69431    34.892711 
146064000    307.64418    440.48212    234.06997   -56494.395    56487.411    206.41216     34.89675 
146068000    287.68314    322.51076    392.43836   -56504.684    56531.569   -69.927597    34.897343 
146072000    253.89767    345.94956    253.89559   -56531.539    56575.778     92.05397    34.898334 
146076000    274.43413    353.88413    168.82073   -56576.465    56605.379     185.0634    34.902766 
146080000    261.85181    372.92662    209.18753   -56611.818    56656.167    163.73909    34.898098 
146084000     288.7524     262.3001    355.84673   -56653.514    56685.582   -93.546626    34.900751 
146088000    243.63328    336.01256     242.1021   -56675.363    56716.065    93.910461    34.908422 
146092000    273.61144    608.24594    231.54663   -56689.948    56736.567    376.69931    34.906288 
146096000    306.40387    352.49048    295.34518   -56719.881      56732.6    57.145298     34.91262 
146100000    297.40657    391.99644    315.56383   -56759.994    56777.839    76.432608    34.917979 
146104000    282.13687    406.30507    283.19446   -56774.322    56807.583    123.11062    34.919975 
146108000    299.20475     323.9481     264.7175   -56780.386    56818.021    59.230604    34.920886 
146112000     289.4451    384.31265    402.61568   -56801.098    56828.134   -18.303025    34.924123 
146116000     283.3036    149.91407    316.88143   -56802.389     56850.32   -166.96736     34.92598 
146120000    285.05144    525.26044    334.36902   -56839.438    56868.327    190.89142    34.925617 
146124000    283.50754    263.17679    270.01382   -56877.697    56883.993   -6.8370296    34.912303 
146128000    267.17293    155.14502    397.59296   -56897.525    56919.408   -242.44794    34.921022 
146132000    293.01513    490.79604     313.6666   -56940.551    56957.881    177.12945     34.92288 
146136000    295.89123    373.02826    400.76239   -56960.493    56967.385   -27.734134    34.921271 
146140000    291.00924    419.48782    441.72548   -56981.231    56995.842   -22.237664    34.915712 
146144000      269.551    328.22859    344.14573   -56977.193    56999.814   -15.917146    34.905878 
146148000    278.94985    280.00148    289.48847    -56977.26    57005.113   -9.4869952    34.900256 
146152000    262.99502    237.91051    162.72287   -57005.205     57051.03    75.187642    34.901621 
146156000    295.25397    304.66985    353.15184   -57036.314    57042.427    -48.48199    34.897954 
146160000    277.26846    267.95325    269.30888   -57048.313    57074.998   -1.3556254    34.898437 
146164000    278.67922    313.85315    531.88074   -57049.613    57068.655   -218.02759    34.886465 
146168000      283.703    260.30258    485.33112   -57083.327    57117.564   -225.02854    34.881202 
146172000    286.85891    217.61695    187.20025   -57098.026     57124.38      30.4167    34.878624 
146176000    283.23304    262.22507    506.60547    -57110.84    57133.646    -244.3804    34.872198 
146180000    306.51628    273.34567    451.80573   -57170.657    57169.726   -178.46006    34.861155 
146184000    273.46615    413.72425    315.68333   -57188.233    57212.135    98.040915    34.889053 
146188000    265.63548    194.84681    318.06549   -57225.235    57254.626   -123.21868    34.901151 
146192000    276.67132    361.01125    356.88568   -57242.441     57281.02    4.1255651    34.896611 
146196000    308.34882    292.49113    224.87297   -57269.331    57266.975    67.618162    34.907794 
146200000     269.3372    399.98404    226.38578   -57287.583    57325.318    173.59826    34.922366 
146204000    270.87561    455.18761    404.50044    -57307.58    57343.151    50.687172    34.921165 
146208000    266.24228    359.58204    292.39504   -57293.107    57347.165    67.187001    34.910124 
146212000    283.64652    354.87162    211.83951   -57347.585    57363.428    143.03211    34.908961 
146216000    316.67396    337.62038    324.54468   -57361.763    57361.866    13.075694      34.9201 
146220000    278.30505    268.85998     347.0311   -57378.721    57404.419   -78.171126    34.913256 
146224000    276.46054    462.22609     250.3761   -57418.601    57449.309    211.84999     34.90534 
146228000     316.3138    585.83411    462.01424   -57449.956    57464.892    123.81987    34.914359 
146232000    293.15508    237.50665     431.6016   -57470.198    57490.234   -194.09495    34.914035 
146236000     293.5931    740.89367    481.85471   -57488.299    57498.795    259.03896    34.921631 
146240000    269.61214    343.71812     397.7757   -57505.243     57548.13    -54.05758    34.921869 
146244000    288.33584    433.37714    357.37145    -57550.61    57580.354    76.005696    34.920282 
146248000    300.79417    443.84121    316.82759   -57632.099    57637.467    127.01362    34.897213 
146252000    271.94604    307.80403    327.47168   -57659.803    57683.411   -19.667647    34.908104 
146256000    289.13715    444.08287    308.94827   -57672.846    57685.871     135.1346    34.909497 
146260000    305.12479    616.66581    357.68867   -57692.535    57710.605    258.97714    34.906806 
146264000    287.85597    297.42254    277.86769   -57720.994    57743.394    19.554855    34.906928 
146268000    260.96535    261.31312    403.77669   -57722.361    57760.072   -142.46357    34.900055 
146272000    276.28143    362.60738    271.44124    -57762.07    57784.258    91.166141    34.887583 
146276000    277.02068    401.38935    309.46587   -57790.291    57823.029    91.923474    34.879398 
146280000    257.21245     306.0096    387.87962   -57813.306    57849.131   -81.870021    34.885248 
146284000    297.30097    592.03104    212.84497   -57824.179    57843.611    379.18607    34.889206 
146288000    298.38067    300.02973    416.79331   -57829.924     57858.36   -116.76358     34.90623 
146292000    279.41241    276.80471    485.83376   -57873.506    57879.985   -209.02904    34.899465 
146296000     293.1313    309.37725    219.81391   -57897.918     57910.84    89.563343     34.89975 
146300000    269.16269    368.03886    366.73243   -57925.575    57949.554    1.3064289    34.909981 
146304000     274.3331    281.10357    388.31721   -57921.804    57957.651   -107.21364     34.91387 
146308000    283.91207    432.64575    251.52949   -57955.815    57977.825    181.11626    34.921134 
146312000    317.09653    377.20182    426.44411   -57972.949    57982.379   -49.242281    34.918829 
146316000     298.3874    383.10059    381.38703   -57986.219    58011.631    1.7135563    34.926639 
146320000    288.30501    523.79616    351.41921   -58014.087    58039.325    172.37695    34.915552 
146324000    301.51455    312.49754    448.39639   -58025.499    58036.332   -135.89885    34.904025 
146328000    276.50724     345.6855    396.66125    -58037.48     58053.16   -50.975752    34.891083 
146332000    295.67173    392.81818    427.81192   -58064.063    58075.564   -34.993749    34.900814 
146336000    260.50388    465.81594    421.63893   -58091.028    58121.255    44.177007    34.898544 
146340000    295.35341    193.52588    208.01522   -58101.333     58113.63   -14.489348    34.884072 
146344000    294.92268    381.71224     413.7161   -58111.793    58133.221   -32.003866    34.886805 
146348000     278.5814      168.621    255.02904   -58139.399      58171.9   -86.408043    34.868685 
146352000    296.74165    214.79518    241.94873   -58169.393    58186.524   -27.153555    34.877869 
146356000    273.13258    311.67905    175.44721   -58175.624    58205.276    136.23184    34.885097 
146360000    282.01626     575.5879    273.46471   -58194.096    58223.527    302.12319    34.900657 
146364000    277.61467    294.21169    279.74353   -58230.537    58257.182    14.468164    34.898029 
146368000    287.32204     194.4871    263.41793   -58255.456    58265.184   -68.930826    34.906257 
146372000    298.93327    337.38642    264.11262   -58284.265    58313.416    73.273801    34.898607 
146376000    253.21431    214.52238    280.45474   -58296.088    58332.438   -65.932359    34.899524 
146380000    256.64263    289.68817    162.94837   -58349.536    58380.645    126.73979    34.898316 
146384000    299.98829    301.43135    231.90499   -58372.386    58401.081    69.526362     34.90138 
146388000    264.90309    327.14225    204.30959   -58400.919    58428.527    122.83266    34.912008 
146392000    265.35221    353.82271    335.57726   -58417.924    58449.035    18.245453     34.91883 
146396000    270.17604    431.40418    297.14898   -58457.253    58490.648     134.2552    34.912341 
146400000    260.74404    321.93502    180.88409   -58494.875    58523.114    141.05092    34.910596 
146404000    258.38301    268.86665    319.26072   -58462.756    58500.019   -50.394073    34.905044 
146408000    281.69107    461.62291    393.77684   -58503.843    58538.887    67.846073    34.901176 
146412000    291.47466    315.23663    318.80275   -58546.715    58562.452   -3.5661225    34.885116 
146416000    265.32434    199.67021    287.08494   -58554.631    58588.313   -87.414734    34.881743 
146420000    289.02046    381.42116     329.7121   -58577.439    58608.457    51.709061     34.88606 
146424000    276.16802    320.47613    221.35235   -58577.699     58613.84    99.123777    34.882214 
146428000    253.14674    338.70709    272.45993   -58584.964    58623.293     66.24716    34.886733 
146432000    263.00041    380.53501    240.90061   -58605.696    58634.336     139.6344    34.895294 
146436000    264.96128    137.25294    337.22575   -58627.403    58662.674   -199.97281    34.888181 
146440000    273.83823    407.87721    337.55002   -58661.092    58710.055    70.327197     34.88386 
146444000     266.9759    395.31624    311.68523   -58675.118    58713.988    83.631013    34.889057 
146448000    280.04198    414.30261    259.56885    -58724.25     58730.85    154.73376    34.874262 
146452000    286.01576    395.01468    412.98649   -58728.422    58741.312    -17.97181    34.864193 
146456000    294.24169    338.15601    295.58903   -58746.612    58756.784    42.566978    34.885433 
146460000    279.45654     459.7091    261.85175   -58748.425    58789.065    197.85736    34.879773 
146464000    250.60504    413.04256    314.08453   -58778.792    58809.036    98.958029    34.870907 
146468000    264.98029    242.28812    284.32033   -58796.705     58820.04    -42.03221     34.87338 
146472000     277.1394    474.04878    370.13307   -58814.329    58839.431    103.91571    34.874177 
146476000     264.6804    251.87051    340.06791   -58837.279    58863.768   -88.197397    34.876791 
146480000    267.33848    235.73424    215.22369   -58884.803    58905.823    20.510548    34.865918 
146484000     295.0478    185.37517    290.27443   -58904.933    58925.627   -104.89926    34.861926 
146488000    302.89625    360.42884    406.52022   -58914.926    58923.488   -46.091385    34.860372 
146492000    304.17557    508.11747    281.08984   -58940.844    58946.706    227.02763    34.868469 
146496000    296.57758    405.14193    278.65828    -58993.57    58990.436    126.48365    34.862904 
146500000    264.17577    257.58892    170.96931   -58990.406    59018.236    86.619613    34.856242 
146504000    263.27586    291.28114    298.70496   -59044.437    59079.248   -7.4238147    34.859663 
146508000    263.28561    383.35054    150.38612   -59069.635    59095.621    232.96442    34.858649 
146512000    265.87103    311.95207    105.09903   -59080.122    59112.814    206.85304    34.866311 
146516000    285.55691     448.9402    299.42602   -59122.484    59132.379    149.51418    34.881471 
146520000    267.35195    206.02349    422.20931    -59117.13    59168.131   -216.18582    34.875053 
146524000    283.09116    221.81361    379.95984   -59165.803    59201.056   -158.14623    34.871604 
146528000     254.8552    299.11816    267.35199   -59203.092    59248.069    31.766166    34.887099 
146532000    273.07519    162.79543    256.72684   -59228.661    59264.667   -93.931412    34.881494 
146536000    247.10222    381.69305    251.74927   -59254.998    59305.288    129.94379    34.896333 
146540000    286.57134    359.86631    232.70525   -59299.824    59326.461    127.16107    34.899726 
146544000    269.90655    448.86486    166.97153   -59294.957    59351.757    281.89333    34.900199 
146548000    297.82452    404.62195    250.18254    -59352.95    59368.114    154.43941    34.901609 
146552000    294.82828    440.81065    415.78343   -59387.329    59383.302    25.027216    34.913848 
146556000    313.86298     468.5279    286.21916   -59411.379    59420.922    182.30873    34.916539 
146560000    281.79096    415.41962    299.37392   -59394.472    59425.585     116.0457    34.911483 
146564000    296.34245    459.03685    520.42463   -59424.476    59429.969   -61.387773    34.904876 
146568000    253.65207    396.65051    274.21576   -59420.022    59469.346    122.43475    34.912115 
146572000    280.52033     205.8186    240.94949   -59463.114    59491.194   -35.130894    34.915161 
146576000    293.61759    414.91888    422.02834    -59508.25      59547.7   -7.1094601    34.916827 
146580000    306.07172    300.75767    456.72773   -59570.784    59595.526   -155.97006    34.922586 
146584000    296.52166    482.53802    264.07964   -59613.147    59626.194    218.45837    34.912494 
146588000    281.34367    404.86563    362.63715   -59620.959    59646.044     42.22848    34.916456 
146592000    298.69042    286.01472     255.1598   -59656.195    59665.341    30.854911    34.917386 
146596000    280.34556    289.57176    528.46611    -59694.66    59731.449   -238.89435    34.911894 
146600000    277.39136     265.6591     564.5839   -59727.741    59768.619    -298.9248    34.910837 
146604000    275.76229    388.75954    275.26195   -59777.685    59808.514    113.49759    34.892502 
146608000    284.18999    245.75731    325.72366   -59810.237     59818.02    -79.96635    34.885862 
146612000    270.97179    519.33742    275.72576   -59819.138    59852.154    243.61166    34.887854 
146616000     266.8706    393.66868    142.87186   -59832.677    59867.419    250.79682    34.883124 
146620000    271.07223    373.40454    436.38244    -59856.12    59881.695   -62.977892    34.893438 
146624000    284.95571    547.30751    292.86753   -59883.776    59906.863    254.43998    34.902874 
146628000    285.30253    312.09376    241.76357    -59894.94    59920.765    70.330194    34.894287 
146632000    296.02456     565.6353    303.34514   -59914.269    59949.781    262.29016    34.897981 
146636000    267.66584    235.02512    333.29418   -59933.813    59971.305   -98.269061      34.9014 
146640000    260.11638    382.20527    379.75009   -59958.623    60001.585    2.4551832    34.903281 
146644000    255.31383    462.62262    171.61764     -59989.1        60029    291.00498    34.884933 
146648000    278.80293    325.60608    231.16806   -60031.081    60047.013    94.438022    34.899209 
146652000    271.32036    289.67019    180.04957   -60050.739    60090.897    109.62062    34.914016 
146656000     286.4347    341.22068    152.71119     -60101.8    60114.681    188.50949    34.917101 
146660000    283.15111    306.19144    246.21783   -60118.976     60140.78    59.973608    34.919942 
146664000    262.16579    297.58113    366.13315   -60127.579    60157.483   -68.552017     34.93159 
146668000    267.75628    366.57492    216.76293   -60149.274    60204.833    149.81199    34.942847 
146672000    270.87291     524.7227    415.01148   -60184.692    60215.816    109.71122    34.930905 
146676000    263.38205    440.78838      189.374   -60204.496    60249.007    251.41438    34.923741 
146680000    257.95814    421.51903    201.53032   -60222.346    60268.428    219.98871    34.933876 
146684000    274.38753    294.88651    224.09113    -60273.03    60305.972    70.795374    34.942199 
146688000    262.94533    344.55284     309.6007   -60306.823    60358.335    34.952137    34.954427 
146692000     284.2597    407.84637     319.9298   -60351.126     60372.84    87.916563    34.961232 
146696000    299.67176    380.66836    461.91314   -60378.266    60378.745   -81.244784    34.962049 
146700000    274.97268    514.20422    283.52492   -60404.092    60443.271     230.6793    34.960528 
146704000    255.77451    274.45984    627.23146   -60424.518    60454.699   -352.77163    34.960368 
146708000    324.56579    401.24279    506.58593   -60473.503    60486.338   -105.34314    34.961175 
146712000     296.7143    470.33512    267.43062   -60495.268    60505.057    202.90449    34.961045 
146716000    299.68129    434.67131    171.57595   -60519.779    60528.964    263.09536    34.963567 
146720000    253.72575    271.33752    333.01958   -60498.696    60551.925   -61.682067    34.948547 
146724000    305.30041    609.75118     312.1786   -60536.299    60562.578    297.57258      34.9553 
146728000    273.74168    428.75993    370.57468    -60574.87    60601.309    58.185251    34.957554 
146732000    314.46394    323.16477    292.79344   -60596.156    60606.796    30.371327    34.968885 
146736000    303.64235    331.75829    336.31715   -60621.389    60624.432   -4.5588613    34.960466 
146740000    300.16115     449.5995    260.29264     -60673.9    60682.814    189.30685    34.950789 
146744000     289.4494    265.93048    297.05701   -60664.127    60687.013   -31.126521    34.962418 
146748000    296.52982    231.52358    189.79714    -60696.81    60711.027    41.726435    34.950988 
146752000    298.53214      547.391    127.53904   -60696.468    60714.086    419.85195    34.964656 
146756000     291.9401     274.5297    302.44132   -60717.841     60731.88   -27.911614    34.974832 
146760000    277.67531    332.63206     486.6158   -60741.971    60759.883   -153.98374    34.955601 
146764000    279.81248    258.45893    407.14588   -60775.066    60802.763   -148.68695    34.963511 
146768000    311.36023    463.24551     266.1724   -60805.843    60814.195    197.07311    34.956558 
146772000    289.94384    440.97132    257.81084   -60803.327    60841.383    183.16048    34.959865 
146776000     267.1926    285.07761    416.54341   -60810.018    60852.249    -131.4658    34.955043 
146780000    302.76079    412.61926    492.61936     -60861.4    60866.775   -80.000107    34.949229 
146784000    251.72574    322.37156    381.19417    -60861.86    60918.412   -58.822605     34.95346 
146788000    274.49649    506.06763    393.96929   -60900.188    60926.504    112.09834    34.961759 
146792000    267.47619    260.40111    414.18698   -60930.907     60963.44   -153.78588     34.94866 
146796000    288.53376    302.92647    192.36418   -60958.039    60983.421     110.5623    34.959947 
146800000    284.94639    370.27137    344.61289   -60963.746    60998.144    25.658478    34.963037 
146804000    269.13613    358.78305    281.00191   -60977.571    61005.829    77.781134    34.965185 
146808000    280.85803    444.00953    456.08769   -61005.264    61040.483   -12.078165     34.96638 
146812000    284.87414    419.74271    196.60895   -61052.021    61068.758    223.13376    34.968651 
146816000    274.27148    281.60865    236.12768   -61057.789    61088.016    45.480962    34.965486 
146820000    277.97962    311.58017    227.71383   -61106.933    61131.458    83.866333    34.968505 
146824000    296.07192    520.45512    369.32949   -61114.595    61134.556    151.12563     34.98538 
146828000    296.28222    474.87041    404.95832   -61138.941    61158.366    69.912089    34.971903 
146832000    289.72495    308.31531    269.78127   -61163.667    61179.313    38.534044    34.974583 
146836000    314.00033    457.09782     327.1554   -61163.892    61173.961    129.94242    34.975292 
146840000    316.93948    449.07107    391.09909   -61184.646    61201.517    57.971979    34.985887 
146844000    263.98366     254.4672    311.78427    -61204.33    61231.701   -57.317066    34.988045 
146848000    265.43473     229.8684    221.19826   -61224.744    61257.316    8.6701356    34.976582 
146852000    280.93465     320.0725     324.0009   -61241.811    61266.429    -3.928393     34.97694 
146856000    292.31075    311.05274    195.14667   -61264.903    61288.883    115.90607    34.975507 
146860000    277.98476    220.19031     485.5114   -61276.661    61319.141   -265.32109     34.96751 
146864000    290.73423    501.51919     285.2936   -61282.296     61319.53    216.22559    34.967855 
146868000    243.56669    308.62332    333.30598   -61305.295    61356.898    -24.68266    34.959235 
146872000    270.95071    354.85273    396.56421   -61322.599    61363.082   -41.711476    34.957356 
146876000    281.67089    268.18822    317.43711   -61361.798     61393.68   -49.248885    34.972821 
146880000    319.68213     438.4208    394.10561   -61392.727    61401.829    44.315183    34.967602 
146884000    305.86713    345.24473    277.95607   -61402.668    61391.463    67.288653    34.957911 
146888000    286.54554     487.6345    228.58425   -61431.507    61450.324    259.05026     34.95791 
146892000    273.50078    337.67708    399.93491    -61445.95    61482.025   -62.257835    34.949592 
146896000    288.89908    301.63427     271.2729   -61437.642    61451.634    30.361367    34.953359 
146900000    292.03554    278.96876     372.4156   -61452.732    61472.109    -93.44684    34.947853 
146904000    266.60355    367.33317    214.57431   -61462.722    61494.858    152.75886    34.952704 
146908000    289.82813    310.03178    413.57261   -61500.291    61520.822   -103.54084    34.929647 
146912000    286.40173    607.76104    249.75369   -61497.653    61537.429    358.00735    34.929308 
146916000    283.55016    512.09773    452.26617   -61529.541    61542.731    59.831566    34.942393 
146920000    304.40984    338.37935    428.48806   -61548.303    61555.774   -90.108701    34.950459 
146924000    297.07782    355.02873    311.47621   -61566.339    61580.661     43.55252     34.96302 
146928000    296.11129    310.74262    413.62796   -61586.227    61604.606   -102.88534    34.971021 
146932000    270.09878    257.47394    472.64092   -61595.235    61634.139   -215.16699    34.970597 
146936000    303.28646    369.78482    239.03334   -61641.435    61660.825    130.75148    34.973581 
146940000    291.39435     404.9986    287.16331   -61663.905     61694.88    117.83529    34.970786 
146944000    264.30392    457.00531    428.12553   -61688.546    61717.133    28.879776    34.969013 
146948000    323.45389    540.63468    349.71167   -61739.027    61732.816    190.92302     34.99498 
146952000    296.56928    203.45983    429.00386   -61742.175    61755.148   -225.54403      34.9843 
146956000    281.83499    321.55786    253.28969   -61769.317    61784.257    68.268165     34.97273 
146960000    334.21482    290.48267    392.90721   -61796.023     61792.07   -102.42454    34.970051 
146964000    290.43907    271.50062     251.3001   -61802.774    61815.743    20.200517    34.963132 
146968000    322.90401    500.14307    283.17898   -61828.115    61833.757    216.96409     34.96229 
146972000    267.12174    346.43828    298.19106   -61837.857    61850.575    48.247216    34.959793 
146976000    262.84003    327.70631    244.85587    -61869.75    61906.512    82.850434    34.946824 
146980000     289.2941    426.66136    306.68106   -61909.042    61924.594     119.9803    34.931944 
146984000    293.79871    460.31603    176.94165   -61919.645    61935.948    283.37437    34.930826 
146988000     284.4182    363.61347    224.65423   -61947.067    61972.497    138.95924    34.928248 
146992000     284.1756    459.72164    335.65783   -61954.361    61987.055    124.06381    34.928367 
146996000    266.65032    453.43714    200.64975   -62002.822    62028.847    252.78739    34.922153 
147000000    278.85817    418.83481    168.84972   -62011.593    62030.983    249.98509     34.91923 
147004000    287.66161    302.71119    393.23826   -62034.344    62062.185   -90.527071    34.916694 
147008000    258.83733    422.70747    298.13967   -62052.237    62086.558     124.5678    34.917817 
147012000    282.10635    246.34694    358.55312   -62083.365    62104.398   -112.20618    34.916162 
147016000    254.78138    418.38271    261.66903   -62098.847    62143.138    156.71369    34.930638 
147020000    302.35978    537.04201    333.82593   -62131.495    62147.856    203.21608    34.938341 
147024000    294.07559    275.50838    450.22289   -62141.947    62163.843   -174.71451    34.941303 
147028000      289.209     409.3445     313.7799   -62176.203    62205.455    95.564604    34.944011 
147032000    301.76231    508.72439    394.99322   -62224.077    62242.835    113.73117    34.950956 
147036000    276.89216    246.47907    277.89154   -62266.732    62286.096   -31.412467    34.949692 
147040000    282.61754    453.78416    433.35668   -62267.292    62298.138    20.427485    34.951617 
147044000    303.30689    333.31301    374.12124   -62289.534    62307.372   -40.808236    34.949205 
147048000    258.97681    260.64764     471.5535   -62310.201    62363.392   -210.90586    34.949432 
147052000    300.35969    457.40673      572.498   -62365.534    62392.663   -115.09128    34.959706 
147056000    258.14291    440.57775     243.0239   -62377.689    62415.757    197.55385    34.960895 
147060000    300.95862     339.0153    347.33718   -62386.214    62415.746   -8.3218795    34.961028 
147064000    281.64391    392.41874    242.52437   -62419.113    62452.055    149.89437    34.985622 
147068000    291.86933    632.46809    358.44518   -62445.315    62472.326    274.02291    35.001411 
147072000    251.09815     168.6609    264.12338   -62470.278    62519.408   -95.462484    35.007095 
147076000    289.25234    476.59323     240.0184   -62501.302    62537.589    236.57484    35.004188 
147080000    255.51966     368.4732    272.67388   -62545.989    62569.142    95.799315     35.02288 
147084000     265.3105    524.05609    408.38394   -62558.797    62604.994    115.67216    35.027597 
147088000    307.21277    372.82495    462.41468   -62601.029    62605.021   -89.589728    35.043085 
147092000     290.8279    541.05492    330.30301   -62650.279    62666.988    210.75191     35.04713 
147096000     257.7992     305.2843    237.96935   -62678.469    62726.884    67.314942     35.04782 
147100000     260.8345    550.56468    158.84769   -62696.831    62745.878    391.71698    35.056187 
147104000    249.98728    283.93327    355.04676   -62721.365    62767.476   -71.113491    35.056081 
147108000    278.00792    455.34267    396.20115   -62738.065    62766.378    59.141527    35.056161 
147112000    309.46647    395.48515    704.49586   -62774.559    62790.778   -309.01071    35.054835 
147116000    274.16428    233.59575    251.06517   -62803.845    62832.101   -17.469417    35.048064 
147120000    255.57526    341.04367    373.96405    -62830.87    62879.439   -32.920388    35.040828 
147124000    282.14219    321.65379    304.83967   -62871.214    62896.729    16.814122    35.045717 
147128000    264.86885    367.33231    563.17682   -62898.377     62940.66   -195.84451    35.034189 
147132000    265.00464    372.69276    294.91561   -62923.056    62983.705    77.777151    35.032658 
147136000    277.15861    464.03251    205.50124   -62963.898    62997.941    258.53127    35.036996 
147140000    306.67109    264.23332    304.32869   -62990.099    63006.992   -40.095361    35.035988 
147144000    273.84961     389.6168    133.60234   -62996.864    63044.655    256.01446    35.029004 
147148000    304.09077     307.7543    283.62215   -63040.717     63043.81     24.13215    35.023474 
147152000    257.82136    328.36789    225.85619   -63052.436    63086.253     102.5117    35.027681 
147156000    296.52458    322.57103     298.2079   -63054.269    63080.197    24.363129    35.043573 
147160000    279.77796    403.22904    370.86317   -63074.945    63113.407    32.365871    35.049912 
147164000    264.51987    367.82597    377.04268   -63117.129    63137.251   -9.2167135     35.05083 
147168000     290.2276    245.12414     314.3303   -63149.763     63152.43   -69.206157     35.04533 
147172000    280.10156    463.52304    223.79188   -63151.549    63162.835    239.73115    35.047372 
147176000    285.70771    237.52917    313.62934   -63145.057    63164.078   -76.100162    35.042852 
147180000     310.5305     363.1349    447.29127    -63177.92    63176.107   -84.156376    35.052125 
147184000    290.23006    348.08601    254.70654   -63198.032    63217.222     93.37947     35.05054 
147188000    303.11171    409.18812    518.08016    -63229.59    63241.505   -108.89204    35.045722 
147192000    301.39636    396.12767    279.62227   -63276.061    63288.843     116.5054    35.041641 
147196000    271.36799    565.33575    188.30756   -63296.176    63322.951    377.02819    35.049371 
147200000    289.66968    418.82402    361.97028    -63330.05    63348.314    56.853733    35.046166 
147204000    311.75218    371.51366    290.42505   -63347.701    63345.787    81.088604    35.032371 
147208000    330.38833    540.67093    302.11748   -63355.938    63344.608    238.55345    35.035266 
147212000    281.51508    309.40354     232.3084   -63337.442    63355.077    77.095143    35.035772 
147216000    276.09258    167.41262    524.01558   -63331.848    63373.525   -356.60296    35.032811 
147220000    279.49932     427.4693    402.53504   -63363.389     63380.32    24.934258     35.03012 
147224000    296.10648    494.81718    279.40691   -63361.844    63397.175    215.41028    35.029422 
147228000    271.91553    188.45148     292.1716    -63402.49    63415.585   -103.72012    35.024461 
147232000    294.24485    378.01759    296.05063   -63418.046    63443.805    81.966953    35.019636 
147236000    255.90551     313.4203     252.8594   -63458.879    63491.805      60.5609    35.021486 
147240000    311.08699    543.69332    353.58437   -63508.137    63513.554    190.10894     35.01973 
147244000    287.78249    603.97371    319.66441   -63542.526    63551.449     284.3093    35.023642 
147248000    277.45111    309.02838     445.4131   -63547.288    63562.798   -136.38471    35.033677 
147252000     294.7431    278.30624    340.99632    -63573.13    63581.204   -62.690078    35.030045 
147256000    293.74264    625.60317    374.65602   -63590.571    63596.094    250.94715     35.02203 
147260000    259.68362    271.30644    166.65509   -63608.238    63646.106    104.65135    35.032501 
147264000    295.25116    339.90498    300.14614   -63636.017    63657.111    39.758835    35.032224 
147268000    272.26196    383.39135    224.22704   -63663.751    63699.829    159.16431    35.048247 
147272000    280.39048    399.10469    325.08379   -63684.796    63723.585    74.020902    35.049746 
147276000    247.36517    267.55445    460.51293   -63710.388    63756.476   -192.95848    35.045891 
147280000    289.05601    442.88868    224.40792   -63754.268     63768.08    218.48076    35.052067 
147284000    277.90938    486.90497    558.33242   -63770.124    63799.679   -71.427453     35.04861 
147288000    264.98403    292.20506    218.34671   -63792.097    63837.795    73.858345    35.043967 
147292000    262.30144     474.7555    246.88646   -63819.719    63854.015    227.86904    35.048203 
147296000    308.74824    219.33598    484.68079   -63846.187    63873.241   -265.34481    35.045138 
147300000    281.31336    384.27885    293.15925   -63859.104    63888.664    91.119602    35.028835 
147304000    259.49704     278.8452    290.32088   -63877.217    63919.933   -11.475675    35.039922 
147308000    270.59101    204.56044    288.06908   -63875.497    63918.868   -83.508647    35.038204 
147312000    283.17922    317.34066    269.11528   -63907.376    63942.968    48.225382    35.035317 
147316000    295.71415    447.43451    416.18624   -63916.091    63949.622    31.248262     35.03196 
147320000    307.40997    501.04876    218.84717   -63975.489    63978.876    282.20159    35.030974 
147324000     283.9344    310.45208    324.79243   -63957.944    63990.821    -14.34035    35.033047 
147328000    256.97322    501.39411    354.88774   -63974.993    64013.858    146.50636    35.037476 
147332000    287.49057    213.09065    398.83179   -63998.242    64037.876   -185.74114    35.033107 
147336000    284.33446    367.11667    374.68132   -64023.065     64059.85   -7.5646442    35.033696 
147340000    298.15887    325.11033      262.195   -64059.864     64067.29    62.915329    35.019957 
147344000    305.21607    305.15811    251.34485   -64042.401    64083.583    53.813258    35.018491 
147348000    308.81945    603.70221    436.10553   -64048.812    64074.599    167.59668    35.023551 
147352000    287.22973    360.80767     216.9878   -64066.714    64088.807    143.81986    35.025882 
147356000    292.16892    395.18855    488.72651    -64068.91    64084.485   -93.537953    35.022924 
147360000    296.66695    201.74881    356.65537   -64088.644    64112.688   -154.90655    35.015259 
147364000    274.75501    319.66609    322.52653   -64114.305    64131.148   -2.8604406    35.029433 
147368000     305.1758    316.15904    284.30885   -64146.833     64161.28    31.850195    35.022049 
147372000    275.50176     181.7288     368.5322   -64167.017    64187.932   -186.80341    35.021818 
147376000    292.91053    261.64573    282.56394   -64199.182    64224.152   -20.918206     35.01968 
147380000    296.21108    346.00006    286.63531   -64206.518    64235.218     59.36475    35.025782 
147384000      294.038     296.1627     362.9267   -64221.337    64243.939   -66.764007    35.015218 
147388000    270.83371    243.71818    447.79634   -64203.092    64248.871   -204.07816     35.02403 
147392000    271.02026    456.20076    427.75334   -64229.991    64255.477    28.447413    35.028398 
147396000    295.41199    285.48762    328.16533   -64236.744    64244.384   -42.677712    35.033215 
147400000    320.69454    353.18749    285.07237   -64280.022    64287.817    68.115124    35.040836 
147404000    298.26203     423.9179     245.5839    -64309.57      64302.5      178.334    35.038268 
147408000    268.69117    273.16788    249.20575   -64320.334    64354.449    23.962135    35.048918 
147412000    275.57821    248.32858    237.22912   -64352.953    64372.772    11.099463    35.049123 
147416000    286.71404     329.0882    332.23871   -64386.223    64419.483   -3.1505159    35.042448 
147420000    271.15362    389.90463    304.80261   -64404.947    64430.051    85.102022    35.047594 
147424000    264.36682      388.223    192.12366   -64419.631    64456.921    196.09934     35.04289 
147428000    293.87366    352.80306    261.13596    -64440.75    64465.542      91.6671     35.04935 
147432000    283.73726    277.74054    334.71544   -64451.629    64480.951     -56.9749    35.049757 
147436000    285.48981    305.62616     327.4553   -64450.008    64489.282   -21.829147    35.057595 
147440000    285.37254    265.12523    321.43624   -64450.168    64489.216   -56.311015    35.049241 
147444000    292.23793     337.6647    253.26542   -64481.189    64502.159    84.399282    35.040662 
147448000     265.8968    261.97862    325.55495    -64489.56    64525.249   -63.576329      35.0382 
147452000    256.22469    301.96755    281.20294   -64514.977    64549.461     20.76461    35.043805 
147456000    279.62085    290.63504    332.42121   -64533.809    64574.782   -41.786174    35.048013 
147460000     302.0966    530.60204    385.28135   -64604.506    64603.889    145.32069    35.046569 
147464000    293.06101    456.62525    321.17758   -64636.287    64656.527    135.44767    35.040149 
147468000    291.15929    177.27974    326.97129   -64624.345    64662.997   -149.69155    35.039916 
147472000    283.68459    324.83881    419.87228   -64648.406    64677.863   -95.033469    35.044266 
147476000    289.90501    514.07941    547.75517   -64680.155    64692.458    -33.67576    35.048605 
147480000    260.29883    474.81946     274.0204   -64680.645    64725.023    200.79906      35.0466 
147484000    292.32168     381.8312    321.81907    -64691.37    64727.019    60.012132    35.044253 
147488000    282.38317    355.07443    286.39274   -64720.491    64747.627    68.681683     35.05111 
147492000    290.41856    490.91908    354.87345   -64725.861     64758.83    136.04563    35.051509 
147496000    297.98213    353.29637    407.59082   -64761.205    64796.507   -54.294449    35.057822 
147500000    266.89311     269.5245    213.60398   -64784.285      64810.7    55.920527    35.057637 
147504000    309.84015     356.0319    528.95048   -64817.841    64831.647   -172.91858    35.072754 
147508000    293.46655    313.81809    207.15273   -64830.096      64859.1    106.66535    35.081161 
147512000    267.98516    452.12488    303.71321   -64853.094    64893.719    148.41167    35.084996 
147516000    282.52881    362.49092    190.40011   -64889.404    64920.436    172.09081    35.080006 
147520000    298.55859    291.50983    458.44693   -64929.364    64936.338    -166.9371    35.082316 
147524000     258.2407    235.70686    425.25448   -64958.018     64997.61   -189.54762    35.075824 
147528000    299.40354    239.32053    259.96667   -64971.551    65004.906   -20.646137    35.078872 
147532000    261.25301    177.24477    358.09665   -64992.037    65029.282   -180.85187     35.07892 
147536000    323.33984    343.66446    262.10791   -65016.667    65015.909    81.556556     35.06925 
147540000    264.59545    202.90664    394.23465   -65007.332     65037.69   -191.32802    35.063671 
147544000    239.31017    266.32815    276.59157   -65044.571    65076.821    -10.26342    35.064027 
147548000    305.83111    475.51544    209.98349   -65098.219    65111.421    265.53195    35.063564 
147552000    280.59524    276.88505    470.10882   -65104.213    65111.218   -193.22377    35.059852 
147556000    289.65396    351.34457    393.69495   -65142.545    65156.943   -42.350378    35.062007 
147560000    279.52915    313.98657    163.26062   -65163.836    65182.937    150.72595    35.052399 
147564000    299.01589    454.02745    156.81387   -65187.756    65194.496    297.21358    35.056257 
147568000    276.05397     409.4885    275.37357   -65189.475    65211.982    134.11493    35.057787 
147572000    306.97376    457.98114     302.4207    -65221.53      65246.4    155.56044    35.058061 
147576000    262.29862    316.00273    239.48777   -65214.604    65262.325    76.514955     35.05293 
147580000    288.46181    293.21321    382.46265     -65248.6    65285.816   -89.249442    35.059456 
147584000    274.86253    260.54923    218.55983   -65285.953    65326.206    41.989403    35.047727 
147588000    276.49163    593.91265    195.29417   -65318.938    65343.728    398.61848    35.046275 
147592000    267.99559    241.22568    273.42595   -65352.278    65392.649   -32.200277    35.040044 
147596000    296.92672    501.05463    307.36759   -65410.173    65427.244    193.68703     35.04146 
147600000    306.48185    329.56988    268.11809   -65421.168    65431.992    61.451793    35.035285 
147604000    297.96522    519.67162    351.92974   -65456.466     65458.64    167.74188    35.048591 
147608000    300.44393    564.38764    380.45228   -65475.089    65494.375    183.93536    35.039861 
147612000    286.14128    530.78489    250.46982   -65471.486    65507.124    280.31507    35.036348 
147616000    283.39791    381.47427    277.36761     -65498.9     65511.92    104.10665    35.059822 
147620000    313.90829    323.91872     431.4489   -65551.248    65557.177   -107.53019    35.071493 
147624000    292.00886    320.91814    215.42714   -65564.022    65590.954    105.49099    35.076705 
147628000    312.18988    499.82847    560.95873    -65572.09    65587.453   -61.130267    35.085986 
147632000    276.12922    355.85563    261.56293    -65569.92    65616.773    94.292702    35.096249 
147636000    275.81521    280.38708       458.04   -65603.048    65621.868   -177.65292    35.101784 
147640000     270.7547    350.82039    251.36152   -65626.914    65669.749    99.458866     35.09061 
147644000    274.74223    333.67218    275.42237   -65650.669    65670.807    58.249812    35.092175 
147648000    265.56642    448.37073    242.04934   -65676.625    65712.885    206.32139    35.105011 
147652000    294.57154    424.20077    177.04287    -65718.75     65747.63     247.1579    35.105585 
147656000    279.21882    323.19097    532.43927   -65723.652    65770.401   -209.24829    35.095419 
147660000    292.45319    378.85105    266.84155   -65735.275     65768.73     112.0095    35.093802 
147664000    275.87328    387.18798     416.9849   -65754.331    65789.916   -29.796913    35.088824 
147668000    249.76076    384.86987    228.86314   -65786.422    65828.804    156.00673     35.07632 
147672000    264.73989    371.20067    190.33641   -65811.569    65843.841    180.86426    35.078482 
147676000    307.17958    398.78527      391.796    -65809.97    65824.542    6.9892688      35.0916 
147680000    300.20027    237.26425    207.42676   -65819.268    65838.041    29.837483    35.090234 
147684000    291.48535    351.60368      305.294   -65820.632    65849.447     46.30968    35.094596 
147688000    290.97707    533.61209    362.32867   -65826.235    65854.774    171.28343    35.086476 
147692000    244.84752    346.48792    381.06348   -65836.894    65897.861   -34.575555    35.077042 
147696000     245.6676     271.4345    238.53169   -65879.818    65921.101    32.902809    35.073143 
147700000    294.12197    345.37226    319.51305   -65909.935    65946.569    25.859215    35.080978 
147704000    286.26794    196.53612    363.75394   -65951.265    65978.486   -167.21782    35.080737 
147708000    307.48414    527.47279    390.80637   -65984.033    65987.585    136.66642    35.086548 
147712000     253.6915    358.15039    461.73883   -65996.744    66038.441   -103.58844     35.07384 
147716000    280.11357    302.53031    288.04056   -66053.098    66069.393    14.489758    35.075538 
147720000    263.92505    556.79705    243.86021   -66064.426    66085.377    312.93684    35.062628 
147724000    276.17682    342.49181    251.37253   -66080.226    66117.221     91.11928    35.057573 
147728000    272.39113    585.66686    316.61234   -66117.192    66142.558    269.05452    35.046503 
147732000    292.88969    391.88385    393.16581   -66136.199    66160.697   -1.2819557    35.047299 
147736000    285.47866    291.51301    273.14465   -66142.883    66177.143    18.368352    35.042402 
147740000    274.27525    299.90977    179.57244   -66142.245    66185.868    120.33734    35.046696 
147744000    278.66161     452.7873    249.52917   -66175.821    66214.898    203.25812    35.050786 
147748000    290.13422    348.36103    312.38308   -66202.437    66231.493    35.977949    35.050391 
147752000    275.43875    575.69285    245.85939   -66219.284    66261.342    329.83345    35.066679 
147756000    253.37226    363.07859    269.01576   -66227.358    66277.372    94.062832    35.067274 
147760000    285.52728     506.7524    434.34571   -66267.954     66300.45    72.406683     35.05343 
147764000    269.04081    200.97379    298.00264   -66287.308    66325.897   -97.028842    35.063492 
147768000    296.72483    333.91035    502.54055   -66305.227    66336.897    -168.6302    35.053047 
147772000    252.52074    118.90748    415.61907   -66301.542    66362.313    -296.7116    35.045242 
147776000    257.71646    272.42408    431.15988   -66345.893    66388.255    -158.7358    35.042398 
147780000    288.56972    526.50578    269.21097   -66405.488    66415.069     257.2948    35.044273 
147784000    280.56949    323.13772    213.84366   -66403.431    66426.414    109.29406    35.042866 
147788000    303.53455    771.60653    260.44608   -66456.456    66458.044    511.16045    35.039767 
147792000    251.75912    194.10863     376.1034   -66453.426    66501.072   -181.99477    35.034227 
147796000    315.02828     392.8839    343.75669   -66502.824    66500.381     49.12721    35.020071 
147800000     275.3879    383.24968    285.75921   -66509.667    66525.473    97.490477    35.024366 
147804000    276.37642    414.31708    202.58246   -66520.857    66564.793    211.73462    35.044093 
147808000    295.37369    309.11053    226.05603    -66543.42    66578.209    83.054498    35.049792 
147812000    274.11631     261.1732      285.692   -66548.596    66592.855   -24.518802    35.043143 
147816000    267.77737    533.40192    363.60939   -66575.142    66618.493    169.79253    35.046243 
147820000    289.01231    320.88039    416.98271   -66615.781    66650.107   -96.102318    35.046244 
147824000    294.18419    337.26191    284.30397   -66644.736    66659.783     52.95794    35.039403 
147828000    295.00133     479.6625    344.62242   -66660.465    66682.398    135.04008    35.041309 
147832000    314.81684    376.07116    353.07444   -66692.459    66703.544    22.996722    35.039378 
147836000    283.07845    345.92346    326.57813   -66717.057    66753.332    19.345331     35.03708 
147840000    293.94705    565.26819    337.52016   -66747.251    66782.396    227.74803    35.045674 
147844000    272.10554    360.75489    294.09977   -66780.186    66821.035    66.655113    35.046092 
147848000    294.70827    290.20667    549.35927   -66803.759    66822.153    -259.1526    35.034154 
147852000      275.509    419.62607    401.17648   -66812.282     66857.91    18.449589    35.037285 
147856000    284.26656    326.17898    224.36167   -66850.925    66881.169    101.81731    35.040313 
147860000    301.57431     247.9297    492.92638   -66873.712    66898.769   -244.99668    35.047991 
147864000    292.87839    299.44845    376.99026    -66885.69      66912.6   -77.541802    35.055787 
147868000    294.12684    545.63733    338.30551   -66915.242    66933.757    207.33182    35.061394 
147872000     283.6065    414.61825    279.06282   -66936.013     66957.46    135.55543    35.069416 
147876000    270.21992    190.89987    253.75963   -66966.495    66991.533    -62.85977    35.062052 
147880000    311.99434    353.68256     277.1834   -67020.082    67025.861    76.499156     35.07388 
147884000    275.98826    236.43294    368.25069   -67042.019    67055.076   -131.81775     35.09165 
147888000    292.55835    379.02588    280.41698   -67057.207    67082.053    98.608898    35.091201 
147892000    300.52714    466.89261    196.70944   -67088.882    67111.212    270.18317    35.087918 
147896000      296.776    289.23986    271.46504   -67126.903    67148.063    17.774816     35.10236 
147900000    308.99636    349.56831    353.29035   -67150.334      67150.8   -3.7220374    35.101099 
147904000    265.04755     395.9158    460.37819   -67159.199    67188.828   -64.462395    35.093381 
147908000    262.62131    332.49273    355.95382   -67166.639    67209.643   -23.461094     35.10101 
147912000    256.01117    424.78963    226.71733   -67210.449    67220.072     198.0723    35.105015 
147916000     295.2064    427.61807     267.1978   -67249.797    67257.971    160.42026    35.101189 
147920000    247.95589    262.73622    231.24995   -67244.053    67283.294    31.486268      35.1017 
147924000    304.19364    346.15722    371.18266   -67293.283    67294.671   -25.025442    35.101841 
147928000    274.42182    278.21152    612.03631   -67303.323    67321.407   -333.82479    35.097589 
147932000    337.73795    550.77836    235.45927   -67333.714    67345.631     315.3191    35.094625 
147936000    289.12649    368.31192     321.6532   -67344.309    67368.207    46.658713    35.105994 
147940000    278.46259    482.53857    284.29022   -67397.471    67404.865    198.24834    35.107663 
147944000    288.95766    561.82183    314.47831   -67411.793    67447.729    247.34352    35.113391 
147948000    274.84346    238.35498    327.92502   -67439.938    67471.079   -89.570038     35.12004 
147952000    282.34866    330.89193     220.7585   -67466.592    67492.053    110.13342    35.111354 
147956000    278.63645    369.95456    374.56495   -67507.273    67547.501   -4.6103917    35.103822 
147960000    265.99806     364.6182    471.12179   -67524.867    67569.145    -106.5036    35.104765 
147964000    271.24472    331.45528    327.32532   -67552.763    67588.355    4.1299587    35.110324 
147968000    302.55857    292.23273    291.03934   -67555.734    67588.376    1.1933963    35.096432 
147972000    285.89813    371.55544    360.19819   -67566.016    67595.454    11.357249    35.103949 
147976000    261.89432    460.17524    299.15678   -67607.833    67630.535    161.01846    35.098291 
147980000    283.53562    375.06562     327.8979   -67620.734    67650.105    47.167721      35.0917 
147984000    263.59398     195.4287     382.8939   -67643.988    67663.853   -187.46519    35.075606 
147988000      283.453     465.1404    193.07519   -67680.356    67717.245    272.06521    35.083917 
147992000    281.45308    423.13997    286.41613   -67729.474    67744.115    136.72384    35.078473 
147996000    268.55423    298.15676    331.21831   -67743.477    67767.318   -33.061549    35.065875 
148000000    291.68603    232.35219    373.91741   -67755.224    67777.181   -141.56522    35.075715 
148004000    263.13986    302.30829     337.9985   -67764.393     67794.29   -35.690206    35.078842 
148008000    272.80447    343.28676    275.76866   -67773.959    67802.988    67.518103    35.077054 
148012000    269.31904    353.54561    272.63002   -67819.162    67841.598    80.915585    35.092434 
148016000    266.34596    399.55108    200.62899   -67825.339    67868.266    198.92209    35.087991 
148020000    312.72904    387.11535    336.65112   -67877.128    67884.181    50.464228    35.097709 
148024000    302.75407    283.68372      231.394   -67910.567    67929.182    52.289714    35.098377 
148028000    308.33227    234.09266     568.4554   -67928.124    67939.299   -334.36274    35.092469 
148032000     260.6758    379.68582    189.75388   -67953.611    67980.836    189.93193    35.108976 
148036000    276.24863    358.81031    586.06419   -67957.538    67981.105   -227.25389    35.097837 
148040000    263.31552    281.82874    339.83819   -68006.865    68049.257   -58.009446    35.101305 
148044000    301.06725    280.40961    313.88341   -68061.433    68069.405   -33.473799    35.102781 
148048000    284.78827    265.58165    425.95555   -68068.681    68098.196    -160.3739    35.086076 
148052000    298.63765    289.00088    540.66684   -68113.434    68127.744   -251.66596    35.086693 
148056000     264.2101    266.31143    348.77573   -68123.253    68153.266   -82.464303    35.082661 
148060000     297.0038    586.43704    243.47544   -68164.345    68185.889     342.9616    35.096916 
148064000    293.16383    487.04844    372.89768   -68188.179     68200.01    114.15076    35.100001 
148068000    289.54812    334.81191    212.39424   -68217.543    68225.682    122.41767    35.098809 
148072000    308.55226     515.7896    292.29903   -68232.382    68255.652    223.49057    35.096324 
148076000    236.18103     235.3956    292.29702   -68228.662      68274.6   -56.901423    35.091493 
148080000    275.51067    164.35966    293.17065   -68260.374    68304.488   -128.81098    35.086259 
148084000     313.9426     338.8059    250.96633   -68284.151     68297.44    87.839571     35.08901 
148088000    278.15955    453.30794    330.39573   -68333.024    68356.261    122.91221    35.091922 
148092000    289.91984    405.41127    342.15757   -68346.713    68361.429      63.2537    35.089177 
148096000    284.24345    346.83968    434.26011   -68373.661    68383.103   -87.420436    35.085737 
148100000    265.75694     513.0914      249.129   -68399.239    68440.045     263.9624    35.067805 
148104000    312.01056    201.16791    576.97917   -68447.208    68440.941   -375.81125    35.063733 
148108000    280.20054    336.85156    278.92268   -68448.342    68486.042    57.928885    35.059108 
148112000    297.94761     215.1149    343.40072   -68474.682    68498.501   -128.28582    35.066839 
148116000    296.28264    447.69786    439.67301   -68494.799    68512.877    8.0248499    35.068814 
148120000    273.55005    363.21685    350.53959   -68521.179    68544.316    12.677252    35.072299 
148124000    316.58225    846.46269      183.548   -68545.641    68561.236    662.91469    35.087543 
148128000    291.09993    642.57264    542.66975   -68556.416    68574.395    99.902891    35.102393 
148132000    303.50092    445.05282    211.01958   -68577.346    68597.986    234.03323    35.108011 
148136000    281.17186    289.63845    396.20998   -68597.042    68635.455   -106.57153    35.109299 
148140000    290.56094    466.92465    486.61398   -68597.464    68626.383    -19.68933    35.118924 
148144000    252.53684    453.75824    185.74451   -68619.101     68659.16    268.01373    35.114028 
148148000     281.6175    147.46819     218.4726   -68602.581    68640.207     -71.0044    35.114338 
148152000    267.04777    421.57217    228.19691   -68624.705     68664.65    193.37526     35.12371 
148156000    273.71484    484.32733    245.66279   -68644.321    68666.415    238.66454    35.125787 
148160000    261.97838    297.30669    306.33037   -68663.074     68708.97   -9.0236815    35.128014 
148164000    251.51895     309.5982    215.00162   -68672.893    68705.178    94.596581    35.124938 
148168000    284.23352    340.54723    336.11876   -68718.318    68725.753    4.4284743    35.117507 
148172000    272.06602    362.98435    344.43801   -68712.974    68742.044    18.546337    35.110747 
148176000     279.4892    471.86266    260.90022    -68734.11    68776.498    210.96244    35.109355 
148180000    229.39609    336.85613     272.1787   -68741.038    68801.067    64.677423    35.104547 
148184000    278.96179    332.36704    258.70146    -68778.44    68814.565    73.665578    35.113961 
148188000    258.12377    354.42829    197.96438   -68790.491    68845.329    156.46391    35.109826 
148192000    265.86413    579.12534    223.21886   -68821.702    68851.145    355.90647    35.112321 
148196000    282.71129    553.52698    363.32654    -68815.91    68849.856    190.20045    35.114774 
148200000    296.64202    279.92124    259.59178   -68816.364    68849.413    20.329459    35.117938 
148204000    309.45425    228.40985    197.28205   -68842.339    68851.829    31.127806    35.115973 
148208000    266.49389    481.15621    346.61665   -68859.781    68892.816    134.53956    35.102921 
148212000    300.24778    409.36656    379.57256   -68892.971    68904.694    29.794004    35.104158 
148216000     300.3699    418.44603    241.86436   -68908.858    68911.762    176.58167    35.111947 
148220000    289.63277    214.05254    544.51273   -68893.272    68923.958   -330.46019    35.104751 
148224000    287.56348    270.15163    265.50808   -68925.242    68939.146    4.6435509    35.109209 
148228000    303.27235     408.4658    511.49984   -68929.466    68944.807   -103.03404    35.108213 
148232000    290.52371    348.98079    260.35508    -68945.35      68995.1    88.625714    35.087392 
148236000    268.67793    333.87816    296.86408    -69005.31    69038.787    37.014086    35.096143 
148240000    290.98121     514.8822    401.57088   -69029.324    69049.537    113.31131     35.09239 
148244000    307.27707    304.85102    274.98663   -69067.398    69078.981    29.864391    35.097921 
148248000    286.00701    311.50383    169.62371   -69063.436    69084.745    141.88012    35.095367 
148252000     263.7488    319.12207    334.57833   -69051.721    69090.347   -15.456264    35.094613 
148256000     301.3298    355.15358    274.89685   -69098.441    69112.967    80.256727    35.092752 
148260000    296.04732     332.0789    208.64724   -69107.064      69120.4    123.43166    35.102273 
148264000    290.12639    223.62774    350.37203   -69135.806    69153.382   -126.74429    35.099492 
148268000    277.35446    605.31943    277.05929   -69139.568     69168.47    328.26014    35.098028 
148272000    287.09497    471.48922    200.60973   -69153.941     69175.47     270.8795    35.093601 
148276000    295.16874    229.00918     306.1703    -69164.37    69178.456   -77.161117    35.091713 
148280000    263.79834    366.81927    239.51603   -69178.047    69216.111    127.30324    35.093148 
148284000    284.52127     362.1824    272.53753   -69201.216     69217.23    89.644872    35.102495 
148288000    280.99713    462.08168    402.11899   -69200.149    69227.699    59.962696    35.103682 
148292000    254.65787    196.51946    246.91844   -69218.054    69247.755   -50.398988    35.116255 
148296000    251.15908    434.97838    353.22882   -69230.771    69279.433     81.74956    35.118646 
148300000    269.06622     547.5856    281.52654   -69245.624    69281.102    266.05906    35.122935 
148304000    276.82556    488.04867    475.24784   -69275.145     69304.04     12.80083     35.12645 
148308000    247.18894    223.39511      142.886   -69290.053      69339.5     80.50911    35.132461 
148312000    279.23312    417.70671    429.98733   -69326.869    69348.253   -12.280616    35.134771 
148316000    296.24353    292.11223    420.29676   -69335.219    69360.876   -128.18453    35.134684 
148320000    267.01198    343.57803    379.55515   -69349.803    69387.227    -35.97712    35.140804 
148324000    296.93929    627.76014    545.69693   -69374.859    69395.398    82.063213    35.143819 
148328000    272.45123    432.77071    316.04743   -69403.242    69431.621    116.72328    35.141898 
148332000    260.72319    348.64452    277.87569   -69412.675    69447.709    70.768825    35.140571 
148336000    271.48995    387.47932    424.15618    -69442.07    69472.923   -36.676866    35.152521 
148340000    289.68175     292.3929    534.76404   -69444.286    69468.418   -242.37115    35.154191 
148344000    282.26042    314.96103    358.07646   -69465.275    69488.136   -43.115432    35.149956 
148348000    260.76164    246.96108    385.67124   -69486.994    69526.264   -138.71016     35.14538 
148352000    277.23967    148.39082    431.60168   -69512.488    69550.105   -283.21086    35.139897 
148356000    301.46626      211.177    455.88002   -69549.134    69580.748   -244.70302    35.143327 
148360000    288.72343    382.93393    321.06434   -69576.568    69600.037    61.869597      35.1334 
148364000    245.70125    304.26468    220.44408   -69586.452    69641.228      83.8206    35.129024 
148368000    253.97614    268.23864    292.71761   -69629.625     69659.73   -24.478969    35.112757 
148372000    274.09092    478.53378    346.39174   -69648.558    69684.747    132.14204    35.123252 
148376000    296.46663    515.64416    292.22715   -69690.831    69713.518    223.41701    35.113541 
148380000    279.89361    313.14404    425.50696   -69685.437    69731.866   -112.36292    35.112804 
148384000    270.29977    405.09117    278.86828   -69702.036    69737.979    126.22289    35.106752 
148388000    288.29669    214.69552    251.45101   -69752.948    69772.262   -36.755488    35.106647 
148392000    242.13567    317.72096    257.58987   -69752.051    69796.385    60.131086    35.108104 
148396000    289.04629    372.18985    286.15853   -69797.895    69835.214    86.031321     35.10866 
148400000    295.22643    359.14897    566.30553   -69814.926    69843.577   -207.15657     35.11457 
148404000    277.47895    327.19219     213.1089   -69832.476    69870.038    114.08329    35.113898 
148408000    280.76009    315.57229    363.42801   -69846.113    69885.927   -47.855718    35.105524 
148412000    266.75562    413.83235     214.6078   -69867.779    69912.268    199.22454    35.108604 
148416000    262.48634    322.43813    258.62002   -69873.207    69909.033    63.818115    35.099881 
148420000    296.66431    448.47848    303.98142    -69917.15     69920.11    144.49706    35.093532 
148424000    264.33399    338.39527    408.08951   -69926.207    69956.881   -69.694237    35.100803 
148428000    278.22326     368.2436    305.98443   -69945.169    69983.609    62.259166    35.093784 
148432000    279.91039     451.8443    422.44211   -69987.931    70006.349    29.402196    35.097589 
148436000    247.71348    264.03633     318.4739   -69997.587    70043.421   -54.437571    35.093227 
148440000    278.39755     214.7037    338.86083   -69989.497    70025.504   -124.15713    35.097419 
148444000    313.28771    324.23459    392.77903    -70020.65    70037.786   -68.544448    35.105951 
148448000    292.06874     306.4514    398.60353   -70040.088    70054.961    -92.15214    35.103291 
148452000    265.35534    295.71853    242.44569    -70044.68    70094.483    53.272839     35.10448 
148456000    262.38018    301.38248     364.2533   -70072.617    70120.678   -62.870814    35.095214 
148460000    273.09692    144.88597    435.78507    -70111.94    70124.531    -290.8991    35.095287 
148464000    279.28762    356.71954    337.86393   -70144.963    70176.678    18.855614    35.097736 
148468000    299.67717    421.38384    372.42183   -70183.419    70198.409    48.962002    35.086749 
148472000    294.47511    345.39826     307.1403   -70208.548    70238.893    38.257969    35.082736 
148476000     312.9064    573.68901    434.17749   -70225.783    70258.998    139.51151    35.079292 
148480000    303.56754    224.66397    229.79907   -70258.264    70289.609   -5.1351018    35.078786 
148484000    242.50353    277.68188    231.27106   -70274.504    70327.659    46.410815    35.079419 
148488000    292.71394    613.09301    335.35999   -70311.527    70332.274    277.73302    35.082265 
148492000    282.37884     307.8429    436.16926   -70334.034    70359.349   -128.32636    35.075042 
148496000    301.71229    181.70504    282.39509    -70346.82    70369.277   -100.69005    35.069688 
148500000    299.16911     291.7123    442.07914   -70368.018    70390.928   -150.36685     35.06899 
148504000    309.46853    404.79746     364.4449   -70382.778    70383.207    40.352569    35.068605 
148508000    312.77411    512.33746    655.88134   -70400.056    70415.321   -143.54389    35.061704 
148512000    286.54528    401.39889    284.76877   -70404.064    70449.338    116.63013    35.074626 
148516000    288.05699    312.02435    275.98812   -70449.267    70472.409    36.036231    35.073761 
148520000    280.87135    304.93847    348.56674   -70491.876    70515.886   -43.628263    35.076792 
148524000    284.52554    404.85331    338.76881   -70492.115    70521.665    66.084496    35.065267 
148528000    255.56724    355.61684    208.18097   -70504.232    70532.256    147.43587    35.073715 
148532000    273.52685    372.63314    353.38045    -70523.29     70555.69    19.252694    35.070789 
148536000    294.03767    427.48993     351.7548    -70538.05    70571.141    75.735132    35.065755 
148540000      297.759    425.60223    279.93955   -70558.022    70570.477    145.66269     35.06496 
148544000    309.81485    428.32774     289.1795   -70568.213    70586.407    139.14824    35.075579 
148548000    284.67099    389.91369    341.74508   -70574.113     70605.78    48.168609    35.078416 
148552000    294.22106    274.13811    349.00561   -70603.024    70612.656   -74.867497    35.077699 
148556000     277.0479    184.84043    349.85548   -70606.236    70641.223   -165.01505     35.09142 
148560000    261.86346    247.70195    429.29108   -70639.009    70663.148   -181.58913    35.100126 
148564000    289.53169    195.60297    328.38503    -70668.06    70693.605   -132.78206    35.098519 
148568000    299.32321     348.9277    330.56367   -70710.711    70734.533    18.364029    35.105061 
148572000    282.97916    338.59022    350.53516   -70713.706     70740.44   -11.944949    35.108978 
148576000    292.79986    433.18423    367.12541   -70725.133     70760.07    66.058814    35.113216 
148580000    320.56615    351.53937    308.84799   -70754.254    70762.632    42.691381    35.118296 
148584000    298.19954    420.44322    288.89864   -70785.857    70809.791    131.54459    35.126341 
148588000    247.33017    288.23958    370.50533    -70774.44    70840.762   -82.265748    35.126399 
148592000    297.49831     414.1954    384.15949   -70838.515    70864.774    30.035906    35.114978 
148596000    278.87046     281.5704     253.8195   -70869.197    70891.617      27.7509    35.110337 
148600000    312.50203    659.12268    520.16839   -70891.977    70912.711    138.95429    35.114699 
148604000    276.54238    402.39594    306.56614   -70925.392    70950.458    95.829806     35.11651 
148608000    295.04951    174.61755    354.80122   -70923.965    70966.867   -180.18367    35.121589 
148612000    293.79316    248.47388    409.88939   -70969.508    70967.774    -161.4155    35.113905 
148616000    294.66199    323.50573    330.99265   -70985.067    71010.236   -7.4869137    35.109751 
148620000    321.38208     410.5134    315.17162   -71000.277    71003.779    95.341782    35.113447 
148624000    310.56488    278.44857    333.99837   -71035.686    71031.851   -55.549804    35.121874 
148628000    317.53098    271.86242    446.32715     -71092.4    71106.373   -174.46473    35.119358 
148632000     271.8944    430.71148    264.66563   -71096.951    71144.402    166.04585    35.112877 
148636000    272.26328    285.74765    279.10168   -71126.928    71160.577     6.645973    35.116697 
148640000    263.67823     570.7098    438.72617   -71153.414    71197.012    131.98363    35.120726 
148644000    268.20676     328.8978    225.40893   -71168.301    71208.307    103.48886    35.119609 
148648000    305.64459    539.06867    242.80935   -71223.937    71245.747    296.25933    35.110386 
148652000    303.33185    593.25149    413.45735   -71240.931    71265.084    179.79415    35.118927 
148656000    294.51739    360.32808    334.58612    -71267.95    71289.833    25.741964    35.115261 
148660000    280.29417    470.51182    167.95713   -71276.886    71323.332     302.5547    35.125832 
148664000    248.80153    227.64947    398.11619   -71307.726    71366.064   -170.46672      35.1335 
148668000    298.31511    487.06715    190.33204   -71364.481    71400.525    296.73511    35.139974 
148672000    298.29957    567.31592    476.41927   -71399.687    71419.628    90.896648     35.13639 
148676000    261.52437    348.82275    301.80274   -71416.465    71464.926    47.020011    35.134202 
148680000    268.51574    523.48195    152.15143   -71436.577    71500.808    371.33052    35.138912 
148684000    283.12241    316.41066    241.09078   -71473.506    71509.893    75.319878    35.128251 
148688000    298.26681    295.44792    230.84456   -71495.734    71520.062    64.603361    35.129174 
148692000      292.393    188.57222    280.51207   -71539.207    71563.051    -91.93985    35.142166 
148696000      279.105    547.05143    297.79194   -71564.669    71594.686    249.25949    35.140891 
148700000     274.7181    272.71966    284.78033   -71584.366    71610.145   -12.060672    35.133151 
148704000    312.71164    408.52878     260.4756   -71610.615    71610.998    148.05318    35.137276 
148708000    317.14831    338.85109    641.08211   -71610.057    71611.457   -302.23102    35.143429 
148712000    299.78954    426.07639    247.78016   -71636.415     71669.73    178.29624    35.152937 
148716000    284.49332    280.70465    171.57386   -71676.088    71707.954    109.13079    35.145202 
148720000    282.67093    475.02265    370.27932   -71704.461    71728.496    104.74333    35.137576 
148724000    300.07867    361.03172    476.94096   -71741.362    71758.887   -115.90924    35.141979 
148728000    275.82188    377.31514    199.17533   -71733.498    71769.751    178.13981    35.132317 
148732000    268.18817    278.33112    209.35353   -71769.887    71796.542    68.977583    35.143277 
148736000    266.40897    283.51886     344.3524   -71788.663    71827.755    -60.83354     35.13663 
148740000    301.13813    306.69922    329.22396   -71801.913    71820.606   -22.524732    35.132581 
148744000    273.10366    394.16774    407.14739   -71817.897    71859.721    -12.97965    35.139853 
148748000    273.17787    407.61504     334.6436   -71842.858    71884.556     72.97144     35.13905 
148752000    303.88484    310.24648    471.53064   -71880.583    71911.238   -161.28416    35.131575 
148756000    293.13702    447.76814    167.70645   -71899.396    71915.529    280.06169    35.137289 
148760000    284.07161    328.59536    238.87138   -71903.079    71938.992    89.723979    35.132449 
148764000      274.243    194.69036    436.88931   -71934.192    71967.495   -242.19895    35.120707 
148768000    299.17932    298.74237    221.95626   -71974.418    71972.168    76.786114    35.122997 
148772000    270.52819     383.6915    253.25468   -72002.279    72019.277    130.43682    35.127351 
148776000    280.84719    445.95478    403.29924   -72008.217    72031.054    42.655539     35.13218 
148780000    278.60528    366.93813    321.30524   -72045.308    72059.912    45.632891    35.131053 
148784000    292.12277    436.12748    483.92124   -72072.429    72095.461   -47.793762    35.113472 
148788000     309.9377    271.04502    296.75537   -72078.781     72100.12   -25.710344    35.119018 
148792000    237.29362    308.14123    276.19604   -72069.822    72123.882    31.945186      35.1147 
148796000    279.71762    431.35195    361.56297   -72120.214    72150.613    69.788981    35.112918 
148800000    259.23062    281.56969    294.31547   -72147.223    72192.131   -12.745783     35.11416 
148804000    307.07984    324.04207    284.28716   -72176.124    72189.663    39.754916     35.11564 
148808000    305.83083    305.87639    248.07249    -72193.43    72212.756    57.803903    35.127016 
148812000     274.5102     332.9209    269.37298   -72212.512     72237.55    63.547922    35.121034 
148816000    268.90907    354.27362    239.37992   -72208.323    72251.384    114.89371    35.112254 
148820000    313.52085    492.83757    330.31431   -72266.158      72274.2    162.52325    35.093538 
148824000    281.74238    470.49105    397.63371   -72285.148    72332.815    72.857345    35.096819 
148828000    286.82253     415.0717    214.72413   -72317.408    72353.352    200.34757     35.10095 
148832000    236.23745     283.6465    277.56805   -72333.346    72384.917    6.0784422    35.098463 
148836000    320.88173     491.6752    413.25303   -72363.975    72366.939    78.422162    35.098251 
148840000    270.80783    312.49349    453.10932   -72354.315    72382.631   -140.61584    35.100405 
148844000    265.13397    327.76576    329.03754     -72372.7    72419.751   -1.2717833    35.103639 
148848000    276.96089    389.29004     356.3365   -72404.227    72436.317    32.953534    35.099344 
148852000    269.53583    314.99707    257.60262   -72431.423    72471.083    57.394452    35.094569 
148856000    285.34188    539.02141    246.30722   -72475.385    72514.018    292.71419    35.098914 
148860000    274.58771    463.60788    403.16788   -72507.669    72547.891    60.439998    35.092377 
148864000    291.50747    482.16904      385.352   -72518.542    72532.016    96.817041     35.09029 
148868000    298.18288    375.52444    403.38904   -72535.033        72541   -27.864602    35.081589 
148872000    279.31262    288.10966    186.81746    -72553.07     72582.35     101.2922     35.08295 
148876000    275.84982    323.60415    268.37285   -72544.724    72574.235    55.231294    35.085009 
148880000    297.31279    298.66687    290.51796   -72566.766    72605.314     8.148906    35.078764 
148884000    297.41684    330.86189    266.42251   -72601.957    72641.144    64.439376    35.081817 
148888000      293.836    480.31275    243.45571   -72614.016    72663.245    236.85704    35.084644 
148892000    299.38564    392.88749    296.81612   -72651.847    72663.156    96.071377    35.082746 
148896000    281.86815    321.06658    356.07774   -72663.844    72698.614   -35.011155    35.079179 
148900000    282.54148     430.8753    452.56875   -72695.454    72732.105   -21.693442    35.081963 
148904000    282.09991    373.51993    551.43066   -72730.476    72754.342   -177.91072    35.082315 
148908000    271.89057     237.1133    296.75866   -72744.345    72771.753   -59.645364    35.077398 
148912000    300.59444    363.51559    448.50687   -72767.588    72775.512   -84.991285    35.082006 
148916000    324.01434    509.35729    306.65622   -72784.431    72784.622    202.70107    35.085241 
148920000    260.49877    344.33003     302.4907   -72799.295    72831.597     41.83933    35.088759 
148924000     272.5431    385.82458    398.51356   -72809.271    72856.165   -12.688976    35.096754 
148928000    247.94233    346.90966    378.15598   -72813.141    72879.711   -31.246327    35.097057 
148932000     283.9279    455.26113    291.52061   -72854.836    72887.448    163.74051    35.103801 
148936000    285.39324     328.0473    385.34128   -72856.641    72890.532   -57.293981    35.100974 
148940000    270.24644    445.84883    331.88607   -72876.496    72937.156    113.96276    35.101682 
148944000    276.36564    694.71053    126.54971    -72903.55    72938.173    568.16082    35.106614 
148948000    266.05758    380.80567    300.16072   -72927.657    72961.308    80.644943    35.104477 
148952000     293.3969    278.16649    423.89511   -72974.383    73000.148   -145.72862      35.0987 
148956000    261.23544     297.4634    317.28287   -72973.055    73038.217    -19.81947    35.096634 
148960000    270.42438    479.33134     303.3532   -73014.295    73053.053    175.97814    35.089626 
148964000    268.34453     415.6484    382.09101   -73000.097    73053.202    33.557392    35.091902 
148968000    274.11529    366.96168    315.20109   -73026.868    73075.994    51.760597    35.086853 
148972000    265.61995    399.42824    308.78193   -73033.777    73064.135    90.646304    35.079451 
148976000    271.75862    312.91811    284.68945   -73033.384    73074.998    28.228655    35.074229 
148980000    272.50076    597.97607    344.98501    -73048.58    73084.237    252.99106    35.068247 
148984000     284.3521    158.90646    365.85245   -73092.236    73122.214   -206.94599    35.071212 
148988000    284.53158    224.10445    362.99544    -73112.14    73145.143   -138.89099    35.059087 
148992000    254.62238    173.47332    240.13148   -73117.988    73138.205   -66.658159    35.055746 
148996000    273.97912    364.52715    462.98186   -73132.876    73165.436   -98.454708    35.054445 
149000000    284.64372    520.24457    417.02637   -73146.069    73182.171     103.2182    35.066908 
149004000    280.53139    303.44806    255.47269   -73178.141    73202.298    47.975371    35.070425 
149008000    276.62717    357.42698    152.43333   -73176.622    73215.472    204.99365    35.072756 
149012000    297.33687     383.5559    492.38014   -73201.263    73234.339   -108.82423     35.07972 
149016000    266.60087    335.44073    350.82351   -73224.421    73270.696   -15.382778    35.082056 
149020000    271.13213    448.67613    297.70323   -73250.227     73277.64     150.9729    35.084316 
149024000    273.53605    296.99078    201.20689   -73266.125    73295.387    95.783888    35.092835 
149028000    275.80993    371.08535    468.17028   -73269.827    73310.082   -97.084925    35.094894 
149032000     281.8285    323.43533    346.16491   -73285.741    73329.098   -22.729577    35.088757 
149036000    297.79116     218.4719    303.72007   -73308.591    73340.974   -85.248173    35.089907 
149040000    311.49113    388.69561     266.5037   -73344.609    73380.938    122.19191     35.08334 
149044000    302.43695    351.42616    310.35829   -73357.124    73377.941     41.06787    35.079167 
149048000    273.73777    412.28701    461.35834   -73379.474    73401.081   -49.071336    35.080548 
149052000    286.05189    307.89989    322.63467   -73408.535    73446.719   -14.734782    35.081787 
149056000    263.39715    318.81604    337.83832     -73410.3    73459.051   -19.022277    35.079713 
149060000    286.97668    326.46156    311.39751   -73444.762    73461.852    15.064048    35.079429 
149064000    291.95321    456.25959    249.58185   -73464.134    73495.014    206.67773    35.093681 
149068000    278.72231    260.84987     287.1101   -73506.703    73541.358   -26.260226    35.091092 
149072000      279.256    532.01698    295.13435   -73541.298    73582.052    236.88263    35.091299 
149076000    282.67266    290.94223    268.04014   -73530.145    73576.204    22.902098    35.094743 
149080000    280.03548    226.14178    371.58712    -73565.51    73601.646   -145.44534    35.086699 
149084000    256.75274    201.76458    362.96759   -73582.823    73635.916   -161.20301    35.078697 
149088000    281.51969    375.38239    489.60302    -73613.09    73667.992   -114.22062    35.065225 
149092000    298.87629    246.91355    460.94603   -73673.167    73692.721   -214.03247    35.070123 
149096000    331.88662    300.76684    518.30339   -73735.754    73729.655   -217.53655    35.078505 
149100000    272.30249    345.90921    378.66069   -73738.429    73780.203   -32.751485    35.082526 
149104000    306.47558    323.45706    207.49542   -73754.861    73772.194    115.96164    35.089927 
149108000    265.18033    443.26236    343.22703   -73773.948    73817.211    100.03533    35.092014 
149112000    284.03508    288.64985    290.95859   -73813.792    73830.027    -2.308739    35.091782 
149116000    276.19774    213.85425    444.04588   -73804.526    73845.478   -230.19163    35.087694 
149120000    262.96292    373.37018    332.31121   -73826.894    73870.559    41.058974    35.086426 
149124000     283.4934    284.02852    138.82987    -73833.61    73873.102    145.19865    35.085295 
149128000    312.59196    618.21091    496.34635   -73881.635    73889.187    121.86456    35.084021 
149132000    301.00566    431.77476    461.09036   -73887.245    73921.802   -29.315599    35.073674 
149136000    292.67182    543.20898    396.07036   -73903.684    73943.953    147.13861    35.064541 
149140000    261.31998    336.85665    327.59008   -73903.429    73965.334    9.2665756    35.063462 
149144000    280.05968    467.00466    370.89176   -73967.225    73994.646    96.112902    35.072003 
149148000    265.63857    456.05229    244.47588   -73976.298    74021.371    211.57641     35.07255 
149152000    289.26103    386.92757    501.80095   -74001.231    74035.136   -114.87338    35.075158 
149156000    251.11951    445.67513    383.87049   -74018.783    74069.325    61.804642      35.0654 
149160000    263.75985     343.3755    309.72583   -74017.413    74083.309    33.649665    35.066139 
149164000    258.72166    371.85814    393.25943   -74046.526    74096.906   -21.401285    35.061383 
149168000    263.76782    400.64238      322.079   -74053.224    74108.591    78.563382    35.063637 
149172000    286.19823    435.74819     433.3739   -74099.097     74125.02    2.3742921    35.065479 
149176000    251.81291    401.33676    369.67479   -74110.214    74165.665    31.661971    35.068009 
149180000    285.74912    258.18723      323.582   -74148.986    74192.319   -65.394762    35.064351 
149184000    270.24411    280.71619    690.82689   -74147.389    74187.216   -410.11069    35.047584 
149188000    281.41841    547.28264    231.80266   -74168.325    74219.147    315.47998    35.041309 
149192000    270.41538    170.12925     331.9658   -74197.324    74232.023   -161.83655    35.036912 
149196000    280.19634    424.39283     256.3192   -74224.053    74257.165    168.07363    35.045768 
149200000    292.54402    384.43107    411.58792   -74256.332    74277.815   -27.156844     35.04688 
149204000    295.31183    360.85844     305.3707   -74280.824    74303.046    55.487745    35.065549 
149208000     333.7106    523.91144    364.62975   -74332.546    74328.071     159.2817    35.080569 
149212000    283.65145    371.70223    289.71834   -74352.411    74365.861    81.983893    35.083901 
149216000    331.15964    250.64059    276.41521   -74367.926    74372.917   -25.774623    35.085127 
149220000    315.11916    737.86655    394.55705   -74383.705     74398.15     343.3095    35.096153 
149224000    301.86982    298.94484    364.40995    -74373.55    74394.648   -65.465113    35.086975 
149228000    277.67227    262.97192    248.33854   -74364.596    74387.866    14.633376    35.084915 
149232000    287.68092    483.11604    336.43748   -74364.944    74396.677    146.67856     35.08783 
149236000    268.15005    347.93023    254.65209   -74363.123    74401.798    93.278149    35.080013 
149240000    302.76267     322.1458    310.22919   -74411.621    74430.929    11.916617    35.075083 
149244000    274.07238    410.64927    216.84267   -74434.995    74466.804     193.8066    35.075223 
149248000    266.20614    228.51478    392.00858   -74472.333    74492.331    -163.4938    35.069429 
149252000    307.30854    358.59495     211.7704   -74511.231    74528.945    146.82455    35.071194 
149256000    283.71273    378.05052     188.4843   -74500.626    74537.358    189.56622    35.060641 
149260000    265.34456    462.72523     211.3469   -74495.056    74534.337    251.37832    35.059219 
149264000    300.50402    274.71601    266.31385   -74528.547    74548.091    8.4021594    35.058103 
149268000    315.85807    527.71553    457.99152   -74579.057    74593.713     69.72401    35.057168 
149272000    267.03022    119.61023    280.49193   -74573.875    74635.443    -160.8817    35.067431 
149276000    298.61108    390.10705    227.77875   -74623.659      74664.1     162.3283     35.06953 
149280000    297.31202    314.25215    339.59706   -74646.506    74694.084   -25.344908    35.060495 
149284000     269.6256    263.77322    305.08024   -74672.235    74717.688   -41.307015    35.066002 
149288000    291.31138    432.30381    147.91618   -74725.336     74727.17    284.38762    35.072411 
149292000      297.685     323.5755     254.2512   -74744.317    74756.398    69.324304    35.062951 
149296000    276.98951    359.13325    263.25748   -74756.997    74776.732    95.875765    35.057115 
149300000    283.50782    241.30497    359.56872   -74791.006    74812.555   -118.26375    35.069918 
149304000    284.29854    370.19793    249.66247   -74808.715    74855.244    120.53546    35.072036 
149308000      292.588    507.64049    370.34001   -74834.822    74861.202    137.30048    35.076951 
149312000    270.06001    405.77071    288.51013   -74832.198    74887.689    117.26059    35.080134 
149316000    275.01445    287.32852    284.10484   -74867.122    74900.067    3.2236751    35.077329 
149320000    307.63583    350.94068    180.05336   -74891.252    74903.448    170.88732    35.062524 
149324000    322.38861    271.83374    241.32683   -74905.807    74921.825    30.506918    35.065595 
149328000    294.43887     514.3195    431.18929   -74922.387    74939.884    83.130219    35.078977 
149332000    277.17228    287.41759    283.36543   -74944.381    74978.193    4.0521685    35.074764 
149336000    287.21734    496.30516    235.26209   -74957.906    75000.382    261.04307    35.078778 
149340000    265.17061    331.32535     330.6415   -74991.845      75043.6    0.6838453    35.073471 
149344000     252.3566    258.11577    246.89622   -75033.995    75067.154    11.219555     35.07132 
149348000    265.70362    339.19927    311.44212   -75050.502    75091.856    27.757155    35.068274 
149352000    288.69125    151.72509    291.26711   -75102.436    75132.217   -139.54202    35.061923 
149356000    289.13325    178.62947    208.02484   -75146.704     75158.06   -29.395367    35.063951 
149360000    291.69896    317.18692    232.92707   -75159.824    75166.698    84.259854    35.070186 
149364000    291.11811    159.52993    351.54736   -75184.379    75203.837   -192.01743    35.070557 
149368000    267.38603    175.53559    264.58444   -75209.341    75244.684   -89.048848    35.068404 
149372000    279.60227     557.2094    308.92883    -75239.99    75273.648    248.28057    35.074042 
149376000     293.0761    286.58325    393.96066   -75265.914    75290.436   -107.37741    35.074357 
149380000    292.05885    344.54676    360.02051   -75301.901    75328.712    -15.47375    35.065855 
149384000    248.51338    334.11627     199.4131   -75286.379    75329.002    134.70317    35.074473 
149388000    264.08251     480.7525    257.55268   -75270.272    75324.165    223.19982    35.071561 
149392000    279.14282    363.88518    376.88553   -75316.697    75337.291   -13.000344    35.064986 
149396000     286.2489    396.54314    285.98726   -75330.949    75358.062    110.55588    35.069469 
149400000    304.80515    271.82112    460.02365   -75355.516    75374.689   -188.20254    35.072276 
149404000    305.77073    252.12064    328.36102   -75394.197    75410.338   -76.240379    35.074543 
149408000    266.59294    244.37066    344.18861    -75400.34    75443.947   -99.817953    35.076621 
149412000    282.82921    447.54257    152.12862   -75428.132    75460.902    295.41395    35.076962 
149416000    283.26993    360.24718    308.82596   -75440.286    75460.606    51.421228    35.078691 
149420000    285.37924    344.46016    448.83443   -75457.854     75493.41   -104.37426    35.076488 
149424000    299.60058    518.56466    495.90265   -75471.408    75495.065    22.662013     35.08072 
149428000    323.25867    247.32895    715.62667   -75506.383    75517.332   -468.29772    35.078727 
149432000    332.28989    583.25006    235.26552   -75547.537    75552.631    347.98454    35.090285 
149436000    286.79862    421.23441    593.12152   -75564.876    75582.457    -171.8871    35.093638 
149440000    305.97446    345.67767    183.67208   -75623.668    75638.661    162.00559     35.10018 
149444000    300.93724    399.69204    382.75157   -75657.197    75684.887    16.940469     35.09247 
149448000    309.13592    420.30636    318.25503   -75706.291    75709.621    102.05133    35.094068 
149452000      274.772    237.91805    286.93634    -75725.91    75760.312   -49.018282    35.075414 
149456000    290.56937    392.92395    300.70156     -75732.3    75771.354     92.22239    35.081538 
149460000    257.42807    281.04342     343.8017   -75735.038    75775.448   -62.758281    35.073932 
149464000    247.22233    226.67653    264.51539   -75749.739    75796.425   -37.838857    35.082903 
149468000    273.07056    326.45023    346.98693   -75770.798    75807.446   -20.536706    35.071425 
149472000    289.57437    434.25818    304.31696   -75788.988    75822.716    129.94122    35.058912 
149476000    318.20886    507.31627    283.18978   -75829.821    75843.877    224.12649    35.053843 
149480000    301.85033    434.34802    214.69085   -75850.187    75873.561    219.65717    35.051481 
149484000    313.74223    409.12603    295.47886   -75899.999    75895.707    113.64717    35.055156 
149488000    307.82454    433.06467    283.65676   -75925.326    75931.708    149.40791    35.059886 
149492000    266.02506    261.14973    451.29118   -75939.471    75961.453   -190.14146    35.043387 
149496000    291.31493    563.33091    251.70529   -75950.204    75980.048    311.62562     35.05408 
149500000    276.69145    597.59013    321.58961   -75962.196    75996.915    276.00052    35.052852 
149504000    321.72256    325.95262    367.44481    -76001.79    76012.264   -41.492186    35.056554 
149508000    305.12902    297.41916    402.42941   -76017.813    76043.621   -105.01025    35.049327 
149512000    286.00228    224.99467    269.97354   -76031.075    76056.765   -44.978864    35.056881 
149516000    288.49198    541.02337    211.67625   -76065.256     76083.41    329.34713    35.055498 
149520000    270.68608    377.65391     226.6928   -76088.035    76118.787    150.96111    35.057087 
149524000    294.15662    293.66895    290.21874    -76119.45    76123.325    3.4502159    35.058086 
149528000    300.00633    690.29794    679.68578   -76132.753    76140.037    10.612163    35.055266 
149532000    266.03383    298.03115    234.57232   -76134.767    76163.478     63.45883    35.045354 
149536000     275.6322    270.43715    301.68335   -76127.605    76170.733   -31.246196    35.053975 
149540000     298.2823    414.11495    411.96153   -76126.549    76173.977    2.1534192    35.054218 
149544000    275.31871    224.03275    253.85696   -76152.452     76174.13   -29.824201    35.058143 
149548000    254.11009    400.69907    360.13623   -76159.734    76209.433    40.562837    35.068524 
149552000    277.10131    373.13357    419.83249   -76184.436    76219.984    -46.69892    35.075348 
149556000    265.72352    233.31212    218.67163   -76182.851    76223.609    14.640489    35.077723 
149560000    269.09786    343.90739     152.1252   -76202.793    76252.365     191.7822     35.08455 
149564000    308.96105    398.84121    391.31024   -76243.318    76258.846    7.5309656    35.091372 
149568000    312.96137    360.72079    233.50898   -76285.607    76308.678    127.21181    35.093517 
149572000    257.27301    376.94241    433.26157   -76288.964     76334.23   -56.319159    35.088176 
149576000    307.02668    252.12401    265.28904   -76321.186    76358.617   -13.165031    35.084256 
149580000     272.2029    369.46717    247.18217   -76337.818    76386.082      122.285     35.07995 
149584000    277.32238    380.87616    431.31792   -76368.631    76392.573   -50.441765    35.071146 
149588000    298.44294    587.84375    275.25273   -76384.045    76397.992    312.59101    35.073167 
149592000    296.78301    525.52048    289.99998   -76428.199     76455.87     235.5205    35.065436 
149596000    313.75279    257.21203    334.20928   -76486.966    76492.816   -76.997252    35.071229 
149600000      308.056    428.81641      205.288    -76542.35     76548.87    223.52841    35.065792 
149604000    291.47362    247.71342     312.0049   -76562.611    76587.097   -64.291483    35.071455 
149608000    293.12435    202.17105    503.35945   -76592.344      76623.9   -301.18841    35.071412 
149612000    273.95735    339.54026    311.38054   -76598.661    76641.764    28.159718    35.074761 
149616000    309.66026    279.82758    426.31684   -76612.811    76639.263   -146.48926    35.072673 
149620000    278.48968       258.43    503.61754   -76651.308    76691.281   -245.18754    35.076264 
149624000    268.13425    488.25361    241.93462   -76681.738    76733.047    246.31899     35.07768 
149628000    302.19249    246.02797    434.43316    -76712.42    76737.287    -188.4052    35.076647 
149632000    278.76129    320.27911    233.97488   -76734.768    76786.173    86.304232    35.082041 
149636000    293.02916    379.87987    190.62195   -76763.982    76797.354    189.25792    35.079269 
149640000    258.51188    392.59545    359.26148   -76792.801    76831.498    33.333969    35.087525 
149644000    256.84989    397.59868    179.08587   -76832.413    76859.094    218.51282    35.096025 
149648000    300.70807    319.04052    548.96797   -76862.911    76886.052   -229.92745    35.095429 
149652000     261.0103     288.5295     241.5159   -76873.418    76932.866    47.013602    35.100491 
149656000    267.98984    336.51937     345.7752   -76882.955    76934.465   -9.2558308    35.112594 
149660000    270.94954    438.42344    521.88926   -76917.509    76970.042    -83.46582    35.108768 
149664000    291.78162    282.87464     250.6061   -76949.303    76990.804    32.268539     35.12031 
149668000    263.63061    448.83027    257.16686   -76989.784    77051.502    191.66341    35.120583 
149672000    296.91517    371.40444    465.55855   -77001.868    77046.472   -94.154112    35.114689 
149676000    270.42341    182.90199    307.30647   -77012.215    77048.604   -124.40448     35.11193 
149680000    275.34868    275.30107    446.75843   -77039.048    77069.146   -171.45736    35.105868 
149684000    283.19858    275.53679     407.0032   -77052.261     77088.63   -131.46641    35.101282 
149688000    259.30248    469.17209    344.54082   -77072.965    77120.462    124.63127    35.108211 
149692000    286.10251    416.47653    410.89078   -77107.194    77131.669    5.5857458    35.106311 
149696000    269.97214     372.4209    236.12941   -77114.665    77155.946    136.29149    35.106814 
149700000    294.55693    362.51076    417.46505   -77154.232    77187.147   -54.954285     35.11341 
149704000    290.06632    329.82305    421.29767   -77155.201    77191.631   -91.474624    35.109867 
149708000    305.09775    256.83549    430.86249   -77197.169    77226.677   -174.02699    35.111414 
149712000    285.03879     425.6368    339.11748   -77233.926    77264.757    86.519322    35.112021 
149716000     266.4138    558.60105    288.24148   -77241.258    77287.517    270.35957    35.110886 
149720000    286.87617     538.5308    368.37565   -77253.758    77292.184    170.15514    35.116101 
149724000    324.56218    337.25841    344.92995   -77292.616    77288.033   -7.6715371    35.123063 
149728000    268.70693    406.56829    301.38646   -77277.514    77329.289    105.18183    35.132303 
149732000    280.26349    371.81303     297.3729   -77310.363    77358.575    74.440133    35.136712 
149736000    288.95585    347.19237    291.59377   -77336.181    77363.798    55.598602    35.138597 
149740000    275.72283    332.76832    275.03101   -77367.231    77398.592    57.737309    35.155191 
149744000    281.13785     314.2462    429.09823   -77393.927    77427.542   -114.85202     35.14953 
149748000    298.34111    476.20797    244.56447   -77438.072    77452.336     231.6435    35.142668 
149752000    302.21225    436.48659    557.58636   -77452.649    77469.581   -121.09977    35.146618 
149756000    251.06829    208.46324    353.17424   -77458.018    77497.649     -144.711    35.152807 
149760000    264.04552    304.11706    316.84082   -77458.756    77502.329   -12.723756    35.150919 
149764000    274.37679    218.06969    228.70556   -77483.935    77507.316   -10.635866    35.142727 
149768000    309.53089    403.29426    377.74615   -77498.673    77505.955    25.548108     35.14221 
149772000     293.5213    434.10358    403.54798   -77529.443    77551.078    30.555603    35.146298 
149776000    268.23125    520.55339    332.68649   -77549.384    77582.667    187.86691    35.151015 
149780000    288.57619    686.10677    290.05675   -77584.289    77620.115    396.05002    35.164563 
149784000    272.68864    285.89958    296.25719   -77596.137    77655.436   -10.357609    35.174364 
149788000    279.98131    203.88392     422.7978   -77629.005    77664.366   -218.91388    35.191898 
149792000    291.01018    379.12165    373.98599   -77652.126    77680.361    5.1356506    35.193896 
149796000    318.08001    706.23152    268.55485   -77667.149        77688    437.67666    35.197569 
149800000    305.02716    493.04512     415.2419   -77685.644    77714.757     77.80322    35.213322 
149804000    276.44794    298.88463    269.24265   -77701.606     77746.38    29.641972    35.206909 
149808000    281.06329    391.32084    407.24717   -77716.537    77752.701   -15.926336    35.204832 
149812000     308.9011    197.95564    488.10229   -77731.794    77757.608   -290.14665    35.199658 
149816000    287.05741    476.88903    264.46786   -77782.077    77806.511    212.42117    35.204051 
149820000    335.30761    297.39424    365.12694   -77790.695    77792.452   -67.732705    35.202512 
149824000     283.9312    233.75515    251.39948   -77801.091    77833.274   -17.644323    35.194742 
149828000    333.88761     311.3848    365.96577   -77826.721    77840.081   -54.580977    35.196402 
149832000    289.86126    222.03841    366.49514   -77846.005    77855.907   -144.45673    35.200009 
149836000    292.41314    534.93649    438.62493   -77868.313     77891.26    96.311562    35.201184 
149840000    284.81324    371.89303    180.18011   -77871.194    77897.409    191.71292    35.201753 
149844000     297.1173    428.19877    344.58707   -77882.722     77892.07      83.6117    35.196338 
149848000    292.56103    299.15426    486.54579   -77922.982    77947.806   -187.39154    35.195627 
149852000    345.45707    301.32208     468.3334   -77966.634    77962.917   -167.01132    35.190175 
149856000    304.93878    524.90904      384.005   -77986.546    78015.888    140.90405    35.191427 
149860000    279.29369    352.76473    233.42533   -78005.806     78036.38     119.3394    35.197977 
149864000    272.13219    223.90731    276.33289   -78024.067    78049.031   -52.425575    35.200058 
149868000    265.67472    233.23533    278.23076   -78067.732    78104.736   -44.995422    35.191657 
149872000    289.69405    385.63694    252.67667    -78097.23    78125.796    132.96026    35.200697 
149876000    326.15158    341.88363    314.12618   -78109.611    78125.472     27.75745    35.196435 
149880000    276.47477     441.8076    462.50812    -78101.42    78141.032   -20.700522    35.199902 
149884000    289.74738    263.66234    170.22343   -78132.057    78151.477    93.438909    35.204196 
149888000     302.5638    351.20243    329.21138   -78140.397    78168.202    21.991053    35.206805 
149892000     302.6458     579.0206    321.96496   -78177.836    78195.267    257.05564    35.202359 
149896000    293.67717    437.12368    212.43146   -78182.394    78205.162    224.69223    35.205928 
149900000    272.74442    415.28066    347.45298   -78227.753    78255.707     67.82768       35.206 
149904000    260.84861    317.03264    316.32604    -78233.01    78282.175   0.70659897    35.213857 
149908000    251.28896    290.58211    238.95054   -78271.937    78311.496    51.631575    35.203479 
149912000    282.97658    426.80012     297.8862   -78272.283    78309.346    128.91393    35.200239 
149916000    250.95516    254.86911    231.01856   -78281.304     78347.45     23.85055    35.196003 
149920000    284.28517    443.81555    333.85886   -78319.259    78360.265    109.95669    35.195906 
149924000    292.11941    218.30576    277.88778   -78353.828    78382.163   -59.582027    35.197114 
149928000    254.46733     241.2797    437.36661   -78346.039    78401.785   -196.08692    35.201545 
149932000    257.57505     386.4014    277.85286    -78354.22    78399.694    108.54853    35.210017 
149936000    266.92169    300.69341    353.24523   -78381.453    78432.081   -52.551818    35.217376 
149940000    293.93727    295.11681    294.69374   -78400.555    78433.751   0.42306925    35.220771 
149944000    296.03268    319.41527    433.53651   -78424.791    78458.179   -114.12125    35.218431 
149948000    265.32549    245.30615    251.08628   -78452.753    78480.219   -5.7801292    35.228228 
149952000    317.97438    335.50292    452.43096   -78455.605    78458.658   -116.92804    35.219356 
149956000    266.95321    413.70483    261.84207   -78474.259    78509.103    151.86276    35.220409 
149960000    291.04188    464.36036    350.15152   -78502.178    78519.388    114.20884    35.219299 
149964000    271.44974    237.68374     378.4134   -78515.493    78553.543   -140.72966    35.210394 
149968000    284.45056    606.21321    375.57689   -78524.078    78548.927    230.63632    35.214408 
149972000    280.70387    288.95602    369.17433   -78524.325     78549.47   -80.218313    35.211751 
149976000     301.2219    394.43391    265.09108   -78564.411    78568.243    129.34284    35.213961 
149980000    276.72876    418.34089    255.82451   -78574.604    78611.456    162.51638    35.220934 
149984000    289.43458    298.16666     361.0401   -78586.708    78630.326   -62.873444    35.220953 
149988000    290.02349    327.57133     239.5611   -78614.414    78635.138    88.010223    35.220845 
149992000    272.79165    444.60816    454.16525   -78615.235    78652.543   -9.5570862    35.216806 
149996000    293.48655    257.63452    224.25391   -78653.464    78673.517    33.380608      35.2179 
150000000    287.67997    470.54201    282.92018   -78672.161    78694.965    187.62183    35.222529 
150004000    292.07202    368.60965    268.67386   -78707.208    78730.981    99.935786    35.226813 
150008000    314.71236    538.14098    330.66725   -78732.907    78736.718    207.47373    35.239784 
150012000     303.4648     386.3756    243.84377   -78741.749     78770.98    142.53183    35.239358 
150016000    310.65181    317.51032    408.00828   -78775.532    78793.201   -90.497959    35.233216 
150020000    291.55249    240.71444    308.65547   -78784.757    78796.457   -67.941025    35.229006 
150024000    325.02683    295.74117    401.01127   -78815.222    78835.103    -105.2701    35.219557 
150028000    259.51153    425.32866    320.74393   -78797.076    78845.238    104.58472    35.219287 
150032000    297.94526    414.45098    342.75944   -78838.729     78857.76    71.691542    35.223296 
150036000    315.32108    301.54805    324.87736   -78852.418    78889.275   -23.329306    35.221003 
150040000    298.28637     395.4638    264.84663   -78879.475    78903.625    130.61717    35.223314 
150044000    293.39794    354.57555    641.02067   -78888.505    78923.866   -286.44511    35.226538 
150048000    295.28302    364.74439     460.5134   -78902.173    78936.484   -95.769013    35.230151 
150052000    265.52308    239.97318    348.43352   -78932.442    78984.873   -108.46034     35.22894 
150056000    306.74518    313.52518    403.81715   -78972.835    79007.256   -90.291964    35.226427 
150060000    293.46788     429.4659     273.8574   -78993.871    79026.968     155.6085     35.22919 
150064000    278.65824    485.23791    185.49339   -79002.834    79034.902    299.74451    35.227324 
150068000    303.41341    240.55637    218.74856   -78992.712    79032.469    21.807808    35.233292 
150072000    271.04807    444.61317    277.28516   -79003.228    79040.752    167.32801    35.227557 
150076000    274.85657    347.47681    326.96556   -79010.897     79048.93     20.51125    35.238006 
150080000    270.13475    288.28508    153.87145   -79023.803    79072.908    134.41363    35.239449 
150084000    256.80165    259.91846    273.12805   -79060.775    79101.333   -13.209584     35.25133 
150088000    293.82694    261.45049    371.93486   -79107.165    79132.322   -110.48436    35.247051 
150092000    274.73452    251.84404    288.42782   -79088.545     79117.65   -36.583773    35.250391 
150096000    263.97222    235.37557    474.83475   -79096.432    79142.357   -239.45918    35.247964 
150100000    295.79668     366.6114    342.94381   -79118.347    79147.821    23.667591    35.252217 
150104000    290.36582    356.46647    298.01725   -79148.518    79186.982    58.449223    35.257539 
150108000     268.6247    465.71011    384.23046   -79168.579    79213.436    81.479645    35.250664 
150112000    258.09228    186.72956    283.14341   -79189.201    79230.016   -96.413854    35.241355 
150116000    286.44231    244.41879    302.15975   -79211.987    79247.015   -57.740963    35.241631 
150120000    282.64635     437.2789    190.23726   -79250.472    79282.843    247.04164    35.238564 
150124000    276.77317    290.37012    484.90144   -79264.064    79313.036   -194.53132    35.233572 
150128000    284.97749    433.26349    299.48244   -79295.802     79327.84    133.78106    35.233069 
150132000    294.02776    308.95567    392.02706   -79309.778    79343.734   -83.071387    35.232682 
150136000    284.91602    264.17963    415.65004   -79325.471    79383.217   -151.47041    35.242745 
150140000    284.66019    481.93023    390.24186   -79344.034    79384.644    91.688372    35.233264 
150144000    283.42039     316.2861    244.81348   -79360.216    79397.766    71.472623    35.238093 
150148000    285.65755    566.22036    353.77784   -79368.154    79403.268    212.44252    35.228777 
150152000    265.11288    402.60641    322.86628   -79404.154    79450.443     79.74013    35.229238 
150156000     286.2521     337.1927    309.99668    -79464.98    79473.599    27.196017    35.242565 
150160000    280.34796    257.43405    199.22152   -79492.384    79520.001    58.212525    35.239579 
150164000    270.44228    352.48806     418.1195   -79474.922    79535.511   -65.631437    35.239847 
150168000    307.24922    304.79276    273.28307   -79532.697    79539.996    31.509681    35.241615 
150172000    297.12896    220.40981    450.77701   -79554.603    79563.108    -230.3672    35.247901 
150176000    294.10757    261.28132    421.73295   -79561.536    79586.853   -160.45163    35.238593 
150180000    292.00187    408.87214    424.04237   -79590.958    79631.577   -15.170229    35.242398 
150184000     286.1988    332.40395    350.01886   -79611.836    79659.816   -17.614908    35.238757 
150188000    276.95384    288.26626    306.26131   -79635.097    79683.974   -17.995044    35.225931 
150192000    281.21057    348.94815    235.57321   -79673.845    79718.044    113.37494    35.230429 
150196000    282.22961    541.88916    353.26783   -79679.925    79711.255    188.62132    35.227132 
150200000    308.01945     446.2404    273.52697   -79745.525    79762.095    172.71343     35.22663 
150204000    278.15855    331.86849    316.26573    -79758.87    79799.717    15.602758    35.221166 
150208000    325.64608    392.16588    509.83659   -79763.616    79776.022   -117.67071    35.221703 
150212000    295.32541    325.09057    294.76422   -79774.412    79804.894    30.326342    35.222805 
150216000    275.49406    221.89834     383.3176   -79804.046    79838.528   -161.41926    35.212681 
150220000    315.93058    443.92195    532.67015    -79846.76    79871.393   -88.748192    35.210223 
150224000    297.86291    335.45087     343.4521    -79873.81    79897.887   -8.0012247    35.215349 
150228000    285.77011    273.49525    607.76255   -79888.106    79900.637    -334.2673    35.218198 
150232000    277.10598    260.91867    256.07232   -79917.658     79951.73    4.8463501      35.2194 
150236000    301.42385    529.78372    295.69534   -79958.044    79976.039    234.08838    35.210491 
150240000    313.76966    306.56722    355.79016    -79974.26    80003.398   -49.222939    35.202939 
150244000    294.40519    547.22544    374.09469   -79977.139    80016.165    173.13075    35.199979 
150248000    301.47954    250.06867    311.20914   -79985.102    80021.314   -61.140476    35.203637 
150252000    274.52621    357.48294    296.81889   -80022.965     80066.09    60.664055    35.200506 
150256000    281.17907    485.41226    398.69831   -80018.299    80057.012    86.713953    35.197032 
150260000    270.05253    307.54989    189.16958   -80023.717    80056.006    118.38032    35.200035 
150264000    292.11844    105.90971    411.33964    -80032.53    80054.931   -305.42994    35.201947 
150268000     279.3588    172.44736    249.18829   -80051.254    80092.706   -76.740931    35.192283 
150272000    286.80019     399.3816    343.14752   -80064.632    80088.537    56.234078    35.189401 
150276000    304.44685    388.73827    451.06244    -80076.13    80100.194    -62.32417    35.193409 
150280000    294.57037    514.27564    259.73378       -80086    80113.728    254.54186    35.195048 
150284000    320.78966    536.28715    475.94197   -80104.343    80123.908    60.345179    35.195367 
150288000    269.62647    270.91049    213.33852   -80114.977    80144.475    57.571974    35.203411 
150292000    266.93762    361.02758    320.45486   -80142.405    80174.225    40.572721    35.215791 
150296000    281.28307    575.19932    247.37557   -80186.314    80215.748    327.82375    35.216715 
150300000    296.40184    438.97016    179.20664   -80230.158    80261.719    259.76353    35.228715 
150304000     290.8717    450.26861    293.63957   -80274.927    80292.302    156.62904    35.236117 
150308000    330.02193    340.21595    242.82271   -80298.911    80304.338    97.393245    35.237209 
150312000    296.68783    364.04872    355.96741   -80321.315     80350.33    8.0813099    35.239369 
150316000    298.95118    227.69185    371.70293   -80349.062    80367.756   -144.01108    35.241054 
150320000    268.34557    283.36478    228.70027   -80319.881    80371.672    54.664514    35.247156 
150324000    273.03884    383.38237    433.46589   -80318.847    80369.911   -50.083519    35.245042 
150328000    288.40066    253.65967     400.3294   -80345.859    80382.422   -146.66973    35.249149 
150332000    301.81001    459.39186    225.73389   -80370.002    80402.235    233.65797    35.247201 
150336000    305.25135     473.1587    319.09768   -80407.986    80420.855    154.06102    35.243655 
150340000    304.69083    482.20538     231.3496   -80436.553    80456.399    250.85578    35.248921 
150344000    274.12389     314.3967    371.15593   -80429.578     80470.31   -56.759225    35.244094 
150348000    265.12381    419.02633    268.66786   -80456.306    80492.502    150.35847     35.24619 
150352000    274.82718    391.04513     147.1286   -80466.922    80506.106    243.91653    35.247664 
150356000    271.67026    219.32222    331.70124   -80467.914     80518.32   -112.37902    35.256077 
150360000     303.2326    253.98805    543.83102   -80501.062    80531.638   -289.84297    35.260653 
150364000    262.74863    206.99927    459.07088   -80517.286     80576.62   -252.07161    35.252283 
150368000    279.86665    242.87444    472.75798    -80540.89     80595.29   -229.88354    35.239965 
150372000    276.24929    363.78743    259.95748   -80567.834    80613.587    103.82995    35.241299 
150376000    268.30375    358.07114    358.60371    -80585.72    80643.938  -0.53256455    35.235178 
150380000    252.78371     346.6401    266.29838   -80576.887    80655.993    80.341722    35.228919 
150384000    264.52617    461.42479    356.04432   -80591.348     80643.17    105.38047    35.227127 
150388000    294.00523    400.41101    356.24434    -80620.47    80654.815    44.166669    35.221436 
150392000    300.41709    464.97811    388.51945   -80658.908    80683.768    76.458668    35.223146 
150396000    320.92505    500.34991    263.83145   -80715.396    80706.186    236.51846    35.222707 
150400000    299.78332    318.96014    395.91871   -80723.796    80743.925   -76.958569    35.215707 
150404000    278.73514    478.74461    225.16993   -80735.613    80777.115    253.57468    35.213945 
150408000    249.01809    118.57136    252.11057   -80743.457    80810.832   -133.53921    35.218748 
150412000    261.30005    243.57044    216.50909   -80754.858    80806.073    27.061351    35.210646 
150416000    289.56988    399.80998    424.26425    -80804.95    80822.482   -24.454276    35.211599 
150420000    260.07852    324.64057    294.66075   -80789.995    80864.837    29.979819    35.217743 
150424000    261.00275    196.35689    257.45611   -80830.989    80890.634   -61.099221    35.213927 
150428000    278.15245    296.44264    261.20165   -80844.091    80890.114    35.240994    35.211909 
150432000    312.21526    289.10906    297.55095   -80868.426    80892.758   -8.4418902    35.207577 
150436000    286.39944    548.39552    215.35169   -80866.213    80889.079    333.04383    35.211196 
150440000    302.76257    210.71953    438.37067   -80881.624    80890.997   -227.65114    35.212496 
150444000    295.88666    576.89449    397.47751    -80888.96    80923.013    179.41697    35.216686 
150448000     270.2191    313.90392    396.92894   -80896.929    80934.746   -83.025018    35.213342 
150452000    278.25767    447.91753    245.36592   -80932.565    80969.163    202.55161    35.207036 
150456000    264.85238    250.89798    376.18196   -80950.406    80989.294   -125.28399    35.194978 
150460000    312.86061    438.92757    254.02222   -80977.778    81006.961    184.90535    35.188773 
150464000    299.15343    237.88123    367.63924   -80975.679    80992.241   -129.75802    35.193525 
150468000    296.86959    304.12042     128.6047   -81003.948    81032.589    175.51572    35.196266 
150472000     285.8855    289.14644    298.32311   -81017.208    81052.088   -9.1766749    35.195325 
150476000    309.82641    586.19565    394.71861   -81028.117    81033.924    191.47704     35.20297 
150480000    315.03287    472.90503     361.4092   -81056.876    81074.648    111.49583    35.198533 
150484000    288.03309    514.03776     271.9846   -81085.858    81124.756    242.05316     35.19035 
150488000    262.50562    355.68832    348.56277   -81123.352    81175.307    7.1255468    35.205201 
150492000    289.80101     264.9707    300.31159   -81142.766    81186.321   -35.340897    35.201275 
150496000     259.1974    376.78919    209.12741   -81148.881    81199.002    167.66178    35.197578 
150500000    285.27252    479.67703    286.17702   -81170.723    81208.805    193.50001    35.202941 
150504000    267.00762    292.15888    348.64302    -81172.06    81242.179   -56.484136    35.212386 
150508000    280.64115    279.86548    306.32876   -81222.838    81263.701   -26.463277    35.212786 
150512000    275.81526    185.31381    294.06202   -81230.768    81295.278   -108.74821    35.205578 
150516000     282.2309    567.71736    404.91758   -81286.123    81336.958    162.79978    35.206551 
150520000    268.49714    293.28109    228.02743   -81283.102    81355.387    65.253659    35.200716 
150524000     281.3608    387.88406    348.78455    -81347.69    81382.541    39.099503     35.19917 
150528000    298.04166    431.04459    280.28345   -81378.639    81410.299    150.76114    35.207464 
150532000    275.62234    397.12427     293.5644     -81382.6    81424.204    103.55988    35.213057 
150536000    291.66893    421.47642    473.30079   -81413.265    81443.529   -51.824371    35.212316 
150540000    281.70756    331.92443    378.08641   -81440.768    81485.501   -46.161982    35.220313 
150544000    314.95562    365.92594    434.11862   -81459.955    81490.349   -68.192687    35.222042 
150548000    288.34985       441.36    241.05079   -81480.996    81509.709    200.30921    35.222782 
150552000    284.20185    429.25178    533.51565   -81491.324    81512.821   -104.26388    35.219577 
150556000    253.38383    240.86159    234.72535   -81494.818    81560.914     6.136242    35.221898 
150560000    272.75393     185.8459    339.87594   -81506.195    81541.066   -154.03004    35.216941 
150564000    276.41256    328.47279    240.53694   -81521.367    81571.599    87.935854    35.214069 
150568000     273.9848    361.12457    217.73877    -81531.08    81588.181     143.3858     35.20624 
150572000     295.3211    469.10764    516.43319   -81571.698    81607.334   -47.325545    35.204385 
150576000    287.61514    397.76361    317.57686   -81592.637    81629.464    80.186747    35.214825 
150580000    285.46499    277.24976    223.51161   -81631.604    81665.416    53.738146    35.216844 
150584000    256.19194    409.07234    331.95617   -81648.333     81696.23    77.116166    35.210592 
150588000    288.36885    366.43962    345.44296   -81707.022    81738.376    20.996658    35.216383 
150592000    264.78115    238.69999    305.46014   -81714.996    81768.392   -66.760154    35.221844 
150596000    272.09156    344.19086    471.82507   -81738.359    81789.438   -127.63421    35.229668 
150600000    292.25112    456.56611    301.77459   -81757.503    81801.219    154.79152    35.233043 
150604000    257.81699    259.44851    337.94256   -81736.049    81794.128   -78.494055    35.239181 
150608000    265.54843    174.66549    419.19405    -81756.54    81816.062   -244.52856    35.234686 
150612000    271.16752    407.96556    562.02093     -81778.6    81822.866   -154.05538    35.230708 
150616000    268.97096    207.86214    220.78485   -81783.714    81835.693   -12.922703      35.2246 
150620000    289.13558    276.01711    320.28502   -81831.067    81859.008   -44.267912     35.22463 
150624000    285.50835    251.44852    296.03858   -81850.419    81866.587   -44.590065    35.230439 
150628000    277.63489    190.42378    294.62794   -81877.932    81902.916   -104.20417    35.233847 
150632000    270.20819     389.0524    399.22234   -81897.871    81934.607   -10.169936    35.233951 
150636000    278.60115     563.5736    328.41502   -81905.125    81957.786    235.15857    35.233097 
150640000    267.90937    201.22338    341.60059   -81930.843    81976.496   -140.37721    35.238503 
150644000    275.13587    338.93028    280.32964   -81937.444    81980.316    58.600649    35.230818 
150648000    306.03073    331.54841     282.4667   -81964.549    82010.119    49.081708    35.242176 
150652000    321.17236    295.26684    286.57146   -82006.346    82016.749    8.6953747    35.249055 
150656000    277.29537    463.60235    214.28369     -81986.1    82027.541    249.31866    35.254733 
150660000    291.68591    468.28115    272.33724    -81989.88    82019.462    195.94391    35.261506 
150664000    273.85696    201.28152    202.64756   -81990.021    82026.197   -1.3660489    35.265412 
150668000    270.83008    177.16251    277.16092   -82006.004    82055.322   -99.998408    35.259175 
150672000    285.90842    389.06308    338.34036   -82040.916    82071.727    50.722722    35.259898 
150676000    261.62099    344.10143    189.42318   -82076.382    82125.661    154.67825    35.255275 
150680000    280.34968    380.80385    252.48083   -82075.288    82130.178    128.32301    35.258172 
150684000    252.63209    383.21568    242.72358   -82080.572    82146.704     140.4921    35.249289 
150688000    255.49874    397.93696    278.87851   -82148.487    82182.362    119.05845     35.25169 
150692000    316.31217    268.47066    347.16641   -82198.543    82219.647   -78.695755    35.239088 
150696000    287.15248    392.13094     447.2899   -82205.829    82248.224    -55.15896    35.243505 
150700000    263.63543    283.69028    393.53174   -82225.361    82294.475   -109.84146    35.241267 
150704000    288.05546    327.84875    206.83753   -82283.947    82308.222    121.01122    35.242486 
150708000    291.14876    376.94382    299.34647   -82354.405    82359.131    77.597349    35.247425 
150712000    306.73791    366.77506    385.81055   -82378.633    82384.278   -19.035493    35.240888 
150716000    303.27684    386.62039    173.09493    -82407.76    82433.717    213.52547    35.243429 
150720000    291.07175    269.64813    372.92776   -82446.433    82475.795   -103.27963    35.234353 
150724000     302.1026    331.67643    421.31505   -82471.003     82493.97   -89.638619    35.228257 
150728000    307.49898    325.43328    231.24009   -82475.649     82508.07    94.193198    35.230789 
150732000    286.67395    378.31878    348.91664   -82489.978    82532.222    29.402135    35.237927 
150736000    294.33862    397.63904    181.32911   -82516.096    82559.055    216.30993    35.236246 
150740000    288.27469    235.40317    431.00629   -82534.089    82583.479   -195.60312    35.232354 
150744000    286.55378    340.82492    179.34588   -82563.617    82618.196    161.47904    35.231332 
150748000    291.95923    245.90383    439.78701   -82593.454    82626.122   -193.88318    35.229529 
150752000    265.57629    314.46562    196.06246   -82575.697    82629.731    118.40316    35.232042 
150756000    272.20343    442.96254    261.84843   -82606.926    82652.148    181.11411     35.23301 
150760000    263.15829    435.63647    212.01649     -82641.9    82696.135    223.61998    35.233462 
150764000    268.57978    427.32469    424.13344   -82693.146    82732.045    3.1912545    35.235645 
150768000    261.90652    295.14649    442.06628   -82682.567    82735.715   -146.91979    35.237698 
150772000     285.5996    255.18718    282.33917   -82701.233    82729.943   -27.151981    35.239366 
150776000    278.97631     235.9267    462.50066   -82716.054    82757.172   -226.57397    35.234802 
150780000    270.23435    211.00975     305.4458   -82729.322    82776.748   -94.436053    35.229803 
150784000    301.06954    374.42367    421.73436   -82743.606    82775.536    -47.31069    35.232784 
150788000     286.1511    420.36515    292.02173   -82757.156    82806.704    128.34343    35.234368 
150792000    296.48314    444.55057    235.99444   -82786.932    82828.615    208.55613    35.244267 
150796000    288.56508    320.77451    249.78557   -82826.418    82862.566    70.988934    35.235222 
150800000    283.82634    618.49589    269.08548   -82857.124    82892.602    349.41041    35.240552 
150804000    292.09382    401.23578    384.14377   -82879.011    82919.223     17.09201    35.233378 
150808000     259.7094    182.53361    336.84639   -82894.137    82936.143   -154.31278    35.231845 
150812000    283.87369    307.47339    244.22455   -82914.698    82952.581    63.248837    35.231234 
150816000    261.33812    214.16448    161.12277   -82968.418    83013.208    53.041713    35.238197 
150820000    302.37016    204.19707     332.1472   -83021.053    83037.511   -127.95013    35.230467 
150824000     285.2187    265.69754    440.37368   -83048.547     83089.62   -174.67614    35.222587 
150828000    270.53334    341.96033    246.52197   -83037.732    83095.356    95.438367    35.221824 
150832000    291.95846    321.66283    347.99376   -83067.424    83090.461   -26.330929    35.224141 
150836000    319.71707    418.04816    289.69923    -83099.67    83105.316    128.34893        35.23 
150840000    278.55654    345.60509    339.09959   -83100.516    83149.132    6.5055033    35.225075 
150844000    320.74796     516.7367    268.95678   -83133.185    83145.155    247.77992    35.230402 
150848000     317.3873    367.58851    325.91337    -83154.79    83179.642    41.675148    35.233265 
150852000    263.79512    442.73462    386.88594   -83170.307    83222.997    55.848675    35.236788 
150856000    298.18485    478.24697    294.18854   -83186.541    83247.386    184.05843    35.236388 
150860000    256.22632    249.46424     272.7662   -83205.991    83275.387   -23.301963    35.237966 
150864000    266.14108    249.44073    328.42903   -83241.605      83292.8   -78.988297     35.24156 
150868000    257.96961    422.24481     342.4256   -83254.786    83303.674    79.819214    35.235549 
150872000    289.80955    333.78909    229.92736   -83270.358    83303.745    103.86172    35.235729 
150876000    282.78451    439.36945    192.09744   -83288.852    83328.691    247.27202    35.240295 
150880000    309.62623    549.92962    308.88253   -83301.573    83314.431    241.04708    35.240633 
150884000    300.59444    366.26811    439.11894   -83302.581    83309.764   -72.850828    35.238712 
150888000    296.35097     317.3907    285.74473    -83345.89    83374.986    31.645973    35.239641 
150892000    306.05296    274.98512    358.45375   -83381.827    83418.242   -83.468634    35.234951 
150896000    275.15392    356.90267    446.06933   -83404.772    83459.164   -89.166654    35.230287 
150900000    270.56619    283.71255    186.53731    -83454.43    83498.027    97.175243    35.221996 
150904000    291.42723    212.39527     426.7018   -83484.083    83511.588   -214.30653    35.227419 
150908000    304.79442    241.11423    191.44807   -83538.688     83546.34    49.666167    35.234384 
150912000    293.68897    295.99901    515.94499   -83560.955    83586.703   -219.94598    35.223889 
150916000    293.84332    383.97513    202.71317   -83585.914    83638.691    181.26196    35.219334 
150920000    295.37857    279.49192    355.09949   -83628.878    83650.253   -75.607572    35.213468 
150924000    294.29147    372.44795    219.99037   -83659.789    83683.954    152.45757    35.217453 
150928000    280.18313    236.26009    330.21016   -83667.981    83707.568   -93.950072    35.217218 
150932000    265.90458    223.90574     456.4741   -83689.655    83728.137   -232.56836    35.215837 
150936000    291.27402    324.30967     348.8037   -83704.654    83745.726   -24.494029    35.217444 
150940000    251.73962    276.26965    318.16356   -83730.958    83780.369   -41.893915    35.219326 
150944000    286.18775    438.22674    224.56916   -83764.591    83812.875    213.65758    35.219653 
150948000    261.53648    287.11162    227.10179   -83763.366    83823.233    60.009829    35.216925 
150952000    268.80217    323.07499    599.11275   -83803.897    83858.073   -276.03775    35.216751 
150956000    250.07309    430.08519    298.35554   -83819.653    83888.922    131.72965    35.217457 
150960000    268.89405    224.53311    291.88568   -83848.529    83897.266   -67.352574    35.213086 
150964000    272.66757    397.32983    272.25185   -83870.491     83926.35    125.07798    35.215644 
150968000    292.18906    264.41125    404.09656   -83889.513    83916.251   -139.68531    35.215179 
150972000    314.96901    266.03339    244.73454   -83940.087    83974.968    21.298853    35.207939 
150976000    287.30795     363.9346    416.00267   -83969.063    84011.454   -52.068077    35.202882 
150980000     310.7587    387.70226    317.17108   -83997.355    84006.902    70.531177    35.201418 
150984000    298.09332    524.07298    296.86569   -84006.354    84037.032    227.20729    35.200049 
150988000    282.00152    358.33254    539.70321   -84005.827    84035.762   -181.37066    35.194094 
150992000    262.40326    244.50462    336.39062   -84016.652     84068.44   -91.885996    35.192435 
150996000    271.42546    389.10087     259.7996   -84055.519    84111.592    129.30127    35.180826 
151000000    294.83791    453.95082    300.02318   -84075.538    84120.392    153.92763    35.180792 
151004000     265.6298    393.59097    203.98796   -84105.378    84155.256      189.603    35.184815 
151008000    289.39508    434.90543    348.64841   -84143.334    84175.603    86.257016    35.184423 
151012000    258.84388    294.29744     346.2872   -84167.908    84209.703    -51.98976    35.187881 
151016000    278.88446    243.34933    350.00786   -84186.246    84228.894   -106.65853    35.187888 
151020000    300.25486    384.87419     375.9479   -84218.232    84246.481    8.9262857    35.189642 
151024000    261.58668    244.55803     182.6789    -84228.86    84255.043    61.879129    35.194573 
151028000     314.2783    467.07848     189.7249   -84265.172    84282.469    277.35358    35.193338 
151032000    287.48589    247.25192    293.81806   -84300.122    84322.275   -46.566142    35.194146 
151036000    314.45893    470.95116    205.39865   -84316.531    84340.908     265.5525      35.1835 
151040000    274.89422     402.2983    208.72753   -84316.406    84362.072    193.57078    35.192411 
151044000    267.93604    227.93334    184.10366    -84339.55    84382.359    43.829679    35.193484 
151048000    272.46762    342.01267    227.63008       -84368    84418.337    114.38259    35.182195 
151052000    261.05497    379.27598    308.86689   -84405.753    84447.219    70.409091    35.173591 
151056000    295.87553    349.03583    345.31577    -84437.69     84454.56    3.7200575     35.16818 
151060000    312.08534    392.20336    388.80198    -84464.83    84494.856    3.4013874      35.1681 
151064000    311.32346    448.05387    244.03636   -84501.765    84537.997    204.01751      35.1662 
151068000    274.87786    269.84185    254.62668   -84520.022    84570.319     15.21517    35.172976 
151072000      296.673    383.19984     340.2237   -84547.664    84588.059    42.976143    35.171964 
151076000    314.67914     298.0785    503.46348   -84568.538    84587.273   -205.38498    35.168617 
151080000    246.77229    264.82605    400.63696   -84546.939     84613.09   -135.81091    35.168638 
151084000    266.28791    297.55961    253.47881   -84583.397    84632.396    44.080795    35.173471 
151088000    303.23919    343.96195    422.38106   -84617.524    84642.035   -78.419105    35.169103 
151092000    276.64151     442.1895    452.35647   -84637.891    84692.198   -10.166962    35.159761 
151096000    271.41805      394.755     429.2345   -84673.694    84713.642   -34.479499    35.149918 
151100000    283.18628    333.75691    176.18548   -84709.672     84755.62    157.57143    35.148772 
151104000    266.09075    431.16252    325.07511   -84715.034    84765.543    106.08741    35.141496 
151108000    273.16389    342.41547    253.11259   -84745.524    84784.133     89.30288    35.145094 
151112000    302.37232     421.9759    111.96332    -84781.23    84830.406    310.01258    35.136814 
151116000    291.86154    369.62672    203.27122   -84828.488    84864.672     166.3555    35.141473 
151120000    298.52626    449.31408    475.52196   -84838.887    84886.628   -26.207873    35.134146 
151124000    278.60807    280.28356    304.64854   -84853.322    84900.831   -24.364985     35.13823 
151128000     287.2795    304.17094    308.99625   -84868.377    84901.991   -4.8253089     35.14554 
151132000    270.92567    392.46765    610.50275   -84894.525    84937.543    -218.0351    35.150524 
151136000    281.62841    359.55987     78.90221    -84935.05    84997.266    280.65766    35.155198 
151140000    264.24245    221.29418    423.16201   -84971.245    85019.096   -201.86783    35.149785 
151144000    303.09894    607.01734    181.20584   -85024.934     85034.14     425.8115     35.15839 
151148000    281.86481    269.35413    433.01247   -85068.684    85119.033   -163.65834    35.165294 
151152000     269.8345    219.31767    337.95043   -85089.232    85146.418   -118.63276    35.156075 
151156000    291.73741    507.16632    333.40353   -85134.508    85155.181    173.76279     35.15869 
151160000    286.01787     431.4132    286.75848   -85126.435    85165.728    144.65472    35.165441 
151164000    283.92014    338.92712    176.70422   -85171.022    85199.553    162.22289     35.15679 
151168000    279.06105    325.48143    374.61798     -85214.8    85248.242   -49.136553    35.152726 
151172000    293.14846    441.26089    259.31871   -85226.168    85255.021    181.94218    35.159567 
151176000    301.60213    543.30367    294.17451   -85240.199    85274.559    249.12916     35.16609 
151180000    268.58749    472.40862    363.02027   -85269.813    85328.768    109.38835    35.168878 
151184000    269.15703    502.24639    367.54068   -85302.005    85364.629    134.70572    35.169152 
151188000    305.28066    374.11574    311.13145   -85364.833    85373.326    62.984289    35.171496 
151192000    276.38787    369.16057     263.0262   -85386.565    85424.916    106.13437     35.17507 
151196000    273.55888    375.18341    426.46657   -85384.768    85425.795   -51.283159    35.171566 
151200000    288.88503    366.06603    482.18313    -85410.84    85449.841    -116.1171    35.173093 
151204000    285.29012    561.45073    427.39412   -85444.507    85478.805    134.05661    35.178706 
151208000    301.75588     470.2436    282.19345   -85480.838    85500.382    188.05015     35.18078 
151212000    235.55172    335.81023    324.70631   -85508.362    85557.045    11.103916    35.172985 
151216000    299.19025    558.80547    465.48706   -85529.257    85572.816    93.318411     35.16431 
151220000    279.53995    373.26929    308.84503   -85549.572    85591.795    64.424263    35.171036 
151224000    265.80292    365.11612    250.13753   -85552.251    85613.393    114.97859    35.157797 
151228000    293.61381    264.81324    231.10401   -85576.563    85605.714    33.709237    35.161732 
151232000    281.93039    352.50567     256.5327   -85588.432    85622.733    95.972972    35.157745 
151236000     294.8292    282.06496    289.76427   -85616.619    85645.963   -7.6993122    35.163115 
151240000    264.09596    292.45096      308.362    -85608.33    85663.203   -15.911037      35.1613 
151244000     260.1234    247.18244    230.25185   -85634.578     85683.23    16.930598    35.169093 
151248000    273.60716    372.13115    400.95832   -85646.436    85699.408   -28.827165    35.165666 
151252000     253.9129    312.20187    367.50179   -85660.593    85706.637    -55.29992    35.160847 
151256000    265.85705    348.89066    376.18034   -85712.469     85764.03   -27.289681    35.152609 
151260000    299.60053    372.43581    390.13695    -85757.49    85776.719   -17.701135    35.145572 
151264000    272.16387      448.701    315.30229   -85768.435    85826.527    133.39871    35.150872 
151268000    266.96503    299.14833    329.66054   -85799.819    85843.364   -30.512214    35.151325 
151272000    269.17276    539.67351    375.55382   -85812.122    85870.376    164.11969    35.159912 
151276000    286.94982    293.06797    306.72955   -85845.714    85878.009    -13.66158    35.161482 
151280000    268.47542      326.699    282.07281   -85874.519    85921.474    44.626187    35.163778 
151284000    265.48069     225.2869    267.06869   -85888.985    85939.059    -41.78179    35.179097 
151288000    280.41307    485.71615    197.65141   -85899.509    85962.711    288.06475    35.176575 
151292000    301.58471    491.09433    355.14917   -85925.644    85970.234    135.94516    35.185134 
151296000    264.75341    143.91509    625.69473   -85932.176    85983.093   -481.77964     35.17586 
151300000    294.28101    593.31432    264.74992   -85980.295    86005.791     328.5644    35.170598 
151304000    283.84699    276.13853    453.33198   -85997.781    86020.059   -177.19345    35.158492 
151308000    275.85144    396.12615    312.10108   -86027.601    86059.807    84.025065    35.167131 
151312000     285.4996    303.54854    294.73265   -86052.284    86093.801    8.8158931    35.168479 
151316000    281.41334     400.0607    447.74329   -86088.304    86146.462   -47.682589    35.169333 
151320000    296.95524      532.951    225.51479   -86115.323    86169.308    307.43621    35.165994 
151324000    301.58293    429.96069    421.68613   -86137.485    86174.162    8.2745609    35.155997 
151328000     301.5589     355.0517    311.69273   -86165.092    86209.406    43.358967    35.164911 
151332000     271.8172     396.3804    297.37953   -86178.881    86235.356    99.000875    35.165954 
151336000    301.94534    283.85014    300.37092   -86211.527    86239.549   -16.520784    35.173892 
151340000    284.03309    254.90765    342.94241   -86229.303    86273.979    -88.03476    35.162519 
151344000    245.28864    438.22638    306.16469   -86249.575    86315.261    132.06169    35.162314 
151348000    242.13171    518.89356    242.50796   -86247.951    86313.367    276.38561    35.169708 
151352000    298.13462    321.91394     230.2144    -86286.03    86301.927    91.699537    35.175932 
151356000    269.94786    300.17546    205.49108    -86296.77    86319.377    94.684386    35.180654 
151360000    302.92071    570.03988    219.40112   -86334.284    86361.695    350.63876    35.192037 
151364000    271.04006    338.78387    285.11276   -86336.495    86369.874    53.671114     35.18671 
151368000    252.62421     290.7024    419.18469    -86357.12    86419.356   -128.48229    35.180942 
151372000    283.86037    269.58446    443.92602   -86407.268    86442.201   -174.34156    35.189471 
151376000    276.30776    351.96194    280.86017   -86442.754     86481.27    71.101771    35.190933 
151380000    323.36521    503.67011    117.10046   -86466.638    86472.222    386.56965    35.190945 
151384000    279.57121     385.6516    269.08273   -86466.254    86494.661    116.56887    35.190119 
151388000    295.53986    545.78931    325.58364   -86498.894    86541.367    220.20567    35.190326 
151392000     301.7829    425.34233    339.81451   -86516.707    86550.129    85.527818    35.190068 
151396000    284.31548    432.25295    408.64408   -86516.395    86556.373    23.608864    35.193636 
151400000    267.57728    276.79479    332.30144   -86529.084    86592.917   -55.506654    35.201288 
151404000    280.47996    434.11893     214.3674    -86560.44     86609.88    219.75153    35.215657 
151408000    284.74536    219.61652    327.15664   -86567.975    86615.581   -107.54012    35.218934 
151412000    273.52639    444.61919    503.59716   -86602.688    86641.104   -58.977976    35.223963 
151416000    289.07995    286.55422    220.20313   -86614.859    86663.153     66.35109     35.22312 
151420000    264.53447    518.87618    251.44757   -86646.413    86716.636    267.42861    35.231669 
151424000    289.05604    423.91187     699.5019   -86673.238    86700.377   -275.59004    35.229383 
151428000    271.19216    317.16983    221.81837   -86707.102    86747.684    95.351453    35.232054 
151432000    253.33085    303.61593    299.30573   -86729.092    86758.782     4.310206    35.223367 
151436000    250.68293    316.14014    212.35682   -86743.043    86793.293    103.78332     35.22313 
151440000     294.0529    736.31215    239.45821   -86795.552    86840.748    496.85394    35.215769 
151444000    277.92844    240.94356    288.20548   -86837.182    86869.283   -47.261918    35.213187 
151448000    294.69009    315.51726    239.16294   -86876.653    86896.453    76.354316    35.216478 
151452000    295.81143    359.49267    351.83687   -86891.282    86913.882    7.6558016    35.223022 
151456000    297.33595    282.63724    318.00863   -86901.472    86934.123   -35.371392    35.220219 
151460000    286.64724    275.17925    268.75205   -86903.521    86942.412    6.4272031    35.218308 
151464000     296.9414    396.45461    209.37582   -86940.685    86952.566    187.07878      35.2173 
151468000    314.21868    404.15895    415.25024    -86944.98    86961.878    -11.09129    35.223283 
151472000    273.50832     387.1807    331.68843   -86965.709    87007.372    55.492278    35.215969 
151476000    299.99726     485.5465    227.98497   -86995.865    87030.379    257.56152    35.226453 
151480000    275.38447    274.98224     643.5625   -87004.521    87052.741   -368.58026    35.233195 
151484000    286.31928     185.2655    449.94085   -87026.339    87075.918   -264.67535     35.22849 
151488000    278.20782    364.04064    398.00453   -87057.785    87099.634   -33.963894    35.232362 
151492000    281.36424    179.96209    294.84156   -87077.373    87127.345   -114.87947    35.234034 
151496000    285.86095    363.86639    199.56314   -87113.401    87155.812    164.30325    35.229273 
151500000    304.43087    463.90856    307.58888   -87124.686    87156.608    156.31968    35.247832 
151504000    263.04892    177.88182    316.44656   -87119.869    87169.196   -138.56474    35.235524 
151508000    275.11881    718.45623    290.71852    -87158.09    87202.275    427.73771    35.240287 
151512000    270.29988    294.39425    189.42655    -87194.49     87241.77    104.96769    35.237821 
151516000    253.69264    274.43361    217.60834   -87237.731    87287.892     56.82527    35.234894 
151520000    289.23744    597.54802    561.92001   -87226.387    87269.941    35.628005    35.238839 
151524000    275.70034    406.22098    220.03689   -87245.981    87286.775    186.18409    35.242635 
151528000    275.45968    464.41903    398.59165   -87271.058    87320.319    65.827375     35.24458 
151532000    245.42162    269.28625    353.85764    -87273.65    87337.178   -84.571394    35.241541 
151536000    279.92508     181.5405    283.28928   -87307.005    87346.181   -101.74878    35.242656 
151540000    294.36547    599.56374    393.60021   -87332.753    87367.742    205.96353    35.239091 
151544000    266.25715    333.74651    434.76758   -87340.149    87388.004   -101.02107    35.239587 
151548000    255.21484     377.0018    417.64854   -87356.961    87416.127   -40.646742    35.246012 
151552000    283.71627    307.75351    265.86673   -87376.066    87419.503    41.886778    35.245368 
151556000    262.20479    296.67798    447.44796   -87404.316    87439.084   -150.76997    35.243265 
151560000    278.12824    420.88496    286.54185   -87417.322    87473.538     134.3431    35.251669 
151564000    295.96991    353.23783    300.57831   -87451.795    87492.403    52.659516    35.259529 
151568000    284.35051    237.00167    260.99744   -87454.769    87498.114   -23.995769    35.260527 
151572000    287.62689    297.21084    374.13162   -87468.485    87502.466   -76.920779    35.256646 
151576000    259.24647    325.85789     337.0976   -87474.806    87521.621   -11.239702    35.268264 
151580000    300.98683     453.5285    263.99488   -87515.814    87551.463    189.53362    35.268167 
151584000     288.5382    354.78511    306.61884   -87531.107    87586.048    48.166273    35.264485 
151588000    282.01765    493.45259    120.08241   -87575.627    87613.344    373.37018    35.277257 
151592000    313.72453    540.33195    439.80742   -87628.155    87639.557    100.52453    35.279129 
151596000    293.20882    286.35627    340.03643   -87663.653    87679.859    -53.68016    35.281882 
151600000    256.69637    225.94634    479.87839   -87666.027     87719.45   -253.93204    35.276432 
151604000    277.36086    276.21198    428.61584   -87696.281    87741.969   -152.40386    35.267064 
151608000    275.79935    375.42956    475.93335   -87703.279    87734.879   -100.50378    35.262413 
151612000    271.33729     381.7494    324.77647   -87708.617    87771.577    56.972928    35.260486 
151616000    255.88751    321.72256    314.64537    -87720.68    87783.467    7.0771909    35.259935 
151620000    264.40597    342.68866     282.2066   -87756.096    87820.516     60.48206     35.25979 
151624000     280.1582    420.24214    224.66865   -87759.657    87798.399    195.57349    35.268458 
151628000    276.34519    328.57453    313.47324   -87766.341    87805.793    15.101288    35.263768 
151632000    263.44217      394.214    293.94654   -87776.425    87831.397    100.26746    35.263527 
151636000    276.64321    349.16728    264.59323   -87819.965    87859.627    84.574049    35.279927 
151640000     262.9503    317.57408    344.86954   -87835.014    87899.593   -27.295456    35.292806 
151644000    273.69948    622.98971    273.86321   -87836.244    87900.463     349.1265    35.297139 
151648000    297.32495    451.05716    469.90368   -87879.142     87918.33   -18.846522    35.291314 
151652000    257.82901    306.27427    189.60544   -87919.317    87979.261    116.66882     35.30287 
151656000    276.31593    279.57922    442.48923   -87947.259    87997.364   -162.91001    35.301457 
151660000    296.89004    383.65306    200.30304    -87983.14     88021.39    183.35002    35.301637 
151664000    294.25823    221.93455    286.09383   -87985.906    88027.984   -64.159281    35.306197 
151668000    302.27264    400.04848    342.39281   -88011.714    88035.353    57.655666    35.309358 
151672000    288.33177    260.59319    273.35508   -88040.849    88083.429   -12.761892    35.311484 
151676000    253.79103    223.45201    150.12541   -88054.118    88094.127      73.3266    35.316934 
151680000    278.87726    446.94892    303.68384   -88087.179    88119.129    143.26508     35.31754 
151684000    270.27502    317.88698    364.58885   -88087.384    88144.953   -46.701866    35.313715 
151688000      288.351    355.30075    245.35658     -88125.2    88165.844    109.94417    35.316467 
151692000    258.08129    344.44623    321.89055   -88136.729    88199.768    22.555677    35.318467 
151696000    258.17095    522.70466    352.21514   -88170.154    88239.619    170.48952    35.323142 
151700000    247.84816    276.72122    277.50871   -88220.937    88291.778  -0.78748078    35.329996 
151704000    258.03104    208.27878    310.36465   -88239.241    88279.317   -102.08588    35.329487 
151708000    256.33811    315.31432    327.71142   -88295.907    88346.241   -12.397106    35.332542 
151712000     281.9592    275.74922     398.2961   -88315.292    88368.195   -122.54688    35.337533 
151716000    266.29698     327.4105    271.75538   -88342.486    88397.609    55.655112    35.336543 
151720000    277.70536    281.19016    271.16606   -88377.076    88430.132    10.024104    35.340538 
151724000    252.83228    354.24996    359.85267   -88354.552    88426.371   -5.6027076    35.327746 
151728000    270.20186    304.10227    300.53235    -88389.22    88423.418     3.569921     35.33079 
151732000    284.83081    230.83541    534.54307   -88392.585    88435.839   -303.70766    35.325018 
151736000    288.57857    412.11771    388.67911   -88401.362    88450.779    23.438599     35.32321 
151740000    278.42491    248.92552    366.10353   -88401.943    88453.986   -117.17801    35.318558 
151744000    293.27613    609.87841     306.6172   -88437.612    88464.611    303.26121    35.325445 
151748000    287.91976    367.62025    413.83232   -88416.102    88445.454   -46.212073    35.331109 
151752000    272.40097    423.92228    214.89314    -88422.96    88478.133    209.02914    35.333911 
151756000     272.7001    591.13168    418.01418   -88481.612    88515.757    173.11749    35.335165 
151760000    294.98238    357.53497    427.66932    -88458.58    88505.692   -70.134349    35.345245 
151764000    250.96189    308.06625    299.95069   -88465.351    88505.579    8.1155528    35.336177 
151768000    296.05629    433.63772    406.76243   -88498.369    88542.207    26.875284    35.330341 
151772000    288.24478     422.6924    401.52172   -88496.851     88530.88    21.170679    35.338561 
151776000    286.13233    130.37847    399.55387   -88517.381     88551.69    -269.1754    35.321508 
151780000    254.92818    243.03783    220.16477   -88538.633    88590.566    22.873061    35.319078 
151784000    273.62229    173.98608    273.10212   -88561.427    88604.879   -99.116041    35.317251 
151788000    268.39299    494.66658     409.4821   -88574.477    88624.298    85.184479     35.31733 
151792000    300.11403    424.31524    319.87175   -88608.417    88638.226    104.44349    35.317843 
151796000    260.60291    152.16626    177.05033    -88605.11    88659.444   -24.884069    35.319185 
151800000    265.05516    309.13321    282.47351   -88615.123    88671.656    26.659693    35.336066 
151804000    275.90005    397.61807    296.24765   -88633.122    88664.036    101.37042    35.331437 
151808000    268.67428    403.68716    246.61259   -88615.583    88675.385    157.07457     35.32781 
151812000    291.49293    463.12593    319.71284   -88681.077    88705.268    143.41309    35.331449 
151816000    261.60148    238.65486    375.60365   -88699.029     88746.71   -136.94879    35.336657 
151820000    268.84437    250.49333    360.49171   -88722.149    88769.363   -109.99838    35.333161 
151824000    307.35949     388.5509    312.79775   -88743.638    88772.052    75.753159     35.33288 
151828000    271.26043    440.89007    162.45593   -88756.579     88807.69    278.43414    35.338691 
151832000    287.26468    632.54469    243.53042    -88793.64    88832.493    389.01427    35.343673 
151836000    291.39672     617.3254    376.11111   -88813.692    88862.526    241.21429    35.358615 
151840000    289.59296    573.94411     201.4716   -88831.364    88872.682    372.47251    35.361933 
151844000    276.40351    342.72495     237.7023   -88851.974    88876.129    105.02264    35.374377 
151848000    267.27535    199.61732     431.9223   -88870.334     88920.77   -232.30498    35.373809 
151852000    282.32084    301.23351    234.76864   -88880.427    88934.642    66.464872     35.37855 
151856000    263.69987    412.27261    243.02442   -88930.822    88973.148    169.24819    35.367833 
151860000    303.28378    433.21805     273.1876   -88962.307    88978.606    160.03046    35.373228 
151864000     314.6378    445.91526    303.92476   -88977.864      89003.8     141.9905    35.373809 
151868000    281.01318    262.41161    265.12513   -88972.192    89017.849   -2.7135247    35.365046 
151872000    288.46653    498.58501    332.76829   -88982.238    89039.911    165.81672    35.382195 
151876000    247.54123    392.63417    190.18084   -89004.805    89071.598    202.45332    35.374117 
151880000    294.19831    415.55582    364.33625   -89046.415    89091.553    51.219574    35.367616 
151884000    285.51596    272.54527    426.76683   -89047.772    89102.427   -154.22156    35.360834 
151888000     275.8414     285.4779    279.70048   -89084.853     89127.65    5.7774269    35.363694 
151892000    278.77297    150.60914    254.52214   -89114.069    89139.221     -103.913    35.365603 
151896000    306.77696    338.31787    291.35085   -89136.377    89184.497    46.967018    35.364604 
151900000    263.03781    331.93402    265.18543   -89147.888    89178.945    66.748593     35.35791 
151904000      278.852    269.27172    338.92668   -89162.725    89191.137   -69.654962    35.366452 
151908000    276.82045    294.32799     244.8003   -89199.691    89225.419    49.527694    35.367782 
151912000    312.01078    355.27678    283.42164   -89211.637    89243.007    71.855142     35.36891 
151916000    323.03917    549.54772    212.49131   -89256.441    89282.811     337.0564    35.365195 
151920000    271.72191    421.81121    352.22902   -89283.799    89320.903    69.582189     35.35781 
151924000    282.33609    272.23711    586.08885   -89293.688    89332.959   -313.85174     35.36176 
151928000    270.90038    440.12522    375.31184    -89312.55     89362.08    64.813385    35.351161 
151932000    312.97944     418.9206    333.72451   -89377.529    89406.027    85.196091    35.361275 
151936000     284.5093    332.12516    349.12118   -89384.405    89421.447   -16.996021    35.350681 
151940000    297.12569     408.6023    348.61563   -89430.034    89461.402    59.986672    35.346431 
151944000    299.63172    322.59163    390.45608   -89445.493    89459.301   -67.864441    35.333678 
151948000    290.86246    526.66428    177.74456   -89466.715     89511.01    348.91971    35.333092 
151952000    276.41455    338.17219    202.71209   -89528.704    89583.958    135.46009    35.332471 
151956000    310.17392    334.83537    247.98704    -89566.38    89577.496    86.848328     35.33533 
151960000    269.01433    345.41957    372.31874    -89564.62    89611.872   -26.899163    35.333752 
151964000      293.258    310.80368    393.41586   -89589.566    89624.755   -82.612185    35.327999 
151968000    316.57243    306.35401    444.49917   -89626.754    89646.332   -138.14516    35.330295 
151972000    301.39548    531.77368    207.13961   -89672.888    89701.911    324.63407    35.337028 
151976000    270.82335     401.0171    428.65521   -89676.451    89722.629   -27.638113    35.341451 
151980000    293.70225    266.00568    172.88905   -89718.996    89752.759    93.116637    35.339309 
151984000     267.0855    393.65308    383.08424   -89744.961    89797.432    10.568838    35.332009 
151988000    280.26057    406.88853    391.22317   -89758.858    89798.572    15.665363    35.338038 
151992000    280.47955    311.31996    205.20563   -89784.699    89845.376    106.11433    35.333402 
151996000    287.33582    391.11771    460.32593   -89823.044     89857.52   -69.208222    35.342064 
152000000    292.72606    454.39632    452.53981   -89856.274    89896.458    1.8565064      35.3375 
152004000    291.03968    329.28708    422.93879   -89889.471    89913.051   -93.651709    35.341262 
152008000    317.90513    241.66644    436.42166   -89897.993    89926.876   -194.75522    35.337717 
152012000    285.61527    144.88521    434.80893   -89905.613    89950.456   -289.92372    35.337931 
152016000    299.54275    444.36619    581.06682   -89934.861    89947.066   -136.70063    35.328609 
152020000    302.21809    471.53649    348.38489   -89938.591    89973.458    123.15159    35.326406 
152024000    266.91537    268.24332    352.33343   -89956.312     89998.36   -84.090107     35.32399 
152028000    291.20319    186.39827    343.08246   -89966.371    90009.384   -156.68419    35.325211 
152032000    278.78269    359.64723    221.29195   -89980.677    90029.067    138.35528    35.334799 
152036000    279.74707    183.90948    447.67722   -90004.122     90057.83   -263.76774    35.333562 
152040000    271.48655    405.70973    200.94064   -90034.868    90082.896    204.76909    35.330169 
152044000    281.16713    490.09181    206.87578   -90067.996    90109.172    283.21603    35.333144 
152048000    306.80979    266.57449    488.04316     -90117.5    90137.267   -221.46867    35.335592 
152052000    235.19861    255.87434    309.81258   -90148.438    90190.861   -53.938248    35.329744 
152056000      272.504    505.92888    214.92945   -90182.162    90227.159    290.99942    35.328306 
152060000    264.88911    347.80774    203.35553   -90239.447    90276.459    144.45221    35.331627 
152064000    251.72145    350.74831    180.84907   -90254.307    90300.931    169.89923    35.330333 
152068000    292.93494    444.83765    464.14001    -90274.68    90317.293   -19.302357    35.334458 
152072000    329.53826    423.93466    318.10008   -90345.088    90357.358    105.83458    35.341006 
152076000    335.81359    208.72128    358.96188   -90385.908    90388.146    -150.2406    35.341126 
152080000    301.39686      445.193    373.44871   -90429.062    90448.027    71.744291    35.350271 
152084000    338.52434    398.15542    424.06678   -90475.882    90477.921   -25.911362    35.349848 
152088000    287.80986    430.36173    307.71015   -90492.929    90552.304    122.65158     35.35452 
152092000    276.42582    332.60294    201.50686   -90535.493    90572.361    131.09608    35.356231 
152096000    280.95961    256.85541    502.55029    -90551.58    90594.272   -245.69488    35.364422 
152100000    269.64664    342.84918    353.47448   -90551.917    90609.331   -10.625297    35.372036 
152104000    315.43707    408.13307    312.46716   -90574.196    90625.568    95.665907    35.372573 
152108000    282.77476    392.95907    337.39447    -90595.75    90633.552    55.564599    35.383563 
152112000    297.09518    581.00092    336.77286   -90636.999    90673.524    244.22806     35.38289 
152116000    303.87544    325.50915    488.33897   -90648.153    90689.999   -162.82982    35.374841 
152120000    249.01851    265.20063    131.65697   -90660.355    90720.666    133.54366    35.370967 
152124000    265.62332    392.69981    235.92058   -90730.843    90776.154    156.77923    35.369875 
152128000    279.40587     554.2341    428.59057   -90767.491    90817.531    125.64353    35.370309 
152132000    285.56271    475.20869    386.64407   -90781.411    90833.805     88.56462    35.385753 
152136000    278.70212    359.21509    359.42739   -90819.784    90866.871  -0.21230145    35.383345 
152140000    281.35928    277.15438    406.00535   -90871.926    90908.705   -128.85098     35.38207 
152144000    296.73826    624.32893    265.82427   -90905.972     90942.57    358.50466    35.375875 
152148000    283.53768    263.20568    152.95539   -90949.664    90979.959    110.25029    35.379504 
152152000    304.76473    325.96022    287.81641   -90955.391     90966.12    38.143814     35.38541 
152156000    305.67152    430.19106    430.85257   -90988.819    91002.317  -0.66150653    35.384823 
152160000    281.25538    381.46697     254.3335     -91015.1    91062.833    127.13347    35.380127 
152164000    264.42239    252.75753    468.21148   -91037.843    91098.879   -215.45396     35.36664 
152168000    249.86373    340.19802    336.87273   -91064.503    91131.057    3.3252932    35.370996 
152172000    281.58738    377.75481    245.67313   -91103.624     91145.11    132.08168    35.377217 
152176000    289.15934    316.07677    298.59567   -91140.593    91195.776    17.481106    35.379095 
152180000    294.01911    328.81941    456.30731   -91191.833    91213.007   -127.48789    35.372731 
152184000    284.48255    417.88809    265.28141   -91213.772    91249.374    152.60668    35.368124 
152188000    270.64316    274.98856    265.44072   -91230.628    91283.047    9.5478391    35.366805 
152192000    279.33907    257.36972     290.9565    -91276.21    91304.853   -33.586775    35.362899 
152196000    286.18852    330.73928    450.06248   -91295.276     91331.01    -119.3232    35.361895 
152200000    287.03368    446.38876    324.34057   -91318.048    91353.911     122.0482    35.355464 
152204000    286.68772     209.7701    304.80517   -91315.517    91354.147   -95.035074     35.35863 
152208000    327.68992    425.17513    274.62184   -91329.119    91339.335    150.55329    35.359493 
152212000    286.87837    216.53129    317.91431   -91327.702    91355.318   -101.38302    35.359748 
152216000    302.10435    265.15321    411.14695   -91336.804    91368.673   -145.99375    35.353833 
152220000    265.34802    446.95244    486.36505   -91338.473    91403.835   -39.412612    35.352275 
152224000    264.23975    271.40274    263.98862   -91347.895    91380.721    7.4141195    35.357326 
152228000    259.01092    340.77118    291.96468    -91365.79    91430.018    48.806499    35.353899 
152232000    281.23785    376.68624    285.98934    -91413.39    91455.112    90.696897     35.34709 
152236000    277.96817    297.23331    392.45781   -91431.256    91467.884   -95.224497    35.349589 
152240000    270.78623    433.66963    443.98683   -91414.969    91465.652   -10.317206    35.354998 
152244000    282.66615    433.03407    258.41658   -91431.907    91464.625    174.61748     35.36304 
152248000    275.57571    307.58563    286.72855   -91425.146    91478.634    20.857081    35.363008 
152252000    288.06088    230.49898    213.81388   -91439.414    91480.896    16.685096    35.362048 
152256000    309.61495    763.44155     342.0614   -91456.578    91469.544    421.38016    35.366635 
152260000    292.63716    465.74333    435.07169   -91443.103     91496.18    30.671649    35.359806 
152264000    268.80626    330.30684    354.13147   -91455.083    91506.009   -23.824631    35.362162 
152268000    293.63664    358.14479    326.89934   -91504.835    91540.145    31.245451    35.359542 
152272000     296.8578    317.65829    233.40317   -91522.378    91564.701    84.255123    35.342701 
152276000    302.50782    223.02977    326.72632   -91551.322    91576.913   -103.69655    35.340942 
152280000    289.58297    373.11241    341.87895   -91573.165    91606.741     31.23346    35.344236 
152284000    304.58582    380.63828    348.20829   -91578.418    91603.551    32.429982    35.352105 
152288000    288.37745    261.38595      219.378   -91604.395    91632.283     42.00795    35.349113 
152292000    275.86547    327.13148    375.63117   -91645.239    91696.822   -48.499684    35.354076 
152296000    263.09505    291.67744    354.47628    -91644.24    91691.501   -62.798837     35.35659 
152300000    290.20575    509.23692    293.87341   -91670.453    91710.048    215.36351    35.350635 
152304000    278.75569    367.04072    453.69807   -91698.481    91744.751   -86.657351     35.33993 
152308000    277.55533    199.61144    192.89128   -91724.762    91771.466    6.7201532    35.345294 
152312000    278.55675    436.21898      387.967   -91740.792    91775.709    48.251981    35.337229 
152316000    296.15087    358.98675    364.54232   -91748.853    91793.605   -5.5555766     35.34121 
152320000    281.20476    281.17198    453.48897    -91760.64    91814.507   -172.31698    35.336972 
152324000    274.28363    349.74836       256.62    -91778.98    91830.592     93.12836    35.334445 
152328000    283.52123    354.02282    460.89087    -91788.77    91815.425   -106.86805    35.334166 
152332000     304.4696    277.94533    348.87398   -91801.349    91844.701   -70.928645    35.324875 
152336000    286.20574    312.54486    242.62835   -91843.309    91879.751    69.916513    35.332628 
152340000    270.42851    315.08155    286.95382   -91873.925    91912.309    28.127732    35.345021 
152344000    264.67266    270.98751    435.11935   -91892.966    91928.489   -164.13184    35.341685 
152348000    296.21772    602.45033    288.75736   -91917.503    91945.794    313.69297    35.356184 
152352000    260.88479    319.97606    216.20283   -91930.234    91972.265    103.77323    35.353169 
152356000    280.68002    347.89507    385.48915   -91965.163    92016.138   -37.594078    35.346727 
152360000     281.3735    335.40221    373.48282   -91980.381    92030.699   -38.080605    35.343222 
152364000    262.75577    268.69023     327.8482   -91992.367    92046.536   -59.157971    35.342447 
152368000    267.18476    320.52791    327.36136   -91990.309    92057.073   -6.8334568    35.344952 
152372000    286.59939    487.70878    313.44694   -92028.659    92070.784    174.26185    35.356077 
152376000    276.40358    429.12088    335.93141   -92057.665    92084.016     93.18947    35.348365 
152380000    299.88345    272.75032    433.44716   -92096.936    92110.812   -160.69684    35.352367 
152384000    273.57283    276.29591    506.63271   -92100.351    92129.972    -230.3368    35.357576 
152388000    273.46968    205.07781     318.6034   -92129.596    92176.838   -113.52559    35.355561 
152392000    303.59406    332.82841    185.21483    -92174.53    92211.374    147.61357    35.353774 
152396000    300.45739    347.01511     285.2742   -92204.596    92223.966    61.740907    35.347888 
152400000     286.3503    275.32198    510.89366   -92230.274    92268.886   -235.57168    35.350764 
152404000    296.61173    516.95939     155.7212   -92273.142     92304.64    361.23818    35.355096 
152408000    282.25428     350.8419    361.23391   -92293.644    92330.327   -10.392009    35.356842 
152412000    246.14328    195.07354    225.18482    -92303.82    92369.593   -30.111281    35.364905 
152416000    268.01401    274.04523    207.02065   -92322.106    92379.326    67.024581    35.374085 
152420000    284.67115    322.90341    378.19311   -92342.306    92391.821   -55.289709    35.363659 
152424000    277.40724    480.61259    454.79929   -92361.192    92407.741    25.813296     35.35481 
152428000    258.72202    313.23283     322.6751   -92395.351    92441.802   -9.4422732    35.362726 
152432000    298.72668    545.34401    250.81931   -92431.074     92459.79     294.5247    35.366214 
152436000    319.53915    342.33605    280.49735   -92485.683    92528.438    61.838696    35.376612 
152440000    325.60958     470.4569     419.3341   -92537.297    92552.178    51.122806    35.378614 
152444000    272.96134     257.8576    233.96919   -92575.146    92620.264    23.888411    35.382301 
152448000    282.18591     256.0361    293.04819   -92612.583    92668.407   -37.012088     35.38799 
152452000     301.6397    230.72545    255.27045   -92633.911    92669.033   -24.544999    35.393568 
152456000    298.97149    530.10141    176.00798   -92657.543    92674.384    354.09343    35.399204 
152460000    270.20164    294.51663    318.83796   -92660.368    92709.689   -24.321325    35.390704 
152464000    273.41993    347.02014    289.20084   -92664.211    92718.524    57.819304    35.392085 
152468000    289.67733    312.08291    600.45322   -92672.598    92717.112   -288.37031    35.389877 
152472000    281.43488    282.40797    325.87804   -92686.483    92753.416    -43.47007    35.379333 
152476000    257.41043    362.24403     337.8725   -92717.203    92783.853    24.371525    35.377829 
152480000    286.35072    196.74597    191.42004   -92773.182    92824.752    5.3259338    35.375767 
152484000    306.96197    669.11421     335.1399   -92814.104    92839.815    333.97431    35.383526 
152488000    293.60037    317.01883    455.07074   -92838.414    92874.927   -138.05191    35.389472 
152492000     253.9926    362.39177    267.47069   -92854.311    92920.788     94.92108    35.400031 
152496000    259.03447    399.90348    375.59357   -92868.579    92940.175    24.309913    35.409791 
152500000    294.20407    535.06079    334.22229   -92897.961      92949.9     200.8385    35.416307 
152504000     268.1738    219.04342     260.1067   -92899.201    92940.938   -41.063279    35.426794 
152508000    287.78141    441.88585    353.67886   -92930.442     92978.41    88.206986    35.421853 
152512000    301.74969    197.23997    185.72173   -92950.072    92990.531    11.518242    35.430419 
152516000    285.65054    302.02304    286.90962   -92979.177    93020.146    15.113416    35.444244 
152520000    310.40067    414.31839       290.57   -93024.166    93051.441    123.74838    35.442697 
152524000    276.36544    403.53609    220.29922   -93039.445     93068.05    183.23688    35.448097 
152528000     292.4337    319.30016    393.40189   -93064.634    93087.531   -74.101731     35.44666 
152532000    288.54265      398.056    231.27216   -93068.539    93092.116    166.78383    35.444411 
152536000    276.58737    334.39987    424.53174   -93088.207    93139.477   -90.131868    35.436703 
152540000    265.25891    483.80282    258.12063    -93115.54    93170.026    225.68219    35.436779 
152544000    299.22112     250.7392    585.53971   -93142.376    93186.348   -334.80051    35.426759 
152548000    275.67207    561.57207    313.93082   -93174.214    93215.353    247.64126    35.428844 
152552000    276.98736    417.30804    154.43295   -93199.943    93240.277    262.87509    35.436621 
152556000    281.86974    360.24706    581.37336   -93185.026     93237.73    -221.1263    35.438136 
152560000     272.1027    295.98226    374.03653   -93206.515    93257.035   -78.054273    35.429413 
152564000    267.92073    547.67567    283.60926   -93244.363    93288.025    264.06641    35.432538 
152568000    297.90184    405.81277    232.34578   -93285.575    93324.581    173.46698    35.427791 
152572000    293.07966    212.10747    695.46298   -93322.065    93338.369   -483.35551    35.417433 
152576000    286.41907    411.87905    234.53796   -93339.408    93380.932    177.34109     35.41621 
152580000    321.64966    469.01596    334.42257   -93367.877    93393.853    134.59338    35.419803 
152584000    299.66221    184.43925    393.93044   -93374.924    93417.218   -209.49118    35.413444 
152588000    288.13435    540.02426    288.06264   -93369.608    93417.947    251.96162    35.413173 
152592000    295.44139    320.62135    303.62416   -93408.165    93429.334    16.997192    35.414163 
152596000    274.50187    317.82776     327.3763   -93411.479    93443.172   -9.5485443    35.408887 
152600000    278.41703    282.68187    322.62457   -93400.822    93450.446   -39.942698    35.404689 
152604000    272.01622    323.32344    240.15996   -93431.508    93466.283    83.163474     35.40632 
152608000    277.62549    519.87638      273.117   -93462.048    93512.968    246.75938    35.407762 
152612000    306.47428    445.61604    277.31237   -93497.114    93510.188    168.30366    35.406902 
152616000    280.82456    290.46969    259.29558   -93509.964    93539.325    31.174113    35.408589 
152620000    326.49493    430.26543    273.50778   -93551.025    93568.042    156.75766    35.414769 
152624000    288.78204    326.90159    353.98794   -93564.731    93599.287   -27.086351    35.403342 
152628000    275.30828    349.55534     245.1203   -93576.764    93615.167    104.43505    35.398082 
152632000    285.07755    435.38388    340.24742   -93601.415    93644.715    95.136465    35.399554 
152636000    248.99468    346.19725    244.74377   -93599.941    93648.943    101.45348    35.409434 
152640000    304.04693    368.97642    332.57292   -93647.736    93677.251    36.403495    35.410481 
152644000    319.56912    480.49039     316.4832   -93704.584    93709.152     164.0072    35.411934 
152648000     253.9792    482.22718    343.00976   -93698.905    93775.344    139.21742     35.41559 
152652000     286.1066    398.76913    265.96759   -93714.173    93779.073    132.80154    35.409062 
152656000    267.14924    221.69747    400.30271   -93719.021    93786.585   -178.60525    35.408015 
152660000    249.54354    352.32992    388.61795   -93749.517     93808.71   -36.288033    35.411481 
152664000    303.77506    395.28891    437.68896   -93762.366    93790.722    -42.40005    35.406146 
152668000     276.3949     498.9944    418.78208   -93771.533    93817.346    80.212319    35.408349 
152672000     289.7211    274.56317    274.07514   -93800.843    93838.272    0.4880364    35.410925 
152676000     282.1328    580.15358    144.52657   -93840.504    93883.537    435.62701    35.410986 
152680000    266.94725    431.87948    281.50406   -93860.061    93908.157    150.37541    35.405565 
152684000    260.55373    293.90525    335.08423   -93879.373    93916.961   -41.178972    35.414552 
152688000    295.41968    401.85624    199.64954   -93920.215    93950.266     202.2067    35.414395 
152692000    316.87551    313.16532    482.96697   -93943.726     93963.78   -169.80165    35.415908 
152696000    275.41163     244.1194    282.40789   -93941.173    93983.656   -38.288486    35.406854 
152700000     277.4367    195.42327    296.94411   -93970.482    94023.265   -101.52084    35.410909 
152704000    278.65291     361.2471    363.83361    -94005.02    94044.006   -2.5865146    35.416693 
152708000    311.08355    296.79714    636.49586   -94016.461    94029.462   -339.69872    35.420128 
152712000    296.34715    242.12076    314.27261   -94021.127    94056.466   -72.151856    35.416455 
152716000    274.05046    127.83444    274.99181   -94027.034    94076.547   -147.15736    35.409359 
152720000    250.49886    275.05206    430.52553   -94055.739    94114.432   -155.47347    35.404342 
152724000    273.78358    402.07909    247.23814   -94095.314    94148.033    154.84095    35.402004 
152728000    236.82774    397.89418    375.54676   -94097.153    94164.893    22.347428    35.392413 
152732000    274.61332    168.25388    347.04478   -94148.878    94190.749    -178.7909    35.388546 
152736000    284.24724    295.76757    410.77168   -94168.972    94222.977   -115.00411    35.386493 
152740000    292.55953    478.09215    163.06442   -94211.855    94247.843    315.02773    35.386114 
152744000    292.46204    518.08403    264.93292   -94242.972    94270.391    253.15111    35.387843 
152748000    283.45438    278.12973     330.9105   -94229.732    94276.183   -52.780768    35.399404 
152752000    266.69887    282.33298    292.13018   -94250.699    94315.153   -9.7971979    35.400518 
152756000    294.18796    421.38867    396.19135   -94294.936    94332.133    25.197324    35.402172 
152760000    314.39398    491.01124    353.20285   -94326.562    94345.056    137.80838     35.40261 
152764000    279.04053    207.45114    173.83878   -94336.813    94366.675    33.612369    35.404064 
152768000    262.58662    209.44247    323.47539   -94331.714    94377.916   -114.03293    35.397039 
152772000    273.20558    436.07544    214.30622   -94347.325    94398.324    221.76922    35.399837 
152776000    272.40007    480.51229    226.14021   -94346.791    94380.489    254.37208    35.401476 
152780000    267.19628    294.24878    256.01342   -94349.452     94392.79     38.23536    35.402772 
152784000    297.61507    371.97924    474.04667   -94389.841    94429.896   -102.06743    35.401711 
152788000    281.30787    621.23804    364.75258   -94411.889     94465.74    256.48546    35.397479 
152792000    266.07816     687.7825    348.26649    -94435.07    94482.346      339.516    35.400265 
152796000    278.64066    316.93804    378.94549   -94471.494    94518.856   -62.007452    35.397305 
152800000    279.43452    269.17118    494.70205   -94506.476    94539.283   -225.53087    35.397559 
152804000    279.12147    248.14416    206.84103   -94531.797     94585.68     41.30313    35.395879 
152808000    246.14765    266.84041    343.46746   -94526.207    94592.693    -76.62705     35.39816 
152812000    319.55382    387.62151    395.57858   -94581.698    94601.482   -7.9570709    35.403845 
152816000    283.62047     517.9757    296.59941   -94580.851    94626.281    221.37629     35.39932 
152820000     300.3117    421.03172    392.39946   -94600.846    94634.134    28.632256    35.407902 
152824000    309.36819    497.52088    295.59949   -94636.377     94651.34    201.92139    35.410516 
152828000    302.98965    451.94102    222.98803    -94624.28    94666.615    228.95298    35.414321 
152832000    279.00762     226.3135    296.96549   -94646.901     94688.49   -70.651985    35.419142 
152836000    248.23682    378.20119    206.65043   -94641.078    94705.721    171.55076    35.409677 
152840000    303.04337    697.71416    307.13762   -94676.441    94728.111    390.57654    35.419151 
152844000    266.51243    349.35026    270.07176   -94681.406    94750.076    79.278507    35.408906 
152848000    287.11967    543.17172    260.12551   -94726.278     94767.25    283.04622    35.404014 
152852000    258.36515    432.30549      195.398   -94747.151    94802.372    236.90749    35.400482 
152856000    295.28099    423.21534    376.20658   -94761.689    94787.232    47.008759    35.388452 
152860000    277.88952    180.76852     179.4192   -94786.192    94820.265    1.3493236     35.37775 
152864000     306.6377    413.24234    266.35307   -94780.506    94827.831    146.88927    35.378425 
152868000    274.78466     409.7514    385.69319   -94790.921    94820.915    24.058217    35.377503 
152872000    295.38229    481.70017    284.42928   -94787.447    94828.925    197.27089    35.374628 
152876000    306.74298    247.34459    208.52028   -94821.444    94856.073    38.824305     35.37998 
152880000    282.17712    398.03495    201.40648   -94830.762    94869.385    196.62847    35.383794 
152884000    293.53547    324.19603    398.92931   -94860.482    94904.835   -74.733282    35.390816 
152888000    281.04551    355.18698    574.61478   -94874.765    94918.032    -219.4278    35.388793 
152892000    261.66834    381.97489    305.84924   -94872.544    94929.147    76.125654    35.395348 
152896000    305.15651    430.33737    243.44693   -94871.086    94909.088    186.89045     35.38853 
152900000    300.74236    481.83978    280.08925   -94906.252    94934.109    201.75053    35.389209 
152904000    269.78264    314.25321    348.76381   -94920.084    94972.922   -34.510609    35.382474 
152908000    311.23082    493.75958    284.03105   -94968.099    95000.091    209.72853    35.384673 
152912000    294.17828    386.27592    316.23451   -94994.111     95025.33    70.041414     35.37866 
152916000    309.97421    360.42684    260.79406   -95024.192     95058.15    99.632783    35.383886 
152920000    270.89865    360.08992    453.21538   -95074.316    95123.917   -93.125454    35.383412 
152924000    265.80194    487.65553    323.39061   -95086.052    95151.945    164.26492     35.38489 
152928000    273.97879    398.50113    457.03634   -95132.944     95168.39    -58.53521    35.376931 
152932000    276.51722    228.93895    352.61749    -95158.94    95209.615   -123.67854    35.373043 
152936000    300.67021    398.59918    428.79967    -95191.51    95205.067   -30.200488    35.375586 
152940000    328.07398    544.19019    308.97708   -95234.101    95256.148    235.21312    35.377207 
152944000    257.44685    332.96465    308.37072   -95202.632    95261.146    24.593927    35.371077 
152948000    274.33926    411.04773    386.31662   -95238.539    95285.967    24.731115    35.376413 
152952000    292.58365    364.56775    308.99953   -95272.384    95305.987    55.568218    35.369732 
152956000       254.53    406.02809    182.74133   -95269.994    95338.646    223.28676    35.363083 
152960000    274.44132    410.11188    234.55716   -95297.666    95361.334    175.55473    35.362938 
152964000    277.96617    255.77524    396.11517   -95344.966     95383.55   -140.33993    35.367148 
152968000    254.79669    234.04778    195.79687   -95370.071    95417.033    38.250911    35.368625 
152972000     301.6783    561.73633    211.19059   -95389.553    95414.471    350.54574     35.37103 
152976000    294.00317    272.45908    431.04278   -95391.113    95405.632    -158.5837    35.367447 
152980000     286.0126    464.27873    405.62429   -95396.905    95434.772     58.65445    35.362802 
152984000     271.9841    417.83055     327.8247   -95420.702    95472.675    90.005853    35.360802 
152988000    287.76794    358.10841    461.61456   -95459.293    95488.988   -103.50615    35.366036 
152992000    328.23157    541.16599    297.14629   -95496.585    95502.435    244.01969    35.362925 
152996000    283.29608    559.34718     416.7024   -95515.878    95545.117    142.64479    35.363404 
153000000    302.00454    522.54071    327.00231   -95532.279    95572.942    195.53839    35.360031 
153004000    266.50979    247.56518    341.91098   -95554.257    95609.793   -94.345791    35.351994 
153008000    296.73619    312.19161    343.30068   -95626.093    95664.863   -31.109075    35.345196 
153012000    300.26894    317.06452    312.53183   -95658.728    95684.854    4.5326965     35.35106 
153016000    307.38743    433.64714    362.92943   -95682.164     95681.43    70.717715    35.347591 
153020000    283.53759    215.23002    503.04224   -95664.887    95706.671   -287.81222    35.345799 
153024000    275.70877    556.00743    363.78286   -95704.475    95762.906    192.22457    35.346953 
153028000    271.14834    679.77089    325.22173    -95755.31    95802.289    354.54916    35.348708 
153032000    312.07319    429.68698    331.75293   -95772.247    95805.843    97.934045    35.343873 
153036000    268.55132    245.00751    271.38927   -95768.345    95828.012   -26.381767    35.347085 
153040000     292.6762     518.7841    169.32078   -95829.461    95852.708    349.46332    35.342585 
153044000    302.67587      377.091    541.68107   -95809.084    95853.467   -164.59007    35.346571 
153048000    286.77564    341.64237    366.71774   -95827.887    95867.967   -25.075364    35.343365 
153052000    284.89779     282.0984    429.30124   -95845.036    95886.222   -147.20284     35.34595 
153056000    283.10142    507.62304    372.47372    -95877.48    95896.639    135.14932      35.3474 
153060000    271.78455    461.85888    430.86691   -95888.252    95921.519    30.991971    35.348494 
153064000     275.0298    436.47828    307.71172   -95899.363    95953.401    128.76655    35.345684 
153068000    286.03483    239.71604    245.94422   -95920.337    95956.414   -6.2281784    35.335458 
153072000    285.71138    506.85653    253.15404   -95929.076    95972.474    253.70249    35.336975 
153076000    254.46193    354.13775    366.60104   -95916.549    95968.218   -12.463293    35.341345 
153080000    258.21764    215.66811    166.21224   -95965.805    96023.262    49.455871    35.337452 
153084000    299.65265    334.97338     363.5944   -95998.118    96035.401   -28.621014    35.327432 
153088000    293.82701    333.18239    336.41172   -96033.285    96063.079   -3.2293331    35.333748 
153092000    258.95108    433.73332    226.70934   -96048.627    96108.241    207.02398    35.335047 
153096000     263.3405    311.94503    401.11755    -96058.81    96117.729   -89.172513     35.33351 
153100000      283.808    374.82868    348.68634   -96094.636      96138.2    26.142344    35.327017 
153104000    271.47611    304.87618    213.36856   -96128.018    96167.224    91.507628    35.327518 
153108000    307.05614    573.76127    268.47943   -96162.044     96193.25    305.28184    35.330707 
153112000    279.38364    294.36563     246.5872   -96162.121    96207.641    47.778425    35.328847 
153116000    262.13227    606.38157    223.90383   -96158.857    96219.826    382.47774    35.330976 
153120000    282.70026    452.02342    266.75146   -96174.477    96225.816    185.27196    35.329035 
153124000    282.57407     208.7565    274.14992   -96192.108    96239.823   -65.393412    35.323329 
153128000    284.60929    375.96254    369.85981   -96222.215    96248.484    6.1027335    35.321868 
153132000    307.75354    361.59688    357.19562   -96241.311    96271.564    4.4012638    35.317646 
153136000    281.34138    351.69052    238.65606   -96277.054    96313.714    113.03446    35.315868 
153140000    309.16331    439.55276    196.87103   -96310.752    96348.984    242.68172    35.314117 
153144000    265.40774    253.39408    245.96434   -96306.915     96368.45    7.4297373     35.31229 
153148000    295.46029    405.40259    341.65302   -96350.627    96390.078    63.749564     35.31663 
153152000    287.19876    286.12049    414.28455   -96361.668    96410.774   -128.16406    35.313129 
153156000    276.48513    420.92435    352.67806   -96369.237    96411.136    68.246297    35.304868 
153160000     302.2312    298.43614    360.29988    -96405.31    96437.171   -61.863736    35.315543 
153164000     279.1339    253.26619    186.30464   -96437.426    96476.681    66.961546    35.309936 
153168000    278.76548    357.44917    235.97964   -96465.305    96506.575    121.46953    35.328976 
153172000    272.65763    536.85791    350.49306   -96490.135    96518.978    186.36485    35.321061 
153176000    275.67479    405.68618    467.18832   -96495.747    96529.708   -61.502139    35.333184 
153180000    329.16946    597.66566    335.06121   -96535.917    96554.699    262.60445    35.336109 
153184000    313.94098    380.13517    202.43234   -96563.643    96582.844    177.70283    35.336597 
153188000    292.42943     423.7736    320.16561   -96607.933    96631.002    103.60799    35.332156 
153192000    313.99089     613.1731    277.11478    -96633.06    96660.476    336.05832    35.327093 
153196000    291.36927    407.76476    305.14586   -96629.329    96662.388     102.6189    35.331901 
153200000    351.27994    487.53414    498.10773   -96651.314    96656.625   -10.573589    35.343228 
153204000    309.15171    306.78945    286.43097   -96650.763    96669.633    20.358481    35.338336 
153208000    297.27452    217.60549    438.13541   -96664.012    96690.818   -220.52992    35.341159 
153212000    259.10073    400.54098    431.54898   -96657.481    96721.824   -31.007999    35.347105 
153216000    283.34181    329.88321    197.45096   -96689.578    96716.601    132.43226    35.343532 
153220000    287.29551    445.09376    283.18203   -96710.378    96756.072    161.91174     35.34335 
153224000    263.72368     398.4922    342.00482   -96727.547    96786.057    56.487377     35.34507 
153228000    292.92109    271.35806    254.58648   -96737.412    96784.836    16.771588     35.34256 
153232000    254.74393    400.47895    241.44871   -96736.752    96817.327    159.03024    35.340534 
153236000    251.86124    299.61604    312.07178    -96769.86    96829.746   -12.455735    35.338208 
153240000    274.21882    374.48449    283.28433   -96794.302    96834.217    91.200158    35.337009 
153244000     260.3975    369.45527    350.52128   -96801.833    96861.221    18.933994    35.337937 
153248000    285.79919    266.18673    237.47808   -96846.285    96881.303    28.708643    35.341068 
153252000    263.13796    317.12237    272.98625    -96846.32    96904.148    44.136123    35.325667 
153256000    296.79727    446.40858    316.83074   -96886.867    96910.312    129.57784    35.326682 
153260000    275.58222    314.84329     293.8129   -96915.601    96942.704    21.030388     35.32383 
153264000    315.09034    495.31386      347.352   -96944.206    96975.313    147.96186    35.329256 
153268000    283.95057    320.27484    433.02591   -96939.316    96990.658   -112.75107     35.32899 
153272000    295.27511    614.12655    355.13818   -96950.438    96993.759    258.98836    35.324318 
153276000    290.24037    285.93566    235.55728   -96966.805    97010.701    50.378381    35.318845 
153280000    276.72791    501.31527    458.31638   -96975.192    97021.322    42.998884    35.329581 
153284000     276.1337     360.4499     281.8579   -97002.362    97039.905    78.591995     35.33519 
153288000     274.3423    342.62911    271.45643   -97007.807    97054.246    71.172683    35.332445 
153292000    280.06958    290.11868    338.03584   -97001.152    97056.436   -47.917159    35.331343 
153296000    267.46892    528.08028    410.27612   -97020.928    97081.321    117.80416    35.332758 
153300000    297.17008    431.90999    297.49491   -97058.901    97097.512    134.41508    35.344217 
153304000    276.58165    341.15004    423.70047   -97080.187    97131.724   -82.550429    35.345485 
153308000     311.0001    467.04436    354.00865   -97125.153    97135.692    113.03571    35.345115 
153312000    274.58315    438.63409    352.40544   -97144.294    97181.925    86.228652     35.34465 
153316000    235.32016    317.48723    203.81982   -97176.078    97238.124    113.66741    35.341412 
153320000    286.75258    252.39071    286.16691   -97204.213    97221.322     -33.7762    35.344189 
153324000    325.06623    415.09484    270.60899   -97221.543    97237.555    144.48585    35.337895 
153328000    289.74041    332.26552    337.35913   -97250.287    97289.599   -5.0936078    35.334311 
153332000    318.49161    489.78314    593.96306   -97294.693     97311.41   -104.17992    35.327292 
153336000    288.18223     306.9232    279.62794   -97302.706     97348.38    27.295262    35.325507 
153340000    263.11663    161.10207    203.71598   -97333.069     97383.97    -42.61391    35.325093 
153344000    292.38906    365.72754    329.55012   -97345.656    97395.249    36.177416    35.325269 
153348000    290.73753    236.43679    498.22748   -97367.268    97404.398   -261.79069     35.33325 
153352000    282.15783    442.85178    337.56911   -97373.167    97418.037    105.28267    35.333622 
153356000    270.30847    303.22904    476.55285       -97379    97432.329   -173.32382    35.325159 
153360000    275.52851    198.03423    365.53901   -97385.367    97456.444   -167.50478    35.322258 
153364000    316.76738    627.78959     408.6452   -97447.197    97463.942    219.14439    35.317074 
153368000    288.61785    340.68538    430.25929   -97474.329    97510.064   -89.573909     35.30975 
153372000    268.28748    532.43728    230.60868   -97505.038    97535.064     301.8286    35.304641 
153376000    274.11899     212.0833    255.89129   -97513.783    97576.945   -43.807989    35.300409 
153380000    266.45965    326.46053    366.19666    -97541.89    97596.271    -39.73613    35.305273 
153384000    284.74205    310.07508    381.17737   -97575.561    97614.867   -71.102291    35.290327 
153388000    280.95844    238.49149    249.22905   -97610.562      97647.4    -10.73756    35.293427 
153392000    268.68245    379.59621    241.71245   -97634.751    97683.487    137.88376    35.295311 
153396000    259.31174    273.23423    268.08792   -97652.632    97722.425    5.1463082    35.295166 
153400000    294.23864    500.90375    286.16224   -97681.344     97724.87    214.74151     35.30175 
153404000    264.77131    205.34561    267.73054   -97713.975    97747.341    -62.38493    35.305356 
153408000    277.86393    407.28767    276.19245   -97742.951     97773.22    131.09522    35.306032 
153412000    273.89814    343.22137    313.07377   -97763.119    97798.462    30.147594    35.305651 
153416000    284.41405    431.07971    354.09756   -97786.612    97831.033    76.982149    35.303808 
153420000    297.76413    588.50558    263.82614   -97820.404    97849.798    324.67944    35.302239 
153424000    277.39433    384.06246    452.50921   -97827.901    97863.236   -68.446752    35.301002 
153428000    258.79607    311.33717     252.5693   -97850.063    97894.035    58.767867    35.296659 
153432000    281.93363     324.9726    302.46964   -97861.675    97914.972    22.502956    35.293329 
153436000    256.84525    234.64689    421.92113   -97887.937    97935.239   -187.27424    35.291895 
153440000    279.48288    552.95817    324.97981   -97930.106    97965.865    227.97836    35.299264 
153444000    310.86463    562.63108    183.92063   -97964.769     98001.61    378.71045    35.306849 
153448000    275.14512    415.60983    308.43118   -97969.378    98005.397    107.17864     35.30161 
153452000    285.68487    164.33738    338.63193   -97997.795    98038.202   -174.29455     35.30026 
153456000    299.29016    331.39709    364.34548   -98020.369    98056.743   -32.948384     35.30242 
153460000    261.45932     352.3633    236.08729   -98021.491    98077.724    116.27602    35.304788 
153464000    292.39362    411.71755    388.88296   -98069.211    98101.152    22.834594    35.309419 
153468000    253.81445    313.38951    350.49518   -98076.487    98139.563   -37.105661    35.306345 
153472000    269.61866    399.19552    203.22331   -98115.323    98179.432    195.97221    35.302597 
153476000    265.34364    178.90101    173.79564   -98129.069    98196.359    5.1053709    35.307835 
153480000    281.60869    522.86274    242.06958   -98150.702    98194.016    280.79316    35.309133 
153484000    289.71717    467.63671    355.78539   -98181.329    98228.676    111.85132    35.319566 
153488000    301.35386    508.19586    337.57591   -98203.876    98244.279    170.61995    35.327842 
153492000    287.22444     429.5922    315.32594    -98219.33    98264.945    114.26626    35.328454 
153496000    277.58543     425.8856    288.92357   -98237.105    98273.518    136.96204    35.336373 
153500000    249.97399    393.31725    280.69258    -98233.17    98303.403    112.62467    35.340605 
153504000    260.44509    367.48427    282.47185   -98256.585    98332.326    85.012416    35.341615 
153508000    266.81438     379.1749    266.29681   -98316.245    98358.995    112.87809    35.336581 
153512000    319.25659    295.25984    261.20392   -98342.345    98365.176    34.055923    35.340684 
153516000    279.05838    358.36158    254.62125    -98385.65    98408.038    103.74033    35.340668 
153520000    287.79434    463.51608    463.42584   -98409.073    98457.783   0.09023182    35.342107 
153524000    300.87047    415.82382    181.20553   -98431.172    98466.941    234.61829    35.344955 
153528000    309.24688    341.93593    460.08818   -98442.388    98463.675   -118.15225    35.354578 
153532000    295.38278     273.2982    259.50544   -98438.189     98472.65    13.792754    35.364321 
153536000    248.88503    238.77853    281.24942    -98429.47    98490.149   -42.470886    35.370436 
153540000     268.7431    426.46166     443.9759   -98457.564    98517.499   -17.514241     35.37456 
153544000    322.43769    389.08599    619.90549   -98510.614    98526.645    -230.8195    35.366395 
153548000     251.7508    295.28564    270.44663   -98507.928    98570.273    24.839009    35.370249 
153552000    261.99685    176.12247    374.26902   -98521.534    98586.138   -198.14654     35.36824 
153556000     278.4768    384.95942    266.14795   -98558.545    98604.328    118.81147      35.3752 
153560000    267.59196    278.84978    254.04525   -98573.505    98619.733    24.804521    35.373702 
153564000    271.19385    216.47525    356.27237   -98571.432    98617.668   -139.79712     35.37686 
153568000    287.21212    495.45104    259.22889   -98591.087    98639.653    236.22215    35.369403 
153572000    291.95994     429.3272    342.84967   -98639.771    98687.969    86.477534    35.367821 
153576000    286.31179    325.04487    219.41838   -98672.038     98719.32    105.62649    35.367931 
153580000    277.71389     343.2977    384.62548   -98715.924    98754.008   -41.327778    35.356519 
153584000    293.28023    305.47321    297.82055   -98720.823    98750.758    7.6526571    35.356599 
153588000    293.33566    492.51154    106.67014   -98724.318    98747.546    385.84141    35.358567 
153592000    284.22765    530.88078    268.11354   -98757.043    98798.236    262.76723    35.358801 
153596000    295.93146    367.35735    274.86069   -98800.778    98820.146    92.496651     35.36164 
153600000    260.50568    381.76574     155.9177   -98802.218    98859.363    225.84804     35.35854 
153604000    290.37172    367.29015    423.32804   -98809.873     98846.17   -56.037892    35.357345 
153608000    302.48864    297.82022    353.64305   -98830.628    98856.101   -55.822827    35.362479 
153612000    287.05402    210.81678    339.11845    -98850.62    98910.698   -128.30167    35.366214 
153616000    281.98533    267.07246    140.79813   -98874.221    98920.727    126.27433    35.364906 
153620000    282.87658    177.79548    426.76481   -98902.591     98944.53   -248.96933    35.361272 
153624000    295.39909    371.56018    258.83939   -98913.203     98952.99    112.72079    35.361367 
153628000    269.34624    168.98824    435.53835   -98923.372    98979.541   -266.55012    35.371143 
153632000    307.60266    464.31702    333.77007   -98967.797    98979.309    130.54694    35.366463 
153636000    313.08328    392.84527    616.88227   -98943.633    98978.257   -224.03701    35.360105 
153640000    300.79436    512.23662    561.82305   -98992.206    99019.335   -49.586432    35.361882 
153644000    289.68232     387.6997      266.581   -98997.661    99038.833     121.1187    35.363645 
153648000    283.96646    412.46178    397.94915   -99011.752    99052.778    14.512636    35.366702 
153652000     264.7751    337.34429    379.61023   -99006.146    99064.749   -42.265943    35.363977 
153656000    282.40584    447.65757    393.97109   -99035.474    99080.185    53.686479    35.364318 
153660000    304.87379    416.43837     291.9917   -99082.258    99081.899    124.44666    35.363118 
153664000    287.89903    464.03531    379.13427   -99085.429    99127.235    84.901034    35.361937 
153668000     256.7435    284.00824     244.4661   -99106.616    99149.584    39.542139    35.367683 
153672000    281.49136    511.80406    342.06552    -99145.56    99182.123    169.73855    35.368742 
153676000    256.86871    345.38697    287.68565   -99145.424    99192.042    57.701315     35.36314 
153680000    294.80322     247.4395    188.01952   -99155.818    99193.874    59.419979    35.363454 
153684000    284.80763    424.23721    421.04465   -99197.146    99239.298    3.1925604     35.37056 
153688000     266.2529    317.44588    284.60745   -99195.122    99265.097    32.838431    35.374016 
153692000    256.36955     345.0173     258.0535   -99228.159    99288.417    86.963797    35.371511 
153696000    310.82574    471.91256     533.7124   -99238.328    99280.711   -61.799836    35.372727 
153700000    292.90208     368.6336    335.38945   -99252.635    99302.809    33.244146    35.371615 
153704000    271.84167    208.37501    326.81294   -99242.803    99295.339   -118.43792    35.379294 
153708000    279.33752    464.97633    254.79267   -99266.944    99322.924    210.18366    35.380066 
153712000    302.56657     224.5845    358.78951   -99296.573    99309.521   -134.20501    35.387429 
153716000    317.80926    429.89111    198.49589    -99313.75    99333.102    231.39521    35.389234 
153720000    305.83543    222.94571    345.25638   -99326.087    99368.403   -122.31067    35.397276 
153724000    289.47201    336.41937    595.76756   -99344.022    99382.564   -259.34819    35.398892 
153728000    300.92889    531.47476    394.49501   -99375.582    99425.979    136.97976    35.396504 
153732000    278.12017    249.51873    363.59364   -99403.568    99448.651   -114.07492    35.391439 
153736000    290.30326    404.84802    212.09608   -99427.982    99465.489    192.75194    35.391226 
153740000    243.89212    374.67305    220.66932   -99410.297    99486.908    154.00373    35.392849 
153744000    265.83347    343.11069    293.75053     -99453.1    99495.648    49.360162    35.393204 
153748000     271.5976    388.90341    304.20034   -99486.084    99529.593    84.703071    35.391582 
153752000    296.07948    417.16579    386.57129   -99501.914    99549.236    30.594508    35.390343 
153756000    264.30841    480.66223     383.8945   -99522.307    99571.706    96.767736    35.388845 
153760000    296.65713    202.69674    335.43477   -99556.461    99584.767   -132.73803    35.392605 
153764000    288.36207    317.85734    348.71761   -99578.534    99631.039   -30.860277    35.380641 
153768000    264.69175    348.44343    289.62325   -99599.604    99653.467    58.820188    35.377361 
153772000    324.73672    322.67432    392.95062   -99617.496    99649.037   -70.276291    35.382185 
153776000    317.74976    301.02776    475.02967   -99635.127     99652.55   -174.00192    35.385698 
153780000    278.51072     485.3494    349.44513   -99648.991    99672.616    135.90426    35.384796 
153784000    242.01542    340.70533    424.34594   -99651.126    99711.069   -83.640617    35.383311 
153788000    282.63061    272.06853    389.55189   -99690.302    99734.077   -117.48336    35.377063 
153792000    306.62817     533.5052    464.35656   -99737.589    99766.906    69.148642     35.38484 
153796000    305.64656    571.05126     307.1211    -99791.59    99801.025    263.93015    35.381882 
153800000    290.87744     412.3317     359.4641   -99786.457     99844.86    52.867604    35.376088 
153804000    298.71931    683.80275     218.3817   -99847.513    99876.865    465.42105    35.383217 
153808000    269.49793    313.37758     342.0901   -99850.757    99885.425   -28.712514    35.382041 
153812000     275.4608    212.19065    397.24739   -99846.183    99894.276   -185.05674    35.373468 
153816000    292.84515    448.74356    353.83846   -99859.926    99899.317    94.905107    35.375606 
153820000    289.90835    259.70966    468.06451   -99884.057    99920.812   -208.35485    35.381991 
153824000    276.98435    317.99186    378.04517   -99890.931    99923.444   -60.053306    35.386162 
153828000    274.50644    471.18361    256.12523   -99922.121    99952.826    215.05838    35.392369 
153832000    309.72232    298.52774    363.33498   -99924.244    99950.862   -64.807244    35.391392 
153836000     307.5844    532.96688    297.98862   -99949.001    99985.997    234.97826    35.391687 
153840000    269.33966    459.16514    599.67485   -99963.597    99997.348    -140.5097    35.397291 
153844000    269.53762    244.94276    470.91974   -99959.343    100025.48   -225.97699    35.397133 
153848000    294.42626    438.06278     386.1188   -99968.043    100002.84    51.943985    35.401598 
153852000    277.08845    344.46162    388.93961   -99979.106    100023.06   -44.477986    35.406111 
153856000    264.02819    310.62819    191.27001    -100009.5    100058.04    119.35818     35.40063 
153860000    296.11357    286.78229    658.18652   -100027.45    100055.98   -371.40424    35.401343 
153864000    264.88018    322.46901    256.12292   -100038.83    100090.64    66.346089    35.410408 
153868000    289.66587    300.51566     346.0169   -100058.41    100091.96    -45.50124    35.412703 
153872000    274.98727    268.36434     440.8699   -100073.21    100110.57   -172.50556    35.409807 
153876000    279.68793    507.16507    226.58012   -100108.12    100153.47    280.58495    35.415253 
153880000    292.45852     447.3224    436.28684   -100128.44    100156.26    11.035563    35.411065 
153884000    320.52897    565.65463    218.61989   -100137.88    100161.84    347.03474    35.418039 
153888000    273.06641    330.10575    300.91128   -100151.95    100210.21    29.194468    35.417402 
153892000    281.42342    459.58988    314.05518   -100191.23    100231.34    145.53469    35.419065 
153896000    295.90436    296.35317    315.73651   -100196.22    100225.19   -19.383343    35.418751 
153900000    303.63638    417.14933      382.186   -100203.34    100239.83    34.963332    35.422437 
153904000    290.69789    338.11579    225.04796   -100225.13    100265.52    113.06783    35.425638 
153908000    265.63875     277.0956    369.72521   -100242.25    100304.98    -92.62961    35.418395 
153912000    260.31402    370.29691     288.9483   -100303.23    100357.72    81.348617    35.423486 
153916000    262.86459    412.76149    279.74123   -100320.66    100358.24    133.02026    35.426563 
153920000    272.93306    548.88605    343.85381   -100332.05    100392.81    205.03224    35.429304 
153924000    274.12462    421.27242     498.2466   -100366.17    100441.39   -76.974184      35.4253 
153928000     273.4629    330.85851    328.21496   -100409.32    100448.59     2.643546    35.421516 
153932000    286.12746    368.91935    508.63924      -100425     100469.7   -139.71989    35.430155 
153936000    276.40201    403.71769    135.81844    -100445.2    100486.79    267.89924    35.428282 
153940000    294.41885    389.76554    266.67618   -100476.37    100525.75    123.08936     35.43199 
153944000    263.96148     248.0019    194.72491   -100494.54    100558.63    53.276989    35.433523 
153948000    302.26396    329.31531    436.84758   -100558.06    100574.89   -107.53228    35.424487 
153952000    298.92654    354.58865    253.60967   -100554.59    100577.78    100.97898     35.41583 
153956000    294.19144    468.67332    412.21539   -100566.32     100606.2    56.457933     35.42134 
153960000    281.72481    256.68305    406.51178   -100566.69    100595.79   -149.82873    35.419438 
153964000    282.77934    334.40417    367.97878   -100610.23    100637.31   -33.574609    35.420521 
153968000    274.78961    313.29029    328.77353    -100618.6    100670.93   -15.483237    35.423359 
153972000    257.00841    238.00916    339.14888   -100632.08     100692.6   -101.13972     35.41641 
153976000    255.45843    273.40656    229.95693   -100641.68    100689.46    43.449626    35.419796 
153980000    253.87761    278.49219    240.04431    -100639.4     100701.5    38.447876    35.421238 
153984000    288.01147    452.54816    178.36998    -100680.2    100723.33    274.17819    35.427177 
153988000    288.19157    540.39119    416.50245   -100681.96    100725.81    123.88874    35.422343 
153992000    272.21657    352.75721    248.86055   -100713.98    100749.14    103.89666    35.424083 
153996000     314.9514    301.45651    447.46683   -100737.49    100762.82   -146.01033    35.423223 
154000000    300.57923    507.15738    377.51933   -100770.17    100797.81    129.63805    35.430437 
154004000    313.01519    588.09249    477.67819   -100801.51    100832.38     110.4143    35.434345 
154008000    284.34579    412.17535    343.65953   -100838.28    100866.18    68.515823    35.444783 
154012000    275.76586    347.52619    234.01466   -100843.68    100903.66    113.51153    35.447151 
154016000    251.74895     335.0083    270.99002   -100852.81    100921.98    64.018277    35.453039 
154020000    258.41941     335.2497    273.47381    -100896.5    100947.03    61.775887    35.450473 
154024000    261.50343    321.94205    402.24035   -100905.88       100986   -80.298298    35.446943 
154028000    284.92835    364.27953    515.38657   -100973.47    101011.25   -151.10704    35.437947 
154032000    255.80223    284.99107    367.44656      -100984    101045.03   -82.455492    35.434952 
154036000    279.41519    308.61195     425.5611   -101008.16    101053.44   -116.94915    35.433767 
154040000    293.56354    304.96819    257.84267   -100998.43    101045.74    47.125523    35.440764 
154044000    297.18407    632.20336    178.09594   -101032.67    101075.66    454.10741    35.446976 
154048000    266.61664    321.11988    164.48587   -101055.03    101108.27    156.63401    35.451145 
154052000    257.67315    173.39038    237.46921   -101046.81    101111.04   -64.078833    35.455089 
154056000     284.1926    273.11759    222.79386   -101092.11    101124.65    50.323725    35.453825 
154060000    301.13486    325.99729     171.3201    -101094.6    101132.67    154.67719    35.449867 
154064000    309.61057    228.33035    285.26311   -101131.27    101159.72   -56.932753    35.452199 
154068000    271.42875    361.11538    412.99452   -101131.68    101181.08   -51.879134    35.447375 
154072000    279.90341    532.57995    383.48107   -101150.41    101196.02    149.09888    35.454949 
154076000     296.2303    324.28657    446.60677   -101170.53    101209.51    -122.3202     35.46136 
154080000    278.85687    348.52989    525.72195   -101205.34     101246.1   -177.19206    35.467477 
154084000    312.58281    349.83988    267.09796   -101253.59    101280.02    82.741928    35.469697 
154088000    300.60309    170.79277    432.05444   -101292.46    101316.66   -261.26167    35.473544 
154092000    295.38976    384.38263    263.81343   -101315.15    101349.15     120.5692    35.470945 
154096000    292.13577    324.92914    356.23497   -101341.97    101374.64   -31.305834    35.470993 
154100000      277.862    393.74784    237.75747   -101356.62       101387    155.99037    35.478619 
154104000     287.7747    282.23032    319.25495   -101350.87    101374.92   -37.024626    35.474003 
154108000    285.35414    362.50738    379.88813   -101346.14    101393.88   -17.380744    35.468938 
154112000    307.60762    469.40761    268.37962   -101396.08    101425.05    201.02799    35.471299 
154116000    263.37785    296.14373    325.85763   -101406.18    101444.44   -29.713897    35.474208 
154120000    273.07975    229.39386    411.55085   -101398.99    101460.01   -182.15699    35.475776 
154124000    279.97093     613.0284    195.69766   -101423.99    101472.25    417.33074    35.480027 
154128000      299.256    362.72631    558.13709   -101421.76    101466.16   -195.41078    35.482896 
154132000    297.64628    319.31921    274.63896      -101419    101481.43    44.680255    35.480033 
154136000    258.02733    373.07992    222.42694   -101426.78    101504.44    150.65298    35.485283 
154140000    272.43284    416.68935    396.67458   -101458.37    101497.55    20.014772    35.489104 
154144000    278.84421     304.1256    285.18478   -101462.97    101505.27    18.940821    35.491167 
154148000    279.65746     267.9385    318.93192   -101469.65    101508.12   -50.993421    35.494179 
154152000    263.81196    529.27877    254.31403   -101489.41    101539.36    274.96475    35.492942 
154156000    281.66324    384.65542    391.34793   -101500.39    101523.54   -6.6925044    35.494333 
154160000    281.91235    303.71385    230.62791   -101500.16    101529.66    73.085941    35.492149 
154164000     301.6855    311.11779     314.4232   -101489.34    101527.67   -3.3054123     35.48759 
154168000    279.43851     220.1058    474.61078   -101517.89    101558.51   -254.50498    35.480618 
154172000    317.10666    402.00393    315.66847   -101557.63    101579.62     86.33546    35.493748 
154176000      281.024    516.32347    364.06725   -101573.02    101622.21    152.25622    35.495326 
154180000    268.25086    382.84256    426.84871   -101611.71    101656.59   -44.006155    35.486919 
154184000    294.43855    474.83731    318.51882   -101619.45     101660.1    156.31849    35.485834 
154188000    288.44695    323.18694    359.34196   -101648.49    101684.13   -36.155021    35.485712 
154192000    286.19544    335.53878    458.30426   -101668.91    101714.98   -122.76548    35.497436 
154196000    263.21651    326.78965    290.56251   -101715.04    101760.49    36.227143    35.498089 
154200000    264.36363    234.81747    259.82946   -101756.45     101801.4   -25.011995    35.505329 
154204000    255.24006    306.47022    403.03248   -101769.09    101819.25   -96.562252    35.504063 
154208000    248.49535    284.59727    420.63572   -101792.33    101846.07   -136.03846     35.50784 
154212000    263.99506    144.09558    331.92945   -101825.06     101889.4   -187.83386    35.502754 
154216000    250.56807    258.27016     327.1993   -101852.89    101911.01   -68.929148    35.499069 
154220000    259.87428    234.98331    383.16764   -101866.39    101921.15   -148.18433    35.495512 
154224000    290.36298     323.8403    447.09263   -101905.43    101928.74   -123.25234    35.491207 
154228000    288.08229    313.14529    633.37034   -101901.61    101954.57   -320.22504    35.491383 
154232000    282.78628    434.09434    227.38022      -101918    101970.69    206.71412    35.490091 
154236000    265.02193    386.18552    267.29381   -101933.67    102006.06    118.89172     35.50076 
154240000    287.26795    267.50673    239.38236   -101964.74    102006.34    28.124361    35.497551 
154244000    280.13735    644.87259    217.55212   -101981.88    102029.85    427.32047     35.50107 
154248000    267.11146    354.33755    441.41274   -101981.99    102044.74   -87.075182    35.497618 
154252000    263.95246     258.4378    300.09771   -102013.76    102067.82   -41.659908    35.491732 
154256000    254.95558    507.40899    269.54901   -102049.19    102104.99    237.85999    35.487607 
154260000    306.47325    438.14942    490.65083   -102101.62    102120.82   -52.501408    35.486096 
154264000     285.6845    282.01769    351.78976   -102130.46    102174.26    -69.77207    35.479937 
154268000    282.94434     338.6008    289.42733   -102128.57     102179.1    49.173471    35.481799 
154272000    279.54242      374.093    257.15659   -102140.28    102187.32     116.9364    35.482752 
154276000    271.79101     367.6909    444.72114   -102149.67    102206.57   -77.030243    35.481936 
154280000    284.32247    219.41439    419.96833   -102161.51     102214.3   -200.55394    35.477851 
154284000    296.91586    362.96849    288.97265   -102211.44    102253.96    73.995835    35.474496 
154288000    293.81371    329.17752    315.00185   -102235.86    102276.25    14.175675    35.479202 
154292000    277.16402    311.23452    365.19444   -102254.06    102291.48   -53.959923    35.492146 
154296000    299.50288    440.17364    146.72143   -102296.16    102325.01     293.4522    35.498746 
154300000    279.97727    286.80413    230.96264   -102281.34    102360.75     55.84149    35.506351 
154304000    293.52385    410.15137    596.83945    -102289.6    102342.89   -186.68808    35.498663 
154308000     261.0419    254.93157    364.58396   -102321.09    102369.07   -109.65239    35.494187 
154312000    269.62738    413.67236     250.8216   -102336.24    102379.66    162.85076    35.493181 
154316000    287.05127    489.52296    392.26813   -102361.59    102401.54    97.254838    35.492658 
154320000    287.86435    360.43834    327.93385   -102387.45     102428.3    32.504492    35.491384 
154324000    308.82623    436.11383     306.5193   -102425.17    102458.13    129.59454    35.493458 
154328000    322.57141    344.94332    337.09285   -102438.74    102465.98    7.8504739    35.496026 
154332000    289.10123    367.12999    408.39155   -102429.19    102492.64    -41.26156    35.492845 
154336000    275.04831    307.80417    243.05115   -102460.91    102516.95    64.753018    35.489949 
154340000    289.24005    235.25762    615.38975    -102495.5     102553.7   -380.13213    35.487961 
154344000     284.6233    376.83261    481.21036   -102525.62    102572.21   -104.37775    35.484843 
154348000    310.46251    268.29512    446.03999   -102569.92    102593.49   -177.74486    35.484039 
154352000    265.02789    436.77501    259.42892   -102557.34    102614.17    177.34608    35.480907 
154356000    263.59479    347.34733    301.79669   -102573.86    102619.47    45.550636    35.485227 
154360000    261.16223    228.47315    213.85949   -102603.43    102648.18    14.613664    35.476378 
154364000    292.02576    288.17681    350.06913   -102622.04    102661.54   -61.892319    35.476759 
154368000     287.0986    378.88364    283.80917   -102639.81    102688.61    95.074464    35.488939 
154372000    270.31623    337.30897     327.0722   -102649.17    102705.58    10.236766    35.486034 
154376000    263.88256    397.76116    223.23135   -102696.16     102743.9    174.52981    35.478262 
154380000    291.66043    318.90816    408.19858   -102710.64    102755.86    -89.29042    35.466601 
154384000    274.39949    338.11501    349.29421   -102723.33    102772.06   -11.179197    35.470279 
154388000    249.88858    319.67945    209.41284   -102712.88    102768.97     110.2666    35.468335 
154392000    297.58716    501.51159    470.63513   -102726.64    102764.83     30.87646    35.471874 
154396000    299.77908    411.95167    359.09352    -102755.4    102791.25     52.85815    35.477908 
154400000    264.48979    332.34639    452.62287   -102767.27    102820.19   -120.27648     35.46895 
154404000    273.41873    398.56768    460.99985   -102788.61    102841.28   -62.432173    35.469878 
154408000    256.88582    360.44887    391.84655   -102808.73    102865.93   -31.397679    35.470188 
154412000    270.97639    321.59533    457.13724   -102837.18    102887.11   -135.54191     35.47008 
154416000    302.60613    231.03004     239.0194   -102879.79    102892.34   -7.9893561    35.473725 
154420000    301.71783    327.53835    273.97682   -102885.95    102909.85     53.56153    35.474022 
154424000    295.04403     288.0948    505.25276   -102904.96    102927.01   -217.15797    35.466765 
154428000    307.69519    255.47014    479.12406   -102928.45    102946.79   -223.65391    35.469406 
154432000    275.17555    235.70371     351.6174    -102946.8     103002.1   -115.91369    35.460603 
154436000    276.86717    338.25549    321.04753   -102976.59    103029.44    17.207965    35.459227 
154440000    284.24656    375.30266    296.99107   -102998.64    103050.82    78.311595    35.457157 
154444000    288.73865    580.46023     319.9743    -103035.8    103076.12    260.48593    35.449942 
154448000     282.1925    198.95375    357.89305   -103055.53     103093.5    -158.9393     35.44376 
154452000    291.90672     351.5887    498.55637   -103094.33    103134.13   -146.96767    35.435539 
154456000    305.90558    452.95412    267.96451    -103129.4    103180.29    184.98961    35.438665 
154460000    282.47493    253.30155    364.64537    -103156.3    103204.56   -111.34381    35.435855 
154464000    296.36113    299.87282    515.01749    -103186.7    103199.02   -215.14467    35.436078 
154468000    279.49736    443.33613    435.37004   -103177.27    103233.67    7.9660864    35.434857 
154472000    303.35833    324.08197    225.88048   -103220.59     103255.9    98.201484    35.430344 
154476000    255.74339    559.61273    498.62191   -103231.19    103294.71    60.990819     35.43441 
154480000    294.59286    523.46529     366.1501   -103260.54    103304.08    157.31519    35.431371 
154484000    328.53657    327.70274    332.50214   -103300.23    103311.29   -4.7994014    35.444586 
154488000    283.82141    308.46355    348.57255   -103313.44    103353.92   -40.109001    35.450058 
154492000    272.02399    270.18078    364.48548   -103339.38    103379.64   -94.304703    35.443054 
154496000    288.42364    321.18131    404.25447   -103360.22    103400.05    -83.07316    35.439751 
154500000    308.17881    325.89133    338.01784   -103382.29    103431.38   -12.126508    35.443715 
154504000    293.63911    226.23822    275.88128   -103409.99    103447.15   -49.643067    35.451447 
154508000    257.96023    242.43606     419.2441    -103420.9    103481.04   -176.80803    35.456151 
154512000    267.49394    263.11947    369.46093   -103447.77    103508.18   -106.34146    35.441496 
154516000    260.59975     193.7838    302.19163   -103472.12    103524.22   -108.40783    35.439102 
154520000    308.50554    327.52232    227.11593   -103530.76    103564.21    100.40639    35.441692 
154524000    277.98247    407.72329    424.31341   -103548.23    103601.19   -16.590118    35.431862 
154528000    258.56221    253.87501    291.51393   -103555.43    103628.83   -37.638924    35.425846 
154532000    315.77561    520.33902    191.73732    -103602.2     103630.7    328.60169    35.425044 
154536000    261.42475    253.50103    504.61125   -103622.25    103676.61   -251.11023    35.424394 
154540000    321.61257    433.85843    391.10873   -103657.52    103676.52    42.749705    35.426712 
154544000    285.28003    352.89609    263.88907   -103677.77    103728.78     89.00702    35.427478 
154548000    285.42736    348.83707    381.55641   -103733.73    103787.32   -32.719337    35.426317 
154552000    313.15264     433.2632    248.54412   -103764.61     103802.9    184.71908    35.430089 
154556000    268.78013    424.05467    354.75959   -103778.66    103821.26     69.29508    35.422534 
154560000    293.39929    310.98875    326.89428   -103820.98    103855.96    -15.90553    35.419136 
154564000    291.54055    351.80521    379.37232    -103841.9    103876.33   -27.567102    35.413141 
154568000     289.8052    355.28237     335.7352   -103833.35    103890.37    19.547169     35.40528 
154572000    322.40069    575.99829    416.76235   -103875.63    103899.19    159.23593    35.406024 
154576000    271.56163    356.79891    443.96328   -103862.83    103913.69   -87.164371     35.40673 
154580000    289.26842    314.82142    383.16991   -103877.71    103933.84   -68.348482    35.397439 
154584000     257.0212    267.33249    449.74222   -103927.59     103993.6   -182.40973    35.390082 
154588000    278.24163    312.30609    404.21583   -103949.31    104020.02   -91.909742    35.392303 
154592000    276.57902    158.81642     375.8871   -103976.71    104035.61   -217.07068    35.391133 
154596000    284.60936    317.76811    423.03772   -103998.95    104037.24   -105.26962    35.383802 
154600000    284.54773    356.15621    338.26005   -104026.15    104081.92    17.896162    35.382952 
154604000    274.12487     460.8742    305.51938   -104039.64    104107.35    155.35481    35.388334 
154608000    259.64146    444.35527    446.10884   -104054.45    104121.95   -1.7535774    35.388039 
154612000    298.18155    328.21449    496.90953   -104078.66    104132.03   -168.69504    35.387042 
154616000    260.26812    379.88958     218.9406   -104124.42    104155.48    160.94898    35.390612 
154620000    296.66393    437.10152    202.05049   -104129.76     104167.6    235.05103    35.393974 
154624000    298.04936    337.43293    285.07177    -104150.9    104187.38    52.361161    35.395082 
154628000    253.95194    425.99994    345.77769   -104164.07    104217.72     80.22225    35.398229 
154632000     277.5228    562.09835    311.77275   -104167.63    104220.63     250.3256    35.403387 
154636000    276.80535    190.65475    316.64739   -104191.66    104229.66   -125.99264    35.401572 
154640000    257.69339    415.77647    248.75139   -104212.43    104263.58    167.02508    35.398779 
154644000    265.47166    344.98068    198.28537   -104243.95    104291.59    146.69531    35.407743 
154648000    280.63472    408.71038    501.48694   -104274.81    104321.69   -92.776556    35.414314 
154652000    282.06352    350.99584    377.38796   -104273.99    104325.07   -26.392125    35.426201 
154656000     289.9943    212.58219     222.1849   -104292.17    104329.26   -9.6027101    35.425492 
154660000    283.60502    487.54617    504.87686   -104307.11    104355.53   -17.330691    35.431693 
154664000    273.76842    330.10163    378.67865   -104343.99    104381.46   -48.577024    35.434297 
154668000     291.7265     365.7823    230.08373      -104368    104395.92    135.69856    35.428465 
154672000    275.42661    318.16134    157.14672   -104368.33    104423.18    161.01462    35.432822 
154676000    296.08231    460.97915    373.29372    -104402.7    104450.91    87.685439    35.423419 
154680000    288.87767    323.64118    476.56908   -104439.28    104481.13   -152.92791    35.424539 
154684000     302.3726    526.16092     282.6899   -104493.36    104510.39    243.47102    35.424896 
154688000     275.4302    390.97672    429.68686    -104500.9    104549.62   -38.710143    35.425423 
154692000     293.0898     620.9291    318.33166   -104543.09    104574.14    302.59743    35.419455 
154696000    272.80595    351.15957    291.64129   -104559.43    104606.14    59.518283    35.420596 
154700000    304.69155     394.6332    420.91877   -104589.33    104624.85    -26.28557    35.424444 
154704000     315.9487    269.37688    375.22812   -104624.06    104653.87   -105.85124    35.427052 
154708000    299.34643    218.21569    257.58826   -104618.13    104655.96   -39.372566    35.425758 
154712000    313.92464    463.78637    299.96551    -104645.4    104672.28    163.82086    35.428827 
154716000    300.52068    342.39329     279.3408   -104664.14    104694.82     63.05249    35.421314 
154720000    270.19361    307.75901     292.6003   -104694.79    104732.96    15.158708    35.427904 
154724000    272.38835    506.34524    159.73078   -104725.39    104799.87    346.61446    35.435004 
154728000    274.28506     339.1232    335.72757   -104729.11    104799.37    3.3956238    35.427915 
154732000    263.51515    175.98944    442.13462   -104744.96    104803.22   -266.14518    35.429469 
154736000    287.00366    391.25946    277.02257   -104779.86    104810.59    114.23689    35.428067 
154740000      295.476    269.10758    476.69666   -104796.22    104819.87   -207.58908    35.428992 
154744000    289.51341    438.31815    158.19374   -104807.66    104841.04     280.1244    35.430255 
154748000    260.59678    369.83893    264.25869   -104806.09    104862.43    105.58024    35.424618 
154752000    310.40373    355.64496    261.82556   -104840.92    104870.33    93.819397    35.425407 
154756000    282.78658    395.81432    309.25385   -104854.97    104899.18    86.560466    35.418633 
154760000    275.24479    339.37614    344.50501   -104860.93    104914.51   -5.1288742    35.418139 
154764000     282.1862    171.36824    383.35751   -104903.24    104956.51   -211.98927    35.413653 
154768000     267.3834    457.83141    167.73186   -104909.38    104981.26    290.09955    35.418169 
154772000    286.90972    238.41579    358.12906   -104929.26    104971.72   -119.71327     35.41782 
154776000    277.40549    378.58994    354.12851   -104936.57    104988.74    24.461432    35.414565 
154780000    283.35093    427.50619    304.30924   -104962.44    104995.53    123.19694    35.426097 
154784000    264.20293    205.74383    371.74613   -104937.48    104985.81   -166.00229      35.4255 
154788000    268.99383    379.78608    349.43046    -104935.7    104971.31    30.355616    35.431353 
154792000     281.9743    379.34285    249.60895   -104952.01    104986.48     129.7339     35.43644 
154796000    299.34061    295.09628    454.01098   -104975.89    105008.87    -158.9147    35.439616 
154800000    301.94178     352.7802    366.91153   -105009.01    105043.28   -14.131323     35.43907 
154804000    289.77447    298.19877    342.81593   -105020.56    105063.71    -44.61716    35.438727 
154808000     286.5263    464.08448    337.65392    -105053.4    105103.28    126.43055    35.435854 
154812000    275.51718    235.75385    363.12935   -105043.43    105102.27   -127.37549    35.434517 
154816000    288.01398    455.45592    374.93642   -105098.31    105129.13    80.519497    35.428346 
154820000     299.8264    404.42635    325.41877   -105105.05    105137.26    79.007585    35.423564 
154824000    276.68016    382.76025    393.12579   -105114.18    105192.43   -10.365539    35.427673 
154828000    278.29143    266.87315    209.11023   -105159.63     105214.9    57.762925    35.423431 
154832000    273.81437    442.17763    213.39879   -105172.66    105219.87    228.77884    35.425738 
154836000    261.12312    316.01272    329.71497   -105188.72    105241.96   -13.702248    35.423251 
154840000    318.96508    345.65208     312.8835   -105240.71    105272.73     32.76858    35.423318 
154844000    299.74043    522.38159    494.68718   -105257.13    105291.24    27.694407    35.418258 
154848000     276.3672    430.25395    350.21612   -105293.79     105340.3    80.037836    35.418974 
154852000    277.31809    318.07944    295.63519   -105316.21    105350.99    22.444245    35.416727 
154856000    282.96412    452.13215    385.59479   -105329.35    105372.88    66.537355    35.421684 
154860000    307.78727    426.74403    358.49914   -105354.82    105395.41    68.244887    35.426986 
154864000    273.88513    313.06934    324.70904      -105383    105433.69   -11.639702    35.432811 
154868000    254.03214    292.59963    251.99579   -105418.05    105475.67    40.603839    35.431078 
154872000    313.19749    379.55607    311.68414   -105450.39    105473.32    67.871932     35.43217 
154876000    266.20865    339.48775    328.57083    -105451.7    105505.01    10.916924    35.437433 
154880000    333.83316    288.29272    403.37014   -105478.13    105503.07   -115.07742     35.43597 
154884000       287.07    319.47411    253.29028   -105487.99    105529.88    66.183829    35.430971 
154888000    309.66609    511.21281    175.54227   -105500.99    105549.53    335.67054    35.423258 
154892000    272.48854    441.60407    417.99065   -105521.31    105590.06    23.613427    35.427677 
154896000    284.67987     252.5714    376.09027   -105553.83    105600.51   -123.51887    35.427235 
154900000    315.85374    363.75648    230.00395    -105614.8    105641.57    133.75253    35.427363 
154904000    279.29119     378.9191    326.68648   -105637.17    105673.44    52.232624    35.417768 
154908000    270.96325    333.01971    171.54434   -105650.53    105699.13    161.47537    35.424313 
154912000    280.61884    284.72445    460.70004   -105670.21    105728.37    -175.9756    35.418383 
154916000    297.55645    346.49661    390.68075   -105687.28    105738.41   -44.184143    35.411835 
154920000    258.13845    246.43245    210.68729   -105710.59    105750.68    35.745162    35.410294 
154924000    285.65955     202.2617    292.63747   -105742.79    105779.88   -90.375763    35.405578 
154928000    279.92989    469.26572    293.23348   -105747.89    105797.36    176.03225    35.404546 
154932000    280.38509    165.92835    398.62931   -105786.44    105828.27   -232.70096    35.406981 
154936000    293.96622    193.58709    259.05805   -105812.16    105850.31   -65.470966    35.403327 
154940000    275.20897    368.84298    228.67343   -105858.87    105905.45    140.16955    35.406019 
154944000     297.5896    235.33738    484.78942   -105884.15    105927.77   -249.45204    35.405373 
154948000    297.62905    378.24592    323.53764   -105920.68    105942.69    54.708278     35.39811 
154952000    280.43564    273.52462    233.38462   -105945.29    105983.17    40.140001    35.397048 
154956000    275.25597    545.14653    308.09078   -105967.83    106021.01    237.05574     35.39471 
154960000    303.63759    273.88345    353.37847   -105990.02    106031.98   -79.495021      35.4041 
154964000    285.83778     188.7117    433.28204   -106019.92    106079.75   -244.57034    35.401973 
154968000    264.73836      329.978    326.21751   -106053.61    106099.96    3.7604886    35.406434 
154972000    300.95989     176.6395     343.2837    -106093.6     106120.3    -166.6442    35.405601 
154976000    277.91849    258.18199     280.6115   -106120.92    106160.07   -22.429511    35.405643 
154980000    262.55806    331.04223    153.11657   -106112.52    106195.94    177.92565    35.409925 
154984000    282.12557    247.16179    365.42784   -106166.93    106195.37   -118.26604    35.405422 
154988000    271.54198    306.14081    189.11154   -106170.21    106210.97    117.02927    35.402521 
154992000    298.08394    467.68044    440.17823   -106212.96    106240.41    27.502204    35.400501 
154996000    281.51862    341.12077    503.36137   -106239.47    106291.02    -162.2406    35.407505 
155000000    288.83873    380.31773    483.38928   -106260.48     106328.1   -103.07155    35.410206 
155004000    301.07304    282.35747    448.24425   -106297.91    106325.16   -165.88679    35.412478 
155008000    273.64336     357.7392    344.17585   -106293.69    106350.69    13.563348    35.408528 
155012000    279.46517    270.40816    234.71016    -106316.9    106374.82    35.698005    35.404763 
155016000    319.66329    267.54336    508.73896   -106340.19     106371.4    -241.1956    35.411007 
155020000    300.21052    271.34102     446.4023   -106351.87     106389.3   -175.06128    35.412195 
155024000    302.91099     486.6331    319.42852   -106381.68    106427.58    167.20458    35.412815 
155028000    284.73308     462.4544    277.21279   -106392.61    106437.63    185.24162    35.416525 
155032000    313.37453    373.17845    433.43505   -106404.58    106431.62     -60.2566    35.415608 
155036000     271.2655    457.00556    355.42207   -106415.71    106471.29    101.58349    35.408981 
155040000    270.22545    329.76358     268.4501   -106437.86    106482.13    61.313483    35.397606 
155044000    277.75707    290.63481     360.5446   -106468.25    106516.74   -69.909791    35.405732 
155048000    291.72187    418.39294    348.56016    -106493.3    106519.57    69.832781    35.404739 
155052000    286.18718    397.48746    279.37512   -106484.89    106531.39    118.11234    35.411784 
155056000    289.11302    557.15734    457.56752   -106497.95    106553.31    99.589823    35.408551 
155060000    278.29626    302.05434    254.17752   -106538.89    106589.68    47.876814    35.416206 
155064000    275.82946    532.06328    220.72582   -106556.88    106599.12    311.33746     35.42208 
155068000    279.39614    262.67527    191.01023   -106581.22    106625.28    71.665039     35.43271 
155072000    265.09576    269.57167    311.17553      -106606    106651.13   -41.603863    35.435958 
155076000    308.81128    301.75966    346.63131    -106632.5    106657.08   -44.871647    35.430776 
155080000    335.16771    321.84855    458.49094   -106654.46    106654.55   -136.64238    35.436231 
155084000    309.21434    520.03167    608.08037   -106638.02    106670.07   -88.048701    35.433016 
155088000    307.64196    251.96931    419.02832    -106650.9    106675.07   -167.05901    35.420695 
155092000    288.26854    382.32362    181.70685   -106677.49    106705.17    200.61677    35.425118 
155096000     280.8087    293.02215    209.32389   -106671.63    106722.54    83.698254     35.42292 
155100000    301.23425    525.88302    253.07668   -106667.19    106724.12    272.80634    35.426396 
155104000    295.51306    285.21071    369.06084   -106707.24    106735.77   -83.850127    35.421908 
155108000     268.4159      272.177    453.40954   -106709.56    106758.57   -181.23254    35.419305 
155112000    271.24695    419.71515    193.80527   -106738.33    106803.52    225.90988     35.41629 
155116000     256.7431     455.3189    185.94074   -106781.72    106829.55    269.37816    35.416947 
155120000    301.72389    544.73009     477.6962    -106809.9    106840.16    67.033892    35.413769 
155124000    277.96031    447.88147    280.59327   -106833.34    106884.87    167.28819     35.41214 
155128000    272.00333    597.45453    284.98106   -106837.32    106896.95    312.47347    35.405556 
155132000    275.68698    296.93336    325.90966   -106853.11    106920.41   -28.976297    35.402644 
155136000    276.78076    287.26534     322.8719   -106873.88     106917.4   -35.606568    35.396586 
155140000    260.14483    453.09464    295.01107   -106899.28    106961.41    158.08357    35.394868 
155144000    263.41857    374.26285    337.55201   -106924.17     106977.8    36.710837    35.393379 
155148000    257.89494    360.57709    284.44556   -106947.99    107011.01    76.131533     35.39441 
155152000    264.79008    361.25991    289.58787   -106970.39     107043.9     71.67204    35.385117 
155156000    285.12714    310.31184    287.34613   -106984.29    107024.67    22.965712    35.382959 
155160000     290.0103    344.45822    460.79373   -107002.03    107043.17   -116.33551    35.383509 
155164000    313.58366    337.64274    619.78571   -107039.82     107067.5   -282.14297    35.391073 
155168000    266.33396    505.89661    444.72924   -107022.97    107078.81     61.16737    35.389953 
155172000    279.90001    360.51195    466.36621    -107053.1    107095.38   -105.85426    35.392137 
155176000    280.56815    527.99296    503.87893   -107073.64    107124.66     24.11403    35.395129 
155180000    262.08824    263.20094    333.48474   -107066.31    107126.32   -70.283795    35.394914 
155184000    267.44759    249.33305    319.53917   -107107.47    107153.36   -70.206117    35.391821 
155188000    301.42982    553.17966    291.76937   -107119.79    107167.74    261.41029    35.389376 
155192000    293.36028    363.11065    535.94531   -107155.15    107202.62   -172.83466    35.388161 
155196000    273.45115    393.85669    291.23421   -107175.11    107223.65    102.62248    35.389638 
155200000    261.29517    336.50156    334.06319   -107201.21    107251.96    2.4383746    35.392064 
155204000    285.40974      289.054     290.2735   -107216.65    107279.87   -1.2195058    35.392083 
155208000    295.41889    440.87982    210.28817    -107238.1    107270.71    230.59165    35.392115 
155212000    294.18785     547.7509    315.11829   -107282.22     107311.7    232.63261    35.391432 
155216000    307.63941    377.48663    324.44215   -107287.49    107311.71    53.044488    35.406359 
155220000    294.44005    448.94108     378.6414   -107285.15    107308.68    70.299675    35.403718 
155224000    269.46758    431.78582    216.40961   -107297.42    107342.53    215.37621    35.404009 
155228000    296.21414    289.51662    235.35977   -107333.63    107374.86    54.156849    35.402684 
155232000    270.11639    294.55401    368.64585   -107349.12    107395.17   -74.091839    35.402171 
155236000    296.01186    440.46267    246.53385   -107382.17    107432.19    193.92881    35.407478 
155240000    267.05284    302.82092    343.28276   -107403.15    107453.34   -40.461843    35.401418 
155244000     279.0157    286.14466    300.49822   -107427.54    107474.62   -14.353568    35.394908 
155248000    290.67539    407.94275    313.27658      -107445    107492.42    94.666168      35.3982 
155252000    284.40556    318.46344    304.75407   -107472.88    107517.26    13.709377    35.400733 
155256000    308.15533    669.88077    313.33264   -107511.31     107545.1    356.54812    35.400999 
155260000    278.33662    457.30426    317.35521   -107486.76    107529.81    139.94906    35.402277 
155264000    274.05129      215.504    410.75354   -107469.29    107526.08   -195.24954    35.398835 
155268000    265.95487    293.52717    459.92277   -107499.08    107552.19    -166.3956    35.393919 
155272000    265.09946     358.2253    333.58407   -107534.37    107596.83    24.641226    35.394832 
155276000    265.10409    330.34484    216.83314   -107572.13    107637.51    113.51171    35.393276 
155280000    274.07194    533.56511    287.78978   -107616.64    107670.79    245.77534    35.393505 
155284000    300.50888    480.09732    519.93869   -107632.79    107659.92   -39.841373    35.397093 
155288000     264.3247    372.06127    306.38473   -107628.77    107693.49     65.67654    35.397482 
155292000    275.42115    442.50454    298.85412   -107661.24    107712.33    143.65042     35.39359 
155296000    292.11082    422.56279    465.11837   -107681.95    107734.74   -42.555575    35.385906 
155300000    278.84219     300.7037    327.67365   -107709.93    107760.26   -26.969948    35.385903 
155304000    261.03968    321.81337    169.61274   -107746.73    107810.25    152.20063    35.382208 
155308000    273.62119    368.96695    292.89247    -107785.5    107828.57    76.074483    35.381345 
155312000    298.10495    353.83957    432.55536   -107799.01    107844.78   -78.715798    35.384348 
155316000    300.54839    543.19032    274.39283   -107844.13     107882.6    268.79749    35.393178 
155320000    260.06102    359.00401    433.13435   -107870.45     107920.6   -74.130331    35.389303 
155324000    290.78971    380.89654    254.40728   -107905.78    107961.78    126.48926    35.390351 
155328000    308.48876    452.16083    212.91191   -107919.16     107972.2    239.24892     35.38865 
155332000    302.88642     399.3193    389.76676      -107975    107994.38    9.5525445    35.381304 
155336000    276.67746    498.70488    200.18083   -107970.02    108022.25    298.52405    35.391401 
155340000    292.60456     292.3574    280.61254    -107991.6    108033.45    11.744865    35.397541 
155344000    291.39842    270.73658    289.08644   -108029.62    108078.25   -18.349859    35.403643 
155348000    296.25229    398.71049    231.84468   -108055.15    108083.09    166.86581    35.403933 
155352000    288.59137    353.82689    227.22667   -108078.29    108104.75    126.60022    35.398571 
155356000    288.79988    471.58245    313.22473   -108092.17    108140.39    158.35772    35.405657 
155360000    262.57252    269.96373    309.62649   -108136.35    108193.68   -39.662756    35.400781 
155364000     265.7759    281.15982    263.25992   -108150.13    108209.84    17.899906    35.402718 
155368000    287.64022    189.94049    312.75168   -108162.16       108200   -122.81118    35.397042 
155372000    274.92491    222.84063    210.17969   -108195.08    108238.69    12.660939    35.391448 
155376000    293.99317    330.99598    283.77661   -108197.39    108247.64    47.219372    35.391351 
155380000    292.68268    340.85266    260.56088   -108234.16    108276.34    80.291778    35.392944 
155384000    317.06084    325.00548    263.02787   -108294.39    108297.61    61.977607    35.392406 
155388000    277.01613    384.43627    315.19506   -108294.57    108347.57    69.241212    35.392399 
155392000    259.72728    255.85173    295.48462   -108297.59     108363.2    -39.63289     35.38967 
155396000    297.38714    368.66854    323.41449   -108337.56    108377.28    45.254048    35.388374 
155400000    294.00218    265.10792    293.27573   -108365.04     108399.4   -28.167805    35.386588 
155404000    271.32793    402.99125    216.29478   -108374.41    108417.62    186.69647    35.391215 
155408000    294.19119    459.66135    262.93413   -108372.76    108421.49    196.72722    35.379206 
155412000    285.14907     357.3656    467.38746   -108396.86    108441.52   -110.02186    35.380694 
155416000    277.16419    474.11866    339.57282   -108415.24    108458.33    134.54583    35.383468 
155420000     261.1811    278.05478    431.41818   -108402.02    108464.38   -153.36341    35.380175 
155424000    270.10772    555.73077    475.07758   -108413.93    108483.55    80.653187    35.383478 
155428000    271.00989    344.31349    355.68032   -108416.39    108485.32   -11.366839    35.378457 
155432000    269.82737    375.60924    241.84454   -108440.02    108511.36     133.7647    35.383514 
155436000    285.31647    237.92921    343.93293   -108478.64    108523.28   -106.00373    35.383504 
155440000    274.06132    474.13248    230.98459   -108510.17    108565.71    243.14789    35.386978 
155444000    282.58547    512.61393    307.70508   -108531.98    108576.38    204.90885    35.388524 
155448000    278.17623    233.47428    282.29328   -108545.99    108584.39   -48.819003    35.387556 
155452000    291.27157    267.34995    311.31894   -108560.91    108612.42   -43.968997    35.380181 
155456000    285.49934    328.03744    449.07844   -108581.71    108636.64     -121.041    35.375984 
155460000    276.66876    400.83348    169.09717   -108608.81    108668.14    231.73631    35.389993 
155464000    285.56463    398.39112    276.39247   -108649.12    108693.41    121.99865    35.390943 
155468000    300.02291     353.4866    262.78779   -108658.44    108705.64    90.698814    35.386813 
155472000    289.68952    305.41935     324.7566   -108660.71    108707.02    -19.33725     35.38178 
155476000    256.48954    385.87195    333.70733   -108678.06    108720.47    52.164626    35.387915 
155480000    278.92512    211.69865     542.7617   -108691.44    108737.74   -331.06305    35.383257 
155484000    272.54919    365.11643    328.95653   -108700.43    108751.99    36.159906    35.389462 
155488000    290.62987    402.75843    399.88817   -108735.26    108776.45    2.8702605    35.392318 
155492000    278.89521     311.3748    367.72083   -108767.38    108814.93   -56.346034     35.38292 
155496000    282.50314    517.85227    532.98433   -108797.39     108843.5   -15.132062    35.386592 
155500000     258.7642    202.70016      238.671   -108812.09    108856.51   -35.970842    35.394663 
155504000    281.00154    405.92906    233.97532   -108825.48    108874.05    171.95375    35.394323 
155508000    290.69898    236.25548    383.76741   -108850.16    108900.38   -147.51193    35.397741 
155512000    252.25123    316.53441    274.86881   -108885.22    108940.79    41.665597    35.399907 
155516000    301.08781     242.7851    319.97542   -108913.69    108948.21   -77.190325    35.400104 
155520000    308.21329    446.87574    244.32991   -108959.06    108992.24    202.54583     35.39726 
155524000    267.20416     291.2081    349.22918   -108968.57    109035.09   -58.021077    35.395254 
155528000    266.29374    386.02572    255.82654   -108983.58    109044.68    130.19918    35.394659 
155532000    336.04433    374.70406    329.62832   -109007.05    109022.43    45.075736    35.385481 
155536000    296.86051    494.41281    190.39039   -109020.83    109053.58    304.02242    35.376476 
155540000    279.12324    357.61979    337.55024   -109023.28    109083.29    20.069545    35.373565 
155544000    262.76626    274.47864    380.44036   -109033.36     109104.5   -105.96172    35.370586 
155548000    294.27662    322.77449    686.66999   -109052.33    109106.52   -363.89551    35.364776 
155552000    294.85086    359.34071    401.62097   -109069.62    109106.21   -42.280259    35.364718 
155556000    300.83305     581.7315    274.17242   -109046.37    109097.62    307.55908    35.366869 
155560000    265.69148    254.42731    305.12958   -109067.76    109116.39   -50.702264    35.365592 
155564000    294.80711    301.13685    404.71283   -109093.84     109137.2   -103.57598    35.360186 
155568000    269.62014     283.2571     352.8014   -109111.91    109162.99   -69.544296    35.356969 
155572000    304.15127    371.59471    477.41322   -109147.05    109176.15   -105.81852    35.353471 
155576000    314.48371     309.8662    307.21374   -109150.02    109189.91    2.6524601    35.351885 
155580000    291.15669    474.33356    464.26542   -109167.63    109228.31    10.068139    35.343204 
155584000    243.21499    223.13803    389.66657   -109192.42    109270.43   -166.52854     35.34275 
155588000    303.34903     532.7473     421.4913   -109254.03    109285.32      111.256    35.336775 
155592000    266.29761    281.52644    368.51104   -109275.99    109329.56   -86.984598    35.345244 
155596000    320.44098    364.49799    187.29152   -109310.39    109339.07    177.20647    35.352515 
155600000    307.42024    559.58852    200.40014   -109321.38    109368.82    359.18839     35.35493 
155604000    279.11599    384.07355    253.10517   -109339.73    109374.89    130.96838     35.35568 
155608000      318.326    421.21325    281.89043   -109378.29    109399.94    139.32282    35.356207 
155612000     284.0255    378.17219    271.85628   -109399.53    109430.49    106.31591    35.352628 
155616000    271.10074    377.41612    321.76627   -109389.56    109446.29    55.649849     35.35037 
155620000    269.87977     325.4598     167.6403   -109408.33    109467.94     157.8195    35.354394 
155624000    247.98155    257.70451     254.7128   -109440.47    109508.54    2.9917065    35.347336 
155628000    256.26812    155.76564    234.61594   -109433.65    109498.97   -78.850301    35.348952 
155632000    299.26646     290.3691    450.99691   -109450.39       109473   -160.62781    35.354152 
155636000    302.21199    357.98082    294.50647   -109460.01    109489.89    63.474351    35.358802 
155640000    310.73559    297.76311    467.20523   -109477.55    109496.27   -169.44212    35.358226 
155644000    304.17993    194.07467    377.13146   -109516.23    109529.22   -183.05678    35.355396 
155648000    270.35568    420.64726    354.39694   -109509.83    109568.71    66.250323    35.356673 
155652000     320.0165    309.90475    240.52577   -109561.04    109586.92    69.378988    35.350483 
155656000    280.49818    368.23826    354.98135   -109581.88     109634.4    13.256908     35.35318 
155660000     284.4469    489.71905    288.71596   -109611.17    109650.09    201.00309    35.346807 
155664000    267.24373    377.96368    214.19651   -109595.88    109660.65    163.76717     35.34035 
155668000    294.22443    374.63515    439.12885   -109624.21     109662.1   -64.493699    35.341128 
155672000    272.85258    402.07767    209.80705   -109642.77    109692.29    192.27062    35.338479 
155676000    263.25478     310.8598    385.64766   -109639.41    109699.52   -74.787858    35.343021 
155680000    253.96581    440.16149    339.04512   -109656.27    109718.43    101.11637    35.345489 
155684000    302.39247    276.01094    398.92345   -109668.71    109707.68   -122.91251    35.344591 
155688000    278.36575    209.88921    305.87101   -109714.34    109754.78   -95.981803     35.34406 
155692000    231.18078    326.86138     216.2758   -109751.58    109811.36    110.58558    35.348034 
155696000    273.63979    413.04785    332.78546    -109765.6    109814.72    80.262394    35.350124 
155700000    285.01389    355.01785    363.25727   -109780.33    109820.56   -8.2394154    35.351024 
155704000    279.52226    312.36479    254.67066   -109809.24    109861.02    57.694125     35.34372 
155708000    271.53852    304.83704    219.55958      -109834    109890.38    85.277462    35.347616 
155712000    263.27241    368.18521    230.95957   -109867.81    109923.69    137.22564    35.352779 
155716000    278.43657    272.08302    242.29735   -109887.58    109940.19    29.785673     35.35222 
155720000    289.61456     338.2455    245.11176   -109923.39    109963.54    93.133739       35.353 
155724000    274.40317     501.7056    280.21925   -109940.37    109978.65    221.48634    35.348265 
155728000    310.97997    543.57495    354.01465   -109941.19    109985.89     189.5603    35.343308 
155732000    291.23463    133.65149    492.63984   -109950.42    109996.12   -358.98834    35.334256 
155736000    296.27139     293.4315    378.98323   -109958.36    109998.27   -85.551726    35.334157 
155740000    277.32382    294.31369    335.85525   -109953.07    110007.64   -41.541569    35.329606 
155744000    295.60955    439.18166    434.71014   -109984.49    110011.08    4.4715212    35.324133 
155748000     291.4714    448.17879    429.03213   -110000.12    110046.86    19.146662    35.331628 
155752000    273.87918     296.9587    520.60042   -109990.47    110043.21   -223.64172    35.332355 
155756000    260.89916    379.25897    151.35939   -110018.65    110076.13    227.89958    35.337926 
155760000    286.04638    452.95201    310.93614   -110053.09    110096.32    142.01587    35.336112 
155764000    277.23885     422.4129    351.06835   -110064.98    110113.66    71.344546    35.337393 
155768000    281.79855    467.14333    391.98692   -110081.67    110129.59    75.156406    35.334052 
155772000    276.61584    364.16665    252.46495   -110088.72    110139.99     111.7017    35.331254 
155776000    295.42527    457.14167    402.34014   -110103.91    110139.18    54.801536    35.331339 
155780000    276.74849    369.66769    450.08972   -110121.09    110171.67   -80.422025      35.3289 
155784000    290.14776     318.5286    288.96495   -110140.22    110182.64    29.563646    35.335644 
155788000    259.79407    469.93907    402.95645   -110143.26    110210.06    66.982619      35.3402 
155792000    288.87458    286.54634    285.71093   -110182.38    110242.54   0.83540756    35.340224 
155796000    272.03336    248.25631    300.47284   -110237.66    110299.81   -52.216526    35.345968 
155800000    283.42893    329.14025    472.95006   -110289.21     110329.6   -143.80981    35.343561 
155804000    272.19518    260.39198    305.76897   -110288.41    110337.71   -45.376996    35.347638 
155808000     284.8007    395.92917    351.77993   -110345.78    110389.36    44.149248     35.35902 
155812000    258.52657    278.03754    205.76336   -110354.75    110415.89    72.274186    35.358066 
155816000    267.29782    285.74803    371.30933   -110388.36    110440.46     -85.5613    35.363193 
155820000    281.33841    389.31762    388.98187   -110409.31    110462.34   0.33575227    35.364901 
155824000    299.16377    422.32925     359.3216   -110466.93    110501.87    63.007651    35.362414 
155828000    275.48331    175.49925    375.27213   -110472.49    110496.68   -199.77288    35.362983 
155832000    301.22767    206.34824     302.9245   -110500.23    110529.93   -96.576258    35.357858 
155836000    262.02789    361.40674    331.01731   -110512.08    110566.94    30.389436    35.364615 
155840000    290.60482    222.48838    335.54985   -110542.34    110593.51   -113.06147    35.362592 
155844000    299.19618    409.24027    456.58172   -110572.88    110609.34   -47.341452    35.362762 
155848000    281.05854    376.36551    359.10738   -110581.61    110621.96     17.25813    35.357273 
155852000    294.45428    780.62174    266.65617   -110584.37    110641.85    513.96557     35.35614 
155856000    275.68249    447.85162    301.50803   -110611.62    110663.72    146.34359    35.361884 
155860000    280.38416    239.74134    298.45861   -110636.97    110680.83   -58.717265    35.354409 
155864000    286.68194    566.09787    548.74092   -110677.47     110725.6    17.356951    35.357578 
155868000    263.91049    284.64871    179.89583      -110702    110761.49    104.75288    35.354278 
155872000    274.79969    254.15404    329.59128   -110734.02    110780.39   -75.437241    35.353857 
155876000     307.4797    332.08616    447.44705   -110747.09    110789.41   -115.36089    35.357182 
155880000    282.05116    462.95689    272.03258   -110789.96    110856.28    190.92431    35.353738 
155884000    263.48484    353.75781    289.33613   -110787.98    110849.18    64.421681    35.358087 
155888000    272.13948    517.74204    318.11504   -110790.97    110851.17      199.627    35.352084 
155892000    261.41372    243.88203    335.07971   -110792.34    110862.55    -91.19768    35.350125 
155896000     278.6583     306.5579    390.04199   -110807.69    110872.55   -83.484083     35.35233 
155900000     257.7957    327.10329    270.00488   -110830.52    110896.85    57.098408    35.352923 
155904000    261.12268    266.44711    446.88692   -110850.21    110912.37   -180.43981    35.352722 
155908000    283.54886    452.80184    256.40917   -110836.56    110889.15    196.39268     35.34942 
155912000    270.60823    725.06085    207.01132   -110857.06    110924.15    518.04953    35.346685 
155916000    296.41227    434.36334    178.06101   -110901.52    110964.48    256.30234    35.352256 
155920000    288.65807    282.98014    307.32465   -110937.68    110978.64   -24.344505    35.351691 
155924000    280.57581    326.91571    347.60812   -110966.68    111027.69    -20.69241    35.345259 
155928000     275.5124     287.3631    331.78874   -111015.53     111060.8   -44.425646    35.339481 
155932000    276.66368    408.39967    524.73312   -111014.98    111071.71   -116.33345    35.339277 
155936000     272.1204    350.11814    306.05857   -111042.07    111111.53    44.059575    35.341849 
155940000    279.04163    237.67556    397.40909   -111067.61    111135.02   -159.73353    35.337106 
155944000    287.05535    390.12556     417.2012   -111109.98    111158.12   -27.075645    35.335292 
155948000    278.86339    296.96152    165.35748   -111131.17    111178.84    131.60404    35.331431 
155952000    254.59859    267.71858    383.39779   -111137.95    111211.85   -115.67921     35.33119 
155956000    264.60637    256.80377    422.64526   -111151.29    111226.94   -165.84149    35.326271 
155960000    294.11645    337.38209    401.29249   -111205.01    111259.77   -63.910403    35.326187 
155964000    267.11363    784.09396     259.8435   -111212.57    111256.43    524.25046    35.330037 
155968000    271.35319    149.61407    403.46645   -111227.45    111288.58   -253.85238    35.333261 
155972000    283.80125    233.67535    515.68644   -111234.99    111278.61   -282.01109    35.330018 
155976000    292.68926    376.17504    242.04221   -111233.41    111281.77    134.13284    35.338502 
155980000    272.89282    370.66274    302.20207   -111278.55    111319.89    68.460673    35.334586 
155984000    283.23165    383.65096    372.65776      -111316    111360.16    10.993203    35.330492 
155988000    297.03407    274.52211    262.92815   -111343.42    111389.82    11.593961    35.325824 
155992000    251.34668     289.4996     251.4433   -111361.78     111441.2      38.0563    35.320463 
155996000    287.27838    340.89131    523.71538   -111391.84    111441.62   -182.82408    35.312706 
156000000    283.33971    712.28934    405.86843      -111410    111467.87    306.42091    35.309902 
156004000    261.69241    248.63309    220.32527      -111435    111501.36    28.307814    35.313693 
156008000    299.13408    249.04732    416.02586   -111448.41    111497.17   -166.97854    35.314402 
156012000    278.76277    411.39546     521.0228   -111488.78    111536.91   -109.62734    35.315628 
156016000    285.12933    539.07828    401.06128   -111521.66    111566.16      138.017     35.31085 
156020000    282.20708    529.71444    362.18039   -111546.13    111578.31    167.53405     35.31218 
156024000    286.74502     418.7698    310.88396   -111564.38    111621.41    107.88583    35.306991 
156028000     263.0985    330.56645    385.17483   -111611.49    111655.33   -54.608375    35.305367 
156032000     277.3333    350.07323    213.69317   -111625.16    111675.26    136.38006    35.313344 
156036000    256.01638    302.39636    307.96337   -111653.86    111709.26   -5.5670183    35.314473 
156040000    296.48659    581.11055    445.55708   -111698.75    111742.36    135.55347    35.310339 
156044000    278.65648    277.28217     398.7839   -111727.19    111777.82   -121.50173    35.311762 
156048000     295.7709    259.43237    572.48476   -111794.02     111832.9   -313.05239    35.315656 
156052000    266.30947    304.66377    372.72896   -111808.65    111855.79   -68.065183     35.31015 
156056000    263.34973     245.0446    278.69056   -111847.69    111902.72   -33.645959    35.309649 
156060000    284.63859    427.40225    334.04139   -111861.27    111908.32    93.360866    35.310567 
156064000    292.27476    457.68737    236.43137   -111861.97    111907.93      221.256    35.312885 
156068000    263.42612    436.55114    282.22774   -111872.79    111928.89     154.3234     35.31717 
156072000    310.89509    314.05099    410.49746   -111906.59    111937.13   -96.446469    35.315964 
156076000    269.15902    201.43461    469.89785   -111907.78    111966.82   -268.46324    35.311825 
156080000    290.54034    451.65897    243.87008   -111931.12    111974.89    207.78889    35.312481 
156084000    261.47621    198.95354    222.87678    -111962.9    112026.76   -23.923243    35.312802 
156088000    260.90732    363.91414    395.89002    -111988.6    112043.82   -31.975887    35.315118 
156092000    264.04488    402.19528     278.3601    -112010.6     112074.6    123.83518    35.317456 
156096000    272.50738    229.84413    528.55068   -112029.49    112099.59   -298.70654    35.318502 
156100000    302.02641    404.93693    229.19025   -112056.77    112090.35    175.74667    35.314009 
156104000    290.42198    229.76667    573.40746   -112063.81    112107.07   -343.64079    35.316541 
156108000    321.84211    663.55945    418.69306    -112081.2    112113.23    244.86639    35.312202 
156112000    272.97113    213.23149    356.03435   -112112.38    112166.32   -142.80286    35.310821 
156116000    309.65527    481.28206    202.37684   -112154.87    112193.01    278.90522    35.309987 
156120000    250.64057    181.68098    200.09039   -112153.27    112218.47   -18.409414    35.313683 
156124000    276.75554    262.69601     147.1598   -112181.53    112235.68    115.53621    35.320239 
156128000     268.7046    453.92027    286.30144   -112177.19    112242.05    167.61884    35.321488 
156132000    310.01072    332.77897    216.73041   -112232.92    112280.35    116.04855    35.323158 
156136000    274.10309    311.29505    310.40341   -112271.37    112303.21   0.89164538    35.329003 
156140000    245.80282    509.10276    306.72333   -112272.99     112355.1    202.37943     35.33434 
156144000    245.85754    400.56288    414.75942   -112292.68    112359.59   -14.196541    35.329528 
156148000    258.24673    343.35575    127.74612   -112328.04    112384.29    215.60964    35.334884 
156152000    289.41425    340.71116    464.49619    -112346.6    112399.14   -123.78503    35.335892 
156156000    252.64156    211.46453    311.64868   -112319.49    112388.84   -100.18415    35.339556 
156160000    292.95761    278.02696     225.1974   -112368.67    112402.37    52.829562    35.341434 
156164000    272.62322    395.65361    237.51429   -112381.43    112444.65    158.13932    35.338176 
156168000    272.72329    216.28731    277.68773   -112403.21    112456.87   -61.400421    35.337745 
156172000    294.01265    246.30483    316.20395   -112434.99    112485.81   -69.899124    35.329635 
156176000    264.07578    271.81243    239.95442   -112442.27     112505.8    31.858013    35.332732 
156180000    288.31464    315.28059    330.43638   -112493.66     112531.8   -15.155791    35.336789 
156184000    261.53452    126.55808    256.40032   -112516.98     112582.3   -129.84224    35.337185 
156188000    277.19852     318.9771    190.80894   -112557.26    112619.13    128.16816    35.333673 
156192000    299.97984    354.91043    402.23204   -112594.73    112622.44   -47.321613    35.331587 
156196000    264.45017    123.97795    408.11828   -112587.61    112645.23   -284.14033    35.326796 
156200000    262.50074    351.49414    424.93861   -112615.42     112684.6   -73.444466    35.332846 
156204000    289.48956    555.43049    409.25487   -112644.01    112692.22    146.17562    35.331247 
156208000    291.74795     255.5453    304.23885   -112649.28    112696.81   -48.693556    35.328704 
156212000    270.86726    179.77314    368.53265   -112693.27     112747.3   -188.75951    35.322448 
156216000    288.65421    433.01864    295.71561   -112732.73    112778.25    137.30303    35.327851 
156220000    283.52464    300.72459    215.46418   -112737.62    112799.46    85.260409    35.323677 
156224000    286.01575    658.42151    405.94037   -112776.45    112814.05    252.48114    35.319264 
156228000    312.34059    509.29643    248.40956   -112821.43    112845.73    260.88686    35.323753 
156232000     306.2469    331.01725    514.92644   -112841.51    112885.76   -183.90919    35.324573 
156236000    312.59737    552.88193    307.50685   -112884.89    112902.32    245.37507    35.319844 
156240000    289.54999     367.9675    393.30535   -112924.12    112963.71   -25.337845    35.323596 
156244000    329.42083    298.26474    443.29655   -112962.55    112974.14   -145.03181    35.316821 
156248000    289.12512    389.28078    411.67583   -112985.06    113037.45   -22.395044    35.314832 
156252000    275.25611    252.17442    402.35845   -113011.54    113054.15   -150.18403    35.310829 
156256000    276.70765    334.03347    333.78428   -113014.72     113074.4   0.24918618    35.306521 
156260000    281.00942    247.02646    365.90745   -113039.92    113086.82   -118.88099    35.305126 
156264000    270.48647    439.25624    306.87859   -113082.93    113147.11    132.37764    35.309094 
156268000    272.07536    273.68717    272.37094   -113121.82    113167.79    1.3162254    35.305411 
156272000    254.76653    346.12591    344.69994   -113132.69    113177.38    1.4259619    35.302568 
156276000    296.93073    283.84667    330.68555   -113153.03    113208.41   -46.838885    35.301627 
156280000    265.95529    244.42351    417.45735   -113168.68    113228.38   -173.03384    35.296975 
156284000     292.1059    265.03566    460.08977   -113201.71    113246.32    -195.0541    35.290937 
156288000    275.37829    350.93767    502.81907   -113246.44    113282.18    -151.8814    35.292734 
156292000    271.74345    218.20558    382.55234   -113241.96    113287.78   -164.34676    35.290532 
156296000    304.73079     395.4761    271.88618   -113286.82    113301.03    123.58991    35.289716 
156300000    299.40565    285.96839    473.05193    -113304.6    113339.29   -187.08355    35.288572 
156304000    303.43373    332.78327    673.22017   -113342.87    113361.26    -340.4369    35.290432 
156308000    319.64411    410.16046    277.18041   -113360.54    113390.52    132.98005    35.279703 
156312000    310.99298    406.13477    357.41745   -113380.75    113411.16    48.717321    35.284762 
156316000    276.24716    329.05592    258.89177   -113375.78    113438.87    70.164145    35.282308 
156320000    285.18092    476.45828    279.39101   -113384.92    113441.92    197.06727    35.277841 
156324000    283.50827    289.28037    485.73706   -113386.18    113440.72   -196.45669    35.280295 
156328000    273.39459    209.59524    382.06786   -113419.62    113475.09   -172.47262    35.268513 
156332000    276.50142     253.0595    315.80227   -113410.98     113463.4   -62.742769    35.267269 
156336000    294.76395    391.14389    162.81974   -113443.99    113482.48    228.32415    35.264903 
156340000    274.36375    195.00167    521.87594   -113460.85    113520.02   -326.87426    35.263475 
156344000    275.28302    264.24803    362.72267   -113484.09    113536.32   -98.474643    35.258742 
156348000    294.91677    449.17365     297.6371   -113510.76    113546.39    151.53655    35.257418 
156352000    248.29958    342.11111    336.09555   -113507.88     113574.4    6.0155521    35.257626 
156356000    274.46915    304.92574    442.11968   -113533.22    113599.82   -137.19394    35.262179 
156360000    285.01027    272.93586    303.18314   -113573.54    113630.45   -30.247274     35.25862 
156364000    314.17005    304.06957    376.97712   -113583.81    113616.75   -72.907551    35.252222 
156368000    269.21317    414.10974    274.18378   -113598.92    113666.24    139.92596    35.251074 
156372000    291.40722    340.90899     282.8008   -113634.09    113683.91    58.108186    35.248549 
156376000    261.72753    434.05902    265.06405   -113654.89    113730.69    168.99497    35.248125 
156380000    286.65226    567.61973    292.16665   -113709.92    113759.99    275.45309    35.248836 
156384000    274.40581     218.7684    282.16865   -113720.55    113782.26   -63.400252     35.24103 
156388000    282.60936    490.56969      342.226   -113760.08    113815.71    148.34369     35.25032 
156392000    260.58129     386.4018    242.88798   -113798.02    113850.12    143.51382    35.250553 
156396000    260.32534    320.89032    161.02853   -113832.21    113913.44    159.86179    35.253214 
156400000    265.02065    307.07664    308.75929   -113868.25    113930.52   -1.6826505    35.250591 
156404000    276.56209    159.35774    603.89594   -113904.09    113946.12    -444.5382    35.245059 
156408000    294.69931    352.62651    278.11612   -113915.44    113967.67     74.51039    35.244797 
156412000    281.23093    359.94979    496.45535   -113945.38    113992.32   -136.50556    35.248732 
156416000    283.19438    286.01556    295.48651   -113967.75    114020.87   -9.4709452    35.250945 
156420000    302.66636    367.31623    273.40501   -113991.98    114042.28    93.911225    35.252583 
156424000    272.63458    368.22178    373.23635   -114007.89    114077.78   -5.0145702    35.256114 
156428000    273.54431    437.36357    291.81669    -114040.2    114101.16    145.54688    35.251916 
156432000     297.4156    441.84243    356.11601    -114062.7    114126.33    85.726422    35.243377 
156436000     258.6736     321.8963    405.00542   -114060.19    114130.52   -83.109127    35.232435 
156440000    290.15521    271.99149    265.16922   -114098.37    114129.62    6.8222707    35.222536 
156444000     278.1245    204.56911     298.7762   -114102.99     114161.1    -94.20709    35.223887 
156448000    247.71143    261.35777    418.60483   -114119.39    114195.36   -157.24707    35.224339 
156452000    290.92473    551.54636    359.79133   -114135.27    114181.03    191.75503    35.228751 
156456000    324.69849    590.89822    318.87303   -114176.19    114221.04     272.0252    35.224673 
156460000    304.23604    183.03361    272.55914   -114198.85    114246.46   -89.525526    35.223255 
156464000    284.54327     352.5595    341.77575   -114229.25    114276.53    10.783751    35.228336 
156468000    258.97303    441.22772    299.98854   -114247.21    114329.16    141.23919    35.230423 
156472000    281.19757    208.95879    266.21266   -114304.08    114370.58   -57.253873    35.226134 
156476000    280.67608    252.74052    231.20573   -114346.95    114404.08    21.534795    35.222178 
156480000    241.29733    272.24092    356.12363   -114364.47    114432.63   -83.882704    35.226495 
156484000    276.12009    466.40623    301.29631   -114409.52    114451.31    165.10992    35.224979 
156488000     274.3783    332.95087     239.5514   -114429.36    114473.84    93.399469    35.218543 
156492000    285.05224     300.4258    379.38898   -114422.98    114477.81   -78.963176     35.22456 
156496000    285.20391    263.41751    286.84639   -114456.59    114514.57   -23.428876    35.225776 
156500000    293.38766    484.06433     403.7668   -114496.93    114546.28    80.297529    35.225288 
156504000    271.67204    336.48275    393.23383   -114517.39    114570.85    -56.75108    35.225875 
156508000    283.51783    411.02768    394.83983   -114535.28     114581.1    16.187844    35.217493 
156512000    275.43483    378.11233    219.96819   -114556.16     114594.8    158.14414    35.207264 
156516000    287.06164    339.44191    210.27118   -114570.62    114630.01    129.17073    35.209441 
156520000    289.94601    334.16671    368.89556   -114592.64    114639.19   -34.728849    35.209616 
156524000    294.75034    314.75132    291.73053   -114586.38    114628.86    23.020784    35.214612 
156528000    261.80462    312.16128    229.53645   -114606.99    114643.53    82.624833    35.213222 
156532000    288.13709    543.48506    375.20429   -114615.73    114677.54    168.28077    35.216145 
156536000    276.66103    386.78508    249.64898   -114645.48    114692.76     137.1361    35.208394 
156540000    284.46511    328.61394    311.92337   -114646.91     114695.4    16.690567    35.215731 
156544000    300.03679    324.21419    298.20606    -114688.7    114728.66    26.008135    35.210247 
156548000    287.36432    455.44476    408.95241   -114690.53    114747.76    46.492352    35.205164 
156552000    278.16579    195.24455    360.16781   -114720.59    114756.64   -164.92326    35.202137 
156556000     267.8507    397.74204    278.40923   -114739.17    114776.28    119.33281    35.198773 
156560000    262.58747    362.04138    275.57454   -114761.86    114822.83     86.46684    35.199508 
156564000    275.35124    234.42753    359.00589   -114803.01    114847.56   -124.57836    35.197766 
156568000    255.16894    329.98341    262.38302    -114831.1     114903.9    67.600391    35.201229 
156572000    273.80847    333.31416    422.53924   -114858.34    114915.36   -89.225082    35.202136 
156576000    287.04163    310.76222     402.3067   -114893.22    114939.97   -91.544476    35.212651 
156580000    283.53475     514.5046    376.48838   -114917.36    114976.41    138.01622    35.210523 
156584000    309.41336    336.74888    543.14331   -114943.14    114980.72   -206.39442    35.208435 
156588000    286.70626    278.53361    216.88028   -114962.81    115022.05    61.653331     35.20837 
156592000    272.77263    451.38593     346.6925   -114982.46    115048.85    104.69343    35.212814 
156596000    314.60572    349.11408     346.5883   -115020.77    115030.36    2.5257795    35.214841 
156600000    314.53501    503.13126    441.74449   -115024.59    115062.67    61.386767    35.216789 
156604000    272.32169    334.63097    202.05085   -115016.58    115077.38    132.58012    35.224973 
156608000    273.54412    298.34108    214.85087   -115041.92    115099.99    83.490208     35.22367 
156612000    264.97362    327.99603    342.90901   -115060.39    115112.73   -14.912975    35.226373 
156616000    294.56706    486.72068    732.69589   -115077.37    115129.41   -245.97522    35.226773 
156620000    286.09507    336.73023    280.27473   -115106.72    115149.36    56.455504    35.230976 
156624000    258.48914    246.67069     243.9765   -115118.79    115206.85    2.6941906    35.228154 
156628000     314.2473      380.469    414.40763   -115165.16    115202.46   -33.938635    35.222156 
156632000    268.19004    468.51818    266.49656    -115165.8     115231.2    202.02161    35.219223 
156636000    250.90487    350.73183    138.68144   -115199.82    115264.93    212.05038    35.219364 
156640000    266.60257    301.11297    304.81233   -115228.12    115292.37   -3.6993652    35.217402 
156644000    300.17675    288.62888    462.30962   -115261.44    115305.36   -173.68073    35.223547 
156648000    309.33077    687.35005    337.56041   -115299.75    115334.71    349.78965    35.222627 
156652000    302.60816    418.83182    515.14078   -115302.33    115356.19   -96.308953     35.22268 
156656000    274.82418    330.06779    301.77111   -115323.81    115379.74    28.296674    35.227297 
156660000     265.7983    229.73763    534.36863   -115340.81    115392.71     -304.631    35.222537 
156664000    281.89853    446.44437    323.40793   -115356.41    115417.54    123.03645    35.222576 
156668000    280.12543    201.12693    336.35075   -115401.65    115469.99   -135.22382    35.218514 
156672000    261.34819    290.67703    375.47458   -115444.86    115494.42   -84.797545    35.209725 
156676000    278.82171    271.20562    428.47177   -115474.54    115523.27   -157.26615    35.213527 
156680000    270.46774     296.5484    330.74516   -115494.32    115552.48   -34.196755    35.213746 
156684000    269.29773    268.53589    189.77964   -115522.36    115577.17    78.756247    35.205308 
156688000    271.85186    196.49813    298.19712   -115526.84    115578.56   -101.69899    35.204036 
156692000    320.19668    378.15572    393.00838   -115594.31    115616.54   -14.852662     35.20344 
156696000    243.80186    289.10972    339.63083   -115593.78    115674.61   -50.521106    35.201196 
156700000    304.99211    210.82806    534.33333   -115635.69    115683.03   -323.50527    35.198056 
156704000     302.1797    330.39098    442.75671   -115670.23    115725.32   -112.36573    35.199102 
156708000    275.75144    519.91136    356.25009    -115671.5    115725.07    163.66127    35.201594 
156712000    268.54293    263.05003     212.9508   -115696.07    115759.65    50.099235     35.20432 
156716000    299.49559     341.2417    409.57193    -115719.9    115761.08   -68.330231    35.205708 
156720000    277.08057    476.86932    298.90801   -115754.33    115796.54    177.96131    35.206311 
156724000    298.89963    186.20033    546.66276   -115784.54    115811.74   -360.46243    35.206024 
156728000    283.47359    480.15814    105.81881    -115785.1     115835.8    374.33933    35.208913 
156732000    283.13905    341.03466    263.90546   -115808.07    115865.97    77.129201    35.203801 
156736000    284.22464    308.97726    403.74506   -115801.32    115864.12   -94.767806    35.195817 
156740000    309.03697    352.24409    493.00574   -115833.74    115875.68   -140.76166    35.198195 
156744000    263.16307     670.9181    233.01027   -115851.97    115907.22    437.90783     35.19965 
156748000    269.04987    422.06893    248.17594   -115878.88    115939.09    173.89299    35.204698 
156752000    266.70223    251.44502    292.09781   -115897.57    115929.25   -40.652792    35.200741 
156756000    293.85666    410.16141    292.26762   -115916.45    115954.53    117.89379    35.196506 
156760000    304.39917    238.27768    434.64396   -115956.94     115971.7   -196.36628    35.189943 
156764000    264.73464    392.28738    400.44975   -115950.33    115992.74   -8.1623682    35.184282 
156768000    287.08179    399.81973    311.00394   -115972.85     116013.2    88.815798    35.176881 
156772000    284.67951    374.82111    349.79151   -115979.48    116034.31    25.029599    35.175237 
156776000    275.02144    398.62042    292.04671   -116006.99    116057.53    106.57371    35.174888 
156780000    249.60035    402.75198    246.49011   -116011.46    116073.22    156.26188     35.17456 
156784000    258.69881    371.79912     303.3501   -116030.53    116092.63    68.449025    35.174972 
156788000    269.78439    317.97311    226.98161    -116068.2    116109.32    90.991503    35.171663 
156792000    283.32498    267.35187    295.34375    -116083.2    116130.95   -27.991886    35.168596 
156796000    321.53272    467.92382    222.94714   -116141.83    116173.31    244.97668    35.164112 
156800000    266.92667    172.49726    300.43321   -116140.08    116184.86   -127.93596    35.160656 
156804000    277.01777    267.39613    311.97572   -116115.39     116192.7   -44.579589    35.160431 
156808000    260.02573    151.78448    229.08013   -116146.37    116220.34   -77.295648    35.156682 
156812000    288.64537    359.95105    414.53211   -116171.83    116221.65   -54.581059    35.160553 
156816000    331.60189    265.71267    424.70373   -116197.72     116235.6   -158.99105    35.152229 
156820000    280.13332    223.19602    307.83421   -116180.39    116234.06   -84.638195    35.152124 
156824000    286.34235    327.46968    288.96523   -116187.06    116238.18    38.504459     35.16079 
156828000    306.66505    372.42794    384.87675   -116234.16    116274.21    -12.44881     35.16507 
156832000    292.52805    369.05444    381.17244   -116274.76    116308.65   -12.118002    35.157741 
156836000    291.63658       403.85    351.71843   -116294.32    116336.19    52.131574    35.156878 
156840000    281.04101    386.84458    357.36756   -116328.41    116373.78    29.477027    35.151725 
156844000    284.30653    312.21579    387.43477   -116353.76    116406.47   -75.218976    35.155589 
156848000    259.53217    173.14027    188.36978   -116375.71    116437.06    -15.22951    35.154046 
156852000    298.14646    395.44138    300.17996   -116388.23    116435.81    95.261416    35.161904 
156856000    274.75354    408.36652    311.06491   -116391.75    116434.89    97.301608    35.162939 
156860000    290.16472    325.16557     319.8841   -116380.34    116425.15    5.2814734    35.166119 
156864000    268.00642    319.12928    196.97575   -116415.83       116466    122.15353    35.167163 
156868000    305.30644    325.80272    355.06789   -116442.35    116482.92   -29.265173    35.165619 
156872000    288.43612     225.7295    205.13461   -116480.27    116522.35    20.594895    35.161457 
156876000    279.42443    543.11011    291.38394   -116487.11    116540.09    251.72617    35.151859 
156880000    287.46715    309.54297    292.53766   -116510.02    116553.71    17.005318    35.152407 
156884000    313.71747    272.89416    393.73362   -116537.66    116560.57   -120.83946    35.150877 
156888000    301.36885    223.35614    259.91316   -116563.25    116583.32   -36.557028    35.156408 
156892000    281.33414    335.81195    260.47515   -116556.41    116606.35    75.336806    35.148845 
156896000    280.53346    435.96004    443.24595   -116589.39    116634.82   -7.2859163    35.152682 
156900000    274.28623    453.72925    486.65433    -116576.5    116647.98   -32.925086    35.158647 
156904000    277.75519    292.04957    273.40091   -116621.38    116659.95    18.648658    35.162917 
156908000    284.93191    535.23165    461.03135      -116641    116686.79    74.200301    35.166535 
156912000    310.12411    278.49916    220.23724   -116667.68    116718.96    58.261919    35.161936 
156916000    287.28783    349.23174     252.7148   -116668.83    116734.52    96.516939     35.15881 
156920000    270.94718    294.09271    233.95173   -116700.59    116753.06    60.140984    35.165263 
156924000    282.80707    337.01582    378.88674   -116721.62    116771.28   -41.870916    35.170017 
156928000    265.20133    408.39972    277.12561   -116731.81    116800.09    131.27411    35.177009 
156932000    267.27294     501.8697    422.25906   -116747.81    116828.49    79.610638    35.174248 
156936000    278.26928    423.93202    476.87426   -116773.76    116836.17   -52.942243    35.172879 
156940000     309.7321    454.28127    256.03873   -116807.23    116841.68    198.24254    35.179727 
156944000    296.62399    368.58297    424.99249   -116820.93    116843.91   -56.409517    35.180101 
156948000     315.3652    310.26819    517.08221   -116840.18    116877.87   -206.81403    35.179754 
156952000    289.65026    246.35095    314.65262   -116868.61    116909.92   -68.301672    35.183431 
156956000    274.74691    420.82058    366.88421   -116872.56    116928.38    53.936369    35.177257 
156960000    263.86009    221.04776    272.05062   -116896.21    116941.54   -51.002856    35.179227 
156964000    283.57905    469.25406    168.39564   -116893.04    116945.63    300.85842    35.169095 
156968000    296.96774    549.61235     260.9331   -116928.21     116970.1    288.67925    35.170536 
156972000     275.6431    566.02711    248.97644   -116953.36    117019.34    317.05067    35.169552 
156976000    272.64317    266.17777    210.73178   -116961.27    117034.42    55.445982    35.171694 
156980000    284.97513    375.65634     233.4182   -116984.11     117034.5    142.23815    35.170145 
156984000    312.08064    519.43309     320.3759   -117020.73    117062.61    199.05719    35.172712 
156988000    297.80783    837.55863    139.45579   -117076.66    117103.55    698.10283    35.169602 
156992000     294.9779    191.69539    401.48587   -117095.08    117120.24   -209.79048    35.173322 
156996000    289.94184    278.76676    596.79756   -117082.08    117126.04    -318.0308    35.166126 
157000000    260.35615     313.8155    187.42187   -117089.28    117128.34    126.39363    35.163517 
157004000    290.60806     243.3629    236.21295   -117110.44    117163.28    7.1499573    35.154162 
157008000     301.3235    404.71821    421.14553   -117164.03    117203.95   -16.427318    35.151002 
157012000     266.5445    144.99984    470.54148   -117198.26    117258.51   -325.54164    35.154198 
157016000    296.33755    385.58931    295.76509   -117245.49    117287.74    89.824225    35.157592 
157020000    286.66289    405.44136    252.45579   -117283.48    117326.99    152.98557    35.155658 
157024000    277.50142    342.04699    358.96642   -117304.64    117342.24   -16.919433    35.158686 
157028000    274.24122    494.21458     349.4265    -117316.9    117373.23    144.78808    35.159263 
157032000    259.44019    341.79962     201.1524   -117314.13    117387.72    140.64721    35.163122 
157036000    271.25814    372.25421    404.37804   -117369.63    117432.47   -32.123824    35.158117 
157040000     295.8614    394.81358    205.61164   -117392.75    117428.62    189.20194    35.158048 
157044000    280.12485    511.47082    140.31958   -117423.51    117462.92    371.15123    35.155244 
157048000    270.96181    264.80229    307.76045   -117401.79    117456.59   -42.958166    35.161366 
157052000    245.15683    270.10335    292.66042   -117415.07    117484.08   -22.557074    35.162544 
157056000    245.02507    215.82856    187.60786   -117454.03    117520.07    28.220706    35.157168 
157060000    271.23579     249.1183    271.02349   -117475.71    117531.85   -21.905189    35.148224 
157064000    284.04081    309.35978    242.28422   -117524.95     117556.1    67.075562    35.148132 
157068000    299.91995    267.43454    441.98526   -117531.71    117559.63   -174.55072    35.145069 
157072000    300.74658    348.58234    266.09984   -117559.44    117581.25    82.482492    35.148224 
157076000    281.16345     461.8728    249.78274    -117559.5    117609.82    212.09006    35.145514 
157080000      286.615    308.01143    264.95992   -117582.68    117628.81    43.051513    35.149535 
157084000    283.57992    378.83999    169.17397   -117602.13       117648    209.66602    35.149021 
157088000      261.454     396.0289    453.11389   -117626.51    117674.19   -57.084986    35.152835 
157092000    276.30297    205.13769    334.36868   -117641.89    117707.64   -129.23099    35.149862 
157096000    305.72613    541.40235    243.35272   -117677.92    117727.92    298.04964    35.150819 
157100000     245.9087    568.21702    217.67972   -117713.15    117781.36     350.5373    35.152079 
157104000    285.06952    440.56992    290.26575   -117747.89    117770.53    150.30418    35.159788 
157108000    315.15379    608.68837    313.73795   -117755.94    117773.94    294.95042    35.164572 
157112000    325.05614     711.9783    291.70572   -117759.26    117787.75    420.27258    35.163311 
157116000    280.83214    243.12628    260.50591   -117754.02    117794.16   -17.379631    35.157796 
157120000    270.66596    220.28739    397.16175   -117768.94    117815.76   -176.87436    35.152664 
157124000    270.32832    418.79722    254.82824   -117802.78    117843.11    163.96899    35.148556 
157128000    296.73357    629.55746    304.81421   -117814.01    117866.34    324.74325    35.141339 
157132000    272.94972    246.42819    432.25071    -117822.3     117884.7   -185.82251    35.136248 
157136000    281.05593    332.93744    284.94279   -117872.02    117907.39    47.994642    35.135884 
157140000    282.53934    420.75522    403.03329   -117891.87    117948.75    17.721932    35.142453 
157144000    277.16971    281.00021     332.2981    -117900.9    117975.59   -51.297885    35.146377 
157148000     288.8246    188.25218    208.07941   -117927.12     117974.7   -19.827228    35.143253 
157152000    254.77204    220.06657    265.96041   -117953.82    118024.42   -45.893841     35.14274 
157156000    291.06221     465.4214    249.56718   -117999.58    118032.48    215.85422     35.13922 
157160000    281.49699     431.6085    190.84083   -117998.62    118036.99    240.76766    35.141085 
157164000    292.71414    251.77974    549.03402   -118010.17    118052.45   -297.25428    35.132475 
157168000    285.05034    281.21708    309.08154   -118047.04    118079.63   -27.864461    35.136442 
157172000    264.03453    496.71606    287.96874    -118076.4    118130.42    208.74732     35.14136 
157176000    299.86606     304.0967    377.86668   -118118.74    118156.45   -73.769977    35.139456 
157180000    260.33979    388.91621     316.6711   -118145.09    118195.84    72.245102    35.136043 
157184000    271.06503    451.16496    293.19383   -118160.95    118220.15    157.97113    35.132445 
157188000    286.35051    509.78457     365.3139   -118187.42    118234.65    144.47068    35.139191 
157192000    272.54219    167.41785    468.34634   -118203.59    118260.17   -300.92849    35.138876 
157196000    316.75609    394.38476    202.96765   -118247.15    118285.77    191.41711    35.147299 
157200000    276.41509     268.7842    252.23297   -118241.22    118291.95    16.551226    35.151205 
157204000    297.73653    293.01761    294.02611   -118282.46    118321.15    -1.008498    35.146514 
157208000     302.3969    372.14103     319.2045   -118303.13     118344.2    52.936526    35.151271 
157212000    293.93031    510.45072    362.75297   -118325.39    118379.91    147.69776    35.146844 
157216000    306.04893    407.49161    386.08667   -118336.58    118398.58    21.404941    35.149093 
157220000    291.88973     337.0384    460.81508   -118377.99    118407.38   -123.77668    35.147735 
157224000    290.86547    453.33639    478.78094   -118406.68    118455.85   -25.444542    35.154682 
157228000    310.54856    322.67567    453.79535   -118415.61    118443.43   -131.11969    35.152403 
157232000    278.09644    352.67581    298.29966   -118425.02    118492.15    54.376144    35.143708 
157236000    291.40858    450.90395    418.30706   -118446.45    118486.31    32.596884    35.151985 
157240000    308.12073    331.09586    354.91547   -118466.98    118504.56    -23.81961    35.152242 
157244000    291.46261    358.61057    327.66919   -118467.07    118519.78    30.941379    35.156933 
157248000     283.9638    403.29534    284.04321   -118473.33    118532.88    119.25213    35.161426 
157252000    276.20951     389.6859    236.12295    -118473.4    118543.91    153.56296    35.155314 
157256000     300.8434    448.33703    402.09047    -118508.7    118537.95    46.246557    35.156443 
157260000    260.71694    219.99222    320.39027   -118482.21    118545.46   -100.39805    35.151666 
157264000     272.6481    601.89487    175.98347    -118511.9    118557.14     425.9114    35.153811 
157268000     267.3147    288.53574    270.37368   -118530.83    118600.42    18.162064    35.151487 
157272000    285.50432    392.23771    613.30374    -118549.6    118603.56   -221.06603    35.149124 
157276000    273.35134    421.79417    226.55766   -118594.88    118626.48    195.23651    35.156621 
157280000    289.03403    482.79593     563.8846   -118604.29    118649.63   -81.088675    35.152852 
157284000    283.61383    389.47064    383.52624   -118613.98    118665.94    5.9444038     35.15024 
157288000      291.068    221.99867    326.20912   -118652.17    118704.27   -104.21045    35.144796 
157292000    261.01141    339.55415    271.25178    -118650.1     118718.5    68.302365    35.150643 
157296000    249.00873     430.8312    185.61624   -118671.05    118742.08    245.21496    35.149887 
157300000    239.14376    311.28192    292.39022   -118675.22    118768.82    18.891695    35.147873 
157304000    288.25974    338.31218    200.62502   -118734.66    118801.86    137.68716    35.152362 
157308000    259.46031    353.60303    230.68612   -118794.63    118846.47    122.91691    35.148036 
157312000    255.06921    235.65853    579.36515   -118813.14    118889.72   -343.70663      35.1457 
157316000    283.90443    502.07546      314.437    -118862.1    118906.57    187.63845    35.149388 
157320000    273.04274    451.81741    281.69133   -118878.15    118943.43    170.12608    35.143162 
157324000    319.86092    357.90467    369.04581   -118912.48    118937.61   -11.141135    35.147486 
157328000    284.24997    321.20847    498.90332   -118913.59    118980.75   -177.69484     35.14911 
157332000    291.43696    338.46955    385.18871   -118956.38    119009.25   -46.719166    35.147691 
157336000     284.2831     586.2131     292.6828   -118968.45    119027.77    293.53031    35.144546 
157340000    291.66096    377.07867    345.76896   -118962.66    119015.38    31.309714    35.144935 
157344000    269.49436    571.72395    228.18736   -118975.83    119026.15    343.53659    35.143813 
157348000    306.29032      221.702    311.25989   -118994.11    119034.31   -89.557885    35.142147 
157352000    265.70424    507.80695    276.56456   -119021.41    119072.45    231.24239    35.147311 
157356000    282.09263    510.11079    201.82103   -119043.58    119091.64    308.28976    35.151396 
157360000    305.13943    419.49806    431.51012   -119057.19    119106.02   -12.012053    35.161321 
157364000     301.0255    370.36927    347.78437   -119083.32    119135.93    22.584899    35.159253 
157368000    264.91515    442.36813    283.96822   -119099.89    119153.07    158.39992    35.161213 
157372000    257.14447    266.71918    123.32106   -119129.42    119197.19    143.39812    35.159339 
157376000    277.87827    323.34471    230.94454   -119149.56    119203.95     92.40017    35.158362 
157380000    280.54554    491.12196      255.594   -119198.13    119235.23    235.52796    35.158966 
157384000    302.29842    340.50217    320.16283   -119223.98    119245.35    20.339338    35.154073 
157388000    299.44967    398.40474    356.27996   -119194.11    119247.79    42.124779    35.154471 
157392000    294.44476    467.43669    276.00626   -119216.86    119255.75    191.43042    35.155503 
157396000    289.58596    275.30124    410.63363   -119196.07    119245.21   -135.33239    35.151561 
157400000    276.49366    679.00311    260.25201   -119234.19     119289.2    418.75109    35.151272 
157404000    259.39197    405.85464    391.52878   -119244.63    119329.71    14.325857    35.155511 
157408000    311.80509    576.75797     282.4995   -119295.55    119330.38    294.25847    35.154348 
157412000    273.07584    421.16062    350.70705   -119298.69    119349.49    70.453573     35.15693 
157416000    273.05654    396.52303    444.81708   -119316.72    119356.54   -48.294045    35.155607 
157420000    298.23478    335.57841    241.64222   -119367.74    119390.23    93.936185    35.147075 
157424000    298.19708    544.35425    414.09204   -119365.62    119418.74    130.26221    35.147062 
157428000    300.56791    471.78177    257.61363   -119379.86    119430.78    214.16814    35.155839 
157432000    283.49875    387.89141    168.00779   -119396.65    119452.18    219.88361    35.151964 
157436000    269.88195    255.72316    359.94423   -119425.24    119470.31   -104.22108    35.151182 
157440000    286.82754    285.76287    209.55922   -119436.76     119499.2    76.203649    35.155867 
157444000    269.77893    325.76398    172.63451   -119447.52    119523.12    153.12947    35.154362 
157448000    270.38302     439.4515    176.11947   -119479.33    119540.43    263.33202    35.161578 
157452000    296.40617    505.42525    302.36117   -119518.31    119571.54    203.06407    35.155427 
157456000    291.38224    122.53455    536.78836   -119536.45    119590.58   -414.25381    35.154951 
157460000    306.75602    250.09273    371.35111   -119554.05    119606.45   -121.25838    35.151856 
157464000     314.8288      312.507    595.76365   -119579.15       119624   -283.25665    35.148413 
157468000    283.30157    335.31698    313.45433   -119588.06    119652.51    21.862649    35.145804 
157472000    275.45155    315.59868    219.72177   -119605.34    119674.86    95.876912    35.153498 
157476000    293.58379    275.93079    399.33466   -119619.28    119659.68   -123.40387    35.158304 
157480000    304.21987    389.37878    391.89427   -119639.81    119693.65   -2.5154929    35.161374 
157484000    318.09793    448.89708    411.14424   -119684.83    119721.37    37.752841    35.162395 
157488000    287.54837    420.08412    183.97077   -119713.67    119770.85    236.11334    35.155891 
157492000    283.88692     343.5879    382.53294   -119745.88    119817.13   -38.945043    35.159215 
157496000    258.82405    321.12923    219.70703   -119786.03    119855.71     101.4222    35.160194 
157500000    297.71631    453.81078    384.54893   -119849.04    119891.27    69.261854     35.16153 
157504000    256.05926    390.88552    267.85137   -119833.87    119885.51    123.03414     35.16216 
157508000    306.15119    396.32792    327.14345   -119851.73    119909.39    69.184472    35.160966 
157512000    284.87023    413.12801    392.08336   -119880.95    119934.05    21.044646    35.161224 
157516000    275.68202    476.35295    210.84353   -119875.68    119945.19    265.50943    35.160619 
157520000      292.026    344.15012    492.06403    -119908.5    119946.38    -147.9139    35.161146 
157524000    257.46742    243.56207    214.87281   -119930.25    119989.93    28.689261    35.162349 
157528000    280.30433    354.33628     321.8526   -119923.65    119991.53    32.483689    35.166287 
157532000    306.05754    371.98881    262.41856   -119965.23    120015.76    109.57024    35.169551 
157536000    305.63975    416.07057     292.0876   -120009.21    120045.94    123.98297    35.172026 
157540000    293.15072    216.09426    297.70039   -120003.13    120063.08   -81.606128    35.170675 
157544000    306.71521    195.67194    308.62632   -120016.31    120085.05   -112.95438    35.178096 
157548000    282.35852    304.40489    314.98478   -120054.46    120114.45   -10.579893    35.177485 
157552000    268.95627    431.20027    319.32639   -120100.39    120160.16    111.87388     35.16266 
157556000    278.69505      350.168    377.68253   -120126.17    120167.35   -27.514531    35.159067 
157560000    256.47616    286.52112    416.10058   -120123.28    120192.47   -129.57945    35.158886 
157564000     291.5872    360.18129    374.25834   -120161.18    120209.62   -14.077054    35.158139 
157568000    273.49595    536.55057    270.89255   -120149.16    120228.36    265.65802    35.156216 
157572000    305.67732    504.38429     228.9598   -120186.81    120212.23    275.42449    35.164744 
157576000    277.97008     393.4912    380.86285   -120185.44    120237.57    12.628352    35.167393 
157580000    286.55433     190.2198    400.16781   -120242.52    120289.07   -209.94801    35.170609 
157584000    289.34583    504.51834    213.33442   -120249.08     120299.5    291.18392    35.175607 
157588000    281.01156    403.72651    320.03843   -120284.89    120342.96    83.688075    35.171445 
157592000    292.99287    568.44084    257.58688   -120343.18    120396.25    310.85396    35.172294 
157596000     332.5893    571.49561    236.40035   -120385.41    120422.17    335.09525    35.168839 
157600000    273.97121    206.32756    358.37547   -120401.84    120464.82   -152.04791    35.160277 
157604000    305.31822     359.6016    280.90079    -120445.7    120478.65    78.700813    35.160885 
157608000     305.5735    421.90605    361.31382   -120464.61    120512.43    60.592233     35.16066 
157612000    300.59132    423.38518    262.02562   -120483.96    120522.43    161.35956    35.163785 
157616000    310.91657    310.08982    465.26609   -120511.72    120545.73   -155.17627     35.16165 
157620000     281.5185    256.17856    368.02727   -120513.77    120588.33   -111.84871    35.166179 
157624000    264.36695    258.68272    527.64746   -120541.36    120609.52   -268.96474    35.167121 
157628000    317.84713    321.28228    332.56724   -120578.72    120613.11   -11.284957    35.168161 
157632000    261.99021    231.52084    361.87405   -120615.08    120665.06   -130.35321    35.166667 
157636000    286.66064    533.44074    277.41558   -120653.76    120716.37    256.02516    35.174374 
157640000    266.20401    460.89451    202.69493   -120673.13    120739.13    258.19958    35.176178 
157644000    295.50667    369.63253    242.37777    -120714.7    120769.69    127.25477    35.172718 
157648000    314.10033    308.07677    241.09835   -120723.05    120756.24    66.978416    35.167255 
157652000    272.31584    289.18086     352.3058   -120724.63     120792.1    -63.12494    35.170195 
157656000    272.29776    217.93989    451.39624   -120736.82    120797.35   -233.45635    35.168642 
157660000    256.79628      382.266    276.83093   -120753.43    120830.04    105.43506    35.162609 
157664000    270.99987    258.30235    337.84604   -120772.55    120830.09   -79.543693     35.15982 
157668000    279.34712    495.95461    305.38729   -120783.95    120829.99    190.56733     35.16571 
157672000    280.14482    264.98947    429.93749    -120781.5    120845.46   -164.94802    35.162861 
157676000    305.06811    401.94156    473.98656   -120807.61    120854.87   -72.044999     35.16489 
157680000    319.18991    290.71823    218.91769   -120835.55    120870.56    71.800545    35.165271 
157684000    295.81746    404.56416    203.69376   -120877.95     120919.3     200.8704    35.165929 
157688000    284.69527    236.42497    410.57965   -120924.23    120946.99   -174.15469    35.164463 
157692000    274.84796    320.38396    230.45395   -120919.06    120976.59    89.930001    35.161697 
157696000    276.13259    350.78921     258.6975   -120921.24    120978.43    92.091712    35.163856 
157700000    272.44869    315.66386    363.59119   -120936.69    120991.99   -47.927327    35.165258 
157704000      294.625    640.68303    474.71633   -120958.48    120994.85     165.9667    35.167377 
157708000    283.15716    423.01746    266.33459   -120956.94    121014.61    156.68287    35.171486 
157712000    278.26584    292.22813    151.52245   -120993.01    121056.97    140.70569     35.17827 
157716000    285.57081    294.15797    338.70122   -121009.55    121067.06   -44.543248    35.176047 
157720000    278.53958    282.21932     209.2779   -121036.83    121078.65    72.941419    35.178573 
157724000    271.87911    198.01356    428.82885   -121035.86     121115.8   -230.81528    35.172013 
157728000    308.29418    394.15891     302.3914   -121069.09    121115.11    91.767505    35.170959 
157732000    264.74059    348.19955    272.66953   -121065.73    121140.71    75.530017    35.166271 
157736000    284.59076     346.1374    277.31026   -121069.34    121143.27    68.827137     35.17064 
157740000    296.61609    336.43964    224.99297   -121123.41     121166.3    111.44666    35.169827 
157744000    266.04222    509.72929    278.29958   -121139.57    121196.31    231.42972    35.172785 
157748000    274.14505    268.81902    127.46201    -121155.2    121198.64    141.35702     35.17196 
157752000    255.29255    413.19687    228.63598   -121166.03    121231.56    184.56089    35.170439 
157756000    260.06677    278.83754    245.27006   -121178.28    121241.71    33.567482     35.17904 
157760000     292.2237    404.55759    209.67642   -121234.41    121271.91    194.88118    35.182849 
157764000     275.1946    477.70748     216.8503   -121274.55    121317.01    260.85718    35.186496 
157768000    295.76035     377.3444     194.3547   -121281.77    121337.54    182.98969    35.186902 
157772000    279.16915    464.11542     360.8326   -121324.04    121378.44    103.28282    35.189748 
157776000    287.76032    400.01863    308.68315   -121344.06     121399.5    91.335488     35.19364 
157780000    275.71478    359.87443    137.24053    -121358.8     121414.7     222.6339     35.19551 
157784000    275.94747    409.84493    247.04152   -121377.45    121431.89    162.80342     35.20003 
157788000    262.35077    404.88443     252.8553    -121396.8    121435.41    152.02913    35.206099 
157792000    291.68122    306.90982     261.1997   -121412.96    121462.46    45.710116    35.204852 
157796000    277.76727    226.32927    417.61053   -121422.82    121484.34   -191.28126    35.199349 
157800000     279.9663    306.60082    191.90599   -121449.89    121488.27    114.69484    35.192385 
157804000    308.27522    406.56067    300.85713   -121481.12    121524.98    105.70354    35.190966 
157808000    257.58039    301.50841    298.53892   -121496.64    121550.14    2.9694907    35.188887 
157812000    268.31899    256.75632    396.37949   -121515.27    121584.52   -139.62316    35.189221 
157816000    292.86325    597.96946    240.49614    -121547.9    121598.69    357.47332    35.197437 
157820000    297.52201    464.72368    289.92696   -121579.26    121611.62    174.79671    35.200605 
157824000    304.36438    366.36747    448.73544   -121588.91    121610.79   -82.367967    35.203921 
157828000    280.05737    340.51698     289.3683   -121585.31     121635.7    51.148686    35.202095 
157832000    301.18521    225.98053    394.10466    -121601.2    121646.51   -168.12412    35.205776 
157836000    284.87027    413.34342    477.02223    -121605.5    121665.37   -63.678812    35.204331 
157840000    277.07389    308.89133    400.97817   -121612.83    121669.59   -92.086849    35.193163 
157844000    274.37025    313.52709    506.29337   -121637.07    121698.46   -192.76628    35.192793 
157848000    270.12233     282.0261    427.49605   -121664.93    121722.63   -145.46996    35.197596 
157852000    283.87464    345.80575    307.35049   -121683.51    121743.82    38.455253    35.196314 
157856000     294.3643    384.89374    280.32765   -121705.78    121746.55    104.56609    35.201013 
157860000     267.2304    302.89491    295.14472   -121688.58    121732.84    7.7501826    35.203319 
157864000    294.00893     456.5359    272.02718   -121712.22    121741.04    184.50872    35.200593 
157868000     278.9371    181.98629     300.0233   -121700.16    121751.14   -118.03701    35.197868 
157872000    273.88891     324.7956    170.30322   -121705.16    121734.25    154.49238    35.199295 
157876000    287.52169    302.25107    389.05889   -121698.68    121753.18   -86.807817    35.201215 
157880000    274.31039    254.05346    284.03312   -121717.22    121778.06   -29.979653    35.203556 
157884000     291.1669    177.01838    268.39569   -121745.16    121796.05   -91.377307     35.20446 
157888000     285.0016     281.6257    338.82507   -121796.29    121839.82   -57.199366    35.202506 
157892000    293.62867    417.62722    350.36048   -121829.59    121862.44    67.266739    35.202509 
157896000    274.74671    348.74168    356.90294   -121840.66    121888.14   -8.1612603    35.199238 
157900000    292.83296    503.56768    392.58384   -121881.19     121930.6    110.98384    35.196808 
157904000    312.42191    437.24569    382.12421   -121907.23    121943.03    55.121483    35.194022 
157908000    299.12825     346.7769    338.21144   -121944.13    121978.51     8.565455     35.19547 
157912000    276.55908    284.63695    285.40204   -121957.02    122018.13  -0.76509529    35.193282 
157916000    310.11988    243.90367    385.68298   -122010.94    122049.44    -141.7793    35.193543 
157920000    278.55701    349.81042    370.95934   -122024.45    122084.59   -21.148916    35.187369 
157924000    297.59514    422.21787    398.20512   -122038.04    122085.18     24.01275    35.193464 
157928000    269.26783      240.638    332.89383   -122051.38    122113.85   -92.255834    35.192772 
157932000    284.79887    353.13162    202.65343   -122062.04     122119.9    150.47819    35.190059 
157936000    288.25365    302.50163    347.41559   -122086.91    122130.72   -44.913963    35.187304 
157940000    281.83487    251.06284    386.88612   -122094.19    122158.47   -135.82328    35.182209 
157944000      272.276    278.58259     268.4097    -122134.2    122190.41    10.172893    35.174502 
157948000    270.74057    281.95233    229.95295   -122133.18    122206.78    51.999377    35.172103 
157952000    286.05814    217.25863    331.40595   -122161.62    122212.98   -114.14733    35.175368 
157956000    293.12436    439.93344    303.89277   -122180.07    122233.12    136.04067    35.173393 
157960000    270.10764     304.4536    334.41975   -122157.85    122228.33   -29.966153    35.175038 
157964000    267.46274    305.70698     294.8799   -122167.15    122226.96    10.827081    35.169612 
157968000    274.28354    305.86885    371.84053   -122198.99    122261.53   -65.971685    35.168183 
157972000     321.9099    438.84837    461.97324   -122242.65    122273.69   -23.124876    35.167889 
157976000    284.44805    223.64638    362.56679   -122245.56    122303.14   -138.92041    35.164137 
157980000    281.69188    266.82855    333.72647   -122268.83    122314.71   -66.897927    35.160055 
157984000    300.58376    373.89929    288.44159   -122266.05    122323.69      85.4577    35.160652 
157988000    312.57237    196.80518    292.96216    -122296.8    122335.51   -96.156981    35.164729 
157992000    292.23557    353.21109    453.73934   -122300.13    122341.03   -100.52824     35.17101 
157996000    260.97224    238.22632    428.74993   -122298.53    122364.55   -190.52361    35.174194 
158000000    281.86449    415.76101    260.60471   -122329.37    122395.31     155.1563    35.173249 
158004000    320.14974     518.3445    485.29212   -122365.63    122407.05    33.052378    35.178846 
158008000    256.39188    307.72379    329.75763   -122359.13     122438.5   -22.033837    35.176065 
158012000    251.77508    344.76338     230.9624   -122385.48    122471.14    113.80097    35.180657 
158016000    304.00565    395.35168     290.0568   -122425.12    122475.34    105.29488    35.183959 
158020000    285.57172    292.37365    184.66143      -122422    122488.47    107.71221    35.182781 
158024000    283.22089    372.89222     290.7613   -122439.29    122485.57    82.130921    35.182726 
158028000    263.39408    414.83028    438.81272   -122444.69    122523.28   -23.982442    35.186534 
158032000    281.54204    390.20055    226.26962   -122487.26    122542.25    163.93093    35.186958 
158036000    306.89204    183.58425    326.74394   -122516.16    122543.44    -143.1597    35.178857 
158040000    309.34636    388.50122    228.33106    -122535.2    122578.68    160.17017    35.176058 
158044000     262.8298    216.61151    229.11785    -122545.9    122598.27   -12.506337    35.170641 
158048000    282.49386    328.58408    402.38978   -122562.14    122625.12   -73.805695    35.169319 
158052000    309.71206    500.29458    247.60343   -122615.62    122646.91    252.69115    35.174621 
158056000    257.53595    376.75207    235.42831   -122623.92    122697.18    141.32377    35.179994 
158060000    270.45053    364.01643    420.79304      -122666     122718.7   -56.776612    35.173511 
158064000    281.54526    222.40938    416.07384   -122710.68    122764.78   -193.66446     35.17477 
158068000    271.48769    314.79216    468.42045   -122723.77     122780.3   -153.62829    35.175863 
158072000    291.05161    330.78573    179.27053   -122737.73    122781.95     151.5152    35.173369 
158076000    275.08393    229.25809    368.29701   -122761.34    122810.36   -139.03892    35.166334 
158080000    266.36053    319.54405    261.77335    -122774.7    122835.85      57.7707    35.170017 
158084000     268.5059    299.38319    200.96392   -122778.69    122847.55    98.419275    35.173557 
158088000    264.82566    354.37614    382.35423   -122808.29     122874.7   -27.978089    35.176598 
158092000    297.54228    385.08612    325.31145   -122839.81    122881.72    59.774664    35.175611 
158096000    275.54462    225.11678    253.30186   -122864.83    122916.81   -28.185076    35.166392 
158100000    298.26558    484.96715     353.6754   -122878.88    122929.97    131.29174    35.163719 
158104000    308.67207    373.88085    375.16196   -122908.93    122965.19   -1.2811084    35.168774 
158108000    287.83069    569.81403    515.98948   -122964.49     123006.2    53.824549    35.173081 
158112000    328.31368    485.34537    486.24333   -122989.71    123012.91  -0.89796065    35.171874 
158116000    317.79008    410.40221    484.78947   -123004.05    123040.25   -74.387259    35.170808 
158120000    269.41797    463.63214    296.97942   -122994.01    123051.54    166.65271    35.166763 
158124000    302.40525    330.36195    324.04559    -123028.9    123070.07    6.3163607    35.158841 
158128000    282.97321    249.12955    254.36973   -123025.77     123093.4   -5.2401736     35.16063 
158132000    276.71847     441.9189    379.11146    -123046.5    123108.94    62.807439    35.163691 
158136000    313.51655    718.71563    372.26316   -123050.28    123090.95    346.45247    35.165035 
158140000    289.61141      248.757    402.38216   -123076.49    123117.65   -153.62517    35.169244 
158144000    280.81757    285.33279    342.51656   -123103.75    123182.92   -57.183764    35.167576 
158148000     275.4127     409.1803    272.17303   -123147.31    123203.79    137.00727     35.16841 
158152000    260.61225    286.69313    330.97095   -123159.84     123234.4   -44.277823    35.165313 
158156000    306.92006    273.67852    437.79518   -123215.16    123250.87   -164.11666    35.165126 
158160000    271.97317    304.31498    310.89872   -123226.26    123276.67   -6.5837449     35.16746 
158164000    294.75943    234.47871    257.93224    -123242.5    123294.22   -23.453532    35.166957 
158168000    247.41318    278.36146    397.83812   -123233.39    123320.76   -119.47667    35.158656 
158172000    279.09162    483.80955    227.81296   -123269.15    123331.09    255.99659    35.166651 
158176000    271.04982    387.73756    321.85825   -123285.95    123336.82    65.879311    35.164211 
158180000    301.32656    271.04871     482.4868   -123287.36    123332.53   -211.43809    35.163348 
158184000    273.05896    303.44812    322.11755    -123309.4    123366.44   -18.669427    35.156201 
158188000    304.40871    261.29936    315.80361   -123353.76    123394.62   -54.504258    35.162338 
158192000    295.36582    415.59769    427.47243   -123370.13     123413.9   -11.874739    35.163744 
158196000    277.16874    380.72142    330.31111    -123394.7    123451.45     50.41031    35.165267 
158200000     294.9133    298.13197     270.8585   -123420.02    123468.84    27.273467    35.168222 
158204000    288.11495    332.21235    398.08695   -123431.83    123489.47   -65.874607    35.171948 
158208000     290.9406    237.57494     314.1987   -123462.81    123505.91   -76.623761    35.167662 
158212000    293.83253    482.39576    312.21591      -123494    123538.61    170.17985    35.172336 
158216000    304.44211     448.1675    324.99813   -123530.97    123565.82    123.16937    35.175449 
158220000    265.46609    403.93699    252.17578   -123550.18    123629.35    151.76121    35.169471 
158224000    274.06341    399.75943    343.09651    -123564.7    123631.34     56.66292    35.167953 
158228000    296.29906    401.94931    376.15964   -123599.63    123655.31    25.789665    35.169794 
158232000    274.99299    170.50818    380.98747   -123634.68    123692.87    -210.4793    35.174557 
158236000    294.25285    354.27727    359.44005   -123671.66    123723.75   -5.1627774     35.17467 
158240000    288.69127    232.39355    181.74346   -123697.23     123750.5    50.650085    35.172207 
158244000    274.40738    444.99717    265.37182   -123720.57    123779.52    179.62534    35.176982 
158248000    294.34845    408.41771    171.98085   -123738.34    123800.01    236.43687    35.177609 
158252000    251.15399    217.39564    162.98161   -123744.46    123803.06    54.414022    35.172017 
158256000    297.26398    418.01622    411.26034   -123748.34    123797.17    6.7558776    35.167702 
158260000     266.9366    522.00225    307.25198   -123776.66    123843.36    214.75027    35.168262 
158264000    310.28907    295.64661    419.59691    -123823.7    123852.57    -123.9503    35.168875 
158268000    311.04756    397.80457    263.00373   -123851.67    123876.11    134.80083      35.1667 
158272000    275.29763    194.82217    210.88216   -123860.52    123931.42   -16.059994    35.165287 
158276000    296.32836    512.33974    340.31849   -123916.66    123967.41    172.02125    35.170763 
158280000    250.15619    234.43588    228.15529   -123931.59    124015.11    6.2805986    35.167515 
158284000    298.64244    390.93795    444.16268   -123974.47     124029.6   -53.224724    35.170196 
158288000    299.92714    401.49826    264.26453   -124004.24     124055.2    137.23372    35.172116 
158292000    310.81772    463.44775    450.33613   -124027.49    124065.15    13.111624    35.169995 
158296000    269.81516     395.3999    296.59283   -124041.22    124077.61    98.807062    35.168885 
158300000     295.4536     231.1195    410.74123   -124039.27     124085.6   -179.62174    35.170831 
158304000    281.94696    530.39148    423.86838   -124050.57    124128.77     106.5231    35.169236 
158308000    293.46083    546.87222    443.08001   -124079.43    124129.13    103.79221    35.166774 
158312000    303.80967     253.0644    479.46907   -124100.18    124158.63   -226.40467    35.163662 
158316000     281.8797    309.14735    267.98903   -124122.08    124171.95    41.158324     35.16026 
158320000    264.90022    255.21693    161.12142   -124132.28    124214.61    94.095511    35.156894 
158324000    280.35449    335.00815    262.18885   -124151.53    124207.51    72.819294    35.157559 
158328000    272.77602    349.73217    378.54471    -124156.7    124214.98   -28.812544    35.148733 
158332000     284.3079    402.09483    320.00094   -124173.55    124242.05    82.093898    35.153251 
158336000    301.72385    433.05092    395.68568   -124210.84    124260.61     37.36524    35.152178 
158340000    280.47623    428.42324    421.90451   -124232.79    124295.55    6.5187263    35.149632 
158344000     285.6727    562.77202    302.37316   -124246.62    124303.41    260.39886    35.156479 
158348000    265.02905    385.94685     288.6496    -124268.8     124324.7    97.297256    35.155647 
158352000    249.67298    293.61636    374.51183   -124304.43    124385.21   -80.895462    35.153892 
158356000    257.65209    241.06748      314.364   -124336.53    124412.87    -73.29652    35.150325 
158360000    288.85962    350.18622    373.14168   -124378.24    124438.66   -22.955457    35.147154 
158364000    284.72866    380.81833    277.80666    -124396.6    124458.48    103.01167    35.153997 
158368000    277.11218    423.80166    229.35754   -124426.99    124499.13    194.44412    35.154228 
158372000    280.73935    481.42296    227.06048    -124440.8    124509.08    254.36248    35.156522 
158376000    292.46869    207.26972    304.13131   -124462.33    124507.13    -96.86159    35.152506 
158380000    253.77824     310.7299    182.74817   -124498.33    124558.38    127.98174    35.150387 
158384000    303.83462    240.15881    468.18515   -124536.95    124571.73   -228.02633    35.151354 
158388000    235.73443    423.92306    198.64287   -124534.36    124620.85    225.28019    35.150229 
158392000    285.84097    351.96223    242.93932   -124571.36    124631.68    109.02291    35.154649 
158396000    287.79063    374.27735    169.92926   -124602.89    124654.47    204.34809    35.150583 
158400000    303.23216    547.90429     467.0425   -124637.05    124679.37    80.861795    35.149568 
158404000    301.21006    451.36255    386.96239   -124665.75    124684.46    64.400154     35.15547 
158408000    288.53963    529.39574    245.33239   -124671.95    124720.29    284.06335    35.155882 
158412000    264.97419    211.78751    294.75053   -124660.49    124723.97   -82.963018    35.157033 
158416000    280.02919    516.77615    449.79509   -124704.22    124763.44    66.981058    35.154963 
158420000    277.63892     313.8828    441.99223   -124718.14    124774.96   -128.10943    35.150635 
158424000    254.03149    377.53399    354.06735   -124743.86    124823.04    23.466636     35.14862 
158428000    279.72262     623.1631    453.93698   -124809.07    124851.38    169.22611    35.147749 
158432000    274.95787    194.44056    231.11966   -124813.23    124884.37   -36.679103    35.143048 
158436000      262.799    175.42139    402.60834   -124827.65    124894.03   -227.18695    35.146249 
158440000    294.28741    491.10803    281.81532   -124857.83     124916.8     209.2927    35.142099 
158444000    305.87348     477.7322     315.7884   -124911.04    124954.06     161.9438    35.139495 
158448000     243.2277    316.46573    208.14797   -124923.08    124994.19    108.31776    35.134557 
158452000    263.11779    300.43674    165.49497   -124961.14    125026.63    134.94178    35.137603 
158456000    286.70331    415.79894    186.19989   -124994.42    125050.53    229.59905    35.139873 
158460000    292.34572    443.36187    381.07956   -125034.91    125083.81    62.282313    35.142297 
158464000    305.70573    369.70998    643.90122   -125028.14    125074.89   -274.19124    35.144087 
158468000    282.28168     327.2571    256.98612   -125068.91    125103.41    70.270977    35.144927 
158472000      271.946    594.05997    216.63773   -125079.45    125150.86    377.42224    35.146323 
158476000    268.88508    322.05745    346.26017   -125087.66    125146.79   -24.202723     35.13965 
158480000    280.40516    323.09902    441.69629   -125105.37    125163.06   -118.59727    35.143058 
158484000    297.05392    514.79123    279.18465   -125159.23    125190.76    235.60658    35.143572 
158488000    289.64459    380.30004    410.16631   -125173.35    125232.38   -29.866274    35.142667 
158492000    293.99448    210.73703     297.6573   -125192.26    125251.31   -86.920278    35.148065 
158496000    269.89652    330.92429    386.05147   -125202.86     125263.6   -55.127182    35.144745 
158500000      265.491    257.74253     192.7134   -125243.92    125303.38    65.029137    35.147198 
158504000    262.89724    306.14999    252.11075   -125257.38    125319.62    54.039239    35.147168 
158508000    292.46511    537.44832    416.29138   -125290.19    125323.42    121.15694    35.157555 
158512000    288.68268    331.38412    231.05428   -125276.66    125329.65    100.32984    35.161188 
158516000    291.68463    246.92973    334.28762   -125287.68    125346.09   -87.357894    35.159696 
158520000    242.63883    531.48766    239.92458   -125294.03    125391.44    291.56307    35.160107 
158524000    252.61115    514.62183    281.14772   -125331.21    125423.08    233.47411    35.160475 
158528000    297.83384    359.31047    225.42519   -125364.32    125420.82    133.88528    35.166806 
158532000    277.56007     329.6807    263.94226   -125376.49     125437.7    65.738443    35.165141 
158536000      317.171    345.31915    361.83956   -125420.79    125438.99   -16.520404    35.169715 
158540000    282.71778    452.95646    346.56903   -125410.76    125468.43    106.38743    35.158978 
158544000    242.85312    276.19477    265.64576   -125401.14    125491.47     10.54901    35.167182 
158548000    249.05153    261.18483    307.63878   -125427.87    125507.24   -46.453951    35.165267 
158552000    266.99764    367.69588    351.34028   -125465.24    125514.46    16.355606    35.175544 
158556000    293.25546    671.74319    212.10072   -125513.52    125565.52    459.64247    35.180748 
158560000    316.58634    340.20283    536.09439   -125547.05    125582.41   -195.89155     35.18381 
158564000    275.65124    337.62283    326.11395   -125555.73    125618.47    11.508885    35.180542 
158568000    282.46024    318.48981     284.9581   -125580.74     125636.7    33.531709    35.188472 
158572000    270.52873    277.76298    287.63922   -125585.62    125664.91   -9.8762439    35.188404 
158576000    279.53055    312.22397    217.03099   -125610.19    125663.45    95.192981    35.187411 
158580000    269.29621    326.59339    281.09281   -125639.06     125686.8    45.500582    35.182472 
158584000    259.54191    336.27307    428.07002   -125632.02    125703.07    -91.79695    35.178557 
158588000    282.98514    391.16035    240.91199   -125663.03     125723.1    150.24836    35.176251 
158592000    303.45701    201.12483    346.18583   -125708.64    125749.47     -145.061    35.170369 
158596000    302.31696    365.13619    275.09049   -125709.75    125755.52    90.045696    35.170804 
158600000    272.86003    327.72978    444.44427   -125701.17     125775.9   -116.71449    35.174307 
158604000    272.39751    349.93046    371.37781   -125693.05    125762.67   -21.447354    35.173327 
158608000    259.39539    230.17135    296.86113   -125666.62    125754.75   -66.689777    35.169455 
158612000    267.69267    282.94005    379.69489   -125679.71    125763.21   -96.754843    35.168987 
158616000    297.86738    364.22463    364.12183   -125702.56    125745.99   0.10279307    35.171391 
158620000    286.41178    208.47458    300.69509   -125712.16    125777.43   -92.220504    35.167397 
158624000    296.49672    337.16334    352.23284   -125733.71    125788.35   -15.069498    35.168086 
158628000    286.56586      311.275    388.71942   -125760.82     125820.1   -77.444417    35.166981 
158632000    325.88537    755.22469    472.48405   -125771.46    125812.63    282.74064    35.172681 
158636000    277.27553     363.3558     258.7871   -125778.34    125844.81     104.5687    35.167785 
158640000    291.79907     542.8432    410.37408   -125808.28    125845.17    132.46912    35.169868 
158644000    275.10889    254.35595    289.26259    -125825.3    125870.47   -34.906632    35.173522 
158648000    251.09113    221.90287    231.13633   -125842.92    125918.14   -9.2334627     35.17904 
158652000    284.18373    679.59297    347.11658    -125867.4     125932.2    332.47639    35.177497 
158656000    285.67412    291.04258    603.11902   -125873.78    125932.99   -312.07644    35.183464 
158660000    275.24423    450.23377    191.71249   -125895.12    125945.69    258.52127    35.184528 
158664000    308.50646    443.25528    543.05517   -125935.07    125968.34   -99.799899    35.189999 
158668000    280.71073    409.19887    519.14523   -125922.16    125981.84   -109.94637    35.193095 
158672000    294.00594    313.84917    316.80954   -125939.66    125995.14   -2.9603713    35.198249 
158676000    294.75908    593.23011    233.93615   -125975.14    126016.06    359.29396    35.201303 
158680000    281.82616    257.32326    311.32431   -125974.46    126027.61   -54.001041    35.201586 
158684000     271.6894    479.17881    173.99457   -125968.17    126034.13    305.18424    35.196373 
158688000    274.15119    279.63395    295.59347      -125978    126036.68   -15.959519    35.199422 
158692000    297.96794    278.04674    390.77074   -126008.69    126055.25   -112.72399    35.198716 
158696000    305.34263    445.41725    442.28729   -126025.11    126066.74    3.1299654    35.201106 
158700000    291.93345    350.07967    424.14392   -126030.95    126078.49   -74.064247    35.206886 
158704000    283.43758    253.72623    164.71885   -126075.11    126137.28    89.007381    35.213212 
158708000     276.7934    305.54293    370.05781    -126078.4    126132.17   -64.514882     35.20628 
158712000    281.41269    424.92204      221.731   -126063.06    126127.86    203.19103    35.204274 
158716000    282.33422    299.08665    288.48804   -126084.21    126154.07    10.598603    35.207796 
158720000    297.96901    485.36781    393.09911   -126121.93    126161.82    92.268698     35.20723 
158724000     278.9726    432.87042    289.17023   -126169.78    126216.37    143.70019    35.207728 
158728000    270.46242    363.73168    400.46538   -126153.58    126227.43   -36.733702    35.214485 
158732000    267.22741    737.60943    265.91557   -126180.76    126214.26    471.69385    35.224626 
158736000    296.22238     405.0256     327.7049    -126182.2    126252.16    77.320703     35.21751 
158740000    306.87279    241.78104    207.10835   -126212.26    126272.79    34.672688    35.213487 
158744000    268.55098       349.64    332.11549   -126203.77     126282.9    17.524515    35.217973 
158748000    293.27221    398.65569    379.76543   -126218.73    126270.05    18.890262    35.216542 
158752000    286.65625    361.45858    369.25752   -126242.61    126297.52    -7.798937    35.221972 
158756000    275.29742    331.21174     252.0993   -126266.18    126325.11     79.11244    35.225457 
158760000     312.5516    306.62633     384.9089   -126278.07    126317.98   -78.282561    35.225334 
158764000    257.99377    360.06098    216.87892   -126278.93    126348.58    143.18206     35.22323 
158768000     295.7747    486.31215    441.18212   -126309.96    126362.21    45.130028    35.227466 
158772000    249.70068    403.73542     307.8106   -126328.57    126391.68    95.924818    35.224047 
158776000    297.40957     562.2619    389.11784   -126346.62    126395.21    173.14406    35.232994 
158780000    292.20166    293.50518    432.98652   -126387.99    126435.02   -139.48134    35.232334 
158784000    293.25189    629.62156    498.92478   -126431.97    126475.42    130.69678     35.23502 
158788000    258.17401    334.62626    202.26169   -126449.88    126517.99    132.36456    35.234197 
158792000    291.58286    302.28597     299.8716   -126452.79    126526.93     2.414369     35.23237 
158796000    271.91178    331.22893    290.65093   -126502.39    126552.59    40.577998    35.238717 
158800000     265.1106    382.87499    231.12741    -126526.2    126604.66    151.74758    35.236756 
158804000    265.04708    335.25888    386.67094   -126527.37    126601.63    -51.41206    35.248044 
158808000    274.30334    292.61528    449.45343    -126563.6    126621.73   -156.83815    35.247896 
158812000    249.31095    261.51939    233.82837   -126574.86     126645.9    27.691021    35.240716 
158816000    302.27492    310.50106    361.86553   -126622.99    126661.02   -51.364479     35.24279 
158820000    280.86295    416.45264    343.35197   -126619.76    126680.62    73.100672    35.243009 
158824000    324.11323    434.53533    308.59517   -126652.95    126680.22    125.94016    35.242202 
158828000    274.35052    179.46072    232.91413   -126676.23    126726.32   -53.453411    35.239069 
158832000    287.87448    336.87173    185.10726   -126702.66    126758.17    151.76447    35.234851 
158836000    275.19707    244.25163    368.71806   -126742.98    126796.09   -124.46644    35.238292 
158840000    243.34154    276.73089    293.33782   -126768.79    126845.69   -16.606928    35.233973 
158844000    283.96121    332.48083    453.89244   -126814.21    126868.49   -121.41161    35.236265 
158848000    274.68083    318.44429    305.95002   -126835.41    126903.84    12.494274    35.230981 
158852000    307.15438    392.46381    523.90542   -126861.54    126897.23   -131.44161    35.226591 
158856000    311.07491    341.15789    486.13011   -126884.41    126918.86   -144.97222    35.219531 
158860000    301.45033     321.7819    346.55878   -126889.97    126935.81   -24.776873    35.213494 
158864000    284.65914    403.12657    298.37003   -126897.92    126959.25    104.75654    35.213256 
158868000    277.74796    282.75843    193.96304   -126913.89    126968.75    88.795387    35.213089 
158872000    285.76214    527.88412    451.67039    -126924.4    126972.77    76.213729    35.208552 
158876000    254.93185    488.30582    270.03702    -126918.7    126993.15     218.2688    35.207086 
158880000    254.59942    227.84239    396.26136   -126932.35    127009.92   -168.41897     35.21209 
158884000    261.19045    317.86024    384.39803   -126959.98    127031.45    -66.53779    35.209548 
158888000    300.90437    232.33846    415.33759   -126980.71    127028.12   -182.99914    35.213877 
158892000    309.81253    539.62659    421.06312    -127038.5    127075.15    118.56347    35.213537 
158896000    293.37427    525.78896    369.32566   -127063.39    127110.06     156.4633    35.212616 
158900000    278.22088    370.61501    496.88464   -127071.46    127129.69   -126.26964    35.210736 
158904000    277.18785    287.92443    277.93606   -127137.11    127196.05    9.9883666     35.20119 
158908000    295.14115    508.64171    395.04485   -127171.59    127220.07    113.59685    35.202693 
158912000    284.52481    379.96051    458.07207   -127205.08    127258.37   -78.111558    35.199645 
158916000    313.37269    463.98926    346.77158   -127242.63    127288.65    117.21768    35.204643 
158920000    296.51165     380.5114    316.49874   -127259.47    127324.48    64.012662    35.203974 
158924000    286.51968    384.51798     322.6634   -127275.42       127334    61.854579     35.19727 
158928000    270.84287    386.52189    313.72201   -127291.97    127357.01     72.79989    35.196627 
158932000    271.17079    257.64499    204.77061   -127327.64    127384.12    52.874374    35.200827 
158936000    277.87096    385.40771    265.47932   -127334.75    127394.46    119.92838    35.205076 
158940000    259.93077    356.62464    268.71009   -127341.11    127410.29    87.914559    35.204524 
158944000    271.83924    330.24952    491.19507   -127346.45     127418.5   -160.94555    35.202302 
158948000     294.6379    308.27101    359.45448    -127369.3    127414.63   -51.183466     35.19576 
158952000      283.724    431.15361    254.75315   -127396.87    127442.84    176.40046    35.197171 
158956000    303.01472    455.60073     325.5531   -127430.25    127469.88    130.04763    35.200066 
158960000    294.43936    270.02754    252.35169   -127463.49    127513.69    17.675852     35.19374 
158964000    308.74302    316.95765    314.26504   -127479.34    127531.54    2.6926068    35.191249 
158968000     268.7838    331.22107    325.87382    -127494.7    127574.91    5.3472541    35.197722 
158972000    288.39827    376.16191    423.45492    -127552.3    127591.19   -47.293012    35.198235 
158976000     272.0829    453.60508    323.78521   -127572.31    127634.32    129.81987    35.196265 
158980000    292.65634    579.34399    248.87854   -127619.38    127667.94    330.46545     35.20228 
158984000    292.58845    574.10086    371.65787   -127623.05    127667.84    202.44299     35.20358 
158988000    271.91037    493.73645    396.36069   -127628.93    127696.67    97.375766    35.200312 
158992000    277.63398    357.41617     360.2023   -127628.17    127685.06     -2.78613     35.20155 
158996000    283.93938    344.36243    254.86799   -127611.85    127683.61    89.494444    35.198789 
159000000    272.00468    409.97655       185.62   -127620.95    127679.07    224.35655    35.197163 
159004000    275.24837    397.82886    226.72848   -127634.93    127688.54    171.10038    35.192056 
159008000    305.15823    477.96674    303.56959   -127647.04    127695.39    174.39715    35.194538 
159012000    296.90785    372.19787     318.2037   -127685.23    127730.69    53.994168    35.195228 
159016000    306.19833    416.22137    365.13338   -127720.85    127770.73    51.087984    35.192653 
159020000    286.76254    327.31867    313.71207   -127724.86    127773.09    13.606602    35.194851 
159024000    305.66896    393.41657    557.75999    -127739.9     127782.3   -164.34342    35.199257 
159028000    293.07246    477.35467    364.96463   -127782.57    127837.98    112.39003    35.189743 
159032000    294.07703    287.21396    286.55184   -127802.75    127850.17    0.6621224     35.19021 
159036000    279.43245     419.0048    221.98254   -127792.43    127848.83    197.02226    35.194847 
159040000    258.06128     334.4657    339.98471   -127800.18     127869.4   -5.5190119    35.195369 
159044000    265.50839    379.54065    279.77135   -127825.97    127910.76    99.769297    35.199236 
159048000    282.16024    352.62301    306.93277   -127843.32    127909.76    45.690238    35.196366 
159052000    291.17536     373.7015    362.15663   -127873.35    127923.03    11.544866    35.197997 
159056000     303.4538    364.74256     419.0649   -127912.24    127949.74   -54.322336    35.202403 
159060000    305.39214    475.58543    306.64059   -127941.02     127974.8    168.94483     35.20125 
159064000    294.01692    340.20442     473.7749   -127953.14    128012.58   -133.57048    35.200344 
159068000    317.58407    258.79939    296.91595   -128001.12    128021.41   -38.116564    35.198098 
159072000    266.42666    319.50826    245.21573   -127997.58    128083.64    74.292527    35.194508 
159076000    274.19631    356.12761    268.56568   -128028.82    128087.67    87.561924    35.196386 
159080000    284.05749    584.78984    270.33015   -128027.18    128100.82    314.45969    35.198515 
159084000    264.79373    293.23618    267.27456   -128052.86    128111.72    25.961625    35.202418 
159088000    281.15369    478.61326    427.37937   -128050.65     128107.6    51.233895    35.203468 
159092000    296.51946    333.35846    380.01718   -128080.15    128122.15   -46.658722    35.200033 
159096000    276.41452    245.60104    333.77543   -128071.13    128146.23    -88.17439    35.198984 
159100000     318.6628    671.22479    236.95951   -128123.21    128163.88    434.26528    35.203071 
159104000    264.79055    353.00399    209.08747   -128111.47     128171.8    143.91652    35.211817 
159108000    318.01351    415.36493    573.42937   -128153.82    128187.82   -158.06445    35.215569 
159112000     277.4133    348.11054    429.52296   -128183.18    128230.99   -81.412419    35.216082 
159116000    289.55942    348.33232    271.37342   -128219.74    128258.35    76.958902    35.214729 
159120000    273.80612    405.16021    186.14028   -128254.33    128310.81    219.01993    35.215497 
159124000    285.92313    386.60587    405.10923   -128280.65    128323.57   -18.503353    35.217821 
159128000    263.59849    268.58839    293.77986   -128281.97    128349.86    -25.19147    35.214753 
159132000    274.21259    481.94038    259.64824    -128340.3    128392.56    222.29214    35.217351 
159136000    295.96716    372.98174    314.72312   -128363.23    128411.34    58.258627    35.221588 
159140000    270.82789    508.30172    405.80147   -128386.67    128460.09    102.50025     35.22194 
159144000    265.69671    327.24306     469.0432    -128397.6    128471.27   -141.80014    35.220138 
159148000    256.02668    366.07088    310.70072   -128420.79    128500.81    55.370158    35.214832 
159152000    283.83684    308.70952      404.382   -128477.03    128533.86   -95.672481    35.214149 
159156000    295.54946    231.35041    349.69743   -128484.52    128557.83   -118.34702    35.212754 
159160000     247.6963    237.15258    255.29731    -128506.9    128583.36   -18.144734    35.212144 
159164000    274.17955    449.56544    253.38717   -128502.73    128587.95    196.17827    35.210257 
159168000    290.46657    407.30176    312.13099   -128560.43    128607.11    95.170767    35.210783 
159172000    273.72807    465.29691    218.37563   -128591.09    128640.81    246.92128    35.215457 
159176000    280.87795    485.76919    442.36269   -128595.79    128658.65    43.406497    35.214543 
159180000    265.19759    271.67626    289.52852   -128630.11    128695.48   -17.852254    35.216215 
159184000    313.52275     446.1657    382.56218   -128661.46     128698.8     63.60352    35.221478 
159188000     291.2336    303.11931      487.331   -128676.12    128726.11    -184.2117    35.217156 
159192000    284.31884    358.47173    523.52422   -128686.82     128733.7   -165.05249    35.215403 
159196000    263.00962    236.49364    262.56906   -128667.87    128741.52   -26.075423    35.213439 
159200000     256.7999    472.15678    326.67959   -128692.45    128757.58    145.47719    35.214611 
159204000    314.62948    535.07864    356.15026   -128722.55     128766.9    178.92838    35.212443 
159208000    309.44304    341.72808    333.60015   -128716.36    128745.64    8.1279327    35.219669 
159212000    274.81761     221.6904    295.28467   -128737.16    128793.43   -73.594275    35.220624 
159216000    295.70585    540.32613    236.79709   -128795.73    128841.31    303.52905    35.221206 
159220000    273.47348    232.27222    362.04797   -128799.93    128872.48   -129.77576    35.223788 
159224000    299.60921    362.83119    334.58885   -128834.41    128889.36    28.242336     35.22985 
159228000    287.96151     245.0408    374.55428   -128835.22    128894.98   -129.51349    35.228961 
159232000     311.3877    359.14646    337.67883   -128848.63    128904.55    21.467628    35.228254 
159236000    280.61034    257.92699    230.91482   -128866.68    128930.56    27.012173     35.22287 
159240000    293.89341    190.17608     301.4456   -128889.69     128934.8   -111.26952    35.221132 
159244000    243.80205    277.23902    212.90141   -128891.47    128962.55    64.337607    35.211108 
159248000    285.76237    310.21714    313.96331   -128934.81    129003.72   -3.7461751    35.207668 
159252000    284.62495    424.17102    322.44232   -128968.91    129029.69     101.7287    35.209854 
159256000    290.73603    294.77363    358.49392   -128986.57    129034.23   -63.720292    35.209002 
159260000    290.58156    349.94953    445.82253   -129003.16    129041.79   -95.873002     35.21023 
159264000    282.66369    419.70644    259.84572   -129009.67    129053.39    159.86072    35.208796 
159268000    266.51232    557.79902    302.91663   -129051.47    129100.89    254.88239    35.205979 
159272000    280.68735     433.6712    262.02329   -129060.53    129111.48    171.64791    35.210012 
159276000    308.14555    375.29558     335.3022    -129100.7    129141.84    39.993387    35.205619 
159280000     286.3209    275.76839    209.10074   -129106.59    129153.75    66.667643    35.207825 
159284000    271.99576    310.15679     323.3994   -129115.02       129171   -13.242609    35.207084 
159288000    292.29925    490.33187    333.22567   -129147.74    129194.11     157.1062    35.209703 
159292000    264.61326    300.40386     435.2257   -129174.11    129225.35   -134.82184    35.211342 
159296000    278.88212    254.76316    315.18419   -129208.72    129266.73   -60.421029    35.207864 
159300000    297.01922    489.27634    359.03189   -129251.13    129295.88    130.24445    35.203914 
159304000    276.61209    513.38483    552.70798   -129254.96    129317.56   -39.323145    35.207751 
159308000    275.43331    455.19922    214.54801   -129291.39    129341.77    240.65121    35.207697 
159312000    284.37912    400.07098    239.24618   -129301.23    129373.74    160.82481    35.210067 
159316000    290.35204    205.79459    273.20233   -129339.02    129396.39   -67.407738    35.202515 
159320000    276.81089    349.10786    390.55128   -129359.06    129428.04    -41.44342    35.203066 
159324000    272.64267    229.27761    271.86984   -129409.94     129466.2   -42.592228    35.199783 
159328000    272.33025    222.64087    369.51591   -129419.05    129482.17   -146.87504    35.204675 
159332000    267.10937    349.97066    533.95531   -129453.54       129514   -183.98465    35.207474 
159336000    289.89374    147.39245    534.65093   -129463.99    129520.23   -387.25849    35.205669 
159340000    273.15031     337.2499    261.77879   -129493.99    129556.35    75.471108    35.199947 
159344000     326.8368    435.12365    362.64181   -129531.12    129563.41    72.481841    35.204602 
159348000    289.18778    314.96336    373.41341   -129557.48    129600.74   -58.450054    35.204632 
159352000    285.22083    300.34442    324.96329   -129551.15    129597.71   -24.618868    35.209921 
159356000    296.62479    372.43284    336.47691   -129582.32    129617.81     35.95593    35.203774 
159360000    284.14544    291.28015    299.73226   -129607.85    129675.35    -8.452103    35.210679 
159364000    282.08185    214.56049    490.16565   -129648.16    129696.68   -275.60516    35.204065 
159368000    288.08491    531.10408    282.16257   -129671.01    129726.66    248.94151    35.204449 
159372000    278.34428    234.73591    432.26595   -129678.09     129756.7   -197.53004    35.198226 
159376000     279.3495    314.30781    221.97345    -129716.3    129783.59    92.334357    35.198057 
159380000    303.24232    338.77911    335.87782   -129748.75    129805.99    2.9012918    35.197604 
159384000     255.3507    401.97156    302.74718   -129776.45    129849.81    99.224378    35.199487 
159388000    279.30018     322.6964    263.37066   -129797.96     129870.1    59.325737    35.201709 
159392000    272.68382    831.94942    357.42607   -129833.35    129888.74    474.52335    35.206129 
159396000    275.41411    442.69389    268.90392   -129838.01     129892.7    173.78997    35.205502 
159400000    288.79595    445.94922    329.26879   -129879.58    129940.94    116.68043    35.203704 
159404000    256.87069    219.10085    314.60799   -129873.21    129950.72   -95.507142    35.204498 
159408000    274.34108    360.76723    296.04714   -129909.64    129961.94    64.720087    35.201345 
159412000    255.93294    322.55491     256.1289    -129909.9    129987.99    66.426009    35.200723 
159416000    281.67318     256.9588      289.022   -129932.94    129991.89    -32.06321    35.203324 
159420000    277.57622    269.27515    179.78621   -129962.72    130020.16    89.488939    35.204215 
159424000    271.82494    358.26827    367.02322   -130005.51    130057.83   -8.7549447    35.205519 
159428000    282.29031    155.24372    202.78357   -130030.67    130082.75   -47.539854    35.198007 
159432000    298.90051    201.17077    297.87867   -130052.53    130110.69   -96.707903    35.198528 
159436000    281.13553     394.5888    299.03371   -130095.14    130156.71    95.555082    35.199633 
159440000    289.40159    429.85894    312.31469   -130101.33    130153.93    117.54425    35.192833 
159444000    278.88451    214.58422    152.98884   -130138.41    130209.65    61.595373     35.18887 
159448000    307.57244    383.61215    184.85762   -130198.04    130229.29    198.75453    35.186429 
159452000    335.56306    370.92503    477.84067   -130192.45    130234.36   -106.91564    35.185985 
159456000    281.60268    289.49303      188.026   -130185.48    130239.24    101.46703    35.191523 
159460000    281.43657    349.91424    364.66136   -130211.19    130267.41   -14.747122    35.198834 
159464000     279.6944    395.57228    500.23101   -130227.52    130290.54   -104.65872     35.20021 
159468000    282.35334    260.26119     213.6408   -130249.18    130309.81    46.620391    35.192753 
159472000    268.63917    191.42109    509.07391   -130277.01     130329.2   -317.65281    35.187658 
159476000    300.21112    459.15984    158.87213   -130306.46    130326.23    300.28771    35.186873 
159480000    304.33043    425.68947    176.46504   -130313.08    130350.13    249.22442    35.189707 
159484000    281.83343    641.86025    277.92813   -130366.82    130396.53    363.93212    35.192607 
159488000    283.16467     224.4166    328.82013   -130360.89    130413.43   -104.40353    35.195628 
159492000    291.00875    388.41042    317.51408   -130397.05    130437.12    70.896337    35.193989 
159496000    253.04688    282.33081      287.814   -130417.82    130479.39   -5.4831988    35.195461 
159500000    285.45404    371.37096    324.44479   -130451.63    130502.62     46.92617    35.201884 
159504000    289.75395    200.19278    239.25774      -130459    130534.92    -39.06496    35.200646 
159508000    239.36431    271.18007    356.92177   -130465.07    130532.79   -85.741699    35.209363 
159512000    290.63196    316.20875    414.56706    -130503.4    130558.76   -98.358301    35.211175 
159516000     268.6919    243.49503    334.22653   -130527.86    130588.62   -90.731497    35.207901 
159520000    279.89868    396.48201    485.56442    -130535.1    130601.82   -89.082407    35.212255 
159524000    281.11899    301.58295     394.1096   -130549.28    130608.13   -92.526648    35.215737 
159528000      277.934    288.15207    380.26758   -130578.62    130628.98   -92.115503    35.213681 
159532000    286.61004     524.6119    306.41461   -130595.11    130654.68    218.19729    35.213362 
159536000    309.51188    650.64953    327.50154   -130619.56    130652.56    323.14799    35.218233 
159540000    262.96524    257.94231    290.19632   -130627.45    130694.64   -32.254011    35.214165 
159544000    305.24208    348.26849    477.35066   -130657.02     130706.7   -129.08217    35.207746 
159548000    285.97609    246.59388    277.93265    -130680.2       130738   -31.338773    35.205309 
159552000    283.66474    406.83193    366.80475   -130672.74    130740.99    40.027177    35.201725 
159556000    285.59536      270.312    364.44684   -130690.01    130745.79   -94.134844    35.199732 
159560000    284.16085    411.62979    168.82929   -130742.58    130787.45     242.8005    35.198595 
159564000    312.08629    201.21022    606.33789   -130763.58    130804.66   -405.12767    35.192269 
159568000    266.50706    243.69246    510.21936   -130780.98       130841   -266.52689    35.194037 
159572000    301.27171    334.36282    381.32916   -130798.06    130864.46    -46.96634    35.201049 
159576000    297.32352    281.85043    87.622649   -130823.19    130882.25    194.22778    35.204245 
159580000    283.74933    420.04485    323.27524   -130836.68     130891.8    96.769606    35.208711 
159584000    291.14614    291.43688    355.89565   -130860.34    130907.01   -64.458777    35.217045 
159588000    292.36592     404.6185    352.20226    -130881.6     130927.5    52.416245    35.216386 
159592000    309.11039    262.89759    410.27721   -130885.28    130932.44   -147.37962    35.215425 
159596000    272.69119    544.05778    247.04433    -130915.6    130976.88    297.01344    35.213464 
159600000    286.22982    260.27364    301.20152    -130962.4    131011.25   -40.927874    35.218083 
159604000    278.01611    248.02384    367.91277   -131004.28    131059.41   -119.88893    35.217441 
159608000    288.10161    343.49633    277.81392   -131016.16    131073.29    65.682415    35.222061 
159612000    281.53809    315.65102    330.54098   -131049.21    131103.35   -14.889961    35.228423 
159616000    301.76526    263.07649    331.48453   -131070.66    131118.97   -68.408044    35.226699 
159620000    317.22259    387.44487     329.0817   -131086.75    131136.74    58.363174    35.227077 
159624000    273.80129    147.92036    414.16337   -131082.33    131142.17   -266.24302    35.223829 
159628000    271.36991    270.89699    275.13605   -131119.43    131169.65   -4.2390558    35.229321 
159632000    325.35864    607.05235    475.53526   -131143.35    131188.88    131.51709    35.228819 
159636000    284.45597    737.23404    262.84052   -131169.85    131225.35    474.39352    35.234241 
159640000     278.9336    405.43205    289.27092   -131198.07    131255.71    116.16113    35.226457 
159644000    287.01179     341.2054     234.5036   -131227.04    131282.52     106.7018    35.218191 
159648000    244.40864    419.17687    328.67638   -131209.41    131286.24    90.500487    35.214704 
159652000    310.69471    670.88291    200.42677   -131245.16    131294.33    470.45613    35.209111 
159656000    254.62542    241.63236    304.42832   -131271.64    131323.48   -62.795956    35.206116 
159660000    271.16458    487.81304    206.76143   -131298.35     131371.6    281.05162    35.201491 
159664000    293.81784    580.93661    340.01662   -131354.47    131394.28    240.91999    35.206631 
159668000     281.2649    296.89474    311.78355   -131357.88    131414.44   -14.888803    35.203827 
159672000    298.91212    305.36539    368.59132   -131373.88    131428.73   -63.225927    35.200441 
159676000    299.22271    311.84325    539.35434   -131404.81     131457.7   -227.51109    35.204102 
159680000    276.47757    484.62731    448.64666   -131420.49    131484.17    35.980645    35.197384 
159684000        265.1    324.43075    435.97268   -131423.24    131490.69   -111.54193    35.201372 
159688000    273.94589    319.67901    452.16646   -131441.98    131505.89   -132.48745    35.196727 
159692000    256.75978    368.37488    247.76097   -131457.85    131539.66    120.61391    35.193985 
159696000    260.78138    357.01514    341.98589   -131481.62    131557.63    15.029251    35.195189 
159700000    275.98408    368.32167     347.8293   -131511.93    131578.06    20.492365     35.19711 
159704000    291.80741     308.1215    331.82056   -131573.01    131601.19   -23.699057    35.194186 
159708000     268.0875    303.45285    264.97656   -131564.01    131617.53    38.476294    35.190604 
159712000    286.16098    389.30253     275.7312   -131581.74    131633.86    113.57133    35.190834 
159716000     309.5493    422.88159     353.4122   -131588.91    131626.64    69.469392    35.189385 
159720000    296.77894    352.00108    310.25047   -131626.46       131676    41.750617    35.199756 
159724000    283.35012    380.16628    251.38946   -131649.86    131705.37    128.77682    35.197878 
159728000    286.67363    247.07368    315.14817   -131651.57    131696.62   -68.074492    35.199717 
159732000    290.88643    449.94596    293.59162   -131636.97    131689.52    156.35434    35.202683 
159736000    307.28151    623.56614    300.34184   -131648.36    131694.78     323.2243    35.201963 
159740000    300.57283    305.80509    319.71087   -131679.64    131719.24   -13.905782    35.208284 
159744000     272.6781    592.88303    340.41499   -131687.23    131748.35    252.46805    35.204474 
159748000    281.98117    343.35259    358.19716   -131719.35    131791.34   -14.844574    35.199978 
159752000    254.47258    298.38401    358.08994   -131737.51    131812.85   -59.705928    35.199595 
159756000    293.57102    347.94326    402.92768   -131766.93    131819.94   -54.984425    35.193574 
159760000    296.90087     542.4089    331.92755   -131760.75    131818.46    210.48135    35.194575 
159764000    274.69138    372.91824    381.57009   -131776.34    131840.22   -8.6518534    35.200762 
159768000     301.2397    286.97166    296.44586   -131793.64    131837.08   -9.4741961    35.201203 
159772000    253.96364    304.80788     398.5687   -131790.48    131877.06   -93.760813    35.194631 
159776000    295.06265    448.73908     415.1439    -131831.6    131882.89    33.595172     35.19645 
159780000    313.02318    409.10424    374.71166   -131872.36    131901.19    34.392582     35.20154 
159784000    300.07238     387.7136    319.47607   -131883.73    131926.76    68.237536    35.201792 
159788000    287.01549    504.13859    396.84986   -131906.72    131963.08    107.28873    35.202041 
159792000     276.4008    489.39567    352.20171   -131928.67    131977.76    137.19397     35.20679 
159796000    282.43731    370.15849    292.30032   -131943.59    132004.22    77.858168    35.205387 
159800000    245.60101    288.74128      167.581    -131982.1    132044.99    121.16028    35.207967 
159804000    285.35894    390.99359    312.53784   -132009.45    132059.58    78.455749     35.20938 
159808000    306.00412    316.17108    271.67928   -132052.17    132089.84     44.49181    35.212999 
159812000    263.93058    367.71696    250.25085   -132088.61    132135.42    117.46611     35.21019 
159816000     315.9144    545.57067    262.30934   -132137.81    132184.44    283.26134     35.21108 
159820000    293.22802    419.52373    174.02297   -132144.63     132187.1    245.50076    35.217514 
159824000    289.51841    171.98104    394.90179   -132149.95    132213.52   -222.92075    35.216949 
159828000    284.36571    288.16872    344.89698   -132178.58    132232.64   -56.728256    35.215444 
159832000    263.43486    349.99821    226.39649   -132194.01    132253.82    123.60172    35.219243 
159836000    298.07905    495.63439    230.96689    -132221.9    132264.84     264.6675    35.216766 
159840000    300.68449    459.12353    231.34989    -132247.5    132305.07    227.77364    35.218361 
159844000    305.21004    258.96657    394.55985   -132281.81    132318.42   -135.59329    35.218334 
159848000    255.81491    200.42585    303.13288   -132291.73    132360.36   -102.70703     35.21545 
159852000    275.02381    555.16841    311.09466   -132334.51     132399.6    244.07375    35.215753 
159856000    295.14706     397.2745    258.61377   -132364.49    132403.79    138.66073    35.219656 
159860000    278.94587     447.7416    258.85193   -132392.56    132452.98    188.88967    35.222525 
159864000    282.15401    424.09997       398.94   -132404.14    132465.71    25.159973    35.225739 
159868000    292.52704     518.9908    230.07199   -132454.65     132505.8    288.91881    35.228405 
159872000    286.19146     370.8594    303.43484   -132479.59    132528.77    67.424556    35.224421 
159876000    308.78207    447.67596    274.24246   -132502.85    132543.46     173.4335    35.223539 
159880000    265.85298    272.27019    275.91201   -132496.72    132562.44   -3.6418179    35.219965 
159884000    283.92481    386.13008    353.54741   -132549.58    132598.87    32.582677      35.2169 
159888000    293.26046    468.08981    388.41683   -132581.47    132624.84    79.672977    35.217184 
159892000    302.74128    277.07022    506.23135   -132607.95    132656.87   -229.16113     35.21906 
159896000     308.3078    409.50833    370.89718   -132641.59    132684.18    38.611147     35.22755 
159900000    263.86674    461.35945    392.57901   -132655.79    132719.17    68.780437    35.230152 
159904000    263.11657    308.33743    231.38886   -132655.65    132726.95    76.948565    35.228727 
159908000    281.78752    280.99087    548.11112   -132685.07    132739.71   -267.12025     35.22456 
159912000     280.2349    288.61852    543.54191   -132692.77    132758.33   -254.92339    35.224392 
159916000    272.08882    586.79901    323.11136   -132717.37    132786.51    263.68765    35.222088 
159920000    267.66006    409.29297    256.21949   -132745.84    132807.37    153.07348    35.218904 
159924000    287.19178    474.93865    264.44517   -132774.78     132829.6    210.49349    35.220409 
159928000    281.56685    333.02296    331.91236   -132791.19    132838.36    1.1105917    35.226633 
159932000    299.41594    263.45369    428.30848   -132825.79    132860.29   -164.85479     35.22146 
159936000    303.67415     445.7719    465.74052   -132830.73    132879.41    -19.96862    35.225393 
159940000    264.91824    408.66184    366.47894   -132866.93    132932.92    42.182897    35.224444 
159944000    264.93675    273.12871    356.54234   -132906.85    132977.77   -83.413634    35.223612 
159948000    281.50182    454.32754    602.93341   -132903.96    132960.65   -148.60587    35.220025 
159952000    236.71168    341.17929    228.22791   -132939.42    133012.75    112.95139    35.218576 
159956000    262.55974    268.43625    410.83863   -132924.32    133006.36   -142.40238    35.219006 
159960000    293.13175    359.04027    223.36859   -132953.26    133021.91    135.67168    35.229522 
159964000    266.57244    449.75392    289.24748   -132991.62    133068.91    160.50644     35.23228 
159968000    283.11405    650.26762    474.65448   -133011.51     133069.8    175.61314    35.227477 
159972000    314.69929    478.13535    403.09716    -133072.4    133110.58    75.038187      35.2315 
159976000    280.54714    485.18824    223.02628    -133093.3    133161.91    262.16195    35.232531 
159980000    290.56233    435.77103    323.31543   -133119.28    133172.09    112.45561    35.237482 
159984000    262.01853    401.86978    216.30848   -133125.16    133175.27     185.5613    35.241929 
159988000    280.35548    477.91261    467.63291    -133149.5    133202.14      10.2797    35.243074 
159992000    282.51915    221.95693    192.78298   -133192.49    133243.37    29.173955    35.239426 
159996000    290.28885    364.77856    249.32067   -133204.56    133242.99     115.4579    35.246505 
160000000    279.19904    266.31467    338.11403   -133209.51    133257.69   -71.799364    35.244021 
160004000    263.77142    317.95253    253.99109   -133227.59    133300.59     63.96144    35.237909 
160008000    271.30555    229.83397    265.83504   -133241.36    133309.52   -36.001067    35.234938 
160012000    298.80889    371.47662    311.11701   -133271.21    133335.82    60.359616    35.234293 
160016000    295.02691    328.42281    183.62794   -133330.58    133371.27    144.79487     35.23315 
160020000    294.51019    248.35317    319.76689   -133367.08    133410.07   -71.413717    35.234205 
160024000     284.7602    380.90639    268.96588   -133381.88    133447.57    111.94051    35.233384 
160028000    270.44854    260.02356     323.5655   -133372.12    133454.08   -63.541947    35.234924 
160032000    301.25425    336.19004    212.66663   -133426.53    133490.86    123.52342     35.23036 
160036000    280.43214     277.5769    340.62886   -133441.72    133509.49   -63.051955    35.227237 
160040000    292.87771    200.46724     380.3285   -133476.45    133529.41   -179.86126    35.225701 
160044000    294.13282    550.94189    393.27714   -133518.49    133566.64    157.66476    35.230383 
160048000    282.93208    324.56288    277.18104   -133551.96    133608.96     47.38184    35.225808 
160052000    310.20278    511.11439    201.83966   -133570.19    133610.33    309.27474    35.230123 
160056000    289.02559    388.89768    336.91371   -133591.19    133657.59    51.983969    35.233561 
160060000    270.43709    529.35012    352.72256   -133625.54    133688.51    176.62757    35.236099 
160064000    276.89598    412.76363    345.43098   -133668.86     133738.3    67.332651    35.237687 
160068000    265.65402    331.72465    259.06594   -133682.57    133753.09    72.658702    35.241556 
160072000    298.35655    512.86362    406.84995   -133727.85    133780.02    106.01367    35.239368 
160076000    265.10673    251.81274    314.26296   -133756.91    133823.54   -62.450218    35.238759 
160080000    291.91987    431.46702    277.39163   -133768.48    133838.77    154.07539    35.245017 
160084000    278.89491    297.67144    312.88182   -133787.23    133856.39   -15.210383      35.2407 
160088000     280.3588    385.68364    379.46437   -133826.11    133893.68    6.2192717    35.239516 
160092000    281.00954    520.42869    236.64872   -133849.65    133896.26    283.77997     35.24322 
160096000    258.87086    278.94097     206.3396   -133834.14    133920.73    72.601369    35.241944 
160100000    308.94267    460.15922    207.69919   -133867.97    133908.75    252.46003    35.247822 
160104000    280.18699    495.87475    352.76978   -133891.48    133961.09    143.10497    35.250829 
160108000    273.66412    374.68863    274.92211   -133918.62     133981.1    99.766513    35.251168 
160112000    278.71644    488.17367    177.97018   -133935.35    134003.13    310.20348    35.250847 
160116000    291.44156    348.24066    277.14698   -133942.73    134017.28    71.093678    35.253776 
160120000    280.05332    440.34117    403.53773   -133977.45    134044.45    36.803444    35.247244 
160124000    283.29343    310.02438    375.79738   -134023.24    134080.26   -65.772991    35.255193 
160128000    304.26763    238.33458    238.60783   -134059.47    134102.91  -0.27325014    35.251978 
160132000     272.7736    296.92798    334.23412   -134058.89    134115.24   -37.306141    35.251311 
160136000    270.43788    194.69326    286.54305   -134099.23     134150.6   -91.849798    35.254944 
160140000    314.31825    451.16376     274.1331    -134120.7    134182.16    177.03066    35.254563 
160144000     272.6338    390.13983    246.98623   -134122.89    134188.41     143.1536    35.258907 
160148000    254.26442    301.69925    377.64635   -134139.91    134219.31   -75.947102    35.259661 
160152000    277.23907    447.91767    224.46678      -134179    134252.72    223.45089    35.258644 
160156000    247.44366    397.55387    379.21518    -134195.9    134273.85    18.338687    35.255743 
160160000     283.2227    498.73257    320.54399   -134234.63     134297.2    178.18858    35.250499 
160164000    278.04425    395.21191    275.95836   -134258.08    134327.37    119.25354    35.250069 
160168000    311.20219    595.07568    335.84965   -134291.81    134351.26    259.22603    35.247432 
160172000    244.52538     464.3706    392.34881   -134312.27    134387.57    72.021789    35.241311 
160176000     282.6513    303.95161    296.00081   -134336.99    134384.95    7.9508013    35.236304 
160180000    278.90505    228.77361    443.13675   -134329.49    134391.15   -214.36314    35.243033 
160184000     279.5844    290.95906    305.01372   -134334.54    134409.69   -14.054666    35.245011 
160188000    264.67195    327.78016    453.37887   -134381.16    134448.32   -125.59871    35.245649 
160192000    311.51565     370.2722    229.44051   -134395.22    134448.87    140.83169    35.247926 
160196000     287.9104    298.19325    591.91079   -134425.59    134476.11   -293.71754    35.242024 
160200000    284.60452     192.0021    492.69866      -134432    134476.75   -300.69656    35.235102 
160204000    269.82673    282.76995    321.94044    -134460.2    134532.82    -39.17049     35.23012 
160208000    284.81813    394.03176    397.16803   -134487.68    134535.26   -3.1362729    35.230492 
160212000    294.79089    299.51104    193.73958   -134527.32    134588.01    105.77146    35.228696 
160216000    270.25155    475.93665     293.7441   -134545.71    134626.96    182.19254    35.232253 
160220000    280.91189    362.01587    232.61591   -134573.03     134641.8    129.39996    35.224373 
160224000    267.98667    175.41807     270.3077   -134569.46    134648.76   -94.889626    35.229903 
160228000    254.46367    404.77245    267.16872   -134604.91    134689.08    137.60372    35.228758 
160232000    283.37447    294.34592    412.49861    -134658.1    134719.73   -118.15269    35.229904 
160236000    260.74785    317.98463    332.49351    -134667.3    134746.94   -14.508876    35.229988 
160240000    283.37716    398.25235    411.78581   -134696.63    134750.13    -13.53346    35.229745 
160244000    273.75873    389.35292    214.06622    -134709.3    134781.23     175.2867    35.231704 
160248000    294.83773    378.38295     231.6248   -134770.45    134803.05    146.75815    35.232915 
160252000    317.74093    272.71369    355.04132   -134787.11    134799.18   -82.327631    35.236279 
160256000    300.74012    338.70482    288.08163   -134804.19    134850.96    50.623186    35.241638 
160260000    294.68783    349.29138    379.10089   -134832.07    134869.43   -29.809514    35.237063 
160264000    278.79539    403.16192     407.1952   -134837.06    134895.74   -4.0332853    35.236025 
160268000    268.03466    453.96186    284.41448   -134811.74     134893.9    169.54737    35.237279 
160272000    277.20094    447.07058    418.33358   -134840.77    134899.61    28.736998    35.233653 
160276000    268.17766    298.78749    284.16634   -134863.09    134942.98    14.621151     35.23485 
160280000    274.04798    269.17871    236.28376   -134899.72    134971.06    32.894956    35.234917 
160284000    278.03686    402.88165    346.23849   -134941.52    135008.15    56.643167    35.239726 
160288000    285.59732    301.94501    205.57237   -134985.33    135040.52    96.372644    35.235237 
160292000    298.03008    317.66095    225.05221   -135009.57    135072.26    92.608735    35.233417 
160296000    281.19819    331.44716      295.814   -135024.52    135104.52    35.633162    35.238097 
160300000    258.08727    236.09816    341.93097   -135040.04    135133.69   -105.83281    35.235645 
160304000    265.68142    321.45034    199.92389   -135075.67     135152.8    121.52645    35.231007 
160308000    273.89327    286.88779    295.66242    -135096.1    135147.43   -8.7746303    35.240698 
160312000    299.97492    187.08282    252.39627    -135128.5    135173.75    -65.31345    35.245808 
160316000     295.8164    412.40676    178.38017   -135155.45    135198.06     234.0266    35.248503 
160320000    309.70895    326.23179     241.2376   -135189.87    135246.93     84.99419    35.247236 
160324000    297.29283    421.53088    306.16574   -135229.02     135263.6    115.36514    35.243999 
160328000    269.04537    408.83826    304.21404   -135233.53    135298.48    104.62422    35.243829 
160332000    281.32283    349.88875    294.42422   -135280.25    135344.78     55.46453    35.241596 
160336000     309.3015    538.54526     186.4022   -135345.96    135380.39    352.14305    35.244208 
160340000    261.90624    331.43503     391.4374   -135351.79    135409.75   -60.002374    35.244231 
160344000    281.42494    666.98437    244.12194    -135402.9     135440.7    422.86243    35.242791 
160348000    323.42531    430.79628    249.23755    -135408.7    135445.83    181.55873    35.238831 
160352000    274.22249    279.42435    283.66981   -135394.62    135462.15   -4.2454539    35.241187 
160356000     276.1471    434.48914    277.44631   -135424.02    135473.42    157.04283    35.247338 
160360000    279.41387     373.5694    228.55481   -135433.03    135496.42    145.01459    35.244915 
160364000    279.11091    480.82137    514.92648    -135475.9    135513.04   -34.105118    35.244079 
160368000    294.74284    312.18185    513.83227   -135479.88    135537.21   -201.65042    35.240355 
160372000    247.54947    455.62462    260.53544   -135482.92     135566.7    195.08918     35.24034 
160376000    260.07111    333.88405    228.10438   -135488.88    135574.25    105.77967    35.240578 
160380000    267.77565    290.97996    313.62923   -135503.66    135590.63   -22.649265    35.245261 
160384000    280.89829    426.68688    329.67324   -135539.81    135607.68    97.013638    35.245294 
160388000    316.81553     434.7723    462.28218   -135580.42    135630.07   -27.509883    35.238176 
160392000    285.19429    504.03916    301.20712   -135577.09     135645.5    202.83205    35.239763 
160396000    282.90313    227.57331    445.72647   -135584.34    135655.36   -218.15316    35.241001 
160400000    247.08952    372.90662    265.95774   -135610.27     135683.3    106.94888    35.236055 
160404000     299.4553    601.96055    426.24034   -135646.53    135700.56    175.72021    35.237023 
160408000    244.54792    383.04728    244.80985   -135663.56     135746.1    138.23743    35.237765 
160412000    257.21206    387.71402    234.40479   -135682.15    135756.58    153.30923    35.231508 
160416000    282.05268    343.09739    353.34038   -135710.34    135777.74   -10.242992    35.228165 
160420000     265.0557    348.43016    410.72952   -135727.85    135795.69   -62.299352    35.232493 
160424000    323.03055    502.61283    385.46762   -135772.79    135815.72    117.14522    35.238409 
160428000    264.24263    267.78086    189.73098   -135769.99    135846.05    78.049886      35.2413 
160432000    302.77677     318.9335    177.39717   -135798.69    135838.27    141.53633    35.241982 
160436000    281.11121    298.30747    193.78569    -135816.2    135869.61    104.52178    35.244107 
160440000    307.91664    273.71229    357.52858   -135853.38    135908.02   -83.816289    35.255336 
160444000    264.19364    339.71499    394.46237   -135868.73    135929.56   -54.747379     35.25477 
160448000    290.89964    277.64202    484.26668   -135908.85    135974.17   -206.62466    35.256554 
160452000    297.13434    429.38941    387.67308   -135937.03    136003.66    41.716322    35.257142 
160456000    296.91334    510.84398    336.96652   -135952.75    136008.05    173.87746    35.256574 
160460000     309.4146    363.53849    423.72163   -135985.97    136026.07   -60.183139     35.25806 
160464000    307.30332    322.31172     257.4881    -136014.2    136066.92    64.823611      35.2622 
160468000    283.27945    514.34236    439.92966   -136045.01     136101.2    74.412701    35.259954 
160472000     265.2338    314.33747     379.3636   -136055.92    136119.93    -65.02613    35.256673 
160476000    286.46658    259.04958    537.70029   -136079.18     136136.3   -278.65071    35.251443 
160480000    307.55254    318.47679    314.77754   -136129.52    136171.98    3.6992476    35.254745 
160484000    299.46485    268.40068     415.0782   -136132.23    136184.56   -146.67752    35.252809 
160488000    285.09273    349.34723    392.49413   -136148.17    136205.97   -43.146905    35.252965 
160492000    301.96616    349.60941    357.20973   -136170.83    136215.93   -7.6003181    35.249096 
160496000    255.41262     315.0987    271.15241   -136172.74    136252.03    43.946289     35.25561 
160500000    267.88825    350.57762    395.05612    -136203.2    136278.12   -44.478501    35.254879 
160504000    276.04302    275.93041    497.69789   -136210.96    136279.32   -221.76748    35.251565 
160508000    267.88379     321.6116    362.28311   -136265.94    136332.66   -40.671517    35.249551 
160512000    269.51776    352.59721    388.09009   -136268.79    136336.68   -35.492871    35.248129 
160516000    266.98231    263.52658    277.72659   -136302.97    136372.66   -14.200009     35.25179 
160520000    269.16437    227.79798    229.01754   -136334.15    136405.93   -1.2195587    35.248673 
160524000    299.10695    427.60342    181.21857   -136388.71    136446.09    246.38485    35.249689 
160528000    304.10072    579.62503    414.51091   -136435.36    136462.87    165.11413    35.249527 
160532000    292.75714    230.06978    331.20279   -136454.56    136494.69   -101.13301     35.25003 
160536000    263.18582    364.70773     333.9108    -136466.1    136525.28    30.796923    35.249838 
160540000    300.51425    172.49959    377.16208   -136492.29    136545.89   -204.66249    35.253123 
160544000    256.45454    385.91691    368.76895   -136526.68    136599.88    17.147958    35.259722 
160548000    294.74041    458.76771    348.74018   -136564.73    136613.73    110.02753    35.262222 
160552000    294.71651    439.58188    270.99852    -136568.8    136625.73    168.58336    35.268676 
160556000    282.43101    322.39067    317.64259   -136611.58    136670.86    4.7480839    35.267541 
160560000      278.162    382.12831    202.23284   -136612.65    136661.85    179.89547    35.259689 
160564000     283.0747    471.29077    459.05123   -136635.89    136688.44    12.239539    35.260217 
160568000    273.34218    270.25987    478.75981   -136639.34    136696.37   -208.49994    35.258737 
160572000    315.97836     597.3516    361.60988   -136677.05    136728.37    235.74173    35.261132 
160576000    309.99321     457.8319    422.11832   -136685.52    136735.29    35.713571    35.259532 
160580000    302.89995    268.16453    309.68258   -136735.71    136775.93   -41.518044    35.258086 
160584000    272.12657    430.36956    408.47224   -136738.66    136816.15    21.897316    35.262812 
160588000    284.16668    249.75057    235.47453    -136752.5    136810.11    14.276049     35.25829 
160592000    290.64827    423.50832    370.75962   -136790.83    136844.67    52.748693    35.256834 
160596000    284.78911    308.83411    402.82966   -136820.14    136864.74   -93.995546    35.254385 
160600000    298.67971    644.98577    259.07235   -136832.14    136873.74    385.91342    35.257247 
160604000    283.60237    300.37161    410.13477   -136826.94    136894.03   -109.76316    35.252811 
160608000    295.54735    265.52253    365.07848   -136842.05    136889.59   -99.555947    35.252728 
160612000    286.25871    393.90734    167.11457   -136853.99    136898.44    226.79277    35.256705 
160616000     273.1659    306.45847    552.49972    -136885.5    136965.88   -246.04124    35.253278 
160620000    274.25972    351.92696    329.57358   -136909.68    136980.43    22.353378    35.249418 
160624000    274.86242    177.59808    263.81601   -136937.96    137000.89   -86.217931    35.250194 
160628000    333.16738    367.63088    434.21525   -136980.37     137007.8   -66.584366    35.250722 
160632000    288.20363    531.00277    368.83562   -137009.35    137064.42    162.16716    35.247949 
160636000    299.23893    321.87297    267.05043    -137053.1    137100.25    54.822534    35.248523 
160640000    266.42541    300.75061    361.14768   -137057.69    137119.35   -60.397066    35.245015 
160644000    268.83139     183.2162    303.06924    -137071.4    137146.59   -119.85304    35.249081 
160648000    287.12764    289.02969    295.60369    -137094.6    137155.41   -6.5739967    35.248049 
160652000    268.90632    334.45499    130.60452   -137106.54    137181.05    203.85047     35.24709 
160656000    274.92289    322.12374    222.82396    -137161.2    137212.75    99.299782    35.249659 
160660000    274.63106    179.33627    301.74993   -137196.53     137253.1   -122.41366    35.252381 
160664000    298.20159    226.54497    420.69499   -137194.52    137251.89   -194.15002    35.252154 
160668000    299.53467    492.67339     236.5992   -137240.55    137283.53    256.07419    35.255896 
160672000    290.99592    269.09449    227.26188   -137256.34     137294.3    41.832608    35.259466 
160676000    295.45095    341.68971    371.15907   -137258.77     137321.9   -29.469361    35.262065 
160680000    293.72972    202.41931    338.30943   -137263.42    137323.55   -135.89012    35.261436 
160684000    283.24063    183.28199    518.65105   -137271.96    137340.09   -335.36907    35.259847 
160688000    254.54088    271.90519    324.89414   -137284.66    137358.81   -52.988946    35.260858 
160692000    280.42967    358.47536    295.60434   -137327.31    137386.18    62.871025    35.262215 
160696000    263.98531    390.69059    352.26988   -137351.69    137441.17    38.420708    35.259472 
160700000    291.29234    127.33792    447.26448   -137390.72    137442.44   -319.92656    35.253732 
160704000    259.42898    241.94699    395.77919   -137425.87     137490.2    -153.8322    35.256659 
160708000    284.64818    331.67427     405.2603   -137431.58    137519.99   -73.586032    35.254445 
160712000    296.10941    295.26004    446.30147    -137431.8    137482.55   -151.04143    35.250482 
160716000     277.3482    316.09076    343.25054   -137442.01    137501.69   -27.159788     35.25446 
160720000    291.54452    404.23394    314.81133    -137471.9    137506.66    89.422607    35.254141 
160724000     291.3351    386.42608    359.44961   -137499.74    137552.51    26.976469    35.256071 
160728000    255.58508    333.14162    240.25936   -137515.01    137610.92    92.882256    35.254924 
160732000    265.21501    316.14876    233.43763   -137542.64    137620.16    82.711127    35.255024 
160736000    284.30071    403.52894    348.59393   -137563.69    137624.57    54.935011    35.257838 
160740000    256.19314    236.97464    335.91961   -137573.21    137646.73    -98.94497    35.255254 
160744000    282.57616    388.45051    185.63872   -137584.84    137650.82    202.81179    35.258305 
160748000    284.01862    269.06184    298.21094   -137609.45    137673.28   -29.149108    35.262229 
160752000    270.87588    500.28383    325.59953   -137651.51    137711.83     174.6843    35.260953 
160756000    271.76232    353.41611     281.7828   -137692.48    137752.37    71.633306    35.264386 
160760000    292.10111    537.11655    278.92558   -137732.21     137785.7    258.19097    35.265313 
160764000    284.14962    805.32443    256.49722   -137729.94    137785.04    548.82722    35.266257 
160768000    288.41966    503.92505    382.06542   -137748.23     137796.4    121.85963     35.27122 
160772000    267.99708    414.72016    414.90119   -137767.94    137823.16  -0.18102958    35.270904 
160776000    302.80448    260.30343    241.30179   -137799.71    137853.55    19.001638    35.268064 
160780000    290.59904    578.80892    327.63371   -137837.74    137872.79    251.17521    35.262373 
160784000    286.40509      314.563    201.38653    -137851.4    137922.81    113.17647    35.264902 
160788000    290.41908    361.34742    260.79544      -137877    137934.33    100.55198    35.265614 
160792000    243.28041    314.92218    174.94552   -137878.48    137960.35    139.97666    35.267806 
160796000    288.47968    471.09081    408.91037   -137892.11    137954.65    62.180441     35.27201 
160800000    270.14714    260.24408    311.78525   -137919.94    137989.65   -51.541171    35.272896 
160804000    247.00512    399.18356    260.21059   -137920.28    138005.02    138.97296    35.272123 
160808000    283.38705    280.61132    414.76161   -137957.11    138020.79   -134.15029    35.273247 
160812000    264.34787    332.02121      358.504   -137991.45    138049.22   -26.482787    35.270442 
160816000    293.24905    378.11553    381.33226   -137995.75    138054.56   -3.2167266    35.267604 
160820000    295.78067     317.1289    396.24922   -138021.44    138063.83   -79.120315    35.265774 
160824000    288.52767    345.69435    355.75622   -138018.47    138091.41   -10.061866    35.271557 
160828000    292.97705    328.10724    385.42299    -138014.7    138088.54   -57.315756    35.269094 
160832000    288.93112    241.79563    308.15779   -138029.93    138082.91   -66.362163    35.268764 
160836000    277.74728    444.84291    403.68581   -138058.66    138109.42    41.157097    35.270106 
160840000    263.72733    320.11199     337.3478    -138082.3    138133.86   -17.235813    35.268619 
160844000    273.37956    385.51729    208.11448   -138114.47    138187.59    177.40281    35.265617 
160848000    287.41567    234.28761    177.58448   -138152.01    138209.97     56.70313    35.270843 
160852000    302.81535    379.12563    141.55611   -138168.13    138226.49    237.56952    35.272052 
160856000    276.00712     139.7605    416.40559   -138192.01    138261.27   -276.64509    35.273359 
160860000    265.35741    381.01065    451.85269   -138209.01    138276.59   -70.842034     35.27477 
160864000    278.48606    341.21098    345.26943   -138213.28    138273.36   -4.0584576    35.274645 
160868000    278.30622     225.9409    169.82656   -138217.65    138282.02    56.114335     35.27338 
160872000    296.15375    394.17577    221.32956   -138259.85     138303.7    172.84621    35.272815 
160876000    281.01398    328.91965     250.0307   -138258.67    138318.89    78.888947    35.276842 
160880000    284.77227    404.20173    329.84804   -138270.92    138315.47    74.353689    35.283332 
160884000    290.65507    619.81968    247.67976   -138302.54    138336.73    372.13991    35.286803 
160888000    280.49569    542.12953    393.97001   -138332.03    138357.46    148.15952     35.28657 
160892000    248.74291    251.25534    450.42934   -138320.31    138383.17     -199.174    35.291766 
160896000    303.75624    364.49626    556.97857   -138359.55    138410.79   -192.48231    35.290274 
160900000     295.1446    469.91743    388.71857   -138369.83    138430.81    81.198857    35.284764 
160904000    279.07966    228.74323    326.39451   -138394.09    138478.52   -97.651281    35.287514 
160908000    288.09185    341.69088    308.38327   -138436.06    138489.84    33.307612    35.284428 
160912000    295.00355    272.48168    265.07865   -138452.14    138513.37    7.4030356    35.285458 
160916000    263.14229     364.6085    444.92956   -138450.27    138515.02   -80.321053     35.29026 
160920000    269.45447    400.89884    300.35184   -138455.29    138525.95      100.547    35.286806 
160924000    284.46574    396.19337    272.86241   -138484.35    138539.66    123.33096    35.284041 
160928000    300.26986    611.90673    368.44682   -138532.97    138584.11    243.45991    35.283657 
160932000    274.95686    460.93185    240.85277   -138536.99    138607.62    220.07908    35.283666 
160936000    280.27147    430.87202    381.84193   -138560.26    138623.15    49.030096     35.28076 
160940000    284.10913    354.01504    211.63171   -138594.52    138645.51    142.38333     35.28364 
160944000    295.91416    479.04099    285.17469   -138608.94    138669.92    193.86629    35.280118 
160948000    306.80089    532.63461    272.14769   -138622.19    138678.67    260.48693    35.282317 
160952000    318.83313    316.00455    344.58731   -138661.37    138704.97   -28.582761    35.285357 
160956000    318.90068     345.2724    218.18344   -138675.25    138723.48    127.08896    35.289756 
160960000    278.14926    235.40574    507.41897   -138689.98    138738.11   -272.01324     35.29093 
160964000    248.32279    294.96708    277.13205   -138691.52    138763.74    17.835032    35.295876 
160968000     276.1933    397.47705    461.82833   -138716.71    138799.03   -64.351285    35.292109 
160972000    286.81799    391.25393    367.36283   -138739.83     138806.2    23.891104    35.289057 
160976000    289.65029    499.77192    548.98088   -138788.97    138827.83   -49.208964    35.294775 
160980000    277.77272    328.21529     294.4161   -138762.16    138834.24    33.799184    35.292802 
160984000    297.96743    227.49118    446.08919   -138803.89    138860.34   -218.59802    35.291066 
160988000    254.16379    295.36289    231.04868   -138825.84    138900.33    64.314211    35.283743 
160992000      232.665    241.55062    317.80699   -138829.29    138933.41   -76.256376    35.284296 
160996000    287.50895    311.60151    347.83066   -138866.58    138925.31   -36.229155    35.286153 
161000000    301.09227    427.85217    347.58682   -138865.31    138920.97    80.265341    35.286499 
161004000    291.88575    515.32431    222.47579   -138867.95    138924.72    292.84852    35.288922 
161008000    290.84316    336.48566    298.97987   -138893.14    138951.48    37.505794    35.290187 
161012000    312.42874    331.32814    297.36919   -138908.35    138963.66    33.958948    35.293382 
161016000    279.32954    366.34756    395.35391   -138914.31    138985.67   -29.006354    35.295028 
161020000    298.84564    404.00721    285.55029   -138936.38    138987.29    118.45692    35.301612 
161024000    269.89426    282.56828    452.37809   -138951.04    139011.69   -169.80981    35.295443 
161028000    307.51079    619.01912    471.87752   -139000.69    139046.98     147.1416    35.302361 
161032000    304.99374    405.20933    218.23597   -139037.51    139072.33    186.97336      35.3017 
161036000    275.10044     385.6475     304.6924   -139041.88    139097.33    80.955101    35.303651 
161040000    306.51782    640.97886    306.54013   -139059.16    139133.73    334.43872    35.292329 
161044000    273.26792     362.4457     186.0947   -139096.03    139166.85      176.351    35.294066 
161048000    286.11278    343.23505     262.5899   -139121.53    139191.14    80.645152    35.296403 
161052000     298.7209    404.09763    526.71443   -139175.13    139223.51   -122.61679    35.290715 
161056000    304.17358    588.54389    333.53563   -139214.94    139270.95    255.00825    35.292495 
161060000     258.8258    321.99959    289.43958   -139227.97    139298.21    32.560018    35.288881 
161064000    289.35812    448.09311      278.251   -139265.76    139324.33    169.84211    35.288375 
161068000    277.95141    309.71296    495.26086   -139292.52    139341.63    -185.5479    35.288287 
161072000    295.11702    303.42958    374.97829   -139317.65    139356.27   -71.548716    35.287812 
161076000    300.78808    460.75114    389.41747   -139343.46    139390.71    71.333666    35.286155 
161080000     280.9579    338.61761    329.66847   -139387.32     139451.1    8.9491357    35.294994 
161084000    273.57695    423.37272    211.92014   -139412.53    139462.84    211.45257    35.297618 
161088000    282.94355    363.39031    281.23345    -139435.2    139506.63    82.156857    35.291858 
161092000    280.91723    336.16488    262.95637   -139439.16    139496.75    73.208501    35.290084 
161096000    292.91388    295.68021    429.85648   -139478.61    139516.37   -134.17627    35.289714 
161100000    268.73353    353.68931    249.53893   -139496.98    139565.75    104.15038    35.286802 
161104000    279.67602    334.00652    270.49487   -139517.18    139576.76    63.511653    35.289729 
161108000    257.41511    233.54837    210.10976   -139514.72    139600.51    23.438609    35.298599 
161112000    262.83254    312.78868    396.18065   -139530.53    139607.89   -83.391972     35.30113 
161116000    276.56236    358.68533    266.79705   -139556.71    139620.31    91.888286    35.307089 
161120000    272.46097    410.21795    474.78094   -139577.38     139632.8   -64.562994    35.304057 
161124000    283.60285    281.95076    207.90584   -139592.36     139657.8    74.044927    35.308095 
161128000    287.49051    422.17797     285.4011   -139612.66    139679.26    136.77686    35.307276 
161132000    292.62714    284.42049    168.94407    -139642.6    139722.47    115.47643    35.305509 
161136000    286.31151    215.67818    218.70606   -139661.21     139722.8   -3.0278844    35.306095 
161140000    257.65136    258.87785    265.82595   -139696.95    139760.96   -6.9481021    35.299907 
161144000    289.76342    514.07461    353.13198   -139729.12    139789.54    160.94262    35.297172 
161148000    254.91328    219.32427     244.6367   -139744.54     139831.1   -25.312431    35.298246 
161152000    274.37877    280.76395    467.51113   -139812.35    139866.92   -186.74718    35.300649 
161156000     293.9471    345.58202    222.38053   -139845.84    139879.98    123.20149    35.301517 
161160000    299.40871    180.10305    311.03034   -139859.26    139903.52   -130.92728    35.304263 
161164000    299.38307    269.91672    300.38329   -139878.36    139922.17   -30.466568    35.307152 
161168000    300.66273    434.20809    301.93779   -139890.15    139953.38     132.2703    35.311123 
161172000    307.83265    514.25537    382.66611   -139941.14    139979.79    131.58927    35.310231 
161176000    277.82798    284.15142    694.47047   -139958.76    140019.96   -410.31904    35.304888 
161180000    294.38125    394.57576    562.31365   -139983.49    140053.16   -167.73789    35.302417 
161184000    283.77647     254.7036    566.68092   -139994.57    140072.25   -311.97732    35.298742 
161188000    305.40976    342.79078    381.54345   -140029.48    140082.28    -38.75267    35.293849 
161192000    263.73955    333.65027    292.77385   -140067.75    140136.39    40.876421    35.292885 
161196000     248.3729    421.01871    315.28543   -140087.37    140164.87    105.73328     35.29436 
161200000    236.76475    407.72186    238.74054   -140110.73    140209.32    168.98132    35.295852 
161204000    266.14072    259.70788    250.06904   -140152.25    140237.03    9.6388462    35.285646 
161208000    292.07553    391.74004    399.50807   -140188.42    140237.17   -7.7680366    35.277716 
161212000    301.45088    420.21616    623.66062   -140210.03    140270.99   -203.44446    35.274088 
161216000    305.10933    333.47147    358.71365   -140233.31    140278.56   -25.242177    35.279209 
161220000     307.4119     529.2298    399.54411   -140257.78     140297.9     129.6857    35.277028 
161224000    276.73376     359.5701    288.56928   -140242.89    140306.84    71.000823    35.276418 
161228000    270.75636    426.90008    262.70725   -140275.31    140347.84    164.19283    35.275342 
161232000    283.53994    238.92234    441.74066   -140304.11    140360.89   -202.81832    35.277374 
161236000    284.28278    356.71272    230.24579   -140324.98     140370.8    126.46694    35.279859 
161240000    323.59829    278.78126    339.07396    -140335.5    140378.03   -60.292702    35.279235 
161244000     281.2331    431.71579    315.59953   -140345.41    140394.23    116.11626    35.279691 
161248000    275.62998    255.45901    437.49942   -140357.47    140430.38   -182.04042    35.271888 
161252000    275.10146    423.95228    230.55046   -140405.53    140473.94    193.40182    35.277035 
161256000     281.5512    384.12723    317.11491   -140423.77     140483.7    67.012321    35.274733 
161260000    284.38307     337.2184    296.17545   -140463.04    140518.22    41.042946     35.27825 
161264000      298.375    536.27348     251.1678   -140483.15    140535.12    285.10568    35.278084 
161268000    277.57791    220.17819    289.11584   -140499.56    140576.29   -68.937652    35.276912 
161272000    290.06659    326.21441    255.85561   -140556.42    140610.09    70.358801    35.282409 
161276000    264.07278    309.74686    190.15001   -140556.66    140626.14    119.59685    35.279261 
161280000    262.36454      384.336    364.43953   -140591.07     140651.6    19.896471     35.28024 
161284000    281.35541    227.60742    272.80389   -140615.95    140684.62   -45.196471    35.276302 
161288000    249.75143    433.33251    135.36013   -140619.36    140693.61    297.97238    35.275059 
161292000    290.04919    316.50026    347.58783   -140645.18     140701.4   -31.087574    35.278619 
161296000    284.34183    542.24237    324.55583   -140668.98    140745.54    217.68654    35.279638 
161300000    264.17155    304.18004    244.09727    -140682.2    140748.24    60.082777    35.277808 
161304000    274.25607    247.56442    363.43393   -140715.77    140790.18   -115.86951    35.275762 
161308000    264.93712     226.7941    309.64348   -140732.47    140807.25   -82.849376    35.271689 
161312000    285.47973    450.15514    416.52444   -140766.23    140840.27    33.630699     35.27157 
161316000    316.53118    446.29927    242.11479   -140809.53    140852.72    204.18448    35.272641 
161320000    273.02613    331.39495    217.29474   -140809.09    140886.14    114.10022    35.276973 
161324000    264.17289    290.93026    259.60247   -140833.83    140915.96    31.327795    35.283475 
161328000    283.94255    268.32369    348.21922   -140853.84    140930.43   -79.895534    35.283131 
161332000    314.06827     468.9952    211.84817   -140901.25    140948.52    257.14703    35.281088 
161336000    271.77095    390.18252    338.43633   -140926.41    140990.71    51.746189    35.284154 
161340000    315.76672    237.22156    335.65054   -140965.45     141003.8   -98.428984    35.279374 
161344000     301.0888    246.87502    179.16139   -140958.59    140998.22    67.713625    35.278013 
161348000    293.13262    450.79302    220.08419   -140966.33    141021.39    230.70883    35.281943 
161352000    278.48079    254.69151    484.44805   -140969.55    141047.11   -229.75654    35.287002 
161356000      304.411    248.53035    430.86183   -140978.49    141024.27   -182.33148    35.282989 
161360000    260.11696    276.27869    193.80502   -140980.84     141031.9    82.473668    35.286017 
161364000    283.59826     184.9701    356.06898   -141005.38    141065.81   -171.09888     35.28023 
161368000    286.70478    298.17065     294.8121   -141052.51    141103.62    3.3585505    35.278575 
161372000    280.04959    459.53576    255.41867   -141081.05    141144.86    204.11708    35.282015 
161376000     251.5859     223.0171     332.4402   -141088.12     141166.5    -109.4231    35.283284 
161380000    270.91774    141.78012    353.26578   -141125.42    141192.36   -211.48566    35.281417 
161384000    292.97194    399.12226    200.64789   -141160.64    141222.85    198.47436    35.286244 
161388000    294.39553    488.41824    316.99785   -141136.55    141214.69    171.42038    35.288189 
161392000    275.38869    497.53368    241.11535   -141167.06    141236.38    256.41833    35.291068 
161396000    274.03511    272.38873    281.56899   -141229.05    141280.58   -9.1802631    35.290856 
161400000    283.71832    247.72119    416.32456   -141259.77    141315.54   -168.60337     35.28892 
161404000    256.16545    423.47455    244.00003    -141291.1     141362.9    179.47452    35.283898 
161408000    307.05859    366.97562    163.71709   -141329.92    141380.84    203.25853    35.283315 
161412000     290.3547    294.80237    415.29497   -141352.28    141416.94   -120.49261    35.278266 
161416000    274.43285    255.28044    415.31151   -141360.53    141430.02   -160.03107    35.273566 
161420000    294.64526    378.66436    200.51026   -141373.34    141434.37     178.1541    35.269915 
161424000    304.09846    441.83523    320.81167   -141431.31    141485.42    121.02356    35.269232 
161428000    283.46622    413.23694    214.65063   -141452.08    141525.32    198.58632    35.264355 
161432000    279.68473    288.56349    405.20987   -141469.49    141540.79   -116.64638    35.260551 
161436000    274.53375    324.96404    272.14501   -141490.95    141576.22    52.819039    35.262872 
161440000    290.03829    350.47442    443.12784   -141517.76    141566.58   -92.653426    35.268645 
161444000    280.71149     440.1577    291.22301   -141525.15    141591.19    148.93468    35.264601 
161448000    264.31656     405.1155    283.64567   -141543.62    141617.45    121.46983    35.266889 
161452000    291.01542    360.77491    336.59247   -141590.63    141629.29    24.182435    35.270148 
161456000    291.81728    652.29046    330.28453    -141605.5    141649.75    322.00593    35.273451 
161460000    266.95848    251.75796    424.76014   -141614.98    141666.79   -173.00218    35.265879 
161464000    280.46683    260.22253    213.09404   -141635.71    141682.53    47.128493    35.270055 
161468000    308.83392    208.07692    284.04532   -141646.89     141668.5   -75.968401     35.26745 
161472000    283.72012    419.97544    205.44531   -141649.18    141702.85    214.53013    35.266314 
161476000    265.02042    472.97336    516.49591   -141650.43    141725.18   -43.522552    35.268874 
161480000    286.46702    479.46996      294.093   -141670.04    141736.22    185.37696    35.270662 
161484000    286.29766    260.91998    285.98788   -141696.03    141723.75   -25.067903    35.267172 
161488000    313.96257    400.82915    282.26585   -141718.72    141754.64     118.5633    35.263136 
161492000    298.94387    574.98129     484.0422    -141724.7    141795.43    90.939095    35.256675 
161496000    267.06934    222.36426    155.03886   -141743.75    141825.21    67.325404    35.257315 
161500000    289.02607    193.30766    267.97256    -141772.6    141830.67   -74.664905    35.251337 
161504000    277.77186    640.21498    249.72517    -141797.2    141870.02    390.48981    35.254304 
161508000    272.96102    429.95679    167.61065   -141813.76    141898.38    262.34614    35.255474 
161512000    268.01099    250.85295    514.91805   -141846.68    141927.84    -264.0651    35.252877 
161516000    314.01131    501.77768    326.74129   -141880.08    141915.56    175.03639    35.250744 
161520000    276.27664    457.24101    317.69636   -141880.34    141952.52    139.54465    35.255369 
161524000    271.55812    282.60997    166.97203   -141877.35    141951.21    115.63793    35.258875 
161528000    269.16656    221.10078    267.75558   -141895.33    141967.68   -46.654809    35.257881 
161532000     274.5702    291.45223    368.43408   -141903.03    141969.81   -76.981855    35.257311 
161536000    296.64137    207.66606    374.40882   -141948.18    142005.69   -166.74276    35.252526 
161540000    285.26493    508.98693    257.99089   -141964.49    142034.45    250.99603     35.24839 
161544000    293.59989    331.62559    334.68952      -141971    142022.58   -3.0639311    35.253715 
161548000     294.0407    514.05098    336.43972   -141989.57    142024.51    177.61126    35.252764 
161552000    262.66373    319.17304    175.24562   -141954.07    142049.25    143.92742    35.254627 
161556000    296.65558     292.2698    317.34092   -141966.79    142039.92   -25.071119    35.258416 
161560000     279.6076    236.16609    390.23981   -141995.74    142050.47   -154.07372    35.257627 
161564000    322.59543    366.33578    277.70157   -142019.12    142058.31     88.63421    35.259135 
161568000    293.26948    409.45225    312.17698   -142019.64    142097.32    97.275275     35.25704 
161572000    289.02225    307.36146    241.61429   -142050.38    142114.05    65.747173    35.256416 
161576000     259.6552    227.83743    334.10948   -142063.65    142158.12   -106.27205    35.255694 
161580000    264.61988    249.04088    336.84552   -142090.12    142181.82   -87.804643    35.251734 
161584000    274.88038    585.18474    247.64701   -142118.18    142210.21    337.53773    35.253186 
161588000    307.23783    309.93523     277.0159   -142148.26    142194.56    32.919326    35.254541 
161592000    266.08998    426.07389    189.95998   -142150.83    142233.93    236.11391    35.256238 
161596000    277.68783     417.2755    260.26716    -142187.1    142270.94    157.00834    35.258776 
161600000    235.76809    538.13887    294.66362   -142200.19    142291.84    243.47525    35.257879 
161604000    275.66536    449.36656    339.76039   -142215.64    142294.19    109.60617    35.261853 
161608000    278.44422    326.09054    405.86952   -142219.38    142299.03   -79.778977    35.254905 
161612000    265.67847     364.0705    257.94026   -142236.26    142313.42    106.13024    35.250451 
161616000    288.16377    623.01304    453.67716   -142266.47    142330.68    169.33587    35.249351 
161620000    262.42026    258.20758    256.11686   -142296.87    142381.37    2.0907195    35.251316 
161624000    306.25543     296.3178    507.53784    -142334.9    142388.51   -211.22005    35.248938 
161628000    287.05153    313.56241    374.99068   -142349.22    142405.87   -61.428271    35.248469 
161632000    291.35078    424.79909    359.99713   -142370.32    142407.82    64.801957    35.250454 
161636000    283.64331     397.8056    430.23152   -142392.91    142450.91   -32.425921    35.246718 
161640000    261.03588    354.14553     180.9076   -142400.82    142481.44    173.23793    35.244344 
161644000    280.94068    314.15676    232.40739   -142460.09    142513.22    81.749365    35.237241 
161648000    270.74466      463.666    305.92348   -142494.81    142550.99    157.74252    35.235441 
161652000    250.03472    305.84006    240.70877    -142500.8    142575.25    65.131284    35.235084 
161656000    286.97566    318.97307    394.78387   -142534.01    142601.73   -75.810793     35.23522 
161660000    271.99367    355.76017    333.05618   -142528.53     142594.4    22.703987    35.232308 
161664000    278.11382    323.90996    305.64406   -142546.36    142601.24    18.265902    35.230011 
161668000    295.62457    346.71538    254.14002   -142562.79    142625.38    92.575365    35.230966 
161672000    283.02979    440.75116     355.3443   -142595.47    142632.88    85.406866    35.229544 
161676000    289.57341    212.24388    218.02259   -142618.73    142648.13   -5.7787152    35.234107 
161680000    338.66773    615.68423    279.27149   -142635.02    142663.19    336.41273    35.234926 
161684000    286.00958    325.47286    417.06473   -142641.43    142686.75   -91.591876    35.236581 
161688000    267.03785    293.17073    322.21397   -142656.47    142714.69   -29.043247    35.236245 
161692000    298.53866    504.50367    199.32551    -142682.7    142737.78    305.17816    35.233622 
161696000    314.13225    623.26462    291.42866   -142676.77    142738.28    331.83596     35.24192 
161700000     292.2903    425.48857    307.63116   -142690.63     142736.1    117.85741    35.241446 
161704000    286.65942    485.76548    179.48081   -142694.46    142750.74    306.28467    35.243927 
161708000    281.55191    342.01511    316.50431   -142718.43     142774.1    25.510808    35.243702 
161712000    264.89103    392.72362    311.02434   -142713.85    142795.13    81.699284    35.242994 
161716000     270.8385    322.56715    341.51745   -142758.82    142832.15   -18.950306    35.243185 
161720000    259.67535    194.67009    267.24816   -142806.35    142876.44   -72.578076    35.237771 
161724000    272.33956    297.55472     393.5805   -142827.94    142902.42   -96.025783    35.233961 
161728000    290.17173    234.21396    582.59694   -142845.45    142898.14   -348.38298    35.226927 
161732000    302.30522    268.29807    516.95215   -142866.26    142913.19   -248.65408    35.225442 
161736000    279.46215    431.75562    273.59861    -142882.1    142941.42    158.15701    35.220696 
161740000     269.5287    396.17628     304.0505   -142904.29    142977.71    92.125784     35.22771 
161744000    268.33414    395.51413    434.72957   -142941.57    142998.01    -39.21544    35.229514 
161748000    286.11704    524.89328    406.85391   -142970.45    143036.44    118.03937    35.233777 
161752000    254.65047    298.44938    444.95405   -142976.15    143052.69   -146.50467     35.23219 
161756000    299.22184    380.24103    558.83311   -142993.58    143052.32   -178.59207    35.229821 
161760000    279.79245    254.28238    306.36816   -143020.89       143082   -52.085784    35.231473 
161764000    300.68918    302.35643    284.14303   -143028.19    143080.81    18.213406    35.230615 
161768000    263.02039    215.82077    235.84137   -143027.52    143099.23   -20.020601     35.22861 
161772000    304.89367    624.62633    407.37397   -143050.85     143100.9    217.25236    35.227851 
161776000    280.68185    454.53544    332.63648   -143053.96    143113.79    121.89896    35.225918 
161780000    295.89349    366.87789    319.68559    -143089.5     143148.5    47.192303    35.222971 
161784000    278.94119    319.67342     215.8756    -143117.2    143182.37    103.79782    35.223555 
161788000    283.30918    194.45779    336.14115   -143170.39    143225.64   -141.68336    35.224705 
161792000    291.67509    251.55338    305.37804   -143202.77    143261.13    -53.82466    35.230722 
161796000    270.57676    458.66019    480.09342   -143219.95    143304.52   -21.433225    35.232327 
161800000    287.79231    708.20349    172.14352   -143248.92    143318.34    536.05997     35.23641 
161804000    288.42383    313.81328     512.4079   -143279.93    143324.88   -198.59461    35.236326 
161808000     268.6615    361.99238    183.40032   -143330.15    143405.06    178.59206    35.232736 
161812000    286.71619    289.49328    203.56106   -143360.45    143420.28    85.932215    35.229749 
161816000    284.58276    459.82501    293.62731   -143369.54    143430.76     166.1977    35.231198 
161820000    263.30942    369.08614    324.13057   -143385.77     143471.2    44.955565    35.230852 
161824000    294.18724    397.40505    436.01014   -143427.93    143478.27   -38.605089    35.232386 
161828000     291.8314    160.92434    344.53629   -143432.94     143502.2   -183.61195    35.233109 
161832000     273.0569    230.32189    228.08226   -143469.73    143528.87    2.2396294    35.229034 
161836000    293.69326    212.43501    431.31294    -143489.4    143543.68   -218.87793     35.23204 
161840000    285.03261     283.0096    297.22962   -143528.09    143590.95   -14.220025    35.231724 
161844000     297.4823    395.51723     323.3716   -143567.09    143622.86    72.145628    35.232832 
161848000    270.57104    374.39766    398.34569   -143567.66    143640.69   -23.948039    35.238338 
161852000    278.11002     286.4718    299.74132   -143556.99    143621.19   -13.269516    35.235489 
161856000    262.80829    236.04468    331.18332   -143569.27    143647.66   -95.138632    35.225898 
161860000    283.56204    277.74444    295.29865   -143644.82    143698.62    -17.55421    35.222456 
161864000    270.82862    175.78179    229.28388   -143675.15    143745.54    -53.50209    35.227778 
161868000    314.00687    376.10865    285.57962   -143696.02    143739.02    90.529028    35.234114 
161872000    267.68583    342.38811    299.86277   -143692.82    143748.41    42.525343    35.236145 
161876000    307.89154    218.54772    211.81389   -143712.23    143781.59    6.7338303     35.23537 
161880000    263.17263     200.2564     302.9506   -143713.28    143784.96    -102.6942    35.232558 
161884000    290.83597    385.48654    544.76275   -143741.77    143811.44   -159.27621    35.229038 
161888000    293.50435    283.74171    381.25674   -143777.13    143826.28   -97.515029    35.228066 
161892000    288.73304    367.41912    247.70396   -143811.18    143873.74    119.71516    35.231692 
161896000    286.75964     225.8575    323.05395   -143827.97    143896.39   -97.196448    35.227718 
161900000    301.67978    533.99109    364.16478   -143864.18    143920.67    169.82632    35.230194 
161904000     265.0475    400.54929    399.01821   -143868.11    143924.41    1.5310771    35.226113 
161908000    272.82156    303.81626    270.13775   -143870.13    143952.36    33.678507    35.221484 
161912000     289.0846    355.72996    255.39149   -143921.05    143970.95    100.33847    35.218109 
161916000    268.74898    282.86343    312.43951   -143921.89    143999.03   -29.576087    35.214354 
161920000    300.41775    263.44965    466.42164   -143939.09     144001.1   -202.97199    35.213778 
161924000     308.9533    335.10098    341.52419   -143982.16    144027.35   -6.4232124    35.209969 
161928000    295.83903    410.68353    281.05152   -143991.76     144045.1      129.632    35.210817 
161932000    268.90383    229.76282    446.27315   -143987.12    144074.81   -216.51033    35.209483 
161936000    287.99577    252.29197    458.16229   -144012.59    144099.87   -205.87032    35.208308 
161940000    278.52509    290.50581    370.72466   -144053.16    144110.18   -80.218847    35.205089 
161944000    261.62981    300.44073    281.86808   -144051.24    144126.92    18.572653    35.203708 
161948000    289.42446    400.19999    320.98626   -144078.42    144128.91    79.213726    35.196235 
161952000    270.76896    462.51919    191.66903   -144087.41    144158.23    270.85017    35.197293 
161956000    265.34163    457.74694    332.58145   -144105.74    144173.82    125.16549    35.197762 
161960000    266.25816    418.98759    204.02273   -144136.52    144218.99    214.96486    35.204329 
161964000    262.23963    246.32859    419.62213   -144145.92    144227.77   -173.29355    35.207757 
161968000    277.19804    267.57879    362.74378   -144182.77    144248.19   -95.164992    35.209333 
161972000    316.76116     453.0275    346.96722   -144232.92     144270.1    106.06028    35.211306 
161976000    315.64629    408.09786    370.15387   -144230.27     144280.2    37.943991    35.214145 
161980000    285.90045    323.40943    353.43116   -144243.77    144299.45   -30.021731    35.207034 
161984000      280.956    299.48201    464.52089   -144248.45     144322.8   -165.03888    35.207783 
161988000    294.94746    613.22347    390.02236   -144282.21    144340.21    223.20111    35.211884 
161992000    256.15805     297.5292    231.20221   -144290.09    144362.58    66.326985    35.208737 
161996000    304.37081    347.75941    241.89902   -144307.55    144361.36    105.86039    35.211968 
162000000    285.82758    260.09339    322.36287   -144299.88    144372.51   -62.269473    35.210399 
162004000    283.12809    312.42242    125.77274   -144340.92    144392.84    186.64968    35.202044 
162008000     300.0945    384.64358    235.63109   -144346.83    144402.13    149.01249    35.203112 
162012000     314.3325    481.62083    265.78447   -144369.05    144401.93    215.83636    35.201925 
162016000    299.16566    361.18387    413.07775   -144370.67    144436.71   -51.893881    35.204813 
162020000    321.25235     456.2997    315.21754   -144442.78     144468.5    141.08216     35.21056 
162024000    269.26746    217.41323    378.74272   -144426.85    144505.33   -161.32949     35.20883 
162028000    263.49158    258.03667      511.445   -144453.63    144539.19   -253.40833     35.20807 
162032000    263.89967     394.1256    262.72526    -144488.3     144579.6    131.40034    35.209854 
162036000    270.65377    291.48663    189.62802   -144534.56    144612.61    101.85861    35.209361 
162040000     279.9528    453.66947     267.4167    -144553.1    144642.49    186.25277    35.208155 
162044000    285.92825    292.45104    283.67825   -144598.27    144658.56    8.7727907    35.216468 
162048000     265.6802    460.84098    178.54748   -144585.89    144662.52     282.2935    35.217589 
162052000    273.19821    377.14654    240.43017   -144603.71    144696.38    136.71637    35.214838 
162056000    277.10705    444.31601    222.54201   -144644.64    144707.13      221.774    35.218619 
162060000    282.96656    542.67317    305.66144   -144659.22    144727.87    237.01172    35.220909 
162064000    288.36854    422.62042    270.31538   -144662.89    144742.44    152.30504    35.219144 
162068000    302.99594    335.90325    355.09867   -144697.37    144749.06    -19.19542    35.220916 
162072000    296.45774    401.15434    262.86738   -144712.79     144765.9    138.28696    35.223306 
162076000    280.87521    471.39915     329.3899   -144739.77     144809.1    142.00924     35.23173 
162080000     300.6493    459.51127    190.43668   -144767.87     144825.3    269.07459    35.232704 
162084000    296.83098    274.67627    310.69205   -144788.31    144843.08   -36.015774    35.229879 
162088000    274.39331    155.76105    322.68411   -144801.44     144860.8   -166.92306    35.225709 
162092000    289.78559    446.07757    260.46167   -144879.93    144925.25     185.6159    35.226547 
162096000    269.31961    346.87485    219.26028   -144889.66     144953.9    127.61457    35.225622 
162100000    280.40965     379.3348    337.99472   -144931.39    144980.14    41.340078    35.227571 
162104000    279.42038    375.01952    217.43581   -144938.95    145012.59    157.58371    35.228729 
162108000    290.34346    319.80826    201.65794   -144968.42    145028.14    118.15031    35.229333 
162112000    292.31773    394.45567    328.40537   -144959.71    145024.55    66.050297    35.229304 
162116000    278.30557    358.43162    387.18373   -144980.42    145041.72   -28.752117    35.231456 
162120000    263.08472    410.63278    418.39966   -144996.46    145081.56   -7.7668823    35.234007 
162124000     302.0013    408.64484     368.0165   -145012.76    145053.59    40.628343    35.239179 
162128000    298.03337    318.65349    364.20759   -145057.49    145109.21   -45.554102    35.243924 
162132000    286.36191    326.11928    353.28103   -145064.72    145143.57   -27.161753    35.244268 
162136000     266.2691     381.9483    442.56655   -145112.66    145184.22   -60.618248    35.244231 
162140000    297.75853    349.97373    332.02132   -145146.77    145189.83    17.952407    35.243455 
162144000    283.07108    305.16645    338.60345   -145134.88    145198.31   -33.436994    35.243551 
162148000    269.98005    308.27112    275.93004   -145160.85    145225.04    32.341087      35.2445 
162152000    297.76526    288.16044    355.04248    -145220.7    145273.25   -66.882043    35.242196 
162156000    290.77729    486.44058    234.08112   -145244.05    145307.41    252.35946     35.24119 
162160000    297.36958     482.4077    548.84742   -145263.92    145314.06   -66.439722    35.239199 
162164000    286.98995    468.35509    293.16982   -145257.96    145326.61    175.18527    35.239669 
162168000    261.82298    604.31109     323.3551   -145265.07    145349.54    280.95599    35.238487 
162172000    289.15099    330.29009    390.97425   -145293.85    145376.35   -60.684154    35.236255 
162176000     279.7321    474.94198    213.92596   -145342.41     145412.3    261.01602    35.237289 
162180000    309.07345    269.10823    370.16697    -145392.9    145444.64   -101.05874    35.238804 
162184000    285.25275    200.98658    317.09011   -145403.42    145465.01   -116.10353    35.239724 
162188000    298.26308    400.08532    252.45038   -145412.68    145463.59    147.63494    35.242094 
162192000    280.21777    270.23129    264.62192   -145422.92    145484.62     5.609373      35.2425 
162196000    284.74241     394.6014    454.81122   -145438.02    145507.44   -60.209823    35.236931 
162200000    284.24067    232.36662    357.88593   -145447.21    145516.34   -125.51931     35.23743 
162204000    296.30187    443.07134    550.74422   -145482.38    145530.09   -107.67288    35.234692 
162208000    305.84456    321.06078     500.2021   -145515.36    145573.06   -179.14132    35.233726 
162212000    278.40483    274.98114    353.41992   -145548.28    145600.26   -78.438779    35.232368 
162216000    275.00371     386.8923    402.48767   -145563.94    145644.07   -15.595373    35.232919 
162220000    280.17217    387.47313    452.67555   -145601.08    145679.48   -65.202419    35.234733 
162224000    269.06979    349.14771    436.63723   -145628.64    145702.65    -87.48952    35.231554 
162228000    305.10758    292.24438    277.28804    -145653.5    145711.29    14.956341    35.237839 
162232000    278.77686    354.05883    317.58805   -145663.89    145746.92    36.470777    35.243474 
162236000    269.45469     351.3599    382.53236   -145720.33    145778.04   -31.172451    35.244392 
162240000    335.89143    479.10621     306.8893   -145755.43    145792.22    172.21691    35.239437 
162244000    264.64677    347.51618    395.10101   -145765.42    145825.68   -47.584831    35.235128 
162248000    286.53951    265.49863    359.67716   -145771.29    145839.32   -94.178527    35.232801 
162252000    269.65059    242.13919     304.6188    -145779.7     145853.2   -62.479612    35.229628 
162256000     288.7911    269.30766    307.17063   -145796.88    145870.89   -37.862969    35.230829 
162260000    338.32488    404.01706    231.03597   -145868.57    145902.98     172.9811    35.232305 
162264000    265.15395    434.14619    247.06643   -145863.55    145947.68    187.07976    35.237948 
162268000    298.92717    323.25433    333.32499   -145902.06     145958.5   -10.070656    35.241658 
162272000    290.83802    292.11001    270.20008   -145919.62    145970.18    21.909933    35.251404 
162276000    296.60999    316.14479    381.24273   -145940.24     145991.7   -65.097932    35.253813 
162280000    307.60986    269.12095    307.97521   -145949.46    145996.56   -38.854264    35.256932 
162284000    286.68866    231.09077    452.10795   -145938.98    146021.24   -221.01718    35.254536 
162288000      290.846    246.21505    550.55285   -145961.54    146019.79   -304.33781    35.252624 
162292000    277.33944    408.93993    305.35086    -146006.9    146062.71    103.58907    35.251692 
162296000     312.4509    406.30339    421.67815   -146040.86    146095.61   -15.374758    35.258577 
162300000    295.80388    565.80562    363.64836   -146064.38    146109.39    202.15725    35.264641 
162304000    270.33706    392.71785    321.36975   -146076.74    146145.11    71.348097    35.269358 
162308000    249.36255    401.86956    223.40286   -146091.48    146183.32     178.4667    35.270418 
162312000    320.20429     438.8172    325.48684   -146133.14    146187.76    113.33035    35.273275 
162316000      266.784    214.20006    247.82925   -146156.83    146236.29   -33.629192      35.2743 
162320000    296.63795    408.30701    465.04406   -146203.07    146260.91   -56.737053    35.276098 
162324000    313.76453    507.14713    404.46867   -146233.68    146278.91    102.67845    35.276284 
162328000    312.00914    359.35113    301.63545   -146267.59    146311.83    57.715685     35.27757 
162332000    314.80875    476.16795    193.81796   -146314.44    146352.37       282.35    35.280357 
162336000    276.47511    516.28288    308.95093   -146299.43    146383.78    207.33195    35.278297 
162340000    293.73931    190.35417    361.26477   -146320.65    146374.33    -170.9106    35.278019 
162344000    293.58363    624.48269    222.95046   -146326.47    146392.59    401.53223      35.2783 
162348000    284.09975    178.48707    282.01706   -146343.77    146412.77      -103.53    35.272888 
162352000    246.70963    350.58716    245.50885   -146382.65    146459.04    105.07831    35.271646 
162356000     248.5321    176.66325    228.80349   -146411.55     146506.1   -52.140233    35.269504 
162360000     286.7664    344.86464    251.72563    -146468.6    146536.55    93.139015    35.265407 
162364000    288.09847    313.04201    312.26905    -146505.8    146576.12   0.77296439    35.267995 
162368000     289.2184    372.38952    428.73674   -146547.29    146580.79    -56.34722    35.268024 
162372000    290.58256    255.24565    217.16847   -146567.52    146613.52    38.077181    35.262122 
162376000    283.66796    576.91559     366.6659   -146572.62    146627.92    210.24969    35.260833 
162380000    268.18373    331.08403    377.17965   -146586.09    146673.13   -46.095621    35.263278 
162384000    287.84911     428.8455    335.72704   -146605.85    146688.61    93.118462    35.260572 
162388000    280.24728    269.88546    244.16079   -146614.29    146674.82    25.724673    35.260471 
162392000    279.77251    368.93166    286.03473   -146623.78    146694.33     82.89693    35.260282 
162396000    284.21519    301.27436    233.74982   -146628.04    146686.68    67.524539     35.25817 
162400000    276.61214    442.94512    320.06249   -146640.48    146702.93    122.88262    35.257348 
162404000    261.61751    253.19673    280.59859   -146661.94    146736.98   -27.401862    35.258138 
162408000    305.67137    423.98952    308.09206   -146694.94    146754.12    115.89746    35.260616 
162412000    280.64361    363.28414    337.96761   -146713.04       146783    25.316537    35.267319 
162416000    282.37796    363.54404    415.96588   -146739.44     146820.5    -52.42184    35.275905 
162420000     273.3962    363.13904    547.72666   -146753.86    146845.13   -184.58762    35.277164 
162424000    260.90759    514.09992    173.32955   -146781.44    146845.16    340.77037    35.279691 
162428000    284.96928     427.2606    234.14318   -146809.78    146864.12    193.11742    35.287275 
162432000    285.88643    237.71867     320.2784   -146804.92    146866.85   -82.559732    35.292887 
162436000    285.26634    336.00055    491.47058   -146822.59    146868.44   -155.47003    35.293682 
162440000    294.76268    442.50354    431.71254   -146837.24    146896.02    10.790996    35.292325 
162444000    303.51419    376.30041    642.00073    -146869.8    146913.47   -265.70032    35.289485 
162448000    286.77603    367.77462    495.48231   -146904.08    146957.46   -127.70768    35.287935 
162452000    283.88955    363.26734    426.73845   -146926.83    146990.63   -63.471114    35.284025 
162456000    268.03601     398.1983    345.26826   -146963.86    147030.01    52.930045    35.276996 
162460000    294.90171    509.08507    438.53236   -146980.88    147042.57    70.552713    35.271766 
162464000    290.09702    451.65246    387.92121   -147022.61    147086.09    63.731246    35.271965 
162468000    274.67995    636.60103     211.1883   -147057.41    147127.05    425.41273    35.271355 
162472000    233.53163    229.72821    289.77011   -147048.55    147160.22   -60.041902    35.272571 
162476000    310.48635    349.16664     303.6185   -147087.39    147147.19    45.548137    35.278183 
162480000     283.4416    382.78879    349.83542   -147100.27    147172.09    32.953372    35.276434 
162484000     256.4301     264.4985    192.85159   -147125.66     147222.5    71.646909    35.278708 
162488000    265.44056    428.81411    405.77091   -147155.54    147247.26    23.043199    35.274361 
162492000    256.14198    372.83546    339.30266   -147182.72    147274.32    33.532795    35.274894 
162496000    281.05377    339.13076     433.8494   -147202.21    147284.67   -94.718641     35.27189 
162500000    278.10419    334.04025    382.52464   -147200.21    147288.38   -48.484394    35.265717 
162504000    292.54445    313.02466     433.5988   -147259.03    147302.79   -120.57414    35.264071 
162508000    293.46531    468.41109    196.63468   -147301.12    147348.46    271.77641    35.266425 
162512000    254.75718    253.40763    333.12089   -147279.43     147368.5   -79.713262    35.267812 
162516000    254.93192    423.92634    279.01829   -147268.65     147358.4    144.90805    35.265951 
162520000    275.50009    275.77802    266.65921   -147285.47     147357.4     9.118809    35.268324 
162524000      274.865    266.35097    335.70754   -147300.46    147378.93   -69.356574    35.262654 
162528000    285.27085    416.81189    160.83163   -147329.74     147387.2    255.98026    35.265968 
162532000     328.4642    468.95089    448.86108   -147371.17    147413.28    20.089818    35.264177 
162536000    270.46557    245.75217    512.55083   -147372.64    147454.74   -266.79866     35.26915 
162540000    277.98803     223.6979    279.78787    -147415.4    147496.36   -56.089965    35.269637 
162544000     299.3777    523.10106    311.59754   -147444.17    147519.04    211.50352    35.266426 
162548000    286.63093    283.15152    548.74636    -147488.7    147551.22   -265.59484    35.262278 
162552000    266.36623    216.47808     324.2791   -147507.44    147587.77   -107.80102    35.265288 
162556000    276.61648    506.27914    428.56511   -147532.09    147608.28    77.714038    35.269811 
162560000    307.41274    433.47013    351.36811    -147566.3    147620.05    82.102024    35.267467 
162564000    278.30542    343.58106    505.62289   -147579.13    147643.49   -162.04183     35.26492 
162568000    269.64488    415.32236    169.06935   -147600.76    147666.76    246.25301    35.267481 
162572000    303.14171    243.28746    235.29542   -147621.66    147680.52    7.9920469    35.267111 
162576000    284.17133    328.89975    238.07014   -147640.64    147722.53    90.829602    35.268096 
162580000    286.01642    195.11991    253.06129   -147670.02    147741.39   -57.941384     35.26877 
162584000    291.06779    701.74927    282.81189   -147698.07    147749.73    418.93738    35.267123 
162588000    287.25983    383.28938     378.1751   -147713.11    147779.58    5.1142833    35.264698 
162592000    289.74384    518.73043    359.54287   -147722.56    147780.79    159.18756    35.263167 
162596000    288.20864    331.43166    277.35091   -147739.32    147801.05    54.080751    35.268125 
162600000    259.34185    299.87911    332.97571   -147755.75    147838.83   -33.096596    35.264356 
162604000     278.0726    567.77725    194.92771   -147775.01    147832.81    372.84954    35.268277 
162608000    269.62424    338.37142    298.33369    -147758.1    147845.55    40.037734    35.266007 
162612000    291.05545    469.75298    199.10745   -147796.46    147851.32    270.64553     35.27177 
162616000    330.86108    526.77112    287.68405   -147831.55    147876.84    239.08707    35.270397 
162620000    294.24857    240.05662      283.366   -147856.62    147898.79   -43.309382     35.27124 
162624000    313.82174    217.89928    433.10706   -147865.64    147927.51   -215.20778    35.269766 
162628000    297.16748    218.02189    304.77143   -147896.72    147940.23   -86.749546    35.266065 
162632000    295.46617    359.42438    237.74768   -147906.44    147961.81     121.6767    35.262462 
162636000     263.1669    288.13612    299.05172   -147897.39    147983.77   -10.915593    35.267291 
162640000    267.65961     661.1536    239.92104   -147931.46    148001.36    421.23257    35.269445 
162644000    287.27407    242.63133     405.1892   -147951.43    148019.74   -162.55787    35.270816 
162648000    273.10526    513.14262    307.34702   -147983.74    148064.15     205.7956    35.275888 
162652000    283.31446     260.1571    380.95096   -147990.14    148084.96   -120.79386    35.276916 
162656000    295.92015    448.93292      195.316   -148029.64    148096.96    253.61692    35.277633 
162660000    284.00416    331.42159     147.5174   -148043.02    148122.33    183.90419     35.28041 
162664000    276.91604    314.05112    434.93291   -148051.74    148124.91   -120.88179    35.282822 
162668000    284.50303    282.80569    419.02175   -148067.41    148136.38   -136.21605    35.279249 
162672000    270.83838    440.99172     336.8011   -148064.15    148152.38    104.19062    35.284339 
162676000    289.39505    546.53695    238.44567   -148126.18    148182.59    308.09128    35.289215 
162680000    264.86803    325.54874    399.42209   -148131.08    148214.87   -73.873348     35.28606 
162684000    280.35135    368.29832    300.04632   -148173.11    148231.29    68.252007    35.284267 
162688000    281.84671    268.47386    478.25639   -148198.21     148259.1   -209.78253    35.278058 
162692000    277.27128    385.24926    315.55548   -148207.42    148276.25    69.693776     35.28411 
162696000    251.87208    397.07093     219.2679    -148208.7    148314.37    177.80302    35.288117 
162700000    289.13298    377.89932    275.85173   -148236.07    148300.41    102.04759    35.290023 
162704000    285.18318    441.38745    245.99938   -148286.02    148353.04    195.38807    35.289793 
162708000    302.14475    227.17007    200.80073   -148314.99    148372.25    26.369339    35.289137 
162712000    298.84542    308.70133    497.30884   -148326.25    148401.83   -188.60751    35.288713 
162716000    306.20374    440.14682    313.14035   -148379.88    148432.42    127.00647    35.281319 
162720000    322.52973    344.46826    276.31681   -148402.18    148442.53    68.151453    35.285051 
162724000    309.37693    466.06271    523.21509   -148452.83    148491.73   -57.152378    35.285219 
162728000    290.44647    334.68557     266.6249   -148447.95    148517.12    68.060663    35.287601 
162732000    291.45354    361.57212     339.3206   -148468.49    148533.85    22.251524    35.285659 
162736000    255.47761    218.23132    307.71055    -148475.9    148570.67   -89.479235    35.279165 
162740000     272.9148    420.38909    261.92321      -148493    148566.35    158.46588    35.281971 
162744000    324.64097    515.08387    589.30931   -148525.94    148581.82   -74.225443    35.276241 
162748000     276.6987    350.22147    290.94924   -148534.92    148604.33     59.27223    35.276462 
162752000    269.09003    240.12809    363.93859   -148555.26     148635.1   -123.81049     35.28078 
162756000    303.23063    429.59039    334.40341   -148572.28    148647.93    95.186977    35.278718 
162760000    283.64597     492.7826     437.4238   -148587.43    148660.22    55.358802    35.281938 
162764000    271.29987    366.01919    392.01135   -148623.15    148693.29   -25.992157    35.280572 
162768000    294.83945    261.61038    465.51438   -148653.36       148712     -203.904    35.278458 
162772000    294.80659    308.98014     339.4713   -148681.27    148741.78   -30.491161    35.276804 
162776000    302.58179     247.7079    211.95998   -148700.04     148748.7    35.747923    35.272671 
162780000    281.03857    328.44587    301.69237   -148702.49    148792.02    26.753496     35.27479 
162784000    267.36611    372.88451    410.99635   -148724.56    148806.16   -38.111835    35.273505 
162788000    256.18976    491.39118    298.37163   -148735.94    148833.76    193.01956    35.278355 
162792000    276.32464    312.27127      446.069   -148761.88    148828.98   -133.79772    35.276129 
162796000    282.30142    290.44359    429.64794   -148797.26    148844.81   -139.20435    35.274829 
162800000    313.22968    473.12689    392.07119   -148820.14    148885.19      81.0557    35.275307 
162804000    316.70101     414.2096    329.63683    -148850.2    148909.86    84.572773    35.276031 
162808000    287.48675    295.60528    390.28383   -148846.15    148923.74    -94.67855    35.271795 
162812000    290.09435    381.79496    396.90042   -148888.62    148954.38   -15.105462    35.262854 
162816000    276.33799    351.94548    380.65735    -148885.1    148952.23   -28.711869    35.262298 
162820000    304.79328    364.15693    432.27301   -148904.13     148950.3   -68.116085    35.266937 
162824000    266.25768    318.69907     338.9287   -148896.37       148950   -20.229629    35.269621 
162828000    276.39683    392.56262    305.58568   -148912.83    148986.52    86.976946    35.267579 
162832000    261.94111    339.17643    214.46293   -148937.72    149006.31     124.7135    35.268658 
162836000     299.3656    393.12835    356.09403      -149004    149057.63    37.034316    35.270401 
162840000    269.83835    325.33576    384.53019   -149021.12    149087.94   -59.194439    35.267621 
162844000    274.67929    242.42102     177.5529    -149042.3    149110.58    64.868121    35.273989 
162848000    297.33457    494.58299    259.81964   -149056.17    149133.56    234.76335    35.275099 
162852000    233.11902    227.24717    400.76848   -149082.32     149173.3    -173.5213    35.274701 
162856000    281.59601    312.39109    441.57176    -149115.2    149188.31   -129.18066    35.269968 
162860000    276.38416    497.73352    284.04779   -149114.62    149193.78    213.68573    35.273008 
162864000    261.43935    434.73811    291.17375   -149147.67    149221.47    143.56435    35.276709 
162868000    275.07792    489.73731    236.83556   -149131.72    149215.63    252.90174    35.281078 
162872000    338.41821    361.89363    284.40221   -149137.85     149179.2    77.491416     35.27671 
162876000    309.38668    487.04057    244.07499   -149162.17     149220.2    242.96558    35.279019 
162880000    280.96874    270.19027    355.05064   -149157.25    149236.48    -84.86037    35.275461 
162884000    282.03845     376.4566    431.99838   -149174.63    149265.64   -55.541787    35.272588 
162888000    260.02289    380.09546    268.75051   -149217.29    149294.85    111.34495    35.273584 
162892000    305.28721    378.24552    422.01642   -149250.03    149302.62     -43.7709    35.277753 
162896000    289.18278    314.83622    497.97435   -149264.19     149323.7   -183.13813    35.276363 
162900000    291.24232    342.95126    239.09126    -149298.8    149371.63       103.86    35.270061 
162904000    284.15577    483.11363    275.38938   -149333.21    149405.34    207.72425    35.274371 
162908000    311.15155    385.22166    393.96389   -149353.48    149408.25   -8.7422308    35.279556 
162912000    301.89112     426.9198    390.58161   -149383.13    149446.13    36.338187    35.281525 
162916000    297.35336    183.33471    305.87117      -149408    149466.33   -122.53646    35.282069 
162920000    289.46446    408.25076    193.58772    -149428.6    149496.05    214.66304    35.283268 
162924000    301.62905    402.29939    217.98191    -149447.8    149500.26    184.31748    35.283141 
162928000    280.47233    473.87561     337.2151   -149511.18    149541.58    136.66051    35.283311 
162932000    278.33521    253.16756     393.9382   -149490.09    149548.47   -140.77064    35.284584 
162936000    247.98143    382.05793    245.24591   -149500.49    149578.35    136.81202    35.284192 
162940000    290.67003    436.62718    377.58267   -149518.97    149590.39    59.044509     35.28281 
162944000    288.44912     300.4527    323.33712   -149549.75    149623.95   -22.884423    35.282524 
162948000    261.35785    289.65331     283.1365   -149595.85    149656.73    6.5168135    35.285196 
162952000    257.22039    267.93393     210.2489   -149586.03    149674.23    57.685033    35.287258 
162956000    277.34781    354.44625    501.89599   -149595.61    149674.42   -147.44974    35.285605 
162960000    287.62895    248.03106    283.87102   -149631.88     149692.2   -35.839964    35.285621 
162964000    255.81294    205.95709    257.15998   -149660.81    149734.75   -51.202898     35.28653 
162968000    268.56383    383.31823    422.50475   -149691.03    149772.94   -39.186513    35.288001 
162972000    273.45402    314.33113    346.45997   -149719.85    149792.51   -32.128839    35.288629 
162976000    282.00465     501.2599    363.68513   -149752.72    149827.66    137.57478    35.287063 
162980000     263.5298    278.14062    484.16699   -149776.36    149841.11   -206.02638    35.284184 
162984000    284.49993    270.98819    257.91081   -149788.81    149858.24    13.077379    35.285548 
162988000    265.82765    303.37818    360.71412   -149789.94    149881.87    -57.33594    35.284393 
162992000    304.44085    483.42078    534.08456   -149825.85     149889.5   -50.663777    35.281692 
162996000    265.66566    235.67135    426.65008   -149852.77    149923.21   -190.97873    35.281801 
163000000    296.40955     394.9311    315.14657   -149899.26    149940.77    79.784526    35.278228 
163004000    322.05806    689.68136    265.70839   -149915.88    149960.04    423.97298    35.285327 
163008000    250.09758    417.99332    215.13304   -149916.33    150015.89    202.86029    35.283264 
163012000    286.26528     345.0712    247.32398   -149960.51    150032.68    97.747223    35.283719 
163016000    269.99388    296.93545    329.45889   -149969.87    150039.29   -32.523443     35.28314 
163020000    316.24017    431.70682    280.34296   -150007.67    150061.11    151.36386    35.286124 
163024000     315.0152    528.98581    317.94374   -150035.05    150082.09    211.04207    35.288527 
163028000     270.9027    277.80753    333.04613   -150056.26    150126.41   -55.238602    35.285694 
163032000    284.84583    279.19766    273.04883   -150083.85    150158.71    6.1488315    35.289194 
163036000    278.23356     215.8715    203.52318   -150097.12    150168.86    12.348318    35.292732 
163040000    302.58609    329.73298     324.5447   -150142.59    150213.36    5.1882877    35.288037 
163044000    264.93402    314.24549    289.23387   -150174.37    150242.92    25.011625    35.286576 
163048000    259.26663    225.74921    226.60314   -150222.56    150290.38  -0.85393076    35.280057 
163052000    293.99644    242.55456    380.00044   -150252.82    150321.35   -137.44587    35.279943 
163056000    299.04425     428.0745    346.54846   -150293.19    150344.72    81.526039    35.275808 
163060000    280.37218    368.07534    374.71373   -150311.85    150384.37   -6.6383854    35.276769 
163064000     285.4773    372.52239     368.2503   -150343.39    150408.15    4.2720867    35.277214 
163068000    291.54716    504.02131    327.97136   -150361.53    150427.89    176.04995    35.272677 
163072000    310.66805    359.15306    247.65152   -150398.14    150447.46    111.50154    35.278156 
163076000     282.1505    380.81444    435.53137   -150427.55    150495.52   -54.716927    35.277455 
163080000    282.71432    296.05077    181.65827   -150458.78    150523.98    114.39251    35.278843 
163084000    315.50162    191.88065    517.68944   -150495.71    150557.06   -325.80878    35.279277 
163088000    286.10077    342.10767    292.16866   -150519.63    150573.61    49.939003    35.275385 
163092000     299.9183    260.50751    290.74351   -150567.31    150627.21   -30.235994    35.277073 
163096000    266.59957    315.24232     360.1541   -150582.41    150647.81   -44.911783    35.276123 
163100000     255.8886    504.17325    229.57928   -150589.53    150661.51    274.59397    35.276467 
163104000    286.69052    369.55931    369.85977   -150629.14    150687.97  -0.30045579    35.281029 
163108000    290.69452    233.47896     243.7748   -150662.82    150723.04   -10.295843    35.284837 
163112000    288.36821    324.68637    399.84749   -150685.64    150754.07   -75.161113    35.286289 
163116000    301.72697    317.08984     261.7462   -150717.91     150776.7    55.343634     35.28317 
163120000    294.52317    555.61844    359.14868   -150745.01    150810.78    196.46977    35.284163 
163124000    286.08234    226.70038    237.05118   -150756.86     150821.8     -10.3508    35.286554 
163128000    287.49523    300.22853    200.29253   -150770.49    150837.03    99.935996    35.290018 
163132000    270.68739    267.37228    290.72144   -150806.48    150869.29   -23.349155    35.296934 
163136000    316.73682    420.30554    600.72674   -150834.43    150887.64   -180.42121    35.293244 
163140000    276.74144    248.94931     214.5675   -150862.09    150925.73    34.381812    35.292514 
163144000    273.28355    293.98822    352.45802   -150928.74    150988.58     -58.4698    35.294496 
163148000    285.79652    357.85207      470.565   -150930.08     150986.9   -112.71293    35.293199 
163152000    294.13902    207.01188    329.92182   -150922.89    151015.79   -122.90994    35.290189 
163156000     261.2276    284.55307    261.97857   -150957.76    151013.38    22.574503    35.288842 
163160000    310.89981    274.66694    295.95911   -150969.78    151034.53   -21.292174    35.287363 
163164000    278.17938    235.59093    292.92566   -151013.17    151077.47   -57.334722    35.285744 
163168000    290.87392    484.26828    310.64004   -151021.81    151073.37    173.62824    35.283425 
163172000     272.0948    288.05762    330.71622   -151071.96    151126.78   -42.658609    35.286025 
163176000    307.61831    583.22379     248.0439   -151083.68    151136.47    335.17988    35.287898 
163180000    293.16773    395.53903    283.00568   -151081.12    151142.89    112.53335    35.283793 
163184000    276.78445    328.31801    307.63762   -151107.48     151172.7    20.680387    35.285498 
163188000    246.68026    215.51735    345.89727   -151100.81    151189.04   -130.37992    35.285713 
163192000    250.44631    253.69201    282.39919   -151109.04    151196.29   -28.707183    35.287281 
163196000    303.38543    263.99962    246.40553   -151139.68    151193.55    17.594093    35.284948 
163200000    290.06441    349.21333      402.096   -151134.13    151205.33   -52.882671    35.291849 
163204000    309.96008    281.64025    282.01746   -151133.57    151186.23  -0.37721132    35.292184 
163208000    315.89937    385.34725    550.44121   -151146.45    151208.62   -165.09395    35.290583 
163212000    309.02505    366.90575    378.60928   -151162.07    151219.58    -11.70353    35.284381 
163216000     266.9593    349.47405    415.58335   -151158.27     151232.4   -66.109306    35.283579 
163220000    284.95373     424.8299    284.26662   -151183.82       151260    140.56327    35.282173 
163224000    280.63222    331.22338    239.30188   -151201.52    151282.49    91.921495    35.284319 
163228000    284.99342    504.50655     360.4031    -151237.2    151304.64    144.10344    35.282089 
163232000    278.88616    466.24813     462.9249   -151266.06    151325.29    3.3232351    35.288328 
163236000    283.20293    433.21685    404.45957   -151276.01     151364.9    28.757279    35.283847 
163240000    265.80742    314.09242    298.44485    -151306.7    151384.47     15.64757    35.282503 
163244000    284.51717    465.65114    231.58144   -151328.95    151395.84    234.06971    35.287972 
163248000    300.52328    484.38892    255.35633   -151369.09    151421.02     229.0326    35.286461 
163252000    277.87059    464.05054    329.24853   -151411.95    151484.97    134.80201    35.287085 
163256000    295.90806    221.97076    380.58612   -151449.93    151510.93   -158.61536    35.294687 
163260000    284.71859    408.15088    360.11098   -151459.82    151516.13    48.039909    35.297286 
163264000    295.16427    192.09143    347.80611   -151447.06    151521.38   -155.71468    35.295241 
163268000     295.2247    324.95858    201.89379   -151466.57    151536.66    123.06479    35.292217 
163272000    324.39244    418.95821    291.08254   -151477.05    151523.07    127.87567    35.294887 
163276000    282.03319    426.68113    328.12202   -151520.92     151576.8    98.559104       35.295 
163280000    291.82966    333.89126    233.02619   -151550.08    151618.54    100.86507    35.289025 
163284000    278.77734    325.99213    370.98707   -151575.95    151642.41   -44.994935    35.286369 
163288000      318.575    485.05745    826.36466   -151617.06    151674.18   -341.30721    35.287476 
163292000    296.03421    417.47896     326.8145   -151658.29    151694.11    90.664462    35.284868 
163296000    282.44855    477.43871    223.51648   -151683.72    151749.43    253.92224    35.284607 
163300000    296.52693    309.84043    213.76229   -151731.45     151781.3    96.078141    35.280203 
163304000    279.33683    288.91375    319.44948   -151741.09    151797.87   -30.535732    35.282267 
163308000    271.46311     257.1928    352.07361   -151762.34    151825.94   -94.880802    35.289058 
163312000    280.29087    327.34766    385.75914   -151784.35    151839.84    -58.41148    35.287887 
163316000    312.12372    377.75979     463.3946   -151824.22    151866.19   -85.634815    35.290617 
163320000    320.22588     379.7903    288.75167    -151859.4    151905.86    91.038628     35.29163 
163324000    287.43934    315.68374    396.66493   -151872.42    151939.56   -80.981199    35.289394 
163328000    273.95699    338.78307    310.74138   -151914.29    151980.92    28.041693    35.291461 
163332000    314.08587    471.62479    391.18347   -151970.81    152013.12    80.441323    35.284789 
163336000    265.98732    292.85676    367.56453   -151977.48    152048.51   -74.707775    35.293114 
163340000    282.97121    455.23259    600.20712   -152007.16    152077.07   -144.97453    35.294505 
163344000    307.71438    528.44593    328.96132    -152036.7    152093.04    199.48461    35.295331 
163348000    296.04538    501.51404    255.69035   -152049.98     152122.8    245.82369    35.297898 
163352000    274.15601     317.0544    257.02547   -152067.81    152133.08    60.028929    35.295163 
163356000    265.43119    304.55749    449.28694   -152070.02    152154.28   -144.72945    35.290875 
163360000    302.66844    647.20878    354.77373   -152104.94     152169.8    292.43505    35.288037 
163364000    289.46351     359.1992    413.75138    -152133.6    152207.53   -54.552176    35.285212 
163368000    280.30502    383.20071    370.26097   -152154.58    152223.52     12.93974    35.285808 
163372000     278.1391    360.83531    235.09544   -152180.14    152257.93    125.73988    35.283614 
163376000     275.6933    359.15061    436.29637   -152217.01    152308.57   -77.145762    35.287718 
163380000    264.17811    440.59263    305.01199   -152278.57    152349.67    135.58064    35.290785 
163384000    266.52537    242.50965    515.66287   -152279.52    152360.06   -273.15322    35.286726 
163388000    291.27372    237.26461    328.83551   -152286.89    152343.08   -91.570904    35.287062 
163392000     290.9905    540.55305    281.61025   -152324.53    152382.59     258.9428    35.289994 
163396000    281.80635    439.59605    198.29698   -152334.79    152395.71    241.29907    35.289581 
163400000    318.51779    261.91396    232.78831   -152377.89    152430.48    29.125652     35.29119 
163404000    299.12814    309.56713    436.59451   -152408.49    152455.93   -127.02738    35.291534 
163408000    273.75376    333.25385    422.69468   -152422.59    152486.79   -89.440831    35.288474 
163412000    284.09639    282.34787     347.3307   -152426.28    152487.66   -64.982829    35.285558 
163416000    257.21753     169.5371    330.91401   -152414.77    152506.45   -161.37691    35.282311 
163420000    276.77486    383.77021    350.35822   -152444.88    152506.58    33.411991    35.282594 
163424000    288.86713    429.33417      284.596   -152440.88    152500.75    144.73818     35.27561 
163428000    276.32703    361.75204    198.84219   -152462.58    152522.48    162.90986     35.27387 
163432000    312.95583    303.29296    363.82292   -152465.91    152523.81    -60.52996    35.272317 
163436000    279.41226     331.7564    398.00843   -152487.14     152555.3   -66.252029    35.275052 
163440000    268.47943    228.47249    405.60823   -152534.75    152611.85   -177.13574    35.275732 
163444000    294.15654    411.63654    366.56616    -152573.7    152656.94    45.070374    35.277562 
163448000    281.33564    298.21077    249.79731   -152564.99    152628.57    48.413455    35.273907 
163452000    280.83376     337.0256    442.01292   -152603.32    152668.66   -104.98732    35.274287 
163456000    295.06827    450.62439    425.36073   -152643.54    152692.86    25.263656    35.272286 
163460000    267.78761    362.35335    261.22808   -152625.81    152731.23    101.12527    35.272907 
163464000    289.45652    312.15094    208.01127   -152655.54    152731.77    104.13966    35.269548 
163468000    296.15067    400.95153    413.17509   -152664.21     152737.1   -12.223559    35.264404 
163472000    278.83717    376.85932     359.2345   -152699.84    152771.25    17.624822    35.261647 
163476000    301.94792    347.66066     290.7712   -152737.73    152794.19    56.889456    35.263361 
163480000    312.35577    444.02795    552.49089   -152754.52    152806.51   -108.46294    35.261553 
163484000    305.08379    324.04076    541.32573   -152762.62    152827.38   -217.28497    35.260516 
163488000    277.70854    310.02727    320.90748   -152780.69    152859.57   -10.880213    35.263181 
163492000     287.5444     237.0738    373.28847   -152833.38    152897.36   -136.21466     35.26306 
163496000    273.16099    398.57279    313.58386   -152853.44    152936.76    84.988924    35.262303 
163500000    284.12996    342.36898    692.33533   -152873.54    152947.66   -349.96634    35.264226 
163504000     310.9888    463.17029    344.35269    -152915.6     152965.4     118.8176    35.269283 
163508000    271.53367    438.55039    307.02003   -152948.41    153021.39    131.53036    35.261386 
163512000    283.87721    259.53712    411.55677   -152959.22    153030.27   -152.01965    35.263413 
163516000    270.01479    177.76671    421.55075    -152981.8    153057.99   -243.78404    35.263467 
163520000    269.90633    437.52067    160.09069   -153023.57    153083.42    277.42998    35.259228 
163524000    240.07819    331.19763    200.19515   -153039.41    153133.84    131.00248    35.264227 
163528000    270.43401    442.09629    286.83697   -153065.86    153142.14    155.25932    35.269084 
163532000    279.66899    191.32951    412.61289   -153080.08    153145.92   -221.28338    35.265209 
163536000    308.33681    478.07124     369.8835   -153118.14    153161.83    108.18774    35.272737 
163540000    294.68775    460.94045    314.20478   -153120.31    153192.04    146.73567    35.270687 
163544000    300.32619    488.11369    348.79891   -153127.93    153187.29    139.31478    35.268893 
163548000    287.53875    324.03895    297.14852   -153152.92    153216.54    26.890426    35.266461 
163552000    308.20593    563.38593    414.94927   -153187.92    153236.42    148.43667    35.270431 
163556000    290.61564    339.93833    351.18169   -153181.39    153260.95   -11.243365    35.274997 
163560000    286.52441    608.82325    475.67937   -153211.04    153286.65    133.14388    35.279744 
163564000    300.69394    490.33202    235.29401   -153246.62    153310.97    255.03801    35.284688 
163568000    296.79028    365.28481     311.9944   -153270.17    153329.45    53.290411    35.283787 
163572000    292.60408    325.78572    236.52824   -153304.08    153366.85    89.257487    35.283882 
163576000    286.14181    337.99994    389.36952   -153309.35    153388.57   -51.369577    35.277376 
163580000    273.33928    239.71175    461.64161    -153327.3    153401.62   -221.92987    35.277889 
163584000    254.21666    322.23219    317.63604   -153349.27    153443.42    4.5961418    35.278157 
163588000    275.51588    217.75878    307.39905   -153396.63    153471.94   -89.640267    35.274261 
163592000    315.49228    566.30052     465.1448   -153431.17    153468.44    101.15571    35.274639 
163596000    279.62492    366.82713    260.99249   -153425.14    153500.65    105.83464     35.27594 
163600000    278.64382    287.84699    199.03492   -153446.35    153530.32    88.812072    35.266355 
163604000    288.86586    508.60262    283.08681   -153495.11    153538.12    225.51581    35.264824 
163608000    280.21199    233.29036    262.03144   -153505.31    153584.14   -28.741082    35.264615 
163612000     275.7204    266.05119    394.81657   -153490.82    153574.09   -128.76537    35.260909 
163616000    272.46623    236.01386    310.65126    -153479.2    153572.94   -74.637406    35.261826 
163620000     286.5062    396.12793    395.41284   -153502.76    153564.49   0.71509681    35.260466 
163624000    271.89025    215.31598    293.04288   -153543.42    153624.72   -77.726905    35.260322 
163628000    297.11167    409.16028    364.27927   -153581.33    153636.37    44.881013     35.26275 
163632000    245.83846    121.79807    389.02173   -153582.66    153687.52   -267.22366    35.255621 
163636000    272.11689    256.23758    513.65935   -153613.57    153683.76   -257.42177    35.256498 
163640000     293.8443    349.42904    381.92082   -153643.58    153705.75   -32.491786    35.255808 
163644000     292.8319     440.2881    323.75335   -153671.98    153718.98    116.53474    35.264995 
163648000    307.77072    571.87562    306.62953   -153686.52    153731.13    265.24608    35.271409 
163652000    325.84431     284.6966    340.51368   -153706.89    153754.57   -55.817079    35.279578 
163656000    296.62471    325.61817    264.40402   -153728.37    153780.66    61.214155    35.277818 
163660000    269.48008    368.02705    334.52162   -153721.69     153805.3    33.505431    35.273358 
163664000    272.68638    355.61194    246.85264   -153767.65    153832.61     108.7593    35.276641 
163668000    289.02841    441.48339    289.98827   -153776.13    153821.47    151.49512    35.274522 
163672000    279.40573    322.84366     611.4365   -153770.07    153835.68   -288.59284    35.273947 
163676000    312.42837    458.33578    401.65846   -153821.52     153867.6    56.677323    35.279334 
163680000    292.81338    315.63206    418.50483   -153855.13     153928.2   -102.87277    35.280418 
163684000    284.29178    303.74802    258.70222   -153856.62    153934.21    45.045801    35.281575 
163688000    284.05177    219.54297    513.42921   -153872.72    153941.27   -293.88624    35.277422 
163692000    297.88814    302.98217    430.80711   -153889.89    153967.33   -127.82494     35.27875 
163696000    254.72667    253.17661    350.24056    -153912.6    154000.06   -97.063951    35.284732 
163700000    260.56854    340.35206    241.44822    -153914.6    153994.66    98.903847    35.288611 
163704000    306.62048    599.42929    582.28959   -153946.17    154008.49    17.139704    35.292845 
163708000     270.9363    192.22389    300.73653   -153960.96     154027.4   -108.51264    35.293752 
163712000    272.77816     368.5953    169.55261   -153977.74    154052.22    199.04269    35.293742 
163716000    236.55185    345.10172     261.5309   -154007.59     154129.4    83.570817    35.295817 
163720000    269.93904    454.47267    402.53262   -154071.15    154155.37    51.940046    35.295865 
163724000    258.38261    279.60664    255.72176   -154089.51    154169.63    23.884874    35.292913 
163728000    241.41085    272.17632    287.32071   -154099.19    154193.16   -15.144391    35.293417 
163732000    288.39007    455.94728    337.51793   -154119.81    154168.36    118.42935    35.292551 
163736000    291.08757     280.9924    694.96957   -154124.92    154182.07   -413.97717    35.293635 
163740000    280.45524    449.05882    164.65345    -154132.8    154200.43    284.40537    35.295673 
163744000    284.73519    517.58796    189.69137   -154161.69    154232.75    327.89659    35.293959 
163748000    270.03021    311.80335    356.20243   -154176.95    154248.09   -44.399078    35.288074 
163752000    255.23597    279.25945    233.13261   -154206.32    154299.54    46.126837    35.287936 
163756000    265.48088    227.23584    268.61868   -154228.91    154321.99   -41.382839     35.29585 
163760000    289.18633    360.11434     254.0705   -154267.68    154333.39    106.04384    35.294911 
163764000    271.57857    419.89611    206.36721   -154287.76    154345.29     213.5289     35.29773 
163768000    273.14292     270.0598    293.85483   -154315.73    154382.89   -23.795032    35.296181 
163772000    289.58276    497.82373    490.96592   -154333.25    154410.83    6.8578024    35.297781 
163776000    285.66486     415.4399    377.80437   -154343.59    154431.71     37.63553    35.296511 
163780000    268.72526    430.45277    189.55341   -154379.95    154468.69    240.89936    35.299419 
163784000     294.8836    341.34038    350.41487   -154404.23    154466.75   -9.0744878    35.300873 
163788000    304.30371     348.2713     231.2139   -154406.14    154481.11     117.0574    35.306163 
163792000    294.43313    310.61427     290.7896      -154434    154480.39    19.824669    35.302551 
163796000    251.82217    314.67754    208.77784   -154437.51    154507.95     105.8997    35.306846 
163800000    279.64793    327.35258    256.05887   -154471.66    154524.23    71.293714     35.30976 
163804000     289.5295    479.66668    418.95723   -154498.46    154558.41    60.709447    35.306966 
163808000    275.43427    399.36735    423.42696    -154505.9    154589.49   -24.059607    35.308924 
163812000    303.17196    289.39781     324.5195   -154534.16    154622.82   -35.121685    35.308198 
163816000    284.11582    338.61388    455.31986   -154546.63    154631.67   -116.70599    35.304238 
163820000    291.44599    290.67784     439.6959   -154558.18     154640.2   -149.01806    35.308535 
163824000    303.95768     479.7529    377.60957   -154582.91    154649.43    102.14333    35.314914 
163828000    258.07944    344.83657    299.64255   -154583.06     154664.1    45.194021    35.316608 
163832000    279.90029    340.56809    489.71105   -154583.62    154652.84   -149.14296    35.313088 
163836000     283.5308     349.7987    391.06675   -154619.65     154689.9   -41.268046    35.311588 
163840000    276.30246    368.42799    288.59278   -154628.11    154720.39    79.835203    35.310524 
163844000    309.78538    463.27789    217.70153   -154678.09    154724.09    245.57637    35.313035 
163848000    319.15436    435.25968    412.83064   -154685.57    154748.76    22.429036     35.31705 
163852000    298.04362      395.071    386.81631   -154710.26    154762.26    8.2546894    35.315324 
163856000    312.55848    319.29682    284.91148   -154734.99    154782.49    34.385339    35.315006 
163860000    293.79432    264.24994    230.05661    -154738.2    154788.81    34.193329    35.315167 
163864000    298.33544    298.43457    437.02035    -154741.7    154808.36   -138.58579    35.317484 
163868000    287.97075    369.43299    418.66812   -154781.85    154848.77   -49.235134    35.312874 
163872000     268.1517    327.68393    316.60478   -154812.72    154903.65    11.079148    35.311707 
163876000     290.7798    387.19574    204.55729   -154852.04    154928.13    182.63845    35.314586 
163880000    286.62342    319.36158     404.9826   -154875.96    154933.78   -85.621012    35.312955 
163884000    262.64659    195.51384    351.44104   -154889.32    154958.18    -155.9272     35.31581 
163888000    272.35422    241.66713    357.66479    -154901.7    154974.24   -115.99766      35.3196 
163892000    307.79651    320.30265     261.3349   -154940.61    155003.09    58.967747    35.322433 
163896000    282.61816     448.6431    272.06749   -154967.77    155027.28    176.57561    35.320483 
163900000    265.89911    319.38196    256.07575    -154962.6    155052.42    63.306209    35.324966 
163904000    268.89937    257.81503    382.60916    -154998.1    155064.16   -124.79413    35.324602 
163908000    259.95306    266.54727    244.96456   -155019.81    155097.04    21.582715    35.323928 
163912000    289.40163    387.90796    306.14541   -155044.01    155102.05    81.762549    35.318289 
163916000    278.46666    352.35725    417.07131   -155048.22    155138.74   -64.714066    35.322802 
163920000    285.32191    211.67394    309.24549   -155086.29    155143.99    -97.57155    35.327187 
163924000    287.86546    427.73949    195.42638    -155133.8    155206.56    232.31312    35.325473 
163928000    301.71138    387.19257    308.56778   -155169.86    155221.21    78.624787    35.325642 
163932000    296.02948    323.54733    408.71884   -155199.81    155265.97   -85.171506    35.320378 
163936000    292.35705    310.58638    246.47839   -155246.96    155304.07    64.107992    35.319122 
163940000     276.8729    273.67944    227.57747   -155263.83    155342.07     46.10197    35.321244 
163944000    291.08241    443.89536    242.89979   -155287.98    155367.34    200.99558    35.320862 
163948000    297.13451    471.19903    344.41037   -155318.58    155377.83    126.78867     35.31964 
163952000    266.26758    315.10631    243.27484   -155322.35    155407.31    71.831466    35.319905 
163956000    295.54889    400.45811     405.9829   -155391.43    155465.92   -5.5247848    35.319062 
163960000    298.06281    349.09116    230.35087   -155413.72    155492.72    118.74029    35.320949 
163964000    287.45487    306.00213    437.77996    -155428.2    155507.68   -131.77782    35.323928 
163968000     262.4372    330.81162    286.55151   -155458.98    155521.51    44.260111    35.329357 
163972000    290.78199    259.48563     471.4878   -155472.55    155557.64   -212.00218    35.327263 
163976000    282.32663    212.57122    242.72051   -155499.43    155581.37   -30.149286    35.329264 
163980000    252.83445    404.29561    334.58558    -155535.5    155624.06    69.710027    35.325964 
163984000    256.05863    292.96944    332.78172   -155546.82    155640.08   -39.812281    35.325268 
163988000    260.27518    210.12609    318.69688   -155563.25    155649.72   -108.57079    35.326453 
163992000    291.71635    271.09542    238.27011   -155594.72    155675.29    32.825309    35.324452 
163996000    284.73668    536.59857    342.63195   -155664.17    155723.82    193.96662     35.32041 
164000000    268.63295    217.03033    277.94959   -155703.92    155770.27   -60.919262    35.320883 
164004000    269.36882    266.52373    274.40464   -155716.31    155804.48   -7.8809098    35.317084 
164008000    286.64909    169.32635    379.44041    -155779.4    155842.13   -210.11406    35.319566 
164012000    300.33884    364.93736     591.8049   -155799.65    155851.84   -226.86754    35.320971 
164016000    289.87442    411.91093    361.85544   -155836.69    155905.58    50.055488    35.321218 
164020000    317.14009    355.36584    676.84801   -155882.43    155925.62   -321.48217    35.316809 
164024000    296.91649    253.70175    303.46055   -155930.41    155981.16   -49.758799    35.315706 
164028000    276.75345     235.5982    218.99317   -155917.94    155992.48    16.605031    35.318413 
164032000    286.17719     347.7178    160.14834   -155933.42    156003.37    187.56946    35.319744 
164036000    256.05763    395.59365    238.15346   -155955.15    156040.48    157.44019     35.32572 
164040000    286.54476    369.09689    322.80303   -155997.11    156061.23    46.293867    35.328673 
164044000    301.33449    286.03493    285.51308   -156012.84    156068.67   0.52185079    35.323709 
164048000     280.6388    418.87178    329.15531   -156034.89    156102.56    89.716468     35.32445 
164052000    251.48721    422.96077    196.24225   -156048.89    156142.57    226.71851    35.325626 
164056000    268.64304     341.6761    257.50009    -156103.3    156175.74    84.176013    35.327306 
164060000    259.68217    247.37029    263.08148   -156149.53    156223.75   -15.711184    35.328792 
164064000    316.70759    410.99221    274.40639   -156182.37    156235.97    136.58582    35.329634 
164068000    264.90665    465.78131    273.50365   -156173.74    156255.03    192.27766    35.335334 
164072000    320.91033    407.93838    289.16303   -156214.75    156268.49    118.77536    35.331373 
164076000    274.08707    394.16062    306.88839   -156226.35    156288.67    87.272229    35.331238 
164080000     263.4881    279.56665    391.27911   -156246.23    156315.46   -111.71246    35.334731 
164084000    297.67103    312.92386    359.79625   -156287.43    156336.77   -46.872392    35.336776 
164088000    291.73628    282.60189    433.76957   -156305.74    156359.92   -151.16768    35.334986 
164092000    295.71208    508.35134     298.0574   -156310.08    156376.98    210.29393      35.3316 
164096000    293.74965    375.74323    323.89397   -156315.13    156377.96    51.849261    35.336139 
164100000    263.60292    280.60241    222.44548   -156340.27    156433.96    58.156929    35.336251 
164104000    283.49744    310.86152    383.89643   -156391.23    156461.88   -73.034911    35.335761 
164108000     266.8226    211.00261      258.972   -156414.92    156490.63   -47.969393    35.330502 
164112000    302.97391    526.04903     356.7538   -156414.21    156489.33    169.29523    35.329186 
164116000    302.94283    307.16818    358.57574   -156432.31    156481.66   -51.407557    35.327334 
164120000    282.04676    325.57946     262.0049   -156415.72     156495.1    63.574559    35.327393 
164124000    272.69444    270.52075     220.9176   -156425.65    156510.09    49.603148     35.33054 
164128000    269.20282    455.75329    269.95543   -156470.48    156548.27    185.79785    35.332235 
164132000    273.87692    633.09277    407.62371   -156496.18    156575.45    225.46906    35.331306 
164136000    262.56078     256.0033    210.10115   -156509.87    156591.42    45.902146    35.334598 
164140000    299.85254    461.99383    314.98586    -156554.5    156614.25    147.00797    35.332907 
164144000    277.62501    514.98744    378.53729   -156573.16    156645.99    136.45015    35.338047 
164148000    289.64796    508.30971    371.51103   -156592.32    156656.35    136.79868    35.343068 
164152000    283.33576    348.15607    226.74256   -156607.51    156680.91    121.41352     35.34613 
164156000    274.99861    278.47302    352.91233   -156601.81    156689.03   -74.439312    35.345546 
164160000    286.14091    486.19568    186.18144   -156634.32     156710.9    300.01423     35.34452 
164164000    258.38225    234.24076    243.12812   -156666.86    156739.67   -8.8873539    35.346299 
164168000    284.10627    344.80385    405.98068    -156690.1    156765.87    -61.17683    35.350384 
164172000    301.97243    525.40638    359.49038   -156710.48    156763.07      165.916     35.35111 
164176000    284.16267    330.30011    284.31061   -156712.21    156784.58    45.989493    35.351038 
164180000    270.80944    270.63669    183.00323   -156720.28    156823.92    87.633469    35.350384 
164184000    282.13126    271.79052    495.82688   -156767.89    156835.93   -224.03635    35.346107 
164188000    301.80098    197.51618    267.78835   -156801.01    156863.55   -70.272161     35.34774 
164192000    280.01048    379.36191    200.92764    -156825.4    156911.04    178.43427     35.34753 
164196000    261.26914    419.39323    265.73777    -156856.6    156940.93    153.65545    35.349778 
164200000    300.50288    468.73888    473.78106   -156864.14    156938.38   -5.0421773    35.345911 
164204000    292.19214    347.21784     355.7296   -156899.04    156962.62   -8.5117614    35.345907 
164208000    281.21316    355.08487    295.86147   -156888.82    156966.31    59.223399    35.348945 
164212000    282.63455    443.09369    367.94977   -156911.24    156982.52    75.143915    35.348846 
164216000    276.83671    359.37157    231.99417   -156908.63    156993.26     127.3774    35.348642 
164220000    259.19387    289.86751    256.12767   -156944.36    157031.22    33.739839    35.342665 
164224000    286.92536     555.2433    235.85228   -156949.68    157026.01    319.39103    35.347978 
164228000    310.99496    310.07218    267.76632   -156971.55    157029.71    42.305859    35.347777 
164232000    279.87334    304.50377    396.70601      -156952    157016.77   -92.202247      35.3517 
164236000    277.77839    533.55027    174.57448   -156978.48    157045.47    358.97579    35.352252 
164240000     290.8313    462.03261    345.25075   -156995.19    157042.05    116.78186    35.351109 
164244000    292.13922    261.61682     374.4452   -156987.46    157033.63   -112.82838    35.349486 
164248000    296.02125    472.04461    358.97702   -157012.15    157073.05    113.06759    35.353437 
164252000    313.19306    402.44928    403.95614   -157068.85     157101.9   -1.5068573    35.359722 
164256000    281.05839    236.63086    273.80636   -157104.05    157160.72     -37.1755    35.356907 
164260000    279.41103      206.667    340.81223   -157124.87     157190.3   -134.14523    35.358466 
164264000    299.98435    330.64466    348.74865   -157121.34    157168.91   -18.103993    35.354667 
164268000    281.39395    284.98286    333.12234   -157118.87    157203.39   -48.139482    35.357236 
164272000    282.35975    304.73873     192.8649    -157160.9    157228.86    111.87384    35.359233 
164276000    267.20698    355.17528    498.28668   -157154.15    157233.87    -143.1114    35.357684 
164280000    265.29603    365.23905    275.28642   -157213.91    157270.59    89.952627    35.360611 
164284000    290.61443    341.07434    390.47428   -157220.65    157282.61   -49.399939    35.357062 
164288000    299.69239    382.36819    354.60361   -157244.05    157305.43    27.764574    35.353781 
164292000     320.9883    312.72131    343.15585   -157252.95    157308.14   -30.434537    35.352003 
164296000    299.23417    367.58822    413.41194   -157284.18    157340.54   -45.823722    35.348644 
164300000    270.70541    292.81893    224.70783   -157305.53    157376.39    68.111094    35.352658 
164304000    308.28442    667.69745    331.95719    -157315.5    157380.59    335.74026    35.351737 
164308000    262.48697    339.01379    335.13225   -157299.79    157399.02    3.8815406     35.35305 
164312000    273.78491    373.01089    309.67367   -157332.22    157415.11    63.337218    35.348854 
164316000    259.59947    463.40573    358.62115   -157346.16    157439.81    104.78458    35.350787 
164320000    255.67999    368.49374     413.9486   -157346.18       157437   -45.454858    35.352233 
164324000    274.98767    186.80309      211.444   -157360.51     157450.8   -24.640913    35.353885 
164328000    293.75387    401.51518      247.135   -157383.92    157451.35    154.38019    35.349399 
164332000    294.86919    455.95712    289.45077   -157408.55    157474.05    166.50635    35.348999 
164336000    298.76156    306.39227    195.20372   -157436.03    157504.77    111.18855    35.351328 
164340000    296.82274    135.69449    595.31723    -157454.6    157503.98   -459.62274     35.35034 
164344000    317.63786    555.81697    245.59346   -157478.09    157527.73    310.22352    35.349714 
164348000    261.65243    276.21109    364.21303   -157475.85    157542.99   -88.001938    35.352327 
164352000    269.37632     350.4326    394.40455   -157466.38    157549.69   -43.971944    35.349495 
164356000    275.34268    395.79497    581.53172   -157490.66    157564.27   -185.73676    35.348155 
164360000    282.71234    349.73884    194.47379   -157503.01    157595.44    155.26505    35.350467 
164364000     236.1211     412.3144    195.73877   -157515.25    157614.91    216.57563    35.350995 
164368000    285.49954     379.1749     448.7711   -157546.34    157624.58   -69.596198    35.349037 
164372000    296.52394    487.98973    365.01632   -157565.95    157627.22    122.97341    35.341704 
164376000    268.80009    283.16521    485.64515    -157598.9    157679.81   -202.47994    35.343626 
164380000    267.17037    213.40014    331.27839   -157591.29    157666.64   -117.87826    35.344203 
164384000    289.68686    640.93467    272.54411    -157616.6    157682.54    368.39055    35.345159 
164388000    302.38103    306.64575    432.21287   -157629.65    157686.41   -125.56712    35.342308 
164392000    274.22093    217.11618    344.47317    -157618.1    157692.51   -127.35699    35.335118 
164396000    317.78078     439.8396    409.47515    -157665.3    157708.77    30.364445    35.335297 
164400000    297.82618     339.6919    440.77606   -157680.12    157742.04   -101.08416    35.333661 
164404000     256.6169     187.8187    192.38911   -157681.49    157769.17   -4.5704069    35.326907 
164408000    284.22693    344.09264    397.67437   -157728.48    157788.22   -53.581728    35.320974 
164412000    274.87902    195.89626    265.07194   -157738.99    157796.99   -69.175686    35.318575 
164416000    274.86262    314.39565    462.13026   -157738.99    157827.26   -147.73461    35.318369 
164420000    267.27348     299.2205    468.36524   -157774.08    157855.35   -169.14475    35.318084 
164424000    277.20693    470.98902    269.71076   -157808.42    157881.87    201.27827    35.319179 
164428000    250.30792    448.43512    354.41213   -157836.96    157915.05    94.022994    35.317952 
164432000    262.48093    246.21088    363.33599    -157844.2    157911.75   -117.12511    35.317169 
164436000    273.38183    316.40109     191.9874   -157851.22    157916.06    124.41369    35.314916 
164440000    281.28996    223.36539    408.13891   -157880.28    157947.84   -184.77352    35.316092 
164444000    269.36804    488.43627    305.97998   -157899.59     157976.3    182.45629    35.316323 
164448000    287.59049    402.66949    108.03924   -157909.74    157980.18    294.63025    35.319905 
164452000    267.43707    412.15572    465.35173    -157935.9    158022.34   -53.196012    35.323299 
164456000     266.8185    567.35369    212.83666   -157992.74    158064.84    354.51702    35.317371 
164460000    277.00362    234.96907    327.35553   -157995.56    158087.24   -92.386463    35.313692 
164464000    261.67114     297.8261    371.47836   -158022.85    158108.53   -73.652259    35.311983 
164468000    251.19791    298.11497    266.95441   -158045.23    158137.63    31.160557    35.311482 
164472000    297.65402    441.29406    282.53243   -158102.98    158186.23    158.76162     35.31091 
164476000    303.83575    344.20968    627.17484   -158159.82    158224.85   -282.96516    35.311963 
164480000    303.25773    388.10586    264.62007   -158206.49    158253.85    123.48579    35.311188 
164484000    264.63035     340.0681    385.63015   -158202.99    158271.65   -45.562046    35.312433 
164488000    281.03507    125.84948    235.02792   -158224.24    158299.53   -109.17844     35.31497 
164492000     254.4102    217.91779    581.74752   -158242.62     158316.1   -363.82972     35.31426 
164496000    282.10863    363.42384    196.58398   -158285.03    158368.21    166.83985    35.309759 
164500000    299.45462    291.63319    559.12542   -158303.64    158356.62   -267.49224    35.304406 
164504000    294.51761    296.35128    307.05132   -158331.05    158393.16   -10.700042    35.308004 
164508000    281.79371    314.44643    130.77919   -158372.02    158451.22    183.66725    35.305591 
164512000    279.62585    400.86514    519.38013   -158411.42    158485.21   -118.51499     35.29678 
164516000    294.00146    613.34245    318.71515   -158445.57    158509.31     294.6273    35.297268 
164520000    281.22789    315.12768    125.36509   -158437.27    158520.12    189.76259    35.299053 
164524000    272.80695    396.98728    300.58533   -158465.98     158530.3    96.401944    35.294654 
164528000    323.99218    515.64979    357.71135   -158477.95    158540.87    157.93843    35.291815 
164532000    283.24948    454.84314    440.49607    -158495.3    158572.68    14.347072     35.29086 
164536000    328.13976    332.60689    544.72964   -158525.25    158577.93   -212.12275    35.291179 
164540000    296.21525    301.97431    332.16505   -158570.63    158621.29   -30.190736    35.289025 
164544000    269.54876    442.30853     353.7841   -158595.16    158654.31    88.524429    35.291455 
164548000    297.06038    357.08611    402.75658   -158638.36    158694.05    -45.67047    35.291579 
164552000    274.40389    483.70275     290.7518   -158671.05    158739.87    192.95094    35.288143 
164556000    290.31538    196.69279    364.74031   -158707.49    158769.71   -168.04752    35.289706 
164560000    271.97047    250.44422    443.80427   -158698.95     158778.6   -193.36006     35.29405 
164564000    311.94738    559.21032    348.65846      -158759    158804.92    210.55186    35.296348 
164568000    319.57339    349.71786    367.00262   -158767.82    158826.88   -17.284755    35.294556 
164572000    281.86247     197.3055    209.81845   -158767.97    158863.34   -12.512945    35.294409 
164576000    279.65428    347.02133    240.92429   -158813.76    158896.08    106.09704    35.295993 
164580000    291.14367    476.44745    461.46223   -158846.12     158934.3    14.985214    35.294628 
164584000    315.85642    429.74908    214.81575   -158893.11    158938.23    214.93332    35.293342 
164588000    290.31244    275.99771    305.36479      -158907    158978.35   -29.367074    35.295221 
164592000    259.51198    329.41142    185.36373   -158930.16    159006.83    144.04769    35.292267 
164596000    280.21176    271.40959    412.70004   -158967.24    159055.92   -141.29044    35.286423 
164600000     269.6347    314.62949    341.87605   -159024.44    159102.79   -27.246566    35.287975 
164604000    264.38567     261.7914    314.11331   -159041.53    159116.49   -52.321912    35.284903 
164608000    291.23445    394.46501    247.29063   -159052.26    159140.84    147.17438     35.28434 
164612000    266.31941    395.34354    253.27176   -159081.17    159170.59    142.07178    35.281753 
164616000    307.20526     336.2018    298.46376    -159121.5    159191.97    37.738033    35.285485 
164620000      298.329    346.65392    374.14137   -159126.62     159181.7   -27.487454    35.281237 
164624000    268.50682    293.90794    284.17553   -159168.13    159224.18    9.7324046    35.284998 
164628000    288.94428    236.06028    173.59775   -159184.97    159259.17    62.462531    35.285411 
164632000     280.8728    240.00339    520.44871   -159216.19    159292.33   -280.44532    35.284193 
164636000    310.93327    346.89643    245.04507   -159259.51    159316.42    101.85136    35.283354 
164640000    261.03166    289.86623    280.13158   -159267.08    159368.29    9.7346531    35.285211 
164644000    274.12827    297.03711    394.67334    -159314.5    159387.97   -97.636228    35.279702 
164648000     255.5416    386.67672    208.53225   -159318.07    159414.91    178.14447    35.284937 
164652000    275.53108    391.77136    327.89655   -159333.09    159426.04    63.874814    35.280829 
164656000    262.60324    568.90295    266.43077   -159378.13    159474.13    302.47218    35.285638 
164660000     275.8097    330.57434    275.03934   -159427.43    159490.35    55.535005    35.288082 
164664000    283.67359    156.17636    303.14624    -159440.9    159510.64   -146.96988    35.284967 
164668000    265.42043    323.62944    284.16469   -159460.44    159527.21    39.464758    35.284062 
164672000    250.83658    306.92496     122.1538   -159454.93    159551.01    184.77116    35.286732 
164676000    293.96534     411.6227    331.96052   -159470.57    159552.65    79.662176    35.277903 
164680000    290.98552    447.38377    290.40513   -159508.71       159574    156.97864    35.273675 
164684000    284.25738     368.6048      318.694   -159548.01     159610.9    49.910803    35.268637 
164688000    295.11606    467.65319    308.50173   -159553.23    159609.42    159.15146    35.268841 
164692000    290.48892    424.40389    285.62627   -159542.75    159604.77    138.77762    35.277351 
164696000    271.14685    454.40929     159.7225   -159552.85    159620.56    294.68679    35.272721 
164700000    251.37804    371.02165     260.6481   -159564.36    159652.25    110.37355    35.272227 
164704000    258.05779    411.59042    276.88703   -159590.51    159664.68    134.70339    35.270985 
164708000    270.47972    314.01322    309.93023   -159623.44    159695.61    4.0829983    35.271753 
164712000    289.05345    339.00342    231.65608   -159643.78     159709.5    107.34734    35.273414 
164716000    266.33403    405.55946    336.15486   -159668.23    159746.64    69.404604    35.275493 
164720000    275.97309    272.29461    392.60824   -159692.55    159765.87   -120.31363    35.273411 
164724000    269.08387    301.99217    411.80754   -159732.65    159790.51   -109.81537    35.270262 
164728000    295.19076    387.07703    494.29694    -159768.5    159836.41   -107.21991    35.261115 
164732000     270.9918    426.44843    315.19307   -159808.35    159890.37    111.25536    35.265427 
164736000    287.39347    211.67629    191.06938   -159845.86    159914.89    20.606911    35.264683 
164740000    257.87039    482.81333     382.4381   -159869.41    159957.08    100.37523    35.268301 
164744000    274.08505    217.98114    401.47382   -159885.75    159975.94   -183.49268    35.271496 
164748000    268.65802    387.54806    327.26056   -159932.08    160002.21    60.287502    35.268605 
164752000     311.2855    396.97821    291.92894   -159978.22    160036.47    105.04927    35.267799 
164756000    332.36444    351.55145    296.36242   -160011.71    160065.95    55.189027    35.268356 
164760000    291.05583    386.23464    309.74184    -160034.6    160100.56    76.492804    35.266058 
164764000    259.76192    442.57833    238.70697   -160046.07    160134.38    203.87137    35.267311 
164768000    259.25806    364.75241    210.75288    -160063.1    160160.81    153.99953     35.26536 
164772000    287.79758    451.53145    341.57632   -160109.75    160167.23    109.95513    35.270947 
164776000     265.3151    331.93872    243.59956   -160109.04    160181.99    88.339162    35.272613 
164780000    286.42804    487.60231    301.16177   -160135.59    160202.15    186.44054    35.273495 
164784000    275.65398    329.10412    249.86743   -160145.22    160230.85    79.236682    35.273784 
164788000    270.14065    289.51229    348.17118   -160160.37    160240.59   -58.658895    35.277147 
164792000    294.59003    479.40884    340.05153   -160200.32    160276.48    139.35731    35.275173 
164796000     261.3122    382.06097     273.7353   -160214.01    160305.91    108.32567    35.273608 
164800000    275.77571    342.80162    381.86449   -160233.69    160314.17   -39.062873    35.274029 
164804000    285.64352    298.55023    370.11714   -160257.65    160349.59   -71.566916    35.273912 
164808000    300.66415    384.83186    360.56738   -160263.48    160325.97    24.264479    35.271626 
164812000    296.92204    269.23555    206.83696   -160292.79    160333.84    62.398587    35.264917 
164816000     247.2039    301.77419    290.45381   -160278.22    160351.02    11.320388    35.266899 
164820000    278.27314    183.26922    533.31297    -160277.6    160360.89   -350.04375    35.264389 
164824000    258.30398    229.11085    268.42615    -160267.9    160366.89   -39.315296    35.261903 
164828000    277.24508    275.97615    215.38006   -160302.39    160368.49    60.596091    35.261049 
164832000    272.61329    314.75312    301.60639   -160325.19    160394.12    13.146732    35.260646 
164836000    287.73793    234.62387    315.93011   -160335.19    160417.53   -81.306242    35.252874 
164840000     315.6149    310.92498    388.77713   -160359.97    160431.31   -77.852153      35.2501 
164844000    283.30366    336.70088    187.54161   -160393.08    160472.39    149.15927    35.252488 
164848000    289.22533    201.72109    329.19525   -160409.35    160482.86   -127.47415    35.251047 
164852000    318.79589    328.25075    286.18484   -160446.83     160509.2    42.065912    35.251156 
164856000    272.41387    380.71862    366.57535    -160449.9    160521.34    14.143272    35.250564 
164860000    296.04739    226.07454    368.93437   -160460.39     160528.6   -142.85983    35.249609 
164864000    268.24162    262.24887    444.06129   -160468.48    160561.61   -181.81242    35.246821 
164868000    289.47626    471.53216    589.86868   -160489.86    160560.98   -118.33653    35.246659 
164872000    264.59471     346.8564    356.35368   -160493.62    160574.08   -9.4972813    35.248297 
164876000    256.61309    339.43418    228.43942   -160519.23    160602.09    110.99476    35.245004 
164880000    307.05391     312.2863    270.13791   -160558.81    160622.45    42.148391    35.243946 
164884000    282.73194    261.10437    352.20597   -160556.24    160636.27   -91.101602    35.246963 
164888000    283.60402    326.75357    329.15817   -160571.05    160658.26   -2.4046002    35.256407 
164892000     303.5022    392.30109    379.58012   -160636.82    160681.84    12.720971     35.25713 
164896000    312.92492    229.47447    431.05354   -160652.28    160693.18   -201.57906    35.254158 
164900000    281.86492    453.96522    482.08256   -160658.34    160709.64   -28.117343    35.252663 
164904000    313.51458    410.47956    383.10867   -160692.86    160750.48    27.370894    35.252488 
164908000    296.61975    347.81105    298.12521   -160727.45     160778.3    49.685842    35.252643 
164912000    302.86096    465.36891    390.19293   -160754.54    160820.02    75.175988    35.251925 
164916000    264.94093    401.71779    199.51955   -160765.13     160844.3    202.19824    35.249103 
164920000    291.25389    360.29424    265.21804   -160800.68    160879.65    95.076195    35.242279 
164924000    291.26708    440.47712    347.08864   -160813.48    160876.64    93.388478    35.244281 
164928000    305.62815    272.62991    499.09333   -160856.39    160900.38   -226.46341    35.247583 
164932000    278.34973    329.38994    386.85773   -160873.19    160952.76   -57.467791     35.24505 
164936000    284.38982    365.88731    320.19135   -160910.58    160984.13    45.695958    35.244179 
164940000    271.85281    236.84357    445.57557   -160925.21    161000.23   -208.73201    35.242351 
164944000    297.21519    293.98791    342.80277   -160933.68    161002.99   -48.814859    35.245506 
164948000    292.32685    506.78511    420.12347   -160970.32    161011.96    86.661642    35.243177 
164952000    269.53481    261.80601    250.45233   -160977.31    161049.87    11.353678    35.242761 
164956000    316.03482    288.74482    328.08938   -161017.28    161068.48   -39.344562    35.240328 
164960000    271.06561    445.30315    265.36451    -161045.9     161123.9    179.93864    35.242892 
164964000    281.10904    344.57618    410.38568   -161038.51    161111.21   -65.809507    35.244361 
164968000    258.49633    256.99877    223.61351   -161062.27    161140.77    33.385269    35.242338 
164972000    307.55668    398.93233    267.83646    -161093.2    161149.66    131.09586    35.237811 
164976000    273.59065    347.54266    567.48919   -161115.22    161168.95   -219.94652    35.234273 
164980000    270.18427     248.5694     202.7075   -161144.16    161225.63    45.861906    35.233115 
164984000    300.15561      243.253     270.1661   -161168.92    161236.86     -26.9131    35.231171 
164988000    294.39273    316.13764    221.49036   -161196.53     161259.4    94.647274    35.233817 
164992000    286.84172    379.96762    500.47485    -161196.5    161260.69   -120.50722    35.232026 
164996000     282.2356    391.02983    323.29508   -161210.84    161284.88    67.734758    35.234312 
165000000    294.10668    375.11931    343.15213   -161245.78    161305.91    31.967175    35.238319 
165004000    307.31928    634.73097    220.70696   -161283.76    161338.33      414.024     35.23975 
165008000    295.08559     286.7443     275.4477      -161300    161373.47    11.296599    35.236702 
165012000    298.87927    350.41194    364.15116   -161342.41    161402.56   -13.739212    35.234118 
165016000    283.29035    483.63324    300.19657    -161370.8    161431.68    183.43667     35.23667 
165020000    279.91207    391.09195    445.56943   -161394.69    161472.15   -54.477479    35.235537 
165024000    291.91423    336.20828    526.73314   -161416.24    161467.71   -190.52487    35.235803 
165028000    290.70799    376.32544     161.7453   -161400.76    161458.39    214.58014    35.239103 
165032000    269.35089    511.36001    141.64475   -161410.11    161482.75    369.71526    35.241441 
165036000    281.89581    379.01528    273.79256   -161415.47    161488.39    105.22272     35.24203 
165040000    271.69932    355.34241    281.37693   -161411.45    161487.19    73.965482    35.247779 
165044000    291.87831    167.67789    242.81021   -161418.31    161488.83   -75.132326    35.250015 
165048000    259.02003    303.59455    348.01614   -161418.98    161500.96   -44.421588    35.249333 
165052000    266.21755    379.68432    338.94217   -161431.83    161504.12    40.742149    35.246397 
165056000    270.45534    295.66931    307.64742   -161427.74    161493.22   -11.978111    35.245147 
165060000    268.24717    228.59146    524.78879   -161426.29    161501.15   -296.19733    35.245195 
165064000    273.91844    556.05635    348.20223   -161469.52    161541.04    207.85412    35.250377 
165068000    272.58705    337.84862    149.94933   -161511.27    161599.92    187.89929     35.25554 
165072000    270.44995    504.28628    345.45719   -161533.37     161595.3    158.82909    35.252613 
165076000    254.84449    235.40333    229.92406   -161533.29    161625.64    5.4792669     35.24875 
165080000    278.43074    223.15247    312.77815   -161522.92    161616.13   -89.625684    35.244349 
165084000    273.73296    500.24203    346.49187   -161578.01    161666.38    153.75016    35.242106 
165088000    287.78242    332.95057     291.3297   -161624.72    161698.76    41.620873    35.241817 
165092000    293.96444    277.16595    302.92301   -161637.78    161721.48   -25.757066    35.245524 
165096000    251.92099    172.35417    336.77599   -161652.92    161755.31   -164.42183    35.242227 
165100000    297.63725    262.23963    465.66422   -161670.12    161753.68   -203.42459    35.239107 
165104000    308.27495    266.06491    339.40285   -161690.32    161764.31   -73.337938    35.241212 
165108000    328.98268    397.65543    291.84352   -161728.56     161761.9    105.81191    35.239234 
165112000    308.06166    432.51062    245.65838   -161728.69    161793.19    186.85225    35.240554 
165116000    274.11139    320.77525    259.74637   -161748.15    161812.66    61.028882    35.239929 
165120000    273.67009    287.73901    520.00337   -161735.88    161818.42   -232.26435    35.242436 
165124000     259.9481    310.93132    216.86717   -161775.85    161866.49    94.064159    35.244305 
165128000    271.50037    407.30987    220.75027   -161813.01    161892.33     186.5596    35.243773 
165132000    283.35041    321.18695      562.405   -161839.43    161897.62   -241.21804    35.241141 
165136000    269.03856    325.07477    159.07383   -161855.83    161955.32    166.00095    35.244127 
165140000    308.42806     563.6734    447.58523   -161877.58    161949.04    116.08817    35.243917 
165144000    281.17934    286.59452    217.01211   -161902.17    161977.02    69.582406    35.244582 
165148000    278.98139    286.65974    334.42935   -161943.16    162016.55   -47.769616    35.246338 
165152000    302.87635     374.9166     462.6811   -161957.06    162018.55   -87.764497    35.243895 
165156000      297.154    208.03421     266.8031   -161964.32    162032.99   -58.768884    35.241447 
165160000    292.07016    381.54759    319.11085   -161988.11    162037.14    62.436745     35.24485 
165164000     286.8668    407.50575    383.78209   -161985.05    162055.87    23.723668     35.24823 
165168000    306.11875    204.93027    165.27072   -162028.52    162082.29    39.659556    35.251538 
165172000    254.80506    226.20858    209.36765   -162014.87    162116.24    16.840931     35.25732 
165176000    291.17749    329.75442    270.97947   -162033.26    162109.82    58.774949    35.258505 
165180000    286.73659    359.32295    245.81303   -162071.82    162133.94    113.50992    35.262848 
165184000    289.62005     300.7525    292.66223   -162105.57    162173.04    8.0902679    35.259657 
165188000    324.91611    232.34496     197.7051   -162147.26     162186.9    34.639868    35.261368 
165192000    268.89735    350.54818    705.79324   -162149.46    162229.76   -355.24507    35.260312 
165196000    262.03552    266.66441    345.81679   -162147.87    162231.44   -79.152384    35.263415 
165200000    294.61353    474.19837    340.34456   -162182.77    162248.22    133.85382    35.257326 
165204000     281.7379    411.59632    288.91462   -162197.56    162291.51     122.6817     35.25774 
165208000    282.94568    284.06104     268.4473   -162242.84    162302.29    15.613746    35.259186 
165212000      273.837    278.07444    267.49898   -162235.38    162325.55    10.575464    35.256635 
165216000    250.02857    309.62564    277.44558   -162238.23    162346.82    32.180059     35.25247 
165220000    290.99227    218.13502    257.20719   -162287.44    162345.38   -39.072171    35.251898 
165224000    286.42249    401.74182    464.91859   -162329.94    162409.32   -63.176774     35.25449 
165228000    280.16054    469.88493    381.39303   -162339.09     162425.9    88.491899    35.258294 
165232000    265.24617    529.50675    400.72772   -162384.06     162445.2    128.77902    35.263551 
165236000    320.38718    358.23911    191.65749   -162454.08    162507.01    166.58162    35.264283 
165240000    303.19974    443.27275    290.84016   -162486.93    162543.84    152.43259    35.265476 
165244000     274.6206    421.05612    211.81081   -162507.24    162574.31    209.24531    35.257978 
165248000    306.48335    553.19011    329.63762   -162536.87    162605.61    223.55248    35.256095 
165252000    303.79922    308.73069    231.24314   -162552.79    162622.73    77.487543    35.257868 
165256000    283.49903    272.10141    350.22524   -162567.42     162643.6   -78.123838    35.258446 
165260000    299.73395     278.3602    338.39452   -162609.03    162667.43   -60.034318    35.260469 
165264000    290.09587    383.37818    233.38811   -162617.75    162682.45    149.99007    35.261497 
165268000    282.56226     422.9151     336.1516    -162647.7    162713.76      86.7635    35.263011 
165272000    299.05522     393.6132    611.41585   -162679.58    162743.46   -217.80265    35.257706 
165276000    299.74022    492.16174    308.66055   -162702.04    162769.56     183.5012    35.260823 
165280000    299.16795    323.51354    282.09872   -162747.62    162809.47    41.414818    35.256318 
165284000    287.10873    469.23808    208.77583   -162777.98    162830.12    260.46225    35.257776 
165288000    287.41888     269.5014    310.55325   -162771.57    162840.92   -41.051857    35.258062 
165292000    281.51401    420.51395    379.20714   -162794.68    162870.54    41.306806    35.258826 
165296000    279.88467    393.64532    172.92088   -162805.44    162887.09    220.72445    35.262332 
165300000    293.64672    222.29424    402.43596   -162842.79    162906.31   -180.14172    35.265632 
165304000    302.64479    299.71059    514.09436   -162866.57    162947.91   -214.38377    35.265548 
165308000    283.71024    350.97765    244.89466   -162896.57    162966.47    106.08299    35.269735 
165312000    311.41822    280.91694    277.62893   -162951.49    162995.76    3.2880079    35.267039 
165316000    268.15237    319.09561    331.55045   -162963.65     163031.5   -12.454832    35.266091 
165320000    264.86212     238.7354    524.67308   -162994.77    163069.49   -285.93768    35.265461 
165324000    251.26925    304.39597    288.18708   -163013.89     163116.4    16.208882     35.26164 
165328000    248.33686    437.78008     224.1769   -163073.31    163158.71    213.60318    35.265257 
165332000    304.86117    319.87602    277.19099   -163119.76    163184.06     42.68503    35.266662 
165336000    276.57296    230.19755    241.15068   -163116.89    163218.84   -10.953128    35.271737 
165340000    281.71133    314.51732    369.08156   -163141.61    163219.86   -54.564248    35.269096 
165344000    269.72994    292.98002    297.54973   -163150.28    163250.71   -4.5697106    35.275573 
165348000    270.79298    502.84578    191.11427   -163173.05       163272    311.73151    35.276767 
165352000    326.32468    526.94462    232.31093   -163225.01    163264.81    294.63369    35.277126 
165356000    259.08633    248.46053    317.48791   -163235.81    163310.21   -69.027377    35.274133 
165360000    297.93708    343.16579    268.71588   -163279.02    163347.18    74.449913    35.271782 
165364000     358.5158    526.72159    549.98187   -163337.29    163375.63    -23.26028     35.27123 
165368000    288.85682    221.51876    325.61687   -163378.03    163435.99   -104.09811    35.270889 
165372000    296.77226    422.84287    304.43286   -163395.78    163449.49    118.41001    35.267209 
165376000    280.91699    391.36954    409.50613   -163381.62       163462   -18.136596     35.26732 
165380000    267.63129    374.32882    492.09323   -163397.36    163487.66   -117.76441    35.269167 
165384000    299.67817    454.60374    456.23219   -163419.35    163484.05   -1.6284505    35.266112 
165388000    278.19622    412.98153    207.57174   -163450.53    163510.34    205.40979    35.271415 
165392000    267.93086    195.68289    272.30234   -163474.29    163578.93    -76.61945    35.268167 
165396000    266.92469    416.68476     404.4096   -163510.33    163608.87    12.275155    35.269375 
165400000    268.67365    409.52732    211.95915    -163527.4    163615.14    197.56818    35.267552 
165404000    295.50222    482.67206     214.5875   -163556.58    163619.23    268.08456    35.267635 
165408000    307.86839    255.53332    325.50466   -163591.39    163648.34   -69.971333    35.269159 
165412000    298.60912    272.65933    446.11407   -163613.53    163663.41   -173.45474    35.265886 
165416000    279.85018    355.94073    533.28311      -163625    163704.37   -177.34238    35.262687 
165420000    279.98027    366.93766    431.54763   -163649.64    163735.27   -64.609975    35.259869 
165424000    282.76741    285.60483    491.57706   -163681.28     163753.1   -205.97223     35.25571 
165428000    302.91328    366.53139    301.39428   -163707.31     163747.4     65.13711    35.253873 
165432000    302.55817    245.93202    181.42043    -163729.7    163790.41    64.511586    35.252865 
165436000    323.01166    294.90409     369.8589   -163775.26    163823.58    -74.95481    35.253496 
165440000    308.53255    387.11731    185.46962   -163810.59    163852.21    201.64769    35.254146 
165444000    297.51913    442.39114    342.24959   -163833.37    163892.03    100.14155    35.256071 
165448000    281.09965    358.67018    254.64578   -163870.84    163949.46     104.0244    35.258504 
165452000    290.46195    328.74017    481.95988   -163897.66     163956.6   -153.21971    35.257947 
165456000    291.29119    335.33962    205.74547   -163921.24    163993.09    129.59415    35.260653 
165460000    239.00651    133.77681    426.57709   -163943.77    164030.64   -292.80028    35.257092 
165464000    271.41858    446.18478    212.35627   -163955.91    164026.93    233.82851    35.256928 
165468000    282.58096    479.02305    340.09357   -163973.52    164051.23    138.92949      35.2614 
165472000     288.4039    476.58632    342.84389   -164011.51    164072.69    133.74243     35.25756 
165476000    295.08713    245.99424      403.256    -164039.3    164093.62   -157.26176    35.253951 
165480000    275.43481    415.48023     289.2444   -164053.42    164123.09    126.23584    35.251222 
165484000    263.23057    332.29365    370.68625   -164062.35    164162.57   -38.392599    35.244786 
165488000    277.88212    320.26126    202.72338   -164078.52    164141.69    117.53788    35.244906 
165492000    281.34819    546.53412     226.8083   -164109.41    164171.64    319.72582    35.244323 
165496000    280.45797     433.6188    297.82368   -164138.21    164228.38    135.79511    35.245974 
165500000    260.16367     394.7621    469.72139   -164149.04    164233.38   -74.959282     35.24755 
165504000    281.90182    383.44787    364.36919    -164163.9    164240.48    19.078681     35.24583 
165508000    274.95576    283.15808    265.83009   -164182.29    164255.51    17.327986    35.242904 
165512000     241.4066     306.5179    307.21842   -164210.02    164303.37  -0.70051445    35.240385 
165516000      259.568    155.84101    227.12144   -164231.26    164310.64   -71.280425    35.236952 
165520000    263.56952    442.19156    313.41871    -164245.5    164323.34    128.77285    35.243621 
165524000    279.71824    436.64248    348.03316   -164277.18    164356.82    88.609314    35.242104 
165528000    298.12394    393.07852    226.10231   -164328.63    164399.53    166.97621    35.235949 
165532000    302.42551    349.74914    444.69504   -164368.67    164429.57     -94.9459    35.232944 
165536000    297.22183    351.18288    182.20959   -164402.68    164461.06    168.97329    35.237053 
165540000    268.21581     330.4833    265.09159   -164423.86     164507.1    65.391712    35.243437 
165544000    276.01788    446.76872    349.10254   -164446.21    164525.98    97.666186    35.241252 
165548000    289.18762    392.55944    406.00814   -164468.54     164540.4   -13.448702    35.242996 
165552000    321.75315    198.45365    612.32056    -164475.8    164542.22   -413.86691     35.23976 
165556000    297.92329    353.65983     401.9585   -164487.59    164559.16   -48.298671    35.243822 
165560000    304.70065    490.93974    417.95504    -164540.8    164598.26    72.984704    35.245221 
165564000    295.26929    346.15234    374.94546   -164533.21    164587.96   -28.793128    35.249002 
165568000    284.77615    371.21424     354.8623   -164548.18     164622.1    16.351945    35.251276 
165572000    281.84565    296.66728     296.5625   -164556.76    164630.78   0.10477673    35.249919 
165576000    293.47262    331.80977    675.44888   -164556.01    164637.92   -343.63912    35.247611 
165580000    285.68685    306.48707    374.55192   -164554.59    164633.54   -68.064848    35.250957 
165584000    274.34935    243.02328    238.93836   -164597.57    164651.61    4.0849233    35.258229 
165588000    276.58757     236.1801     257.0403   -164607.75    164684.59   -20.860207    35.260939 
165592000    277.81064    284.59251    359.71637    -164602.3    164677.78   -75.123859    35.262902 
165596000    263.77861    323.12535     435.9086   -164642.39    164727.67   -112.78326    35.260069 
165600000    267.92841    284.74183    184.65961      -164662    164738.22    100.08223    35.261605 
165604000    303.84531    341.42602     480.2699   -164695.55    164757.06   -138.84388    35.262588 
165608000    277.03019    311.30239    381.90463    -164685.6    164765.82   -70.602249    35.262735 
165612000    260.63227    275.65374    318.24852   -164713.72    164804.02   -42.594784     35.25969 
165616000    300.84908    373.46671    180.04708   -164732.95    164813.68    193.41963    35.259664 
165620000    282.70783    369.09521    215.04366   -164745.29    164813.83    154.05155    35.258153 
165624000    304.08126    514.83844     455.1176   -164765.07    164837.67    59.720842     35.25863 
165628000    291.80535    340.15713    228.12141   -164768.02    164832.64    112.03572    35.257775 
165632000    295.98469    349.98376     236.9105   -164788.93    164853.51    113.07326    35.258641 
165636000    316.75365    257.82074    517.43758   -164826.78    164886.33   -259.61684    35.258416 
165640000    282.93812    477.12804    207.41901   -164850.84    164932.46    269.70903    35.263044 
165644000     271.5025    610.37501    323.33938   -164839.95    164932.82    287.03563    35.264922 
165648000    281.24758    311.43978    431.36869   -164861.35    164932.94    -119.9289     35.26649 
165652000    264.29672    422.73761    358.26848   -164851.84    164951.44    64.469125    35.266338 
165656000    297.08004    297.98885    442.82378   -164889.53    164961.74   -144.83492    35.265054 
165660000    273.58673    430.87277    256.35059   -164932.52    164992.64    174.52218    35.264671 
165664000    324.89139    319.33357    377.45673   -164945.74     165006.5    -58.12316    35.261477 
165668000    301.83491    481.82895    402.76128   -164947.15    165003.14     79.06767    35.260488 
165672000    289.74988    390.25066    415.56754   -164954.62    165028.83   -25.316886    35.263203 
165676000    309.09953    371.58195    337.79539    -164980.8     165027.1    33.786557    35.259147 
165680000    240.70574    359.58048    181.33239   -164970.54     165069.5     178.2481    35.257376 
165684000    295.45306    289.26045    438.61388   -165011.33    165100.71   -149.35343    35.257692 
165688000    297.33514    359.02339    413.55901   -165072.12    165133.95   -54.535616    35.254593 
165692000    287.85209    399.88244    184.54689   -165088.88    165157.87    215.33555    35.249632 
165696000    287.30805    446.22756    239.76581   -165107.43     165185.2    206.46175    35.256155 
165700000    276.13904    421.54383    410.77569   -165117.69    165197.61    10.768135    35.257647 
165704000    273.18466    356.15427    226.91921    -165150.6    165227.01    129.23505    35.264229 
165708000    301.06594    400.67832    454.72709   -165192.86     165254.4   -54.048767    35.268484 
165712000    259.33286    204.37236     343.7281    -165178.6    165273.26   -139.35575    35.269056 
165716000    265.99742     320.8624    413.08116   -165232.44    165305.04   -92.218754    35.268025 
165720000    260.12755     452.6877    362.98028   -165259.62       165338    89.707414    35.263833 
165724000    287.90408    367.34779     267.2692   -165277.31    165342.24     100.0786    35.260227 
165728000    269.15416    624.81609    300.19338   -165298.91    165381.95    324.62271    35.259696 
165732000    259.03913    287.98977    396.75171   -165312.58    165399.47   -108.76194    35.261701 
165736000    319.24295    269.66577    315.64949   -165362.85    165408.14   -45.983723    35.258831 
165740000    288.51518    361.96891    424.76541   -165367.12    165432.14   -62.796497    35.261424 
165744000    276.83457    358.09749    340.19961   -165381.29    165451.07    17.897881    35.259066 
165748000    270.60145     237.1562    248.70529   -165394.46    165467.93   -11.549088    35.257631 
165752000    281.99191    382.42291    425.29767   -165412.43    165491.04   -42.874758    35.260024 
165756000    284.80356     370.9694    307.58029   -165433.06    165489.67    63.389114    35.259312 
165760000    283.62426    539.98161    305.81889   -165452.02    165510.78    234.16272    35.261745 
165764000    300.73851    375.94189    199.66925   -165460.38    165535.56    176.27265    35.265456 
165768000    272.83911    378.67709    386.57128   -165453.32    165542.67   -7.8941892    35.266569 
165772000    282.08589    360.69068    351.24588   -165482.04    165573.53    9.4447972    35.267919 
165776000      288.946    453.85385    322.73549    -165520.4     165590.5    131.11836    35.263662 
165780000    307.39901    512.37982    226.12571   -165540.09    165607.05     286.2541    35.264266 
165784000    300.18818    252.54824    470.43455   -165563.81    165628.64   -217.88631    35.262856 
165788000    286.69966    474.32749    233.31292   -165588.27    165655.69    241.01457    35.266267 
165792000    310.88875    439.67931    259.17172    -165625.2     165697.7    180.50758    35.271571 
165796000    281.42168    488.48054    265.70109   -165642.83    165709.59    222.77945    35.270548 
165800000    312.07347    478.37488    392.47326   -165674.91    165729.18    85.901623    35.274491 
165804000    289.94466    582.30096    188.79788   -165690.09    165763.01    393.50309    35.276207 
165808000    293.28611    339.59448    503.80096   -165705.34    165781.08   -164.20648    35.271233 
165812000    288.07407    289.90902    269.73203   -165708.53    165786.52    20.176986    35.272988 
165816000    304.19328    397.69837    354.71042    -165735.3    165793.94    42.987949    35.271357 
165820000    257.96539    328.53321    430.68168   -165727.46    165808.72   -102.14848    35.271903 
165824000    270.27232    370.57873    398.95777   -165754.95    165837.76   -28.379039    35.273912 
165828000    274.22153    260.11928    241.07585    -165792.2    165865.93    19.043433    35.269103 
165832000    276.67611    373.84821    393.25943   -165814.67    165886.94   -19.411216    35.271624 
165836000    287.22105    386.89624    321.45675   -165852.82    165922.53    65.439482    35.267913 
165840000    269.63273    305.84986    230.76005   -165882.49    165958.63    75.089807    35.264896 
165844000    285.18866    258.07624    268.40077    -165889.5    165963.63   -10.324528    35.264407 
165848000     272.8758    380.23456    349.76573   -165918.68    165987.44    30.468836    35.261835 
165852000    301.77048    370.54385    404.71294   -165964.54    166027.16   -34.169087    35.258574 
165856000    298.11313    499.79066    360.37026   -165993.09    166049.24     139.4204     35.25512 
165860000    288.93913    429.98462    598.64344    -166008.5    166081.73   -168.65882    35.254973 
165864000    276.99043    456.09685     295.2692   -166053.52    166121.17    160.82765    35.253735 
165868000    262.60512    346.29724      288.064   -166053.93    166140.99     58.23324    35.255011 
165872000    286.93102    403.77326    453.05506   -166080.46    166136.99   -49.281798    35.258121 
165876000    287.11688    312.65999    420.71502   -166085.12    166159.51   -108.05503    35.257094 
165880000    292.91047    318.29702    464.55886   -166109.52    166181.93   -146.26183    35.258203 
165884000    283.30836    493.35096    291.89748   -166128.39    166192.17    201.45348    35.260745 
165888000    297.03727    511.50586    375.17963   -166147.27    166199.79    136.32623    35.265667 
165892000    277.08647    272.45356    368.62565   -166131.77    166210.59   -96.172087    35.269477 
165896000    253.65982    418.05556    472.40489   -166152.31    166231.92   -54.349331    35.265996 
165900000    246.77931    351.95165    266.49635   -166158.98    166259.44    85.455304    35.263811 
165904000    288.94718     384.0105     399.0038   -166167.45    166255.71   -14.993301    35.266013 
165908000    265.03528    324.43734    361.61604   -166159.16    166250.36   -37.178698    35.264677 
165912000    268.75661    412.57029    250.04201   -166172.79    166261.85    162.52828    35.264462 
165916000     270.5997    491.39425    389.07728   -166212.98    166285.74    102.31697    35.260531 
165920000    271.93189    274.52953    325.05374   -166217.85    166309.24   -50.524206    35.260404 
165924000    319.22384    513.62566    635.68288   -166242.27    166301.85   -122.05722    35.260525 
165928000    289.08832    427.13202    402.51795   -166257.54    166330.58    24.614062    35.259362 
165932000    271.60037    276.87913    380.00478   -166291.78     166370.5   -103.12565    35.262334 
165936000    266.13391    262.79122    306.22408   -166327.47    166410.38   -43.432868    35.265077 
165940000    291.25128    412.34191     252.9366    -166375.2    166442.04     159.4053    35.266865 
165944000    266.90715    441.87313     259.1083   -166395.78    166483.14    182.76483     35.26785 
165948000    290.84876    382.21089    514.21247   -166426.47    166491.98   -132.00158    35.269918 
165952000    270.81843     459.9182     175.2859   -166454.21    166539.63     284.6323    35.268436 
165956000    253.48696    364.18493    257.25428   -166456.06    166560.45    106.93065    35.267442 
165960000    279.31327     356.8857    389.35816   -166499.09    166559.07   -32.472462    35.269603 
165964000    264.57885    349.84456    296.05518   -166509.52    166610.92    53.789385    35.273586 
165968000    283.72313    331.05405    265.71978   -166520.13    166596.25    65.334264     35.27149 
165972000     256.4652    490.24897    415.45981   -166518.61    166620.89    74.789154     35.27571 
165976000    283.54616    457.71002    430.50031   -166559.24    166650.54    27.209718    35.275606 
165980000    289.60116    266.92509    288.95973   -166587.58    166659.85   -22.034641    35.273659 
165984000    294.58532    448.54773    261.43364    -166615.6    166702.99    187.11409     35.27768 
165988000    262.25274    258.70782    361.93411   -166647.68    166722.08   -103.22629    35.278449 
165992000    309.75389    545.96886    289.69733   -166690.14    166732.76    256.27152    35.286636 
165996000    315.46532    276.26673    299.93055    -166697.7    166751.08   -23.663816    35.278238 
166000000     277.5277     243.3924    301.41234    -166705.3    166778.63   -58.019932    35.276439 
166004000    279.58811    384.27233    352.34697   -166726.33    166806.58     31.92536    35.276114 
166008000    290.03795    531.68323    345.79132   -166755.68    166833.87    185.89191    35.274937 
166012000    288.21458    349.94277    245.31482   -166788.77       166850    104.62795    35.274923 
166016000    302.06127    614.25783    517.30484   -166782.76       166843     96.95299    35.274219 
166020000    295.21577    271.28396    357.73943   -166772.73     166848.8   -86.455469    35.274171 
166024000    302.71234    493.60061    261.13145   -166794.46    166852.17    232.46915    35.271586 
166028000    268.72272    219.35815    269.94397   -166780.47    166869.68   -50.585827    35.270575 
166032000     297.8336    395.35144    231.08325   -166814.66    166880.94    164.26819    35.269824 
166036000    326.86373    407.47087    237.21585   -166858.14    166899.42    170.25502    35.275637 
166040000    276.70905    424.67722    374.67063   -166875.26    166957.24    50.006584     35.28206 
166044000    270.02193    360.55901    284.64223   -166895.32    166974.19    75.916779    35.278414 
166048000    289.96394    356.49571    291.69891   -166913.82     166987.9    64.796802    35.275164 
166052000    275.98144    282.16848    220.02662   -166950.52    167018.86    62.141855    35.271531 
166056000    286.52563    375.11202    551.38343   -166958.59    167042.09   -176.27141    35.269482 
166060000    273.24838    316.76886    428.53203   -166959.98     167048.8   -111.76317    35.263166 
166064000    291.90112    717.01985    298.35346   -166994.87    167066.99    418.66639    35.265074 
166068000     278.8918    364.85934    426.41519   -167028.02    167090.41   -61.555845    35.261631 
166072000    278.31559    303.12602    259.52527   -167057.79    167126.93    43.600746    35.262328 
166076000    273.38519    444.53519    405.33695   -167088.27    167171.74    39.198244    35.266991 
166080000    284.88228    302.91005    386.81225   -167131.16    167204.62   -83.902206    35.266143 
166084000    260.29769     347.0773    349.23535   -167148.19    167235.34   -2.1580508    35.263006 
166088000    259.18157    276.15665     418.6124   -167190.72    167292.03   -142.45575     35.26427 
166092000    266.36979    428.83582    461.64915   -167229.45    167314.15   -32.813337    35.268116 
166096000     268.5579    321.45181    182.89261   -167255.97    167343.05     138.5592    35.266823 
166100000    280.78974    186.10559    396.78533   -167282.86    167360.75   -210.67974    35.263369 
166104000    282.24847    469.21982    330.60858   -167340.44    167407.13    138.61123    35.264359 
166108000    252.25263    285.04385    241.34078   -167349.74    167445.04    43.703071     35.26617 
166112000    296.33971    388.94365    295.95518   -167407.43    167464.68    92.988467    35.268973 
166116000    285.57905    296.51697    360.19788   -167437.42    167517.54   -63.680911    35.266654 
166120000    283.44336    249.02866    349.25022   -167480.73    167549.13   -100.22157    35.268494 
166124000    265.33881     201.2872    272.48985   -167492.76       167580   -71.202649    35.274625 
166128000    304.30514    279.25902    266.39734   -167555.71    167608.24    12.861673     35.28157 
166132000    262.39982    292.64852     323.5724   -167547.47     167636.1   -30.923885    35.282526 
166136000    282.37512    443.05492     325.4845   -167586.16     167653.6    117.57042    35.282676 
166140000    298.40134    287.32448    271.31475   -167612.57    167688.77    16.009725    35.285394 
166144000     260.9965    411.35727    369.54419   -167643.51    167730.27    41.813078    35.285583 
166148000    268.90782    454.40415    347.04963   -167669.66    167762.35    107.35452    35.287137 
166152000    277.15604    184.96456     321.6861    -167712.1    167803.73   -136.72154    35.293292 
166156000    276.34813    220.05783    340.72165   -167738.72    167815.18   -120.66383     35.29694 
166160000    272.34035    244.76472    156.69289   -167777.39    167861.47    88.071836    35.299004 
166164000    287.34291    628.23076    259.73868   -167803.33    167891.99    368.49208    35.296547 
166168000    263.81686    353.62146    356.12208   -167838.09    167935.87   -2.5006229    35.299078 
166172000    259.22067    272.53749    356.14001   -167866.09    167946.24   -83.602527    35.294548 
166176000      293.277    317.64668    250.43295   -167895.77     167971.9    67.213734    35.292192 
166180000    270.44027    191.41015    192.82313   -167913.01    167989.78   -1.4129735    35.293117 
166184000    302.51777    307.11129    371.56383   -167915.76    167975.67   -64.452539     35.29108 
166188000    276.00173     415.3306    473.52675   -167895.55    167967.57   -58.196154    35.287229 
166192000    274.42299    445.01263    254.24978   -167895.04    167976.48    190.76284    35.287111 
166196000    267.58302    281.63496    304.20788    -167936.3    168004.26   -22.572917    35.285467 
166200000    314.31546    384.86544    339.31825   -167967.64    168023.72    45.547191    35.285196 
166204000     356.6587    336.42359    505.81208   -167980.74    167998.76   -169.38848    35.285059 
166208000    298.83487    233.59685    304.23816   -167977.02     168038.2   -70.641316    35.282798 
166212000      277.671    489.13397    377.24541    -168007.2    168092.49    111.88857      35.2832 
166216000    278.16628    457.36093    402.91632    -168025.9    168119.31    54.444616    35.281424 
166220000    264.49467    308.59495    416.21279   -168036.27    168118.71   -107.61784    35.280996 
166224000    268.59589    243.48175    186.08025   -168090.38    168170.03    57.401507     35.27937 
166228000    293.13817    425.83041    361.54923   -168106.07    168175.11     64.28118    35.273853 
166232000    304.79683    481.85023    270.95195   -168119.53    168184.96    210.89827    35.274938 
166236000    262.06538    345.76084    387.92248   -168120.82    168209.54   -42.161637    35.267976 
166240000    262.64508    451.21202    322.64407   -168113.24    168227.06    128.56795    35.268902 
166244000    300.99446    287.07609    229.08424    -168142.6    168214.39     57.99185    35.268146 
166248000    271.68009     318.9364    526.49578   -168175.76    168256.49   -207.55938    35.265487 
166252000    248.90044    390.88002    308.68634   -168201.41     168312.5    82.193687    35.271177 
166256000    270.72009    260.14946    255.31065    -168237.6    168333.85    4.8388068    35.267711 
166260000     301.7625    345.47407    319.01958   -168266.83    168340.93     26.45449    35.271289 
166264000    302.44613    319.94602    273.25004   -168301.37    168372.88    46.695979    35.272667 
166268000    274.47862    400.06676    178.56251    -168300.1    168385.41    221.50425    35.272125 
166272000    295.76504    222.33155    452.32736   -168317.47    168383.29   -229.99581    35.272491 
166276000    279.03599    428.50943    357.95145    -168334.2    168416.19    70.557975     35.27339 
166280000      290.591    339.72668     264.8531   -168373.06    168454.93    74.873571    35.273632 
166284000    293.05808     381.6925    322.13498   -168400.91    168442.92    59.557525    35.269327 
166288000    303.23808    273.28965    299.61597   -168414.11    168469.11   -26.326316    35.269978 
166292000    299.69637    391.52346    274.89986   -168417.44    168470.52     116.6236    35.273101 
166296000     271.2885      171.492    260.71715   -168414.53    168509.15   -89.225157     35.27237 
166300000    301.23495    271.57884    315.85777   -168422.77    168511.99   -44.278935    35.277255 
166304000    287.95309    352.71218    297.17619   -168458.98    168532.83    55.535991      35.2776 
166308000    264.31496    304.13507    400.75872   -168469.88    168560.83   -96.623653    35.269619 
166312000    278.06897    600.73406    283.43093   -168505.71    168586.57    317.30313     35.26634 
166316000    268.54796    326.24014    405.14068   -168500.32    168591.47   -78.900538    35.263169 
166320000    230.64469    261.73926    206.94718   -168503.66     168601.6    54.792082    35.267963 
166324000     259.2604    298.30276    277.46588    -168533.2    168615.44    20.836882    35.267841 
166328000    291.54559     337.0358    318.56871   -168566.81    168639.91    18.467087     35.27115 
166332000    285.53588    374.41429    340.88479   -168584.94    168671.83    33.529505    35.269662 
166336000    304.31037    385.03895    407.69065   -168617.48    168667.69     -22.6517     35.26837 
166340000     289.0942    362.11668    221.36973   -168629.58    168697.86    140.74695    35.271363 
166344000    294.05143    265.15033    385.46239   -168647.09    168706.88   -120.31206    35.272244 
166348000    288.48488    402.13384    244.92996   -168684.89    168733.76    157.20388    35.268904 
166352000    266.31064    334.05999    306.49972      -168689    168767.07    27.560273    35.266462 
166356000      281.993    406.44783    309.32198   -168707.55    168772.77    97.125849    35.268225 
166360000    299.44659    457.21861    417.14199    -168755.2     168824.1    40.076617    35.271452 
166364000    269.78809    404.09594      282.448   -168784.36    168862.43    121.64793    35.278345 
166368000    265.97888    276.85959    271.65035   -168822.14    168898.76    5.2092358    35.277261 
166372000     265.8871    201.98773     340.9871   -168827.97    168929.62   -138.99937     35.27523 
166376000    299.33871    363.87151    229.72735   -168852.17    168939.47    134.14417    35.272239 
166380000    283.86915    467.87004    430.89155   -168865.18    168931.55    36.978484     35.26777 
166384000    284.34932    400.31916    343.39533   -168914.87    168977.73    56.923829    35.271591 
166388000     303.6008    706.90668    404.47901   -168943.13    168999.33    302.42767    35.270942 
166392000    298.05466    475.34504    245.56554   -168948.01    169017.96     229.7795    35.273257 
166396000     273.5748    306.38107    315.62059    -168955.7    169041.46   -9.2395264    35.272541 
166400000    262.55735    376.57362    328.47218   -168958.98    169036.48    48.101435    35.271615 
166404000    294.86387    410.16549    345.19559   -168974.42    169058.58    64.969895    35.274274 
166408000    269.95496    364.11976    223.82352   -169019.21    169091.15    140.29624     35.27181 
166412000     294.6027    220.54558    335.78591   -169058.64    169122.73   -115.24033    35.271505 
166416000    303.58343    162.09023    453.21045   -169076.69    169129.93   -291.12023    35.266226 
166420000    272.22346    393.51596    340.44635   -169104.27    169177.24    53.069614    35.268383 
166424000    290.31938    223.78693    585.18826   -169100.77    169173.61   -361.40133    35.267657 
166428000    291.92836    355.80008    410.50731      -169128    169204.91   -54.707237    35.264995 
166432000    285.13044     415.0236    266.80556   -169164.02    169252.73    148.21804    35.267912 
166436000    274.41377     268.5944     177.9488      -169176    169256.46    90.645596    35.264879 
166440000    284.23129    351.46287    219.15301    -169210.1    169292.22    132.30986    35.263659 
166444000    260.80512    349.58918    238.48824   -169245.09    169328.49    111.10095    35.264745 
166448000    279.23442    386.09682    271.17808   -169291.29    169369.04    114.91874    35.264557 
166452000    274.32266    273.54179    300.62259    -169315.5    169401.34   -27.080797    35.264643 
166456000    277.99198    439.25641    311.21483    -169348.3    169430.39    128.04158    35.262674 
166460000     296.3921    410.65843    454.90465   -169392.62    169453.23   -44.246222    35.257742 
166464000    258.92852    262.15731    312.50892    -169414.3    169501.07   -50.351608    35.259196 
166468000    279.27943    521.58706    445.59627   -169442.45    169504.16    75.990787    35.263144 
166472000    291.65411    337.70768    325.27821   -169435.42    169510.71    12.429466    35.256727 
166476000    308.77274    378.29588    305.62652   -169460.62     169517.9    72.669361    35.256897 
166480000      325.904    399.17218    280.68284   -169499.88    169545.98    118.48935    35.255121 
166484000    273.37444    315.62322    297.82899   -169504.47    169576.57    17.794225    35.254135 
166488000    285.81712    268.33467    200.96122   -169530.68    169601.08    67.373455    35.252318 
166492000    274.48214    414.57595    202.95823   -169566.27    169630.93    211.61772    35.253167 
166496000    280.07976    432.42029    355.41281    -169594.5    169655.99    77.007483    35.249536 
166500000    304.44274    358.61962    508.80258   -169635.76    169694.97   -150.18295    35.245722 
166504000    281.25885      374.571    398.53079    -169648.6    169728.96   -23.959798    35.244988 
166508000    284.78903    314.83429    274.64316    -169648.6    169746.56    40.191125    35.248003 
166512000    290.08681      431.558     412.6927   -169684.12    169741.66    18.865299    35.247028 
166516000    299.47222    621.80415    275.00525   -169715.11    169779.23    346.79889    35.243047 
166520000    295.32064    418.65897     239.2335   -169742.02     169820.6    179.42548    35.246201 
166524000    301.13131    376.85728    276.05942   -169763.75    169839.28    100.79786    35.244136 
166528000    301.69286    410.94664    376.86087   -169790.92    169857.96    34.085772      35.2455 
166532000    289.16468    384.17471     563.6947   -169841.03    169916.93   -179.51999    35.239019 
166536000    290.71062    634.11566    257.57186   -169871.07    169947.15     376.5438      35.2418 
166540000    305.03936      316.727    395.31834   -169900.97    169980.02   -78.591339    35.243718 
166544000    274.21069    243.05779    349.43639   -169907.53     170007.7    -106.3786    35.241713 
166548000    280.10592    296.71802    289.21954   -169921.84    170018.32     7.498483    35.243172 
166552000    276.47641    686.62121    267.89073   -169948.22    170035.15    418.73047    35.243495 
166556000    314.03226    240.35584    269.60596   -169975.15    170039.34   -29.250123    35.244585 
166560000    279.44559     340.0761    202.26836   -170002.31    170083.64    137.80774    35.242721 
166564000    286.64862    271.32523    289.48386   -170040.81    170115.41    -18.15863    35.247446 
166568000    282.76054    320.69706    273.15895   -170084.47     170151.2    47.538109    35.249988 
166572000    287.14124    319.04212    451.99734    -170098.5    170171.22   -132.95523    35.249103 
166576000    285.22363    269.68472    337.60561   -170124.34    170187.74   -67.920897    35.248749 
166580000    285.28075    305.70556    241.55102   -170142.76    170215.32     64.15454    35.247548 
166584000    283.93591    446.63229    413.70689   -170169.01    170245.98      32.9254    35.251999 
166588000    277.96614    401.62194    182.58844   -170183.69    170258.62     219.0335    35.253352 
166592000    280.53562    286.39779    466.98208   -170191.95    170271.49   -180.58429    35.252075 
166596000    312.21695    423.82302    336.93966   -170224.32    170266.06    86.883366    35.251978 
166600000    299.10553    459.95507    372.58041   -170242.23    170290.78    87.374667    35.253166 
166604000    277.94814    302.65034    204.43214   -170253.07    170334.57    98.218204    35.252805 
166608000    276.23725    290.53854    356.97969   -170283.33    170357.66   -66.441155    35.245538 
166612000    281.35114    499.58477     441.4287   -170318.63    170385.75    58.156073    35.242178 
166616000     284.7616     330.0871    396.30324   -170336.03    170410.34   -66.216133    35.241885 
166620000     276.9098    255.84077    250.20279   -170347.36    170428.18    5.6379819    35.236163 
166624000     288.8653    465.44347    279.33868   -170392.86    170466.53    186.10479    35.240435 
166628000    291.07048     378.2427    304.82374   -170401.63    170484.02    73.418966    35.244128 
166632000    308.35735    448.95217    372.65378   -170403.88    170475.27    76.298393     35.24798 
166636000    294.51589    376.84658    469.55597   -170415.23     170481.1   -92.709381    35.248253 
166640000    285.28299    441.32919    295.59287   -170439.67    170519.53    145.73632    35.249381 
166644000    260.24163    314.13827    310.66539   -170448.49    170539.61    3.4728781    35.249502 
166648000    275.11939    439.19435    400.65671   -170485.33    170559.77     38.53764     35.24608 
166652000    270.67605    451.41162    218.10901   -170498.84    170572.06    233.30261    35.248091 
166656000    314.17009    456.88328    545.45545   -170557.56    170615.61   -88.572169    35.249923 
166660000    277.61135    380.60859    221.35152   -170590.21    170656.83    159.25707    35.246661 
166664000    286.76482    557.07841    269.86885   -170603.69    170666.73    287.20955    35.240097 
166668000    305.08004    339.97891    313.78268   -170616.98    170679.16    26.196232     35.24089 
166672000    272.74992    395.25172     251.6171   -170634.45    170702.73    143.63462    35.242209 
166676000    269.50172    430.06944    154.84831   -170663.14    170756.54    275.22113    35.242229 
166680000    268.12567     395.2116    338.22022   -170685.73    170772.08    56.991381     35.24224 
166684000     288.5488    623.78686    260.62494   -170696.57    170773.37    363.16191    35.247073 
166688000    254.98752    201.91913    311.57735   -170700.72    170787.14   -109.65822    35.252828 
166692000     279.7879    377.06346    262.26178   -170713.82    170804.19    114.80168    35.248684 
166696000    307.78727    363.78195    597.03413    -170716.1    170778.18   -233.25218    35.246926 
166700000    296.75338    289.87089    363.37129   -170733.55    170783.89   -73.500395    35.247423 
166704000    298.18969    272.12941      421.228   -170755.98    170840.62    -149.0986    35.244721 
166708000    285.29779     429.0159    355.55609   -170790.06    170855.04    73.459813    35.245698 
166712000    301.09307    405.58074      325.918   -170813.69    170886.41    79.662742    35.243227 
166716000    258.45237    301.88368    363.49722    -170838.3     170927.3   -61.613538    35.242783 
166720000    300.91021    323.62016    230.84194   -170876.04    170939.96    92.778223    35.245231 
166724000    268.44738    272.54109    290.30723   -170887.67    170972.39   -17.766148    35.251544 
166728000    305.58479    469.50045    255.00823   -170908.24     170984.1    214.49223    35.251104 
166732000    301.32317    371.88043    347.10327   -170914.69    170994.05    24.777153    35.249488 
166736000     304.5702    424.14224    226.19641   -170956.04    171017.08    197.94582    35.247207 
166740000    307.91728    566.21063    377.40562   -170983.01    171035.82    188.80501    35.247248 
166744000      280.232    314.02448    242.16191   -170990.26    171052.99    71.862572    35.250007 
166748000     303.3739    324.86896    285.05892   -171008.49    171067.21    39.810048    35.249042 
166752000     294.8394     394.5807    242.03243   -171031.81    171102.12    152.54827    35.246706 
166756000     295.1813    244.75651    459.72826   -171029.24    171086.87   -214.97175    35.246018 
166760000    293.16631    486.69078    632.71803   -171020.06    171095.18   -146.02725    35.252859 
166764000    293.00758     270.8978    260.80063   -171054.89    171125.44    10.097176    35.253241 
166768000    281.49467    394.15886    342.72012   -171080.27    171163.34    51.438743    35.246848 
166772000    258.77222    420.96915    258.18262    -171079.7     171164.7    162.78653    35.245748 
166776000    314.11203    463.89338    461.90971   -171093.02    171169.19    1.9836679    35.245812 
166780000    296.38479    303.80598    404.80097   -171105.53    171161.14   -100.99499    35.242079 
166784000    263.89653    329.90972     251.0868   -171133.75    171202.27    78.822922     35.24107 
166788000    287.64741    532.44124     267.4629    -171153.3    171231.52    264.97834    35.239438 
166792000    265.58072    251.03094    207.67303   -171179.01    171254.48    43.357912    35.242015 
166796000    283.71945    321.90286    485.63197   -171192.79    171275.65   -163.72912    35.239341 
166800000    278.12653    344.31552    285.70364   -171214.76    171293.69     58.61188    35.240351 
166804000    280.72242    301.01997    286.37034   -171196.63    171293.06    14.649632    35.243918 
166808000    272.67003    267.07442    167.89815   -171239.84     171318.7    99.176266    35.240486 
166812000    290.63239    290.01285    336.02874    -171260.3    171331.26   -46.015883    35.243834 
166816000     284.0117    423.50179    359.98866   -171274.24    171357.54    63.513126    35.249654 
166820000    252.77568    335.99428     318.1312   -171290.85    171368.79    17.863079    35.250907 
166824000    291.08678    494.32518    147.45063   -171317.12    171375.28    346.87455    35.253265 
166828000    273.37653    319.36129    235.36255   -171331.34    171382.06     83.99874     35.25115 
166832000    292.75062    605.84396    397.19507   -171354.41    171421.85    208.64889    35.248547 
166836000    315.56819    559.42553    308.26279   -171386.21    171455.73    251.16273    35.247242 
166840000    286.81278     246.1729    319.07731   -171389.03    171467.26   -72.904413    35.244507 
166844000    304.43885    519.79246    196.14289   -171418.33     171492.7    323.64957    35.249395 
166848000    260.57687    210.02084    251.99894   -171438.04    171523.61   -41.978104    35.246967 
166852000    302.47407     531.9388    388.85418   -171466.11    171533.08    143.08462    35.247495 
166856000     295.2221    228.83082    305.96857   -171477.33    171555.56   -77.137748    35.247744 
166860000    304.99018    387.14303    520.72634   -171494.54    171567.33    -133.5833    35.249543 
166864000    284.91363    506.79352     297.8571   -171516.24    171593.19    208.93642    35.252943 
166868000    278.59415    274.22319    231.88734   -171530.81    171592.77    42.335845    35.249763 
166872000    287.18855    312.93368    275.69539    -171577.6       171640    37.238288    35.249016 
166876000    283.15228    408.61488    142.07992   -171579.31    171656.93    266.53495    35.257641 
166880000    252.68323    405.45756    235.91718    -171590.4    171687.23    169.54037    35.258612 
166884000    304.02494    299.09102    343.48976   -171644.11    171716.83   -44.398747    35.258285 
166888000    290.58948    405.07188    246.33375   -171654.95       171740    158.73814    35.256348 
166892000     281.6554    361.68017    316.82957   -171675.11    171755.25    44.850598     35.25801 
166896000    296.43069    521.46966    372.42118      -171701    171772.66    149.04848    35.260841 
166900000    266.65214    477.64851    405.72537   -171724.89    171807.61    71.923136    35.259075 
166904000    268.56671    579.58588    441.82065    -171756.5    171833.82    137.76522    35.264475 
166908000    259.51316    238.18591    337.50463    -171773.5    171870.98   -99.318716    35.265497 
166912000    287.56691    352.74096     324.4704    -171813.7    171877.79    28.270568    35.266196 
166916000    263.95559    381.96837    333.16504    -171850.4    171942.16    48.803337    35.266826 
166920000    293.01537    251.74322    335.52048   -171869.51    171952.09   -83.777259    35.265303 
166924000    248.80628    201.10044    323.91982   -171883.62    171991.59   -122.81938    35.262127 
166928000     248.1755    343.13322    228.08887   -171899.09    171996.86    115.04435    35.265341 
166932000    262.88963    215.05317    290.16912   -171923.24    172036.26   -75.115956    35.265521 
166936000    291.41112    540.86572    282.98578   -171986.08    172058.96    257.87995    35.265074 
166940000    299.09251    252.66847    297.54194   -172005.67    172078.71   -44.873465    35.263419 
166944000    263.91431    542.19542    203.42803   -172026.93    172108.48    338.76739    35.266552 
166948000    268.00275    252.36115    309.10273   -172046.19    172133.52    -56.74158     35.26516 
166952000    274.82208    476.17617    201.42367   -172047.34    172141.86     274.7525    35.264685 
166956000    271.98511     353.0433    287.42254   -172068.79    172152.85     65.62076    35.261568 
166960000    260.32851    264.96908    172.31525   -172072.34    172161.86    92.653839    35.263383 
166964000    277.75535    202.08876    259.50128   -172104.37    172177.32    -57.41252    35.263262 
166968000    278.58965    377.51115    244.60088    -172106.9    172198.17    132.91028    35.261478 
166972000    251.49041    337.60228    437.62018   -172101.67    172204.19   -100.01791    35.266053 
166976000    269.32227    201.23786    463.56462    -172129.3    172225.58   -262.32676    35.265254 
166980000    263.22263      399.821    371.55911   -172160.99    172248.27    28.261882    35.268889 
166984000    294.12222    341.80269    285.19664   -172184.59    172257.36    56.606055    35.267418 
166988000    262.73468    308.14049    305.76586   -172206.27    172300.44    2.3746356    35.268673 
166992000    281.67875    386.63179    397.52407   -172220.81    172305.36   -10.892277    35.271882 
166996000    263.57562    434.54608    204.21291   -172252.91    172342.52    230.33317     35.26873 
167000000    266.03783    232.36384    280.97377   -172281.68     172371.5   -48.609929    35.266918 
167004000    269.00178    384.73283    377.57267   -172295.37    172390.79    7.1601645    35.272119 
167008000    289.58301    355.11394    431.92295   -172343.79    172407.77   -76.809017    35.271788 
167012000    302.98068    248.56753    396.31834   -172358.39    172422.26   -147.75081    35.266867 
167016000    285.30743    350.18959    366.10582   -172374.42    172454.76   -15.916229    35.267492 
167020000    301.87789    319.75516    243.64969   -172394.74    172471.67    76.105468    35.268808 
167024000    286.99135    534.25362    404.78698   -172413.79    172493.67    129.46664    35.270036 
167028000    299.78993    446.68992     377.6539   -172437.17    172501.57    69.036023    35.266041 
167032000    278.49488    403.07636    295.89337   -172449.05    172548.43    107.18299    35.267405 
167036000    303.41117    309.51125    490.15872   -172500.96    172551.39   -180.64747    35.262885 
167040000    286.79571    425.28252    201.66589   -172524.33    172605.04    223.61662     35.25933 
167044000    281.96298    407.76457    377.47758   -172530.99     172602.7    30.286983    35.258647 
167048000    280.01391    333.84357    315.21006   -172557.38    172629.92    18.633509    35.253829 
167052000     294.1413     371.7373    535.35108   -172598.35    172665.47   -163.61377    35.256905 
167056000     282.0751    415.20231    372.60776   -172625.19    172683.12    42.594552    35.256954 
167060000    291.01304    351.59147    296.91039    -172643.9     172717.6    54.681081    35.256346 
167064000     319.6574    359.84989    689.98891   -172664.11    172718.01   -330.13902    35.253767 
167068000     304.7696    290.86476    391.08002   -172698.74    172762.73   -100.21525    35.253359 
167072000    301.89589    418.38275    280.91617   -172716.48    172778.61    137.46658    35.252147 
167076000    280.23962    63.620234    330.02129   -172711.07    172793.55   -266.40106    35.248433 
167080000    265.25853    316.90881    357.92162   -172719.41    172814.88   -41.012809    35.247788 
167084000    273.90264    480.46586    262.30474   -172744.35    172827.94    218.16111    35.246502 
167088000     274.1502    268.90588    711.57562   -172777.68    172858.17   -442.66974    35.240805 
167092000    256.55363    232.10291     232.8872   -172831.09    172920.79  -0.78428026    35.244946 
167096000    292.42905    303.23702    238.84238   -172861.53    172943.15    64.394633    35.241146 
167100000    270.98191    218.19205    199.86928   -172878.28    172968.37    18.322777    35.242734 
167104000    264.88234    303.52183     368.3353   -172912.44    172983.22   -64.813473    35.238692 
167108000    292.91178    472.59663    229.83074    -172961.1    173021.93    242.76589    35.245476 
167112000    308.89897    412.51391     321.4088   -172977.06    173036.26    91.105112     35.24784 
167116000    292.10744    512.98899    354.42216    -172989.5     173059.2    158.56683    35.239826 
167120000    301.18517    207.19854    364.02341   -173016.38    173072.05   -156.82487    35.246413 
167124000    289.49413    383.56221    307.63579      -173037    173114.01    75.926414    35.248326 
167128000    293.49834     320.8016    415.48842   -173066.87    173137.46    -94.68682    35.248778 
167132000    295.67725    352.02257    308.06244   -173090.36    173159.61    43.960126    35.250248 
167136000    278.26096    371.73874     264.9722    -173110.1    173197.66    106.76655    35.247421 
167140000    281.49783    484.41808    330.84617   -173135.18    173219.89    153.57192    35.248422 
167144000    241.58394    258.44375    273.89413   -173149.37    173243.99   -15.450372    35.248445 
167148000    296.87534    410.47103    351.04307   -173178.41    173247.88    59.427956    35.249233 
167152000     280.3488    370.22142    223.93046   -173181.87    173259.98    146.29096    35.253805 
167156000    285.36883    295.85442    406.14617   -173190.93    173276.89   -110.29175    35.249489 
167160000    284.19138    356.23271    314.25319   -173213.64    173286.03    41.979519    35.250061 
167164000    295.85834    425.34948     318.6912   -173238.61    173305.17    106.65828    35.250105 
167168000    295.88381    368.36641    275.07401   -173277.35    173343.73    93.292407    35.251883 
167172000    265.82827    216.22697    379.57249   -173305.41    173380.22   -163.34552    35.253374 
167176000    295.45775    364.16402    317.40615   -173351.77    173405.57     46.75787    35.251489 
167180000    283.74478    661.22022    385.25691   -173365.99    173452.13    275.96331     35.25305 
167184000    298.86243    369.84653    457.43513   -173405.49    173460.16   -87.588602    35.255937 
167188000     284.2818    485.73113    164.65441   -173397.39     173477.5    321.07672     35.25498 
167192000    248.33444    388.45821    198.80867   -173395.55    173502.59    189.64954    35.257576 
167196000    300.52916    512.41453    289.64553   -173416.41    173489.85      222.769    35.261197 
167200000    255.84466    243.05219    245.81761   -173418.19    173511.49   -2.7654218    35.263739 
167204000    281.33368    320.18831    336.72169      -173464    173527.46   -16.533375    35.265339 
167208000    306.06927    506.37248     581.6728   -173501.87    173558.85   -75.300313    35.268366 
167212000    284.81545    432.26915    414.75061   -173515.31    173600.99    17.518547    35.263652 
167216000    287.55663    220.60598    326.97183   -173526.01    173590.23   -106.36585    35.261207 
167220000    282.12526    306.79634    234.29405   -173560.36    173631.26    72.502293    35.266987 
167224000    285.97557    552.39689    316.11458   -173570.63    173658.37    236.28231    35.268704 
167228000    251.53017    313.77776    239.86909   -173574.16    173680.85    73.908672    35.263446 
167232000    303.41185     456.9683    366.48545   -173604.67       173665    90.482847    35.261973 
167236000     307.3291     304.1499    411.55071   -173627.37    173682.18   -107.40081    35.260117 
167240000    250.81672     432.7759    177.37031   -173614.52    173703.05    255.40559    35.260849 
167244000    267.65455    442.75404    288.66257    -173639.7    173715.77    154.09147    35.260671 
167248000    269.58605    350.87909    271.99418   -173641.95    173721.04    78.884909    35.262297 
167252000     287.2092    451.79759    343.25217   -173673.13    173749.68    108.54542     35.26725 
167256000    279.59525    222.81477    794.25385   -173669.01    173749.62   -571.43908    35.264362 
167260000    278.69747    468.31548    307.32851   -173693.21    173775.14    160.98697    35.261764 
167264000    258.57903    352.24961    281.50022   -173712.58    173795.44    70.749393    35.266084 
167268000    263.99264    168.75935    303.75064   -173707.96    173814.78    -134.9913    35.263433 
167272000    266.60853    377.13946    353.65968   -173751.99    173847.16    23.479776    35.270884 
167276000    298.95204    409.01913    329.94226   -173780.67    173853.72    79.076863    35.274234 
167280000    296.09726    484.72965    304.43723   -173804.09    173874.72    180.29242    35.277385 
167284000    295.57254    318.09199    340.83062   -173867.08    173936.99   -22.738631    35.277158 
167288000    275.47212    388.97571    514.18256   -173896.23    173983.21   -125.20685    35.274147 
167292000      289.587    428.93413    552.54342   -173929.43    173991.08   -123.60929    35.277091 
167296000    268.52634    205.28698    216.43912   -173954.79    174037.32   -11.152137    35.276811 
167300000    261.12644    416.13956    335.73696   -173987.23    174062.29    80.402605    35.277896 
167304000    268.51694    448.22309    216.46169   -174014.26    174110.83     231.7614    35.279633 
167308000    258.50878    240.61042    274.33933   -174030.85    174112.04   -33.728911    35.278098 
167312000    271.98648    314.12282     257.2744   -174045.62    174145.32     56.84842    35.280845 
167316000    303.67332    456.32938    279.92575   -174075.59     174139.7    176.40363    35.277704 
167320000    263.59798    230.59196    437.75369   -174073.52    174150.26   -207.16172    35.278969 
167324000    285.40043    376.84201    286.31944   -174093.38    174154.07    90.522564    35.277988 
167328000    278.82742    273.23304    378.38557   -174089.23    174167.57   -105.15253    35.282231 
167332000     284.9952    491.73244     202.6096   -174125.98    174194.56    289.12284    35.282637 
167336000    268.85864    262.94377    288.18426   -174141.02    174217.22   -25.240485     35.28839 
167340000    280.06216    868.59602      280.865   -174165.57    174245.04    587.73102    35.289959 
167344000    266.85114    418.53306    247.96384   -174199.26    174273.79    170.56922    35.286538 
167348000     254.9665    278.26573    341.65528   -174215.23    174316.08   -63.389549    35.286824 
167352000    274.47784    460.26732    230.96747   -174224.12    174307.49    229.29985    35.288295 
167356000    290.20156    345.45284    427.30999   -174252.11    174330.79   -81.857156    35.287891 
167360000    265.12633      377.509    224.37631   -174269.06    174366.69     153.1327    35.289355 
167364000    309.50961    212.46824    451.35964      -174280    174335.82    -238.8914    35.285157 
167368000    272.71392    303.15495    330.23907      -174278    174366.36   -27.084128    35.291843 
167372000    294.76199    448.16246    293.58538   -174308.64    174378.72    154.57708    35.294987 
167376000    294.39736     237.0091    280.90879   -174320.09    174377.39   -43.899688    35.293208 
167380000    277.72248    268.26371    219.94619    -174350.5    174428.87    48.317525    35.291142 
167384000     304.7257     478.3687    235.32602    -174393.9    174438.08    243.04268    35.291358 
167388000    278.12394    360.09395      464.557   -174391.61    174482.81   -104.46305    35.291423 
167392000    268.02351    353.39394    317.17443   -174412.16    174496.61    36.219512    35.293655 
167396000    274.46312    399.54376     187.1998   -174441.98    174511.92    212.34395    35.295571 
167400000    260.92915    268.36754    412.29073   -174451.04    174545.93   -143.92319    35.293621 
167404000    265.35098    281.98454    243.98467   -174497.45    174568.15    37.999869    35.294547 
167408000     304.0134    293.47824    298.46768   -174535.42    174604.29   -4.9894415    35.298383 
167412000    279.69894    244.09424    169.47355   -174569.48       174643    74.620685    35.298883 
167416000    277.03852    571.02364    212.09934   -174595.38    174667.47     358.9243    35.300616 
167420000    251.64951    402.13705    204.74187   -174624.91    174691.54    197.39518    35.298888 
167424000    295.62301     532.2827    277.15024   -174642.05     174717.8    255.13246    35.299201 
167428000    286.90447    229.52874    306.50707   -174642.63    174723.19   -76.978328     35.29788 
167432000    258.36814    377.36793    302.78923   -174650.89    174735.24    74.578695    35.299428 
167436000    268.51969    445.24676    263.58222   -174651.56    174740.52    181.66453    35.304096 
167440000     275.9046     331.0761    219.44712   -174671.25    174771.77    111.62898    35.307319 
167444000     279.6542    323.78742    241.23095   -174699.95    174781.81    82.556475    35.307963 
167448000    270.39783    470.35703    292.45645   -174692.17    174762.78    177.90058    35.311403 
167452000    305.18087    412.32871    344.17711   -174715.26    174782.73    68.151608    35.310331 
167456000    283.96362    315.51967     405.4825    -174738.3    174819.47   -89.962834    35.313538 
167460000    277.08845    475.99815    408.09643   -174775.44    174839.93    67.901711    35.311847 
167464000    284.09049    771.06257    239.25832   -174788.46    174863.87    531.80426     35.30846 
167468000    273.74852    558.86828    393.47652    -174782.4    174863.82    165.39176     35.31145 
167472000    311.08463    483.97637    471.13914   -174804.36    174882.51    12.837227    35.312915 
167476000    286.82961    457.37097    271.39434   -174806.73    174911.48    185.97663    35.312503 
167480000    274.99406    384.18866     440.2379   -174834.39    174924.37   -56.049233    35.313985 
167484000    306.10439    370.17313    258.93176   -174873.73    174932.23    111.24137    35.313175 
167488000    291.38958     245.7926     261.9511   -174892.37       174962   -16.158496    35.305492 
167492000    297.51965    444.73283    324.01148   -174939.09    175019.62    120.72135    35.302354 
167496000    278.12558    277.71834    292.92078   -174973.65    175041.74   -15.202439    35.303022 
167500000    274.26449    227.71979    183.91037   -175001.21    175078.09    43.809414    35.298139 
167504000    281.27868    456.85753     293.0949   -175027.96     175107.4    163.76263     35.29608 
167508000     262.2993      293.663    442.58934   -175024.65    175119.75   -148.92635    35.288178 
167512000    308.50612    392.79081    438.36517   -175046.87    175119.16   -45.574359    35.288307 
167516000    272.91866    296.98907    162.50559   -175075.39    175152.05    134.48347    35.287902 
167520000    290.48226    438.19097    224.31322   -175082.82    175168.46    213.87775    35.289584 
167524000    265.24957    251.31238    180.11377   -175086.48    175175.87     71.19861    35.291862 
167528000    278.12518    307.73711    337.06676   -175079.91    175174.37   -29.329647    35.294116 
167532000    266.34665    404.01149    287.01506   -175115.45    175204.55    116.99643    35.294523 
167536000    288.76274    313.31878    284.39892   -175150.79    175224.73     28.91986    35.290426 
167540000    249.82758    253.93435    395.41835    -175169.9    175269.64     -141.484    35.290549 
167544000    282.80395    400.49861    362.51748   -175206.82    175286.17    37.981123    35.289013 
167548000    271.49086    449.21015    241.53416   -175221.36    175314.56    207.67599    35.292827 
167552000    280.87233    350.37639    274.80045   -175231.37    175311.46    75.575939    35.290694 
167556000    283.52108    299.80972    402.09926   -175218.92    175300.88   -102.28954    35.292149 
167560000    287.99124    399.87286    268.89897    -175238.9    175313.33     130.9739     35.29519 
167564000    319.85565    432.93908    316.13914   -175274.74    175330.54    116.79994    35.292084 
167568000    324.16498    538.52496    356.07691   -175273.23    175348.14    182.44806    35.287067 
167572000    266.88379    267.69193    297.60728   -175282.57    175377.62   -29.915346    35.285109 
167576000    308.54591    349.11198    287.30246   -175332.13    175380.07     61.80952    35.280484 
167580000     274.6884    364.04961    253.42886   -175343.41    175418.33    110.62075    35.279027 
167584000    298.06353    298.90846       367.77   -175347.13    175417.67   -68.861537    35.275769 
167588000    307.34852    528.81514    391.49953   -175376.16    175436.65    137.31561    35.275276 
167592000    289.18571    444.33406    292.31623   -175427.55    175481.66    152.01783    35.276141 
167596000    308.02785    441.50416    283.77772   -175445.25     175509.6    157.72644    35.275458 
167600000    303.98773    413.91219    448.54081   -175472.37    175531.99    -34.62862    35.275865 
167604000    288.73639    320.56844    341.36996   -175508.92    175588.31   -20.801518    35.270284 
167608000    295.57798    246.11168    452.17393   -175536.19    175618.26   -206.06225    35.268533 
167612000    263.35761    229.47041    287.87379   -175561.84    175649.57   -58.403381    35.268751 
167616000    288.82311    204.29855     356.3183   -175583.96    175666.75   -152.01975     35.27318 
167620000    262.79568    257.17887    380.52576   -175613.17    175711.59   -123.34689    35.270973 
167624000    281.71967    345.35073    288.65873   -175665.02    175735.33    56.692002    35.271278 
167628000    286.52082    338.06236    323.49606   -175662.21    175745.96      14.5663    35.273631 
167632000     292.5308    262.29478    207.79348   -175696.44    175765.58    54.501304    35.271946 
167636000    294.79017    389.13564    308.00549   -175687.53    175777.08    81.130156    35.274598 
167640000    297.98713    362.45329    443.74489   -175709.55    175784.66   -81.291596    35.278626 
167644000    292.84812    229.37389    310.71985   -175763.39    175837.22   -81.345961     35.27624 
167648000    264.80884     334.0252    385.78384   -175793.04    175880.73   -51.758644    35.274429 
167652000    272.68213    423.53852    307.00034   -175803.21       175893    116.53819    35.273569 
167656000    282.37606    362.17001    462.68193   -175844.65    175925.75   -100.51192    35.272941 
167660000    307.61346    754.13366    350.70575   -175867.33    175930.38    403.42791    35.274841 
167664000    287.42385    368.05592    269.36408   -175846.56    175930.91    98.691842    35.274628 
167668000    277.60412     270.2836    290.10153   -175876.26    175962.69   -19.817925    35.280493 
167672000    287.91626    268.31476    292.50327   -175884.62    175961.11   -24.188515    35.280767 
167676000    299.22165    300.34153    560.72796   -175896.97    175953.69   -260.38642    35.283196 
167680000     264.1668    369.37518    309.80693   -175911.59    175990.25    59.568248    35.283987 
167684000    291.91804    224.26924    250.46442   -175954.38    176027.43   -26.195182    35.286063 
167688000    280.17864    446.18225    346.14149   -175936.05    176027.79    100.04076    35.287792 
167692000      290.754    382.32434    187.64806   -175965.74    176038.85    194.67628    35.287448 
167696000    283.71679    216.91124    271.82723   -175994.07    176077.91   -54.915983    35.288505 
167700000    266.21647    198.23464    416.46004   -176018.72    176101.73    -218.2254    35.282796 
167704000    279.12828    393.58875    324.16327   -176070.99    176127.28    69.425483     35.28207 
167708000    266.50751    362.30722    331.43169   -176061.35    176144.85    30.875524    35.285309 
167712000     283.5418    354.16174    297.59613   -176086.68     176158.4    56.565603    35.289168 
167716000    293.39836    425.79362    275.11401   -176102.43    176162.07    150.67961     35.29444 
167720000     268.7577    323.95841    256.69475   -176110.18    176203.85    67.263661     35.30011 
167724000    308.91989    299.84863    461.26006      -176155    176206.36   -161.41143    35.302398 
167728000    281.87987    375.97025    235.27166   -176167.14    176237.09    140.69858    35.301876 
167732000    283.42581    224.94849    219.15866   -176180.29    176238.93    5.7898289    35.301071 
167736000    283.50922    413.59878    418.63834   -176179.31    176257.25   -5.0395574     35.30193 
167740000    272.45658    293.33313    198.83722   -176215.55    176286.85    94.495902    35.298585 
167744000    287.44182    311.71975    322.71117   -176214.83    176291.89   -10.991416    35.299229 
167748000    303.18092    371.97154    331.14517   -176231.91    176305.15    40.826367     35.30169 
167752000    267.34231    356.79268    556.01049    -176246.4    176319.01   -199.21781     35.30061 
167756000    299.23905    160.14562    354.23227    -176248.2    176328.64   -194.08665    35.302369 
167760000    272.17905    345.26165     223.7887   -176267.97    176352.67    121.47295    35.300195 
167764000    305.17798     256.2926      229.178   -176286.62    176361.16    27.114598     35.30028 
167768000    275.64936    262.32158     294.4425   -176318.46    176387.08   -32.120921    35.304305 
167772000    280.45377    264.44804    261.75481   -176326.03    176429.66    2.6932327    35.302313 
167776000    293.18902    326.35837     239.9637   -176378.05    176458.13    86.394668    35.305544 
167780000    291.49137     490.5044    373.47165   -176403.75    176474.05    117.03276    35.306436 
167784000    301.16318    400.60705    213.12279   -176441.02    176503.41    187.48426    35.307578 
167788000    277.30218    186.55398     137.1264   -176461.69     176530.2    49.427574    35.308401 
167792000    289.01585    82.719969    514.08468   -176467.82    176560.27   -431.36471    35.303297 
167796000    308.86237    299.14489    478.05409   -176495.19    176550.81    -178.9092    35.299061 
167800000    282.95462     371.6454    367.11467      -176491    176561.56    4.5307323    35.299164 
167804000    270.60823     208.6384    322.59696   -176505.78    176583.05   -113.95855    35.294011 
167808000     300.2958    373.77445    422.57847   -176515.67    176595.43   -48.804016    35.288454 
167812000    306.36452    593.14382    343.91045   -176555.08    176603.31    249.23337    35.293904 
167816000    282.52416    331.32363    500.09539    -176574.8    176639.59   -168.77176    35.290416 
167820000    274.62107    399.84749    323.74436   -176592.89    176673.65    76.103125    35.290502 
167824000        303.2    528.32652    364.88101      -176617    176679.33    163.44551    35.288521 
167828000    298.00124    286.63402    268.63509   -176645.63    176700.23    17.998938    35.288982 
167832000    291.45418    281.07744    179.66997   -176633.04    176715.61    101.40748    35.287097 
167836000    287.25318    403.30321    301.30166   -176676.44    176738.57    102.00155    35.287335 
167840000    303.98835    389.20832    409.70395   -176684.14    176764.74   -20.495631    35.285518 
167844000    291.70705    308.44114    275.82612   -176721.21    176791.09    32.615019     35.28512 
167848000    282.23591    533.13044    245.25444   -176736.41    176820.04      287.876     35.28766 
167852000     288.6198    492.68044    394.49307   -176762.61    176843.52     98.18737    35.293181 
167856000     305.2504    330.93394    283.27042   -176794.17    176853.11    47.663523    35.292355 
167860000    286.61271    291.84466    236.34638   -176841.52    176892.95    55.498279    35.298788 
167864000    273.89726    261.31149    350.61166   -176845.39    176931.55   -89.300175    35.297458 
167868000    248.27163    307.76831    226.88547   -176858.16    176945.58    80.882841    35.299723 
167872000    283.91444    329.83351    251.99026   -176882.46    176968.87    77.843248    35.302485 
167876000     256.9987    386.12126     308.0371    -176892.8    176998.24    78.084157     35.30757 
167880000    280.49005    385.30543    331.70965   -176907.42    176991.33    53.595787    35.304023 
167884000    321.70589    321.17757    359.77294   -176952.43    177013.39   -38.595373     35.30471 
167888000    281.88235    345.96651    380.33234   -176956.74     177041.7   -34.365827    35.304617 
167892000    305.99913    647.40859    218.30182   -176974.19    177029.41    429.10677    35.310039 
167896000    278.66966    272.31439    291.47117   -176971.16    177066.59   -19.156775    35.308776 
167900000    288.37009    220.27126    312.45813   -176999.92     177072.9   -92.186865    35.310153 
167904000    284.26781    448.39533    156.12234   -177029.46    177107.34    292.27299    35.306637 
167908000      323.651    290.69411    646.10591   -177047.73    177086.58    -355.4118    35.305957 
167912000    302.76369    416.11161    336.43129   -177083.08    177146.99    79.680319    35.307532 
167916000    258.60411    300.70361    266.25496   -177066.01    177168.36    34.448647    35.308095 
167920000     265.6917    283.89348    319.00189   -177105.08    177194.94   -35.108413    35.306345 
167924000    247.40678    301.68028    262.28524    -177130.9    177217.35    39.395039    35.308819 
167928000    288.37094    443.50213    369.50638   -177152.79    177234.16    73.995757    35.310197 
167932000     272.5423    406.24261    297.45638   -177202.23    177269.78    108.78623    35.311784 
167936000    287.29602     413.9201    444.58666   -177231.75    177299.96   -30.666557    35.311375 
167940000    291.45177    402.72758    272.56326   -177258.99    177331.82    130.16432    35.309611 
167944000    261.89402    215.25404    143.81666   -177271.71    177357.38    71.437383     35.30888 
167948000    277.99439    476.10491    354.35117   -177296.93    177388.73    121.75374    35.308293 
167952000    266.13877    430.25839    270.51914   -177328.44    177416.19    159.73925    35.311588 
167956000    263.49532    306.16542    252.93616   -177342.25    177447.94    53.229257    35.311837 
167960000    301.29622    303.69237    302.77876   -177400.39    177463.86   0.91361407    35.308594 
167964000    259.09662    266.03522    298.70558   -177428.08    177505.16   -32.670354    35.308237 
167968000     269.3619    378.46445    318.52375   -177450.82    177533.87    59.940699    35.303728 
167972000    280.24344    424.82016    351.91612   -177448.14    177536.48    72.904036     35.30542 
167976000    255.79479    234.86365    335.12382   -177471.41     177548.5   -100.26017    35.303078 
167980000    297.36465     253.3466    296.86262    -177486.7     177563.8   -43.516016    35.305445 
167984000    291.53547    671.62856    422.57006      -177523    177575.39     249.0585    35.304846 
167988000    280.31115    430.53837    230.43961   -177528.16    177583.67    200.09876    35.308961 
167992000    288.33667    397.16909    331.81558   -177516.93    177597.93    65.353503    35.310741 
167996000    268.12754    255.94052    358.85711   -177528.67    177617.62   -102.91659    35.308439 
168000000    282.90843    268.69363    520.28323   -177583.18    177645.46    -251.5896    35.309461 
168004000    319.59015    645.10368    302.09168   -177622.85    177684.46    343.01199    35.307967 
168008000    293.08265    408.58449    287.63604   -177636.94    177716.22    120.94845    35.307721 
168012000    290.88592    476.95135    293.93891   -177661.78    177738.72    183.01244    35.310309 
168016000    294.28506    419.90139    306.88477   -177702.32    177784.43    113.01662    35.310805 
168020000    293.50016      308.967     273.4428   -177724.12    177790.12    35.524199    35.305435 
168024000    294.90865    639.47903    315.39814   -177751.57    177808.81    324.08089    35.310093 
168028000    297.93263    246.44386    310.31663   -177749.36    177823.33   -63.872773    35.311015 
168032000    291.75868    303.78057    352.06668   -177753.01    177825.45   -48.286111    35.311973 
168036000    271.12169    221.12939    324.76457   -177763.96    177844.06   -103.63518    35.309886 
168040000    263.13128    348.83336    191.07061   -177786.33    177863.03    157.76275     35.30619 
168044000    294.84732    316.91487    358.24359   -177793.71    177864.38   -41.328714    35.307424 
168048000    273.90784    304.44485    291.59779   -177797.56    177888.86    12.847059    35.301742 
168052000    272.97359    463.74067    272.94387   -177840.74    177928.72     190.7968    35.303072 
168056000    286.10079    415.18539    400.77341   -177887.57    177965.27    14.411976    35.301539 
168060000     267.2978    309.18036    161.99978   -177919.77     178017.7    147.18059     35.30264 
Loop time of 5221.07 on 1 procs for 32000000 steps with 196 atoms

Performance: 661.933 ns/day, 0.036 hours/ns, 6129.009 timesteps/s
99.9% CPU use with 1 MPI tasks x no OpenMP threads

MPI task timing breakdown:
Section |  min time  |  avg time  |  max time  |%varavg| %total
---------------------------------------------------------------
Pair    | 1582.9     | 1582.9     | 1582.9     |   0.0 | 30.32
Bond    | 2582       | 2582       | 2582       |   0.0 | 49.45
Neigh   | 23.764     | 23.764     | 23.764     |   0.0 |  0.46
Comm    | 8.9987     | 8.9987     | 8.9987     |   0.0 |  0.17
Output  | 4.0001     | 4.0001     | 4.0001     |   0.0 |  0.08
Modify  | 989.78     | 989.78     | 989.78     |   0.0 | 18.96
Other   |            | 29.69      |            |       |  0.57

Nlocal:    196 ave 196 max 196 min
Histogram: 1 0 0 0 0 0 0 0 0 0
Nghost:    0 ave 0 max 0 min
Histogram: 1 0 0 0 0 0 0 0 0 0
Neighs:    3868 ave 3868 max 3868 min
Histogram: 1 0 0 0 0 0 0 0 0 0

Total # of neighbors = 3868
Ave neighs/atom = 19.7347
Ave special neighs/atom = 5.87755
Neighbor list builds = 111760
Dangerous builds = 0

write_restart FINALCONFIG

Total wall time: 1:31:24
