LAMMPS (16 Mar 2018)
# 1. INITIALIZATION
#allows pair, bond, bending and dihedral interactions
atom_style molecular

  # periodic (video game) boundaries in all cartesian directions
boundary p p s

  # uses real units (instead of units based on pair potential parameters).  List of units used in manual
units real

###########
# 2. ATOM DEFINITION
##########

   ##
   # Read in data from starting configuration file
   ##

#read_data chainconfig.dat

 #use to restart
read_restart RESTART
  orthogonal box = (-400 -400 -0.0371672) to (400 400 123.895)
  2 by 2 by 1 MPI processor grid
  196 atoms
  194 bonds
  192 angles
  190 dihedrals
  2 = max # of 1-2 neighbors
  2 = max # of 1-3 neighbors
  4 = max # of 1-4 neighbors
  6 = max # of special neighbors

   ##
   # Specify the nature of the bond interactions
   ##


bond_style harmonic
bond_coeff 1 450 1.54

special_bonds lj 0.0 0.0 0.0 angle no dihedral no

angle_style harmonic
angle_coeff 1 62.1  114.00

dihedral_style opls
dihedral_coeff * 1.4110 -0.2708 3.143 0.0

mass * 14.0

pair_style lj/cut 14.0
pair_coeff 1 1 0.0912 3.95 14.0
#pair_modify tail yes

group twistables type 3
6 atoms in group twistables
group freeze type 2
6 atoms in group freeze
fix startend freeze setforce 0.0 0.0 0.0
fix startend0 twistables setforce 0.0 0.0 0.0

################
# 3.  Simulation Settings
###############

neighbor        2.0 bin
neigh_modify    every 1 delay 0 check yes



# Define some variables
variable Lx          equal xhi-xlo   # Ang
variable Ly          equal yhi-ylo   # Ang
variable Lz          equal zhi-zlo   # Ang

variable dz          equal ${Lz}/30  # Ang
variable dz          equal 123.931948666893/30  

variable zzlo        equal zlo+0.05  # Ang
variable zzhi        equal zhi  # Ang
variable vol         equal ${Lx}*${Ly}*${Lz}  # Ang^3
variable vol         equal 800*${Ly}*${Lz}  
variable vol         equal 800*800*${Lz}  
variable vol         equal 800*800*123.931948666893  
variable TEMP        equal 300.00 # K
variable TThi        equal 320.00 # K
variable TTlo        equal 280.00 # K
variable dt          equal 1.25 # fs

timestep     ${dt}
timestep     1.25

variable zlo1      equal ${zzlo}+2.7
variable zlo1      equal 0.0128327665533126+2.7
variable zlo2      equal ${zzlo}+8.4
variable zlo2      equal 0.0128327665533126+8.4
variable zhi1      equal ${zzlo}+115.5
variable zhi1      equal 0.0128327665533126+115.5
variable zhi2      equal ${zzlo}+121
variable zhi2      equal 0.0128327665533126+121

# heat layers

region          hot  block  INF INF INF INF ${zlo1} ${zlo2}
region          hot  block  INF INF INF INF 2.71283276655331 ${zlo2}
region          hot  block  INF INF INF INF 2.71283276655331 8.41283276655331
region          cold block INF INF INF INF ${zhi1} ${zhi2}
region          cold block INF INF INF INF 115.512832766553 ${zhi2}
region          cold block INF INF INF INF 115.512832766553 121.012832766553
compute         Thot all temp/region hot
compute         Tcold all temp/region cold


# 1st equilibration run
fix             1 all nvt temp ${TEMP} ${TEMP} 50
fix             1 all nvt temp 300 ${TEMP} 50
fix             1 all nvt temp 300 300 50
thermo          100
run             8000
Unused restart file peratom fix info:
  fix style: STORE, fix ID: layers_COMPUTE_STORE
Neighbor list info ...
  update every 1 steps, delay 0 steps, check yes
  max neighbors/atom: 2000, page size: 100000
  master list distance cutoff = 16
  ghost atom cutoff = 16
  binsize = 8, bins = 100 100 16
  1 neighbor lists, perpetual/occasional/extra = 1 0 0
  (1) pair lj/cut, perpetual
      attributes: half, newton on
      pair build: half/bin/newton
      stencil: half/bin/3d/newton
      bin: standard
Per MPI rank memory allocation (min/avg/max) = 9.015 | 9.109 | 9.389 Mbytes
Step Temp E_pair E_mol TotEng Press Volume 
134452000    283.40605    7923.2977    15728.931    23816.961   -8.4413918     79316447 
134452100     318.3259    8006.5366    15658.573    23850.139   -7.9803303     79316447 
134452200    292.15902    7891.3009    15769.213    23830.334   -8.6136806     79316447 
134452300    301.79726    8007.7199    15633.344    23816.486   -7.9562277     79316447 
134452400    309.26119    7932.8013    15729.332    23841.894   -8.4019505     79316447 
134452500    285.35169    7969.9062    15673.993    23809.762    -8.179097     79316447 
134452600    315.09072    7940.5914    15716.823    23840.563   -8.3387327     79316447 
134452700    280.19606    7949.0105      15709.7    23821.577   -8.2992531     79316447 
134452800    266.60194      7942.25    15717.753    23814.968   -8.3542279     79316447 
134452900    298.36469    7964.1682    15701.347    23838.942   -8.2528779     79316447 
134453000    280.88337    7940.7982    15710.657    23814.721   -8.3380202     79316447 
134453100    329.39554    7950.9207    15705.442    23847.827   -8.2808783     79316447 
134453200    282.44208    7948.1359     15703.45    23815.757   -8.2988577     79316447 
134453300    306.05802    7934.3683    15730.006    23842.273   -8.3854463     79316447 
134453400    289.85038    8017.5933    15641.084    23827.155   -7.9377844     79316447 
134453500    302.19776    7911.2962    15756.891    23843.842   -8.5029131     79316447 
134453600    272.62991    7981.5232    15671.417    23811.408   -8.1244481     79316447 
134453700    324.45599    7938.9253     15717.09    23844.608   -8.3451239     79316447 
134453800    336.37345    7999.6909    15673.036    23868.246   -8.0279189     79316447 
134453900    309.50495    7929.1826    15708.288    23817.373   -8.3750836     79316447 
134454000    326.23388    7959.1467    15694.581    23843.354   -8.2333449     79316447 
134454100     301.6847    7870.7515    15767.247    23813.355   -8.6888981     79316447 
134454200    290.99871    8024.4643    15641.725    23835.334   -7.8991915     79316447 
134454300    319.40252    7859.8708    15780.406    23825.932   -8.7361769     79316447 
134454400    307.76573    8004.4208    15640.337     23823.65   -7.9807726     79316447 
134454500    296.17098     7891.164    15768.771    23832.087   -8.6054496     79316447 
134454600    325.85419    8004.1418    15659.408    23852.955   -8.0037943     79316447 
134454700    312.44438    7882.8272     15762.04    23826.478   -8.6228495     79316447 
134454800    303.92197    7987.6145    15653.053    23817.324   -8.0643482     79316447 
134454900    309.73864    7931.8756    15729.253    23841.167   -8.3793481     79316447 
134455000     292.0634    7941.0732    15708.053     23818.89   -8.3238894     79316447 
134455100    327.14257     7974.037     15667.72    23831.911   -8.1378321     79316447 
134455200    296.12174    7903.5883    15749.583    23825.294   -8.5229535     79316447 
134455300    273.28115    7970.9369    15680.265    23810.049   -8.1799756     79316447 
134455400     322.9686    7925.5832    15722.051    23835.362   -8.4137632     79316447 
134455500    310.70525    7982.7291    15645.791     23809.12   -8.0843386     79316447 
134455600    294.42204    7890.8932    15760.436    23822.464   -8.6060143     79316447 
134455700    315.32394    7996.0403    15647.497    23826.822   -8.0193026     79316447 
134455800    288.38751    7888.1416    15752.409    23808.178   -8.6152934     79316447 
134455900     318.8581    8031.6457    15627.972    23844.957   -7.8430989     79316447 
134456000    280.47893    7875.2215    15771.739    23809.991    -8.679114     79316447 
134456100    293.47201    8023.4619    15636.658    23830.702   -7.9124847     79316447 
134456200    279.11366    7856.1368    15801.589    23819.963   -8.7962672     79316447 
134456300    299.71589    8046.4926    15607.084    23827.789   -7.7585403     79316447 
134456400    301.16972    7847.0067    15809.877    23831.941   -8.8267312     79316447 
134456500    270.08343    8035.5598    15613.195    23805.743   -7.8288473     79316447 
134456600     297.1186    7849.7229    15811.992    23834.417   -8.8359301     79316447 
134456700     331.4916     8057.447    15603.867    23853.997   -7.7237672     79316447 
134456800    293.37333    7834.8243      15807.9     23813.25   -8.8977104     79316447 
134456900     329.0721     8055.407    15601.154    23847.836   -7.7251669     79316447 
134457000    290.24618    7880.3396    15780.952    23829.999   -8.6755116     79316447 
134457100     317.8753    7987.0518    15669.657    23841.477   -8.0745735     79316447 
134457200    296.34206    7886.6451     15769.18    23828.076   -8.6305745     79316447 
134457300    298.74403    7983.7613    15664.551     23821.96    -8.093877     79316447 
134457400    337.89473    7904.8515    15756.052    23857.308   -8.5344907     79316447 
134457500     282.3372    7972.6988    15688.342    23825.152   -8.1764055     79316447 
134457600    298.04467    7961.3261     15697.27    23831.837   -8.2271089     79316447 
134457700     279.5855    7954.1639    15696.062    23812.737   -8.2625818     79316447 
134457800     319.3599    7929.8305    15730.556    23846.017    -8.392132     79316447 
134457900    272.39486    7944.7072    15700.758    23803.797   -8.3078663     79316447 
134458000    264.82472     7961.746    15674.717    23790.395   -8.2214193     79316447 
134458100    300.04676    7903.0762    15758.346    23835.826    -8.532941     79316447 
134458200    318.79057    7970.0274    15665.179    23820.506   -8.1556655     79316447 
134458300    276.37836    7857.8728    15806.237    23824.757   -8.7919789     79316447 
134458400    299.53877    8054.4116    15602.044    23830.565   -7.7252465     79316447 
134458500    303.36372    7850.8797    15805.145    23832.357   -8.8245224     79316447 
134458600       313.74    8014.2376     15633.99    23830.592   -7.9404434     79316447 
134458700     305.5937    7824.7149    15822.338    23824.682   -8.9502558     79316447 
134458800    332.77755    8050.1006    15609.324    23852.854   -7.7442534     79316447 
134458900    308.67955    7813.4235    15831.972    23824.817   -9.0016242     79316447 
134459000    273.03093    8079.5647    15590.251    23828.517   -7.6166461     79316447 
134459100    309.50457    7795.8084    15870.207    23845.917   -9.1229214     79316447 
134459200    283.78802    8094.6852    15559.277    23818.916   -7.5292859     79316447 
134459300    313.07024    7790.0189    15859.687     23831.68    -9.132317     79316447 
134459400    279.24421    8094.7813    15550.834    23807.928   -7.5178098     79316447 
134459500    285.56623    7808.4646     15858.91    23833.362   -9.0604402     79316447 
134459600    285.48425    8072.3422    15591.045    23829.327     -7.63538     79316447 
134459700    284.99627     7813.679    15827.901    23807.237   -9.0041481     79316447 
134459800    274.78011    8113.3111    15553.731     23826.76   -7.4436878     79316447 
134459900    266.46162    7806.4022    15870.463    23831.748   -9.1002721     79316447 
134460000    294.12578     8113.342    15547.628    23831.933   -7.4299247     79316447 
Loop time of 0.487056 on 4 procs for 8000 steps with 196 atoms

Performance: 1773.925 ns/day, 0.014 hours/ns, 16425.227 timesteps/s
99.8% CPU use with 4 MPI tasks x no OpenMP threads

MPI task timing breakdown:
Section |  min time  |  avg time  |  max time  |%varavg| %total
---------------------------------------------------------------
Pair    | 0.11344    | 0.12402    | 0.13387    |   2.5 | 25.46
Bond    | 0.17328    | 0.20841    | 0.24719    |   6.5 | 42.79
Neigh   | 0.0010996  | 0.0011152  | 0.0011306  |   0.0 |  0.23
Comm    | 0.068105   | 0.11575    | 0.1558     |   9.2 | 23.77
Output  | 0.0008626  | 0.00090802 | 0.001039   |   0.0 |  0.19
Modify  | 0.021513   | 0.026207   | 0.030529   |   2.0 |  5.38
Other   |            | 0.01064    |            |       |  2.18

Nlocal:    49 ave 51 max 45 min
Histogram: 1 0 0 0 0 0 1 0 0 2
Nghost:    147 ave 151 max 145 min
Histogram: 2 0 0 1 0 0 0 0 0 1
Neighs:    977.5 ave 1117 max 854 min
Histogram: 1 0 0 1 0 1 0 0 0 1

Total # of neighbors = 3910
Ave neighs/atom = 19.949
Ave special neighs/atom = 5.87755
Neighbor list builds = 13
Dangerous builds = 0
velocity        all scale ${TEMP}
velocity        all scale 300
unfix           1

# Second Equilibration
fix             1 all nve
fix             hot all langevin ${TThi} ${TThi}  50.0 599804  tally yes
fix             hot all langevin 320 ${TThi}  50.0 599804  tally yes
fix             hot all langevin 320 320  50.0 599804  tally yes
fix             cold all langevin ${TTlo} ${TTlo} 50.0 27859 tally yes
fix             cold all langevin 280 ${TTlo} 50.0 27859 tally yes
fix             cold all langevin 280 280 50.0 27859 tally yes
fix_modify      hot temp Thot
fix_modify      cold temp Tcold


variable        tdiff equal c_Thot-c_Tcold
thermo_style    custom step c_Thot c_Tcold f_hot f_cold v_tdiff
thermo          4000
run             1600000
Per MPI rank memory allocation (min/avg/max) = 10.14 | 10.14 | 10.14 Mbytes
Step c_Thot c_Tcold f_hot f_cold v_tdiff 
134460000    291.74758     353.2999           -0           -0   -61.552316 
134464000    245.08918    293.27062   -15.955294    38.157162   -48.181435 
134468000    423.07381    245.34781   -14.264935    53.395114      177.726 
134472000    398.66193    435.60325   -92.154743    96.057576   -36.941317 
134476000    295.17692    403.43754   -133.21297    143.82358   -108.26061 
134480000    400.54491    263.12698    -189.4919    214.70708    137.41793 
134484000    509.41655    439.16784   -250.37407    241.90166    70.248711 
134488000    334.76822    237.97357   -256.39882    306.57511    96.794647 
134492000    536.32614    394.85601   -305.26848    307.13876    141.47014 
134496000    265.74216    265.40917   -357.29486    412.46979   0.33298908 
134500000    295.22617    172.28282   -388.95678    440.07214    122.94336 
134504000    223.92362    315.94786   -410.50915    452.93265   -92.024246 
134508000    203.23445     234.5162   -474.89997    501.56506   -31.281748 
134512000    365.56878    385.56078   -565.53026    593.20384   -19.992003 
134516000     422.1249    326.60814   -641.33293    647.30216    95.516762 
134520000    283.25131     225.8707   -648.46982    686.05245    57.380603 
134524000    311.17367    382.66244   -649.34752    698.92663   -71.488769 
134528000    367.46973    309.48797   -714.29131    724.61117     57.98176 
134532000    368.62474    411.13361   -727.21196    759.58422   -42.508867 
134536000      258.205    328.09477   -751.23387    778.20058   -69.889775 
134540000    300.01109    421.76444    -760.5346    783.41421   -121.75336 
134544000    419.28597     347.7965   -792.86338    811.92601    71.489475 
134548000    313.99922    282.00262     -799.313    841.65798    31.996605 
134552000    156.08534    385.04599   -823.11346    863.60506   -228.96065 
134556000    554.43035    318.40583   -890.09703    890.54659    236.02452 
134560000    388.99831    257.12139   -917.18293    949.97136    131.87693 
134564000    393.91084    427.72425   -929.95126    957.91271   -33.813408 
134568000     555.9881    272.57083   -972.73701     990.4906    283.41727 
134572000    407.20933    247.48096   -1016.5873     1056.135    159.72837 
134576000    255.85855    329.54551   -1058.9386    1111.0922   -73.686957 
134580000    309.48853    278.82019   -1116.8977    1140.2202    30.668343 
134584000    231.45089    301.96055   -1152.7005    1164.9485   -70.509661 
134588000    352.10279    224.43559   -1181.7045    1198.8093     127.6672 
134592000    449.22689    199.78675   -1206.3896    1250.2331    249.44014 
134596000    322.79215     392.8275   -1236.2685    1270.4631   -70.035349 
134600000    341.02189    366.30209   -1267.8086    1298.2331   -25.280196 
134604000    333.55451    322.41235   -1313.4105    1337.3908    11.142157 
134608000    467.49676    274.54524   -1335.1413    1367.9872    192.95152 
134612000    216.17086    258.04887   -1356.3419    1404.4769   -41.878004 
134616000    181.62669    368.02996   -1354.4068     1400.425   -186.40327 
134620000    281.35414     318.8729   -1412.9528      1422.45   -37.518758 
134624000     494.6914    237.94915   -1458.7393    1478.8236    256.74224 
134628000    281.25565    231.44637   -1504.0971    1513.3259     49.80928 
134632000    319.91462    440.75089   -1500.0789    1524.4251   -120.83627 
134636000    530.23234    398.13699   -1538.2288    1568.7515    132.09535 
134640000    476.82532    351.73057   -1584.9162     1620.861    125.09475 
134644000     396.6883    215.38602    -1615.321    1643.3944    181.30228 
134648000    231.40526    238.92213    -1640.497    1678.1118   -7.5168724 
134652000    264.02557    430.80084   -1652.6736    1681.8181   -166.77526 
134656000    449.67535    420.03068   -1695.3835    1731.4579    29.644666 
134660000    360.39472    445.91364   -1717.9661    1762.6997   -85.518918 
134664000    514.78083    154.87838   -1784.9334    1790.9737    359.90244 
134668000    328.63548    450.24002   -1822.5347    1869.3084   -121.60453 
134672000    261.48526    270.41702   -1855.9423    1893.8541   -8.9317638 
134676000     284.8562    206.32649   -1871.1633    1902.2221    78.529716 
134680000    459.85088    296.72545   -1922.6471    1947.8314    163.12544 
134684000    233.92981    265.29163   -1941.0519    1981.6434   -31.361812 
134688000    362.26947     238.0425   -1989.5332    2009.4512    124.22696 
134692000    529.45736    319.71914   -2005.3752    2013.4583    209.73821 
134696000    241.59431    352.69369   -2000.7997    2049.4596   -111.09938 
134700000    343.70714    325.62608   -2032.5983    2074.4274    18.081064 
134704000    310.64999    262.57369   -2074.0439    2097.5101    48.076301 
134708000    318.73359    278.41398   -2101.4997    2135.5601    40.319613 
134712000    369.36928    210.81774   -2135.5551     2154.777    158.55155 
134716000    359.73489    394.36291   -2189.6262    2186.4094   -34.628026 
134720000     304.4467     380.7185   -2226.0558     2247.961   -76.271803 
134724000    386.29776    439.58233   -2265.7755    2287.2336   -53.284568 
134728000    279.82479    361.28417   -2268.4926    2293.3866   -81.459378 
134732000     339.2401    511.61962   -2340.2947    2369.2437   -172.37952 
134736000     326.3848    247.77808   -2371.1009    2404.0171    78.606712 
134740000    227.68783    331.60196   -2372.1416    2388.2549   -103.91413 
134744000    266.39188    173.45997   -2377.5802    2425.6691    92.931902 
134748000    352.40728     429.5052   -2424.7823    2445.6085    -77.09792 
134752000    396.99784    342.03585   -2445.9028    2489.0963    54.961997 
134756000    226.26565    365.95396   -2519.6153    2524.5221   -139.68831 
134760000    226.79827     394.4477   -2539.1525    2568.1013   -167.64943 
134764000    329.45612     345.5527    -2560.762    2594.9509   -16.096579 
134768000    369.45051    334.81639   -2580.6076    2634.4185    34.634127 
134772000    502.59401    193.76358   -2623.7645    2663.8981    308.83042 
134776000    288.79592    384.92632   -2688.0049    2726.6565   -96.130394 
134780000    365.94532    422.94175   -2739.5119    2768.8181   -56.996432 
134784000    438.53639     304.5365   -2788.2606    2834.7488    133.99989 
134788000    307.87807    344.77299   -2810.4908    2815.6667   -36.894922 
134792000    359.70032    404.18593   -2833.7921     2845.784   -44.485608 
134796000    256.29796    200.84268   -2870.4863    2911.8259    55.455288 
134800000    206.01297    525.84533    -2908.243     2941.715   -319.83237 
134804000    426.49516    350.05813     -2969.33    2994.1136    76.437029 
134808000    286.56427    488.48609   -2983.0412    3010.4594   -201.92182 
134812000    335.52183    292.54888   -2995.0343    3039.3099    42.972951 
134816000    472.89674    526.33555   -3038.2104    3057.3397   -53.438816 
134820000     395.2543     228.0035   -3059.6063    3093.7486    167.25081 
134824000    456.66642    255.37878   -3133.2966    3143.9536    201.28764 
134828000    310.32692    481.43617   -3167.4886    3188.5338   -171.10925 
134832000    395.05211    318.63312   -3220.4002     3235.404    76.418992 
134836000    235.24699    376.21951   -3233.4194    3247.8171   -140.97253 
134840000    407.61883    373.41416   -3257.8232    3275.3004     34.20467 
134844000    237.83956    202.44651   -3292.0971    3343.6461    35.393051 
134848000    416.44526    176.53625   -3328.0846    3366.9623    239.90901 
134852000    329.40744    352.73911   -3375.5736    3407.6715   -23.331671 
134856000    306.23393     196.8822   -3432.3935    3452.9513    109.35173 
134860000    515.07732     349.1799   -3462.0528    3481.7639    165.89742 
134864000    256.11045    322.41202   -3476.2754    3497.6805   -66.301562 
134868000    253.61508    312.10416   -3481.4594    3519.8672    -58.48908 
134872000    373.63015    298.48898    -3513.736    3536.2066    75.141171 
134876000    366.32482    365.96339   -3582.3631    3610.0493   0.36142772 
134880000    294.34742    332.01951   -3617.7987    3642.3574   -37.672082 
134884000    298.27324    382.32662   -3630.3424    3667.2537   -84.053376 
134888000    208.92372    421.02663   -3696.8326     3721.891   -212.10291 
134892000    328.04995    390.28702   -3735.0694    3760.6989   -62.237065 
134896000    367.92148     468.2596   -3794.7439    3834.7648   -100.33812 
134900000     441.2798    256.33614   -3810.6512    3854.3229    184.94366 
134904000    327.82449    339.18064   -3844.6569    3883.0191   -11.356145 
134908000     330.5121    199.22088   -3887.9003    3919.3867    131.29122 
134912000    268.32805    267.95965   -3958.6697    3995.1895   0.36840694 
134916000    345.22877    470.64049   -4005.2597    4024.5464   -125.41173 
134920000     300.4017    258.41018   -4023.3675    4064.0284    41.991518 
134924000    360.57397    363.48282   -4073.9486    4096.8073   -2.9088431 
134928000    457.46717    412.95191   -4080.9824    4099.6487    44.515268 
134932000     401.7819    247.90892   -4116.1294    4144.7356    153.87298 
134936000    376.52081      303.332   -4179.6397    4214.0519    73.188811 
134940000    490.95816    211.00904   -4241.0528    4259.5527    279.94912 
134944000    225.69805    388.93948   -4263.8847    4289.7865   -163.24143 
134948000    361.23579    282.09252   -4301.7929    4319.9375    79.143276 
134952000    238.26698      341.258   -4357.5403     4352.934   -102.99102 
134956000    360.95328    565.71836   -4401.6841    4416.4806   -204.76508 
134960000    390.89988    209.06759   -4418.2484     4459.032    181.83228 
134964000    281.93061    255.06827   -4451.4285     4498.722     26.86234 
134968000    397.56974    346.90526   -4483.1497    4522.4566    50.664486 
134972000    234.75824    209.05971    -4545.033    4567.9751    25.698521 
134976000    494.47147    468.19132   -4606.3296    4628.7513    26.280146 
134980000    204.16308    231.84406   -4667.3329    4711.6562   -27.680975 
134984000    257.10281    199.05458   -4691.0763    4744.3355    58.048233 
134988000    333.63257    175.56216   -4721.5413    4755.0414    158.07041 
134992000    489.55364    305.53747   -4781.5566    4787.4512    184.01617 
134996000    225.92448    391.11051   -4800.6682    4818.5356   -165.18603 
135000000    311.90545    185.45966   -4834.3568    4866.2092    126.44579 
135004000    439.35605     427.6256   -4875.3045    4895.5655    11.730452 
135008000    506.30161    351.43037   -4931.1052    4944.6737    154.87124 
135012000    366.67596    394.59127   -4953.5546    4985.0314   -27.915312 
135016000    357.59169     436.1882   -5017.1938    5033.8141   -78.596508 
135020000    394.17205     317.5884   -5079.1523     5119.397    76.583644 
135024000    356.14323    324.43713    -5138.077     5170.856    31.706098 
135028000    352.38655    332.08246   -5182.7267    5200.5201    20.304087 
135032000    414.00575     209.0239   -5243.9997    5260.5989    204.98185 
135036000    282.59747    316.95912   -5303.0995    5315.3446   -34.361648 
135040000    199.28394    333.10246   -5350.5196    5383.5775   -133.81853 
135044000    498.08865    386.70673   -5383.0236    5403.0538    111.38192 
135048000    313.55673    244.54323   -5384.0874    5428.4105    69.013493 
135052000    331.24439    416.44354   -5457.4095     5498.498   -85.199147 
135056000    366.28414    317.16736    -5490.472    5528.1077     49.11678 
135060000    492.86364    341.01714   -5553.5485    5561.7356    151.84651 
135064000    266.45347    268.71979   -5604.9819    5630.8799   -2.2663249 
135068000    391.00654      202.996   -5646.9071    5660.7802    188.01054 
135072000    440.95678    363.41729   -5640.2267    5681.1362     77.53949 
135076000    391.78842    465.41815   -5699.9215    5713.9784   -73.629731 
135080000    414.77219    241.11658   -5743.1176    5781.2784    173.65561 
135084000    429.05838    287.85807     -5752.49    5773.2224    141.20031 
135088000    494.84999     215.2647   -5768.6247    5807.6731     279.5853 
135092000    372.36424    325.89263   -5816.1403    5833.1494    46.471608 
135096000    336.50547    230.27144   -5859.3811    5896.0471    106.23403 
135100000    383.09694    245.68082   -5936.2451    5953.0195    137.41612 
135104000     326.9908    245.07594    -5929.024    5984.7088    81.914859 
135108000    581.20269    354.29813   -5985.6082    6003.7852    226.90455 
135112000    421.20813    380.44975   -6013.5741    6018.4902    40.758384 
135116000    180.63228    191.54753     -6028.99    6068.8394   -10.915258 
135120000     473.5466    377.61189   -6090.0299    6107.3431    95.934713 
135124000    470.05502    327.95949   -6131.3659    6163.5702    142.09552 
135128000    379.69638    187.64406   -6143.2409    6168.5973    192.05232 
135132000    279.26624    282.92891    -6184.898    6201.4351   -3.6626706 
135136000    200.95401    365.21081   -6217.9651    6249.1835    -164.2568 
135140000    392.81781    340.98496    -6255.474    6277.7825    51.832843 
135144000     247.9583    321.68826   -6256.1537    6303.4247   -73.729958 
135148000    265.19809    190.04122   -6323.3049    6340.8348    75.156871 
135152000     462.3045    297.74793   -6383.5048    6395.0262    164.55657 
135156000    341.61229    316.81039    -6432.774    6455.1406    24.801903 
135160000    339.03102    504.81733   -6481.0818    6497.8971   -165.78631 
135164000    325.34613    231.71831   -6529.1925    6544.6434    93.627815 
135168000    328.81621     304.5735   -6559.5907    6598.1701     24.24271 
135172000    256.40686    337.58912   -6605.1091    6648.1055   -81.182259 
135176000    302.82467     228.5729   -6637.0734    6674.8223    74.251769 
135180000    348.88369     380.3804   -6677.2546    6697.4299   -31.496703 
135184000    389.78164    361.06117   -6695.6285    6728.3548    28.720473 
135188000    470.32852    264.15491   -6763.0498    6806.9469    206.17361 
135192000    369.10634    333.63848   -6815.7396    6861.7714    35.467855 
135196000    467.40075    177.46156   -6856.2646     6912.598    289.93918 
135200000    334.11897    316.23802   -6906.0211    6927.2853    17.880946 
135204000    350.41163    270.54464   -6911.1018    6952.1589    79.866994 
135208000    336.25639    405.95207   -6914.2925    6945.7435   -69.695677 
135212000    407.65957    321.61185   -6980.7035    6984.4505     86.04772 
135216000    270.65072    235.08051   -7008.1619     7034.839    35.570212 
135220000    322.96679    339.92997   -7021.2759    7063.1792   -16.963178 
135224000    264.90991    255.30122   -7056.8805    7103.1225    9.6086893 
135228000    318.08897    296.39667   -7124.7614    7127.9264    21.692298 
135232000    423.77931    381.02996   -7157.3453    7183.6511    42.749353 
135236000    356.00432    345.65071   -7212.6069    7226.3623    10.353602 
135240000    461.01835    240.82571    -7221.289    7258.1967    220.19264 
135244000    361.18302    360.06454    -7231.401    7282.3664    1.1184858 
135248000    250.29817    481.47307   -7256.2955    7276.9827   -231.17491 
135252000    443.68418    411.18585    -7290.025    7330.0597    32.498334 
135256000    308.75603    469.17372   -7335.0615    7361.7589   -160.41769 
135260000    363.55784     532.9892   -7406.3078    7444.4507   -169.43136 
135264000    433.18043    489.09443   -7461.9489    7487.3099   -55.913999 
135268000    403.44844    301.81203   -7496.2742    7550.1513     101.6364 
135272000     368.0491    693.64112   -7534.4627    7590.9736   -325.59203 
135276000    434.09652    262.23177   -7591.2393      7616.72    171.86475 
135280000    350.95046    380.90556    -7612.626    7646.6548   -29.955099 
135284000    336.52458    444.09349   -7692.0423    7704.6765   -107.56891 
135288000    358.34609     304.4989   -7731.9098    7759.5703    53.847189 
135292000    380.29369    347.45753   -7783.6927    7819.6297    32.836165 
135296000    329.22671    274.91632   -7865.8713    7907.9395    54.310389 
135300000     422.8226    418.19514   -7942.9244    7963.7524    4.6274583 
135304000    413.81845    246.25986   -7981.2791    8005.0252    167.55859 
135308000    518.75892    515.80634   -8000.8295    8020.5538    2.9525812 
135312000    450.77896    296.59019   -8043.2885    8049.9609    154.18878 
135316000    176.74092    499.23075   -8085.7675    8084.7069   -322.48983 
135320000     270.9023    251.60296   -8131.6407    8187.0496    19.299331 
135324000    607.30521    243.21949   -8164.6699    8197.1765    364.08572 
135328000     347.4564    302.42824   -8210.5698    8239.0289    45.028155 
135332000    326.00228    250.77537   -8213.9913    8246.0116    75.226911 
135336000    332.38967    349.90215   -8263.7701    8279.8492   -17.512481 
135340000    283.45822    361.77628   -8325.7491    8344.4454   -78.318068 
135344000    397.39441    375.01596   -8380.4433    8407.0865    22.378449 
135348000    473.61328    366.31463   -8424.2628    8432.1541    107.29864 
135352000    360.38584    321.17293   -8474.8032     8490.677     39.21291 
135356000    249.14366     289.9399   -8511.0007    8546.8829   -40.796239 
135360000    480.00827    360.07122   -8570.4517    8616.4383    119.93704 
135364000    317.36183    278.23396   -8650.1803    8681.2202    39.127873 
135368000      356.404    376.11081   -8673.2694    8714.1758   -19.706808 
135372000    357.30571    374.82564   -8679.0476    8716.2907   -17.519928 
135376000    586.80941    314.33285   -8731.2104    8745.4571    272.47656 
135380000    548.64241    198.68316   -8755.6418    8771.4958    349.95925 
135384000    420.89748    221.61496   -8794.3956    8814.3005    199.28253 
135388000    442.02472    383.11639   -8844.3089    8868.7574    58.908329 
135392000    301.96778    304.88931   -8837.6212    8905.8732   -2.9215326 
135396000    370.18304    383.98989   -8934.3778    8958.4205   -13.806849 
135400000    276.64539     379.0459   -8992.0446     9013.417    -102.4005 
135404000    533.67485    301.70482   -9018.9715    9040.8551    231.97003 
135408000      335.014    276.59108   -9053.3927    9075.4571    58.422922 
135412000    373.33844    235.67866   -9090.7388    9096.5051    137.65978 
135416000    258.49245    454.97045   -9120.5635    9144.1234     -196.478 
135420000    289.87691    249.18697   -9135.8632    9172.7619    40.689943 
135424000    354.27852    218.84675   -9185.1005    9226.2768    135.43178 
135428000    312.17229    358.18282   -9236.5566    9290.1929   -46.010525 
135432000    456.88543    209.36485   -9284.4357    9313.5738    247.52058 
135436000    339.91086    318.82162   -9315.3769     9339.791    21.089241 
135440000    370.17498    258.74656    -9387.267    9371.8796    111.42842 
135444000    401.03921    284.84333   -9431.1931    9467.0293    116.19588 
135448000    329.49902    272.51552   -9478.7693    9511.1726    56.983499 
135452000    244.24534    394.51383   -9491.8958    9514.6685   -150.26849 
135456000    238.88153    296.14038    -9502.786     9521.572   -57.258851 
135460000    394.64817    341.63865   -9516.1313    9541.1182    53.009518 
135464000    427.85133    231.73736   -9565.8991    9581.4196    196.11398 
135468000    437.70908    152.55347    -9568.712    9601.5258    285.15561 
135472000    310.37268    297.42479   -9576.5102    9642.2942    12.947883 
135476000    351.40768    335.43341   -9613.3626    9637.8448    15.974271 
135480000    379.81998    310.41593   -9637.2923    9675.7913    69.404052 
135484000    310.34902    332.00883   -9691.2721    9716.3438   -21.659816 
135488000    234.99906    255.28549   -9716.4653    9758.5167   -20.286432 
135492000    464.88904    259.13494   -9778.7387    9802.7075     205.7541 
135496000    192.34349    206.97661   -9809.0408    9824.4781   -14.633118 
135500000    376.01012    326.82091   -9877.0255    9903.6696    49.189203 
135504000    388.31149    270.74872   -9928.0482    9964.9236    117.56277 
135508000    237.17222    213.30464   -9978.2773    10028.822    23.867575 
135512000    278.02559    282.06095   -10000.755    10034.601   -4.0353638 
135516000    293.84924    137.52096   -10004.071    10061.155    156.32828 
135520000    361.39086    331.35419   -10049.978    10088.914    30.036672 
135524000    352.90978    335.82637   -10049.791    10093.248    17.083407 
135528000    372.50989    144.81439   -10112.062    10124.091     227.6955 
135532000    328.84423    443.10394   -10140.007    10169.275   -114.25971 
135536000    349.20622    294.84521   -10173.462     10210.97     54.36101 
135540000    336.66279    490.21091   -10224.583    10250.275   -153.54813 
135544000    295.19071    483.78372   -10244.687    10300.539   -188.59301 
135548000    305.82271    436.28492   -10315.761    10336.456   -130.46221 
135552000    340.92953    348.57981   -10317.432    10360.359   -7.6502767 
135556000    451.46975    376.15722    -10375.19     10387.84    75.312533 
135560000    278.06822    316.89493   -10413.348    10440.501   -38.826711 
135564000    275.75446    236.84987   -10454.677    10461.936    38.904594 
135568000    298.54819    320.25837   -10470.616    10500.359   -21.710182 
135572000    324.73793     360.9407   -10513.551    10555.165   -36.202766 
135576000    391.60661    426.92393   -10578.002    10603.705   -35.317312 
135580000    267.32066    443.55809   -10647.616    10662.078   -176.23743 
135584000    380.66676    495.88151   -10683.895     10702.12   -115.21474 
135588000    266.74193    295.12706   -10723.464    10735.726   -28.385126 
135592000    439.62132    255.54655   -10749.762    10789.395    184.07477 
135596000    313.93593    145.53871   -10779.661    10799.842    168.39722 
135600000    237.52369    467.84541   -10818.858    10839.196   -230.32172 
135604000    321.38406    352.27779   -10858.113    10877.663    -30.89373 
135608000    282.61501    304.69341   -10923.192    10937.796   -22.078398 
135612000    440.80875    208.29312   -10955.987    10973.993    232.51562 
135616000    229.56139    284.40486   -10986.308    11012.264    -54.84347 
135620000     347.6758    245.81009   -11019.572    11082.349    101.86571 
135624000    308.20754     407.2496   -11060.961    11090.145   -99.042053 
135628000     301.2879    341.31186   -11062.068    11100.013   -40.023967 
135632000    326.92243    319.62056   -11078.208    11130.507    7.3018723 
135636000    305.86581     503.8764   -11172.184    11176.655   -198.01059 
135640000    473.70393    298.95548   -11179.933     11214.65    174.74845 
135644000    346.08699     249.1241   -11225.791    11265.843    96.962892 
135648000    410.91099    334.34267   -11248.794    11283.797    76.568322 
135652000    463.82342    361.33307   -11303.712    11344.683    102.49035 
135656000    311.98286    291.67172   -11371.693    11411.716     20.31114 
135660000     209.6121    249.65283   -11405.642    11448.395   -40.040739 
135664000    274.39053    333.05892   -11446.952    11484.331   -58.668387 
135668000    199.84929    248.92412   -11454.026    11512.261   -49.074828 
135672000    183.80337    438.74513   -11514.305     11555.57   -254.94176 
135676000    282.79703    423.70584    -11572.65    11617.512   -140.90882 
135680000    377.46681    219.45612   -11618.982    11653.272    158.01069 
135684000    435.67497    424.70868   -11666.626     11708.65    10.966295 
135688000    570.12011    238.12373   -11735.751    11743.628    331.99639 
135692000    357.48029    293.38261   -11749.448    11778.821    64.097686 
135696000    365.71699    140.62194   -11789.628    11828.472    225.09505 
135700000    362.67393    430.20292   -11855.715    11891.748   -67.528997 
135704000    247.60925    397.52683   -11909.011    11941.664   -149.91758 
135708000    237.13511    427.95176   -11932.632    11983.492   -190.81666 
135712000    399.28985    411.80145   -11983.443    12004.157   -12.511597 
135716000    468.38437    265.19956   -12073.224    12073.976    203.18482 
135720000    217.47405    468.84634   -12120.777    12136.479   -251.37229 
135724000    522.23493    264.96246   -12138.219    12172.304    257.27247 
135728000    511.63757    249.45018   -12231.624    12236.621    262.18739 
135732000    542.73842    370.09431   -12289.861    12316.892    172.64411 
135736000    439.96857    416.15434    -12330.64    12372.403    23.814225 
135740000    331.02649    318.67592   -12349.987    12393.465    12.350567 
135744000    513.51292    339.27985   -12370.851    12392.604    174.23307 
135748000    314.50054    367.80436   -12417.327    12457.536    -53.30382 
135752000    260.81869    217.38094   -12475.025    12530.858    43.437757 
135756000    324.44651    369.14572    -12551.49     12567.19   -44.699215 
135760000    333.94269    266.37205   -12609.978    12632.211    67.570647 
135764000    229.35119     325.2839   -12650.846     12701.52    -95.93271 
135768000    340.65432    301.80609   -12656.095    12712.281    38.848224 
135772000     215.0442    156.43752   -12694.712    12737.478    58.606676 
135776000    229.06145    374.79545   -12742.511    12790.444     -145.734 
135780000    341.43051    241.70847   -12774.083    12816.328    99.722037 
135784000    312.48182    351.35217   -12832.493    12877.649   -38.870349 
135788000    241.05878    403.41315   -12882.878    12884.566   -162.35437 
135792000    290.98214    325.86502   -12899.375    12923.675   -34.882882 
135796000    402.48859    445.01876   -12957.978    13004.942   -42.530171 
135800000    249.64858     228.2414   -13012.151    13050.925    21.407181 
135804000    226.33107    246.29954   -13080.882    13120.796   -19.968479 
135808000    213.23091    386.89467   -13126.055    13187.249   -173.66376 
135812000    197.14305    279.18306   -13178.758     13210.55   -82.040013 
135816000    401.35858    303.06972   -13172.583    13210.642    98.288865 
135820000    346.88906    263.25149    -13197.14    13212.679    83.637566 
135824000     316.9579    280.97884   -13206.169    13281.591     35.97906 
135828000    413.28876    454.15017   -13241.239    13279.513   -40.861413 
135832000    229.47784    262.11471    -13275.62    13314.132   -32.636869 
135836000    338.12734    228.94813    -13312.12    13340.313    109.17921 
135840000    255.09936    418.17167   -13359.135    13405.173   -163.07231 
135844000    246.25962    154.24204   -13433.528    13465.735    92.017583 
135848000    270.19617    335.37314   -13444.946    13458.377   -65.176977 
135852000    355.44957    351.06134   -13463.634    13477.948    4.3882357 
135856000    365.08352    257.09219   -13505.491     13520.45    107.99133 
135860000    361.57815    258.44115   -13516.087     13545.31      103.137 
135864000    265.98491    324.29444   -13531.583    13565.687   -58.309524 
135868000    292.82377    321.96972   -13601.396    13623.868   -29.145953 
135872000     299.9055    214.17898   -13669.416     13693.45    85.726523 
135876000    455.66218      212.359   -13726.013    13750.246    243.30319 
135880000    294.71578    243.66573   -13792.419    13828.978    51.050055 
135884000    408.77395     538.6446   -13830.172    13849.408   -129.87065 
135888000    433.13709    319.21837   -13848.076    13866.914    113.91872 
135892000    351.25566    299.06041   -13912.149    13937.158    52.195252 
135896000    424.15398    472.67848   -13935.705    13949.813     -48.5245 
135900000    534.80032    243.32647   -13977.934    14005.314    291.47385 
135904000    286.18273    328.71915   -14042.249    14058.353   -42.536414 
135908000     360.0909    450.47905   -14061.807    14074.953   -90.388151 
135912000    190.91239    366.73467   -14100.226    14122.785   -175.82227 
135916000    258.16231    324.95066   -14100.573    14134.001    -66.78835 
135920000    184.14112    240.15461   -14136.819     14180.96   -56.013491 
135924000    412.28919    321.97769   -14153.061    14180.996    90.311496 
135928000    295.89523    169.66648   -14184.082    14219.735    126.22875 
135932000    366.34402    394.12853   -14247.331    14279.143   -27.784504 
135936000    404.96622    382.61551   -14259.365    14302.482    22.350711 
135940000    531.41308    301.53083    -14289.47    14310.045    229.88225 
135944000    281.66344    361.08693   -14316.738    14343.384   -79.423489 
135948000    277.30791    216.66582   -14338.869    14388.502     60.64209 
135952000     276.5382    202.39514    -14370.58    14399.691     74.14306 
135956000    389.73274    443.63465   -14415.162    14445.069   -53.901912 
135960000    574.72065    384.40511   -14487.696    14498.005    190.31554 
135964000    456.30538    304.82551   -14507.512    14538.436    151.47987 
135968000    267.98391    203.69698   -14535.007    14572.197    64.286935 
135972000    482.52685    457.78569   -14570.976    14604.517    24.741156 
135976000     183.5283      546.794   -14566.886    14606.999    -363.2657 
135980000    512.50938    311.24017   -14618.502    14633.813    201.26921 
135984000    341.16131    313.15416   -14684.421    14697.218     28.00715 
135988000    229.47197    265.67815   -14702.919    14735.221    -36.20618 
135992000    327.88105    414.19402   -14776.393    14810.745   -86.312966 
135996000    280.64907    377.36853    -14794.78    14812.474   -96.719458 
136000000    313.24303    335.31757   -14821.464    14838.706   -22.074538 
136004000    384.99317      313.095   -14861.616    14904.248     71.89817 
136008000    386.19672    252.28625   -14876.008    14908.723    133.91047 
136012000    352.55714    316.33806   -14959.177    14983.263    36.219083 
136016000    350.01788    248.09845   -15022.046    15040.291    101.91943 
136020000    261.29993    341.47084   -15049.292     15068.02   -80.170911 
136024000    589.99957    380.65212   -15088.343    15112.024    209.34745 
136028000    432.35726    226.42155   -15094.756    15118.981     205.9357 
136032000    277.98831    301.18751   -15118.469    15164.984   -23.199195 
136036000        387.9    345.50114   -15167.071    15195.365    42.398862 
136040000     260.8111    403.60029   -15187.103    15231.448   -142.78919 
136044000    343.00457    283.82041   -15214.214    15251.701    59.184159 
136048000     499.5229    386.79775   -15251.224     15285.38    112.72516 
136052000    493.02741    201.74511   -15309.004    15342.382     291.2823 
136056000    451.44662    334.83775   -15366.733    15395.075    116.60886 
136060000    371.51988    247.70124   -15414.944    15446.917    123.81864 
Loop time of 110.209 on 4 procs for 1600000 steps with 196 atoms

Performance: 1567.929 ns/day, 0.015 hours/ns, 14517.859 timesteps/s
100.0% CPU use with 4 MPI tasks x no OpenMP threads

MPI task timing breakdown:
Section |  min time  |  avg time  |  max time  |%varavg| %total
---------------------------------------------------------------
Pair    | 22.918     | 24.446     | 25.801     |  25.4 | 22.18
Bond    | 35.022     | 41.415     | 48.077     |  86.9 | 37.58
Neigh   | 0.25265    | 0.25625    | 0.25971    |   0.5 |  0.23
Comm    | 12.695     | 20.515     | 27.509     | 120.9 | 18.61
Output  | 0.0054698  | 0.0061245  | 0.0074055  |   1.0 |  0.01
Modify  | 19.905     | 20.436     | 20.778     |   7.3 | 18.54
Other   |            | 3.135      |            |       |  2.84

Nlocal:    49 ave 53 max 46 min
Histogram: 2 0 0 0 0 0 0 1 0 1
Nghost:    147 ave 150 max 143 min
Histogram: 1 0 1 0 0 0 0 0 0 2
Neighs:    978.25 ave 1048 max 898 min
Histogram: 1 0 0 0 1 0 1 0 0 1

Total # of neighbors = 3913
Ave neighs/atom = 19.9643
Ave special neighs/atom = 5.87755
Neighbor list builds = 3095
Dangerous builds = 0
unfix 1


# PRODUCTION

fix             1 all nve
fix             hot all langevin ${TThi} ${TThi}  50.0 52804  tally yes
fix             hot all langevin 320 ${TThi}  50.0 52804  tally yes
fix             hot all langevin 320 320  50.0 52804  tally yes
fix             cold all langevin ${TTlo} ${TTlo} 50.0 297859 tally yes
fix             cold all langevin 280 ${TTlo} 50.0 297859 tally yes
fix             cold all langevin 280 280 50.0 297859 tally yes
fix_modify      hot temp Thot
fix_modify      cold temp Tcold


variable        tdiff equal c_Thot-c_Tcold
thermo          4000

dump gigo all atom 40000 dump.cords_xyz.dat
dump_modify gigo scale no
dump vfgigo all custom 800 dump.velo.dat id vx vy vz fx fy fz

# thermal conductivity calculation
# # reset langevin thermostats to zero energy accumulation
#
compute         ke all ke/atom
variable        temp atom c_ke/1.5/0.0019872

fix             ave all ave/time 100 40 4000 v_tdiff ave running
thermo_style    custom step temp c_Thot c_Tcold f_hot f_cold v_tdiff f_ave

#compute         layers all chunk/atom bin/1d z lower 0.05 units reduced
compute         layers all chunk/atom bin/1d z lower ${dz} units box
compute         layers all chunk/atom bin/1d z lower 4.1310649555631 units box
fix             2 all ave/chunk  100 40 4000 layers v_temp file profile.langevin

#dump mydump2 all xyz 40000 prod-coord.xyz
#dump_modify mydump2 element C S S

run             32000000
Per MPI rank memory allocation (min/avg/max) = 11.52 | 11.52 | 11.52 Mbytes
Step Temp c_Thot c_Tcold f_hot f_cold v_tdiff f_ave 
136060000    289.47621    371.51988    247.70124           -0           -0    123.81864            0 
136064000    283.53547    395.93328    212.33722   -37.082716    41.552352    183.59606   -11.765167 
136068000    259.05481    302.91993    365.26356   -68.663453    68.448595   -62.343627    13.026924 
136072000    279.79885    447.74552    474.75446   -110.31343    124.73885   -27.008937    11.970486 
136076000    259.16333     339.3239    318.16979   -139.90499    151.09609    21.154109     4.717708 
136080000    284.10532    798.08923    154.26939   -182.80161    189.12197    643.81983    12.649814 
136084000    270.30733    339.76969    425.40964   -179.15534    191.07239    -85.63995    14.049225 
136088000    282.48177    274.83042    277.69421   -208.17607    217.42135   -2.8637808    16.766774 
136092000    283.11187     538.8907    231.38391   -271.88707    278.95939     307.5068    18.270192 
136096000    263.55081    360.69683     233.1325   -320.58486    323.34293    127.56434    21.145883 
136100000    254.59422     355.5491    283.27494   -390.32419    417.45232    72.274154    20.053626 
136104000    288.80347    434.85898    262.60493   -412.99595    415.00263    172.25405    20.290579 
136108000    308.75532    326.37077    271.68977   -464.77441    446.59383    54.681002    19.417366 
136112000    278.87293    341.17281    288.28692   -500.03911    495.22738     52.88589    20.977989 
136116000    290.06676    377.97062     297.1538   -522.37143    513.56584    80.816821    22.183535 
136120000    307.54912    314.46172    276.66214    -559.8056    547.30811    37.799582    22.034986 
136124000    286.71374    218.08223     259.5057   -607.16703    591.78416   -41.423475    21.092976 
136128000    291.57181    349.98753     268.8268   -626.73768    627.01201    81.160737    20.830815 
136132000    288.86503    279.30041    479.31106   -647.62779    652.49268   -200.01065      19.9125 
136136000    282.25052    299.00914    237.21752   -686.76536    674.88986    61.791624    20.297138 
136140000    296.11573    389.45623    396.16258   -710.16109    702.02917   -6.7063448    19.859131 
136144000    272.14718    285.24192    177.54846   -772.27815    774.07156    107.69346    19.770087 
136148000     285.3403    319.83415    197.99532   -824.84124    839.06729    121.83883    19.905196 
136152000    283.32999    306.90329    287.87769   -881.33169    872.70787    19.025606    20.391528 
136156000     315.6917    412.96116     380.8032   -907.92304    882.36142    32.157956    19.774319 
136160000    303.97023    505.63095     349.9412   -930.63329    901.00568    155.68975    20.102375 
136164000     263.9512    256.42561    195.79818    -971.0191    985.33142    60.627428    18.913328 
136168000    242.21277    277.32677    164.53695   -1008.5373    1020.9249    112.78982    19.518903 
136172000    299.40458    285.49453    267.06163   -1033.0172    1021.3739    18.432899    19.227117 
136176000    275.25393     246.2353    398.04137    -1081.367    1093.5685   -151.80608    19.922239 
136180000     296.7874    314.88818     465.2187   -1124.3962    1131.7029   -150.33052    17.948999 
136184000    296.88263    296.32416    314.37592   -1140.0405    1148.3728   -18.051759    18.234752 
136188000    312.53098    273.87347    300.56928   -1187.0643    1162.8551   -26.695806    17.768928 
136192000    283.77977    318.70044    254.71093   -1216.5876    1236.1114    63.989516    17.614217 
136196000    305.00247     602.1926    199.99265   -1268.1494    1242.1468    402.19995    18.015882 
136200000    289.08437    297.52283    361.78599   -1295.3452    1303.4598   -64.263158    17.555033 
136204000    314.36209    423.65782    269.27293     -1361.12    1334.2978    154.38489    17.550693 
136208000    288.31878    291.15168     314.6972   -1360.6761    1373.0134   -23.545522    16.610955 
136212000    280.58199    373.42216    243.14009   -1412.7866    1406.1289    130.28207    17.498434 
136216000    287.81021    451.48026    214.30891   -1445.6017    1450.4098    237.17135    17.233479 
136220000    262.26869    265.71252    300.53622   -1482.1437    1510.3383     -34.8237    17.613744 
136224000    300.11457    287.33964    307.42053   -1542.9093    1550.1192   -20.080888    18.454192 
136228000    292.31122    456.25352    458.96352   -1612.5643    1602.1595    -2.710001    18.891002 
136232000    291.91017     371.1129    429.10689   -1651.2095    1639.5547   -57.993989    19.213924 
136236000    258.48461    311.14772     336.6102   -1681.1147    1710.3334   -25.462479    19.005804 
136240000    277.44112    438.07855    223.29316   -1739.0855    1733.0105    214.78539    18.904221 
136244000    252.16077    154.82971    275.06807   -1757.3614    1779.6499   -120.23836    18.199586 
136248000    283.11178     357.4833     220.8201   -1807.1675    1819.9094     136.6632    18.223325 
136252000    275.54577    314.17489    249.33929   -1839.8992    1865.4923    64.835599    18.231752 
136256000    313.32972    429.11081    240.18096   -1912.8104    1891.2237    188.92986    18.858191 
136260000    267.29312    513.66788    263.92605   -1959.7022    1959.0568    249.74183    18.697172 
136264000     256.0601       417.08    484.09896    -1989.819    2003.5421    -67.01896    19.222646 
136268000    277.38001    253.67033    368.05211   -2038.6386    2041.0877   -114.38178    19.308317 
136272000    292.06948    368.87124    281.39298   -2052.3813    2048.0403     87.47826    18.915734 
136276000    261.97176    237.81431    322.99209   -2067.5332     2094.303   -85.177776     18.61106 
136280000    284.41783    287.23178    334.85604   -2103.9954    2099.0335   -47.624257    19.130796 
136284000       254.54    280.74332     151.4314   -2114.0863    2124.8687    129.31193    19.516155 
136288000    278.93997    295.98586    351.23199    -2178.116    2171.6058    -55.24613    19.611312 
136292000     288.7594    272.01723    283.56693   -2206.0532    2208.9077   -11.549705    19.943431 
136296000    319.29582     233.0171    340.59701   -2251.6798    2243.2454   -107.57991    20.314518 
136300000    286.44301    400.90249    302.27336    -2278.734    2275.0147    98.629124    20.547389 
136304000    332.47834    276.08237    249.94115   -2318.4312    2287.0952    26.141212    20.510403 
136308000    276.34681    353.17704    287.31272   -2320.3563    2300.8815    65.864316    20.620571 
136312000    308.89948    405.99794     254.9384    -2352.546    2329.6158    151.05954    20.521784 
136316000    246.09881    282.27543    289.33385   -2353.6888    2366.2067   -7.0584248    20.383411 
136320000    311.76906    484.37407    242.17058   -2408.0863    2391.8421    242.20349    20.667727 
136324000    291.28485    383.51572    376.08781   -2449.5048    2437.6778    7.4279115    20.378905 
136328000    263.41004    216.12763    368.38737   -2485.1895    2495.8755   -152.25974    20.449982 
136332000    258.69869    264.22337    308.16514   -2500.7361    2529.3553   -43.941776    20.450972 
136336000    275.70823     321.5447    254.80452   -2541.9627    2558.1991     66.74018    20.662178 
136340000    321.92749    385.63033    326.44832   -2599.5148    2572.5682    59.182013     21.25708 
136344000    282.62895    258.34685    368.54196   -2623.5078    2636.5601   -110.19512    21.178024 
136348000    312.51446    330.20461     325.5388   -2698.0271     2682.289    4.6658075    21.337059 
136352000    259.70956    274.18121    321.56367   -2710.1112    2743.1571    -47.38246    21.711099 
136356000    310.10599    202.25379    379.62488    -2757.171    2752.5099   -177.37109    21.258603 
136360000    301.52775    290.12838    357.54196   -2785.1529    2766.7611   -67.413583    20.901221 
136364000    283.08053    307.13673     200.7801   -2830.5728    2831.4641    106.35663     20.62105 
136368000    254.23517     193.2019    469.01931   -2872.5428    2875.9608   -275.81741    20.328969 
136372000    272.50159    197.34902    220.33449   -2918.2059     2931.241   -22.985475    20.716204 
136376000    246.53214    311.89466    393.91795   -2925.8398    2956.0683   -82.023288    20.699712 
136380000    259.97218    252.87954    215.73426   -2977.2979    2988.3129    37.145285    20.966827 
136384000    276.11434    266.46124    462.12458    -3038.333    3049.4539   -195.66334    20.644108 
136388000    306.25016    388.42909    361.60101   -3102.8062    3088.9867    26.828076    20.445687 
136392000    267.18992    260.66539    316.74081   -3081.9429    3102.5543   -56.075419     20.42134 
136396000    253.37542    250.61898     548.7593   -3127.8297    3144.3418   -298.14033    20.257973 
136400000    261.93668     366.4554    381.39843   -3164.9207    3184.8782   -14.943028    20.508765 
136404000    295.56587    315.32756    161.01564   -3263.8941    3249.6689    154.31193    21.091353 
136408000    312.35882    375.84009    324.44907   -3284.8959    3253.1411    51.391027    21.108287 
136412000    289.71022     233.4181    162.11042   -3334.0849    3330.0964    71.307681    20.774217 
136416000    293.71597    167.10907    349.18784   -3378.9259     3371.746   -182.07877    20.633881 
136420000    278.34067    232.52873    421.78844   -3416.7954    3423.2193   -189.25971    20.531154 
136424000    278.17087    317.24591    240.81135    -3490.225    3489.5486    76.434558    20.583198 
136428000    252.44838    448.44446    229.24772   -3510.6452    3543.6921    219.19674    20.828713 
136432000    270.55219    310.48081    252.32786   -3569.7117    3593.7745    58.152946    20.966398 
136436000    292.36261    457.45841    388.97761   -3614.0969    3620.7849    68.480806    21.274005 
136440000     279.5059    279.64701    342.39303   -3679.4074    3692.0589   -62.746016    21.048132 
136444000    271.15598    348.52146    239.00501   -3712.3154    3743.9591    109.51645    21.306725 
136448000    266.05854    377.51073    237.12786   -3720.0412    3745.4844    140.38287     21.29286 
136452000    302.03436    262.59112    294.94357   -3774.8971    3779.8144   -32.352451    21.413422 
136456000    287.93307    318.86959    358.79262   -3805.0222    3802.5715    -39.92303    21.240508 
136460000    274.51256    258.47161    365.88898   -3813.6318    3830.9498   -107.41737    21.535684 
136464000    269.72295    247.38077    466.15672   -3874.1912    3894.1713   -218.77595    21.550868 
136468000     248.1676    231.85012     352.9035   -3843.5787    3878.4305   -121.05338     21.43304 
136472000    253.93953    386.83054    270.30121   -3889.5936    3920.7105    116.52933    21.323445 
136476000    268.90617    289.90949    251.89607   -3967.9692    3977.8474    38.013417    21.525491 
136480000    294.67815    300.59652    326.56864   -4010.1736    3989.8236   -25.972118    21.481656 
136484000    328.45952    338.63807    320.98726   -4037.6806    4001.5588    17.650809    21.600328 
136488000    274.98405    269.46202    424.81237   -4055.0027    4048.5899   -155.35035    21.353159 
136492000     296.1842    310.07934    373.11955   -4105.7931    4101.3127   -63.040214    21.315052 
136496000    264.26042    277.49163    317.13697   -4137.0687    4144.6691   -39.645341     21.37339 
136500000    307.50871     176.0686    503.90924   -4156.2604    4144.9429   -327.84064    21.400789 
136504000    264.90818    179.12775    380.42641   -4194.2304    4199.0984   -201.29866    21.606416 
136508000     308.0888     309.8352    365.00469    -4254.902    4225.2027   -55.169496     21.87471 
136512000    309.21635    340.97219    406.03097   -4309.1555    4277.5219   -65.058776     21.74745 
136516000    272.13311        249.2    559.55529   -4309.0867    4327.8786   -310.35529    21.885598 
136520000    297.40647    363.16752    303.00886   -4396.8767     4386.143    60.158658    21.577589 
136524000    290.80064    452.32572    280.27873   -4422.7032    4422.6089    172.04699    21.686389 
136528000    278.28972    412.15307    413.57573   -4445.6157    4444.4655   -1.4226591    21.780293 
136532000    295.36297    443.36439    285.74658   -4483.6289    4495.4586    157.61781    22.091103 
136536000    286.16594     357.5061    309.44121   -4535.8808    4539.7488    48.064887    21.881356 
136540000    292.17218    306.81831    406.80214   -4596.1053    4592.8475   -99.983831    21.717712 
136544000    287.36684    233.66153     569.6915   -4580.7901     4590.271   -336.02997    21.735863 
136548000    270.05149    262.58391    315.14862   -4623.9019    4635.8214   -52.564709    21.851558 
136552000    256.39522    477.76889     191.5975   -4690.0151    4713.0865    286.17139    21.873523 
136556000     272.3518    376.58656    385.21208   -4702.2308    4730.2885   -8.6255173    21.845658 
136560000    272.71271    301.01127    121.72408   -4716.6473    4721.6334    179.28719    22.133462 
136564000    268.19305    226.21091    329.57188    -4706.997    4722.2486   -103.36097    22.143055 
136568000    267.34976     322.2667    314.42517   -4748.9326    4758.5117    7.8415289    22.088624 
136572000    267.70392    202.99253    216.66234    -4774.931    4808.3323    -13.66981    21.951412 
136576000    273.37962    325.91181    179.51788   -4819.8606    4837.8814    146.39394    22.183342 
136580000    264.17645    396.52617    231.82462   -4879.7309      4892.87    164.70155    22.482459 
136584000    273.41928    446.93053     371.4942   -4923.7334    4935.0287    75.436332    22.485718 
136588000    288.84645    410.78412    289.62731   -4987.0058    4981.1354    121.15681     22.53003 
136592000    284.16472    552.51703    268.84288   -5016.4353    5019.2454    283.67415    22.584723 
136596000    297.23795    294.46119    324.76981   -5055.7896    5045.0564   -30.308616    22.498034 
136600000    293.35741    234.72783    408.13464   -5126.3694    5113.7334   -173.40681    22.426312 
136604000    285.66817    300.93884    357.35338   -5125.4052    5124.0359   -56.414545    22.293011 
136608000     278.9291    277.95682    250.53851   -5183.8734    5185.9585    27.418311    22.382786 
136612000    285.85103    379.74021    261.04891   -5231.2797    5237.8299     118.6913    22.419334 
136616000    303.20069    349.55477    245.96636   -5270.3237    5256.5128    103.58841    22.393728 
136620000    247.98207    251.75537    278.68971   -5275.9316    5286.9485   -26.934342    22.574747 
136624000      287.605    395.65911    260.08889   -5329.7342    5338.2826    135.57022    22.817727 
136628000     286.8273    266.74647    275.82141   -5394.9603    5385.8772   -9.0749371    23.074819 
136632000    306.50325    571.37283    271.70212   -5425.0955    5420.1282    299.67071    23.307852 
136636000    304.13131    317.77938    271.84293   -5453.4046    5437.5085    45.936453    23.513451 
136640000    291.62446    443.02678    255.66202   -5473.9956     5473.216    187.36477    23.572374 
136644000    284.01963    361.51246    339.25304   -5510.4102    5493.0536    22.259414    23.518114 
136648000    247.25874    272.80684    406.18133   -5516.2754    5537.5641   -133.37448    23.363275 
136652000    276.70151    272.65578    305.01484   -5567.5263    5572.7742   -32.359065     23.43662 
136656000    280.71531    452.46938    271.79232   -5597.5796    5607.7582    180.67706    23.329561 
136660000    254.51454    314.37528    211.72157   -5648.1178    5640.4119    102.65371    23.057001 
136664000    295.73363    288.94419    567.58055   -5670.3259    5661.8753   -278.63636    22.669964 
136668000    319.30684    333.28982    437.52517   -5721.6084    5694.1826   -104.23536    22.471204 
136672000    280.45578     260.4619    224.79893   -5749.5713    5759.5932    35.662974    22.307924 
136676000    263.67443    238.96898    296.51391   -5743.4336    5763.6255   -57.544928    22.337278 
136680000    277.21696    394.29118    400.90864   -5791.6184     5780.923   -6.6174518    22.327944 
136684000    272.57643    353.84267    273.26256   -5815.8258    5824.0437    80.580106    22.402007 
136688000    273.28223    353.15727    353.03753    -5855.281    5868.2047    0.1197369    22.325844 
136692000    284.71544     250.8846    325.03033   -5907.0503    5901.1434   -74.145725     22.31943 
136696000    307.31992    485.20679    293.10374   -5959.5488    5953.3797    192.10304    22.342799 
136700000    271.86182    307.35855    373.64418   -5982.6134    5989.7049   -66.285631    22.733598 
136704000    295.50575    367.47867    415.39229   -6051.8855    6041.0932   -47.913613    22.862704 
136708000    288.67271    342.70522     387.4597   -6074.6681    6086.5616   -44.754477    22.911319 
136712000    289.19284    214.42092    279.34106   -6150.2341     6163.653   -64.920139    22.914838 
136716000    300.94074    234.98662    647.61975   -6238.1862    6224.1998   -412.63313    22.951172 
136720000    310.65694    287.52765    394.40933   -6283.8993    6270.7721   -106.88168     22.99598 
136724000    277.37311    464.80548    247.81187    -6326.546    6325.7798    216.99361    22.962535 
136728000    286.90424    390.92751    447.99523   -6395.7034    6374.0209   -57.067712    22.945893 
136732000    297.90464    368.13278    366.05825   -6406.6355     6398.821    2.0745296    22.892968 
136736000    295.59144    174.84909     262.5051   -6444.0392    6446.9398   -87.656003    22.839559 
136740000    278.26026    350.28832    259.06585   -6504.3904     6501.765    91.222478    22.784703 
136744000    287.76148    311.97808    604.74529   -6526.8648    6534.4769   -292.76721    22.825127 
136748000    296.12176     276.4368     372.7883   -6562.7674    6557.0474   -96.351503    22.642697 
136752000    273.97232    403.62439    184.03632    -6605.065    6619.5401    219.58807    22.771869 
136756000    276.44815    330.43207    477.82976   -6652.0167    6662.3619    -147.3977    22.424651 
136760000    271.64893    395.50065    261.61577   -6678.6494    6695.8578    133.88488    22.474628 
136764000    278.48392    447.38802    400.42741   -6739.5862    6747.0283    46.960608    22.491665 
136768000    241.57658    233.74421    291.90681    -6741.892    6755.3175   -58.162592    22.447728 
136772000    285.51921    234.05823    301.17521   -6807.1238    6788.3603   -67.116977    22.424168 
136776000    313.14115    216.39193    365.87269    -6842.658    6835.2325   -149.48076     22.43351 
136780000     303.7726    459.53673    381.35829    -6857.045    6844.1318    78.178448    22.496826 
136784000     304.8027    394.27189     262.6049   -6905.3737    6902.3653    131.66699    22.608005 
136788000    297.05548    363.87923    507.38182   -6955.8552    6936.4879   -143.50259    22.569779 
136792000    266.34762    281.91013    230.26293   -6958.5725     6957.268    51.647202    22.510464 
136796000    261.57402    192.45385    309.50243   -7017.1429    7027.0799   -117.04858    22.450366 
136800000    278.07684    259.20576    665.59571   -7038.2236    7051.6672   -406.38995    22.530316 
136804000    314.11523    366.37984     341.9301   -7114.5201     7107.821    24.449741    22.575848 
136808000    265.79296    228.60084     285.8513   -7106.6118    7126.9863   -57.250459    22.410179 
136812000    278.82552    326.88639    265.08651    -7154.751    7156.5535    61.799873    22.433834 
136816000    270.10697    297.88421    463.74223   -7190.4184    7179.6326   -165.85802     22.28209 
136820000    278.44046     269.6407    404.06247   -7203.9794    7219.4079   -134.42177    22.144422 
136824000    260.26691    495.22854    330.33323      -7239.5     7269.833    164.89531    22.092244 
136828000    254.78076    206.57237    301.72922    -7305.094    7318.9816   -95.156843    22.030107 
136832000    285.08978    271.73305    373.33658   -7343.7073    7357.7837   -101.60353    21.971858 
136836000    308.95345    551.68044     272.8649   -7398.2477    7383.6068    278.81555    21.869278 
136840000     265.6102    299.51714    290.26024   -7390.9381    7420.4349    9.2569004    21.779826 
136844000     295.4227    483.15465    453.66825   -7445.1437    7438.5868    29.486401    21.779977 
136848000    279.79323    427.22439    271.39996    -7464.569    7477.7614    155.82443     21.82035 
136852000    288.35343    294.72315    304.46376   -7511.6148    7512.0785   -9.7406084     21.69316 
136856000    256.15979    320.40651    215.44867   -7537.5555    7533.6593    104.95784    21.677315 
136860000    305.35523    314.35218    528.17543    -7581.865    7563.9585   -213.82325    21.695959 
136864000    298.14152    262.22498    492.71685   -7623.0049    7602.9103   -230.49187    21.681019 
136868000    307.68108    388.71081    256.90762   -7652.8382     7649.875    131.80319    21.897049 
136872000    294.68866    313.41923    318.90631   -7690.8329    7694.4873   -5.4870728    21.980774 
136876000    305.09036    277.17616    355.08652   -7744.1696    7744.9719   -77.910361      21.8634 
136880000    310.46436    381.67662      326.678   -7800.3029    7783.9054    54.998625      22.0677 
136884000    290.22509    249.68452    235.12105   -7845.3566    7843.7666    14.563474    22.175702 
136888000    289.92305    245.39038    409.66182   -7896.1419    7875.6356   -164.27144    22.162058 
136892000    299.78802    188.81024    310.19603   -7966.5076    7970.7122   -121.38578    22.036525 
136896000    332.48476    539.35211    302.06122   -8042.7409    8028.2353    237.29089    22.145926 
136900000    300.81185    558.67694    92.768882   -8109.7058    8084.3419    465.90805    22.087068 
136904000    278.18483    340.27251    320.22186   -8110.9426    8124.4638    20.050652    22.122451 
136908000    280.16558    459.81435    360.05778   -8172.5775    8180.1319    99.756563    22.002994 
136912000    293.65386    299.36544    277.18903   -8185.3767    8179.2692    22.176411     21.93869 
136916000    267.82466    386.57112     364.2506   -8216.6852    8228.7793    22.320516    21.832698 
136920000     271.8771    392.32291    276.21253   -8245.6259    8249.1794    116.11038    21.900889 
136924000    274.35401    232.33848    298.63427   -8278.6345     8287.213   -66.295788    21.871475 
136928000    305.67639    298.70425    344.83474   -8338.6884    8323.6947   -46.130483    21.917178 
136932000    294.28863     314.6874    253.23163   -8376.0559     8354.641    61.455773    21.871836 
136936000    264.01905    372.27717    568.55528   -8390.0443     8403.096   -196.27811    21.902133 
136940000    275.56732    374.47184    277.90707   -8382.2285    8392.4867    96.564772    22.014723 
136944000    282.77417    377.33204    276.96039   -8452.0977    8457.7055    100.37165    21.905872 
136948000    272.94866    378.86674    412.26835   -8480.9877    8501.3583   -33.401603    21.983155 
136952000    282.50203    419.86914    310.14529   -8530.6989    8540.0481    109.72385    21.935572 
136956000    268.21685    285.76778    378.15559   -8558.5575    8580.0571   -92.387807    21.984408 
136960000    258.03227    359.96863    264.76453   -8588.1664    8618.8748    95.204102    22.039514 
136964000    280.47293    322.49074    334.12028   -8653.6675    8667.5549   -11.629532    22.048783 
136968000     291.2387     511.0316    402.03434   -8725.1604    8717.2702    108.99726    21.926575 
136972000    289.34382    312.26328    313.35759   -8737.0003     8759.668   -1.0943142    21.797001 
136976000    286.93434    424.57019    185.31281   -8795.2543     8807.944    239.25738    21.890555 
136980000    292.50046     380.3743    344.53424    -8858.868    8842.6672    35.840065    22.011049 
136984000    327.25079    449.48315    486.70318   -8907.7633    8878.8659   -37.220028    21.904689 
136988000    281.58578    310.45257     306.5409   -8963.8925    8947.5912    3.9116754     21.76872 
136992000    315.90599    277.66052    370.03409   -9021.9819     8997.505   -92.373569    21.847841 
136996000    286.92199    205.41153    172.85015   -9028.6786     9046.594    32.561377    21.729885 
137000000    284.66736    299.40295     507.5398   -9063.5436     9068.943   -208.13685    21.715033 
137004000    271.60096    419.45235    176.45971    -9108.099    9109.5188    242.99264    21.791151 
137008000     271.9671     349.0798    148.05691   -9113.9007    9118.5518    201.02289    21.827014 
137012000     302.1155    336.41043    318.44452   -9183.6503    9173.4282    17.965902    21.786949 
137016000    317.06905     342.2013    280.72573   -9234.6634    9198.7848    61.475566    21.757158 
137020000    318.34701    564.53096    356.85254    -9253.273    9239.8764    207.67842    21.918917 
137024000    287.03041    280.46872    371.73756   -9276.8436    9291.3671   -91.268849     21.76508 
137028000    287.54838    424.08942    170.56007   -9339.6536    9341.4758    253.52934    21.793155 
137032000    292.13966     395.8138    317.64253   -9360.0467     9357.179     78.17127    21.747663 
137036000    268.97135    343.67942    273.73918   -9391.0762    9401.5255    69.940234    21.702862 
137040000    253.04956    307.99116    234.78513   -9416.0632    9433.8918    73.206027    21.802935 
137044000    296.75597    431.05558    302.11106   -9478.0311    9483.8758    128.94451    21.695505 
137048000    240.63433    220.35597    238.95063   -9501.6759     9525.563   -18.594662    21.608133 
137052000    270.22738     284.9692    338.29853   -9553.9973    9574.3107   -53.329331    21.583417 
137056000    289.18101    323.97178     381.0366   -9605.0294    9586.6594   -57.064815    21.549524 
137060000    274.96793     222.9074    426.54441   -9630.4719    9647.7678   -203.63702    21.483179 
137064000    280.29652    220.01212    318.76106    -9670.324    9681.1454   -98.748935    21.396021 
137068000    281.44131    337.25593    224.92323   -9722.5083    9723.0696     112.3327    21.472176 
137072000    279.34344    219.78338    375.03906   -9706.8421    9737.3287   -155.25568     21.48405 
137076000    291.29759    422.97531    224.54761    -9791.432    9784.6234     198.4277    21.531308 
137080000    301.56991    415.12989    289.11953   -9864.6118    9868.5531    126.01037    21.448135 
137084000    285.49727      321.069     244.4148    -9885.971    9883.6567    76.654197    21.479593 
137088000    276.50787    292.12938    236.72833   -9919.0869    9934.9627    55.401051    21.517294 
137092000    291.00613    399.15351    302.16412   -9947.3795    9954.6108    96.989388    21.473443 
137096000    282.81262    346.14993    230.38133   -10002.861    10002.801    115.76859    21.550741 
137100000    256.87738    433.99896    474.49406   -10041.145    10062.018   -40.495094      21.5747 
137104000    260.80994    351.11847    157.72854   -10085.876    10104.301    193.38993    21.821676 
137108000    261.92108    350.55364    296.39572   -10125.907    10132.401    54.157917    21.670883 
137112000    293.70056    471.37596    482.34959   -10139.647    10135.199   -10.973631    21.811359 
137116000    277.41595    219.75982    402.02536   -10167.773    10175.801   -182.26554    21.842887 
137120000    284.45578    429.99156    350.02264   -10228.406    10219.192    79.968922    21.920358 
137124000     295.9406    253.55474    236.56807   -10267.795    10268.364    16.986675    21.930127 
137128000    286.63053    362.08765     369.8425   -10346.522    10340.678   -7.7548565    22.034425 
137132000    259.99425    276.29014     262.6892   -10400.118    10402.879    13.600947    21.937339 
137136000    289.03833    276.35573    265.53879   -10419.156    10420.241    10.816945    21.731897 
137140000    274.33328    442.03912     341.7601   -10444.347    10471.092    100.27901    21.771315 
137144000    264.95045    414.76792     330.0034   -10490.986    10497.934     84.76452    21.958013 
137148000    260.75995    252.44397    453.51659    -10513.25    10529.701   -201.07262     21.97872 
137152000    268.20996    318.75562    385.29525   -10569.521     10566.32   -66.539631    21.912896 
137156000    257.46899    330.09906    268.66371   -10592.612    10614.403    61.435346     21.84719 
137160000    274.83508     288.3171    216.91485   -10604.828    10613.549     71.40225    21.858548 
137164000    302.40177    248.41268    242.88717   -10647.733     10657.71    5.5255094     21.82469 
137168000    287.33996    412.33519    393.96117   -10696.082    10682.934    18.374021    21.958863 
137172000    267.07804     464.4645    413.44436   -10738.935     10767.13    51.020137    22.004181 
137176000    293.62144    377.37027    268.36614   -10803.337    10800.544    109.00412    22.034527 
137180000     274.5144    243.92809    295.85869    -10835.64    10855.342   -51.930597    22.057818 
137184000    313.30519    305.44643    396.71221   -10896.257    10884.372   -91.265776    21.868177 
137188000    247.53604    187.85967    163.44138   -10928.247    10940.921    24.418292    21.908207 
137192000     256.6576    267.63713    355.50324   -10976.024    10986.109   -87.866111    21.998285 
137196000    296.07208    306.53396    460.62511    -10999.31    10990.944   -154.09115    22.060151 
137200000    305.78103    380.10733    402.77316   -11089.281    11089.949    -22.66583    22.066387 
137204000    261.04287    471.10796     323.2948   -11088.987    11095.089    147.81316    22.072043 
137208000    297.09643    314.21713    279.72814   -11096.419      11102.7    34.488986    22.135977 
137212000    277.69683    482.08389     412.0377   -11158.149    11152.974    70.046187    22.326123 
137216000    254.97307    258.15845    336.46687   -11153.789    11167.375   -78.308415    22.270098 
137220000    288.39639     579.2508    246.45779   -11207.155    11210.908    332.79301    22.231083 
137224000    291.70527     301.2544    423.17958   -11237.002    11245.344   -121.92518    22.105782 
137228000    282.23749    340.86098    432.65933   -11291.576    11287.311   -91.798344    22.205742 
137232000    265.25069    388.80392    324.74047   -11315.187    11327.834    64.063452    22.279767 
137236000    299.34274    334.63678    458.96634   -11390.156    11380.424   -124.32956    22.312473 
137240000    293.37323    226.29635    218.83454   -11441.939    11439.823    7.4618042    22.226636 
137244000    276.12217     376.4151     246.5675   -11504.645    11510.133     129.8476    22.288816 
137248000    275.11474    434.73523     374.8542   -11511.935    11522.138    59.881034      22.3485 
137252000    289.18887    338.69037    323.33347   -11578.555    11575.828    15.356908    22.399511 
137256000    332.76859    498.26591    497.46544   -11609.228    11584.827   0.80047621     22.28306 
137260000    261.86978    283.54443    456.62575    -11623.89    11640.082   -173.08132    22.293283 
137264000    282.09631    339.34313    440.75636   -11665.346    11666.454   -101.41323    22.292178 
137268000    302.85658    365.72304    398.89029   -11741.716    11723.679   -33.167249    22.320753 
137272000    306.56219    495.96084     315.8054   -11789.014    11755.399    180.15544    22.335751 
137276000    266.59515     271.2842    233.70925   -11809.777    11804.727    37.574949    22.266246 
137280000    277.26759    322.83813    306.09696   -11835.525    11839.014    16.741161    22.240777 
137284000    251.20634    303.14489      282.848    -11876.24    11906.155    20.296888    22.271308 
137288000    317.86704    544.50275    316.99762   -11944.983    11941.001    227.50512    22.429011 
137292000    279.84541    453.34242    551.84199   -11997.754     11988.34   -98.499571    22.393633 
137296000    272.55771    476.93437    302.17486   -12043.749    12032.659    174.75952    22.312666 
137300000    293.68298    438.26977    240.79064   -12069.328    12073.206    197.47913    22.277895 
137304000    292.50336    249.51347    222.25394   -12118.375    12122.122    27.259525    22.368432 
137308000    281.81322     288.9857    537.91315   -12163.753    12175.912   -248.92744    22.343501 
137312000    302.51761    551.59535    225.69755   -12202.707    12197.093     325.8978    22.544447 
137316000    297.23656    386.02593     262.0599   -12263.905    12264.349    123.96604    22.421642 
137320000    279.51768    334.40985    378.00509   -12288.597    12294.296   -43.595244    22.480491 
137324000    283.71987    464.35459    232.77932   -12329.969    12348.487    231.57527    22.394423 
137328000     280.9198    239.91767    199.92951   -12393.393    12402.967    39.988168    22.293417 
137332000    279.77303    178.85198    329.83354   -12426.963    12427.481   -150.98156    22.348469 
137336000    274.98715    221.52141    337.25855   -12499.988    12485.717   -115.73714     22.47019 
137340000    302.99831    464.92444    171.79968   -12539.965    12533.223    293.12476    22.501962 
137344000    295.25996    309.22106    244.88295   -12577.375    12578.722     64.33811    22.521586 
137348000    269.44923    339.13317    378.47329   -12625.795    12631.326    -39.34012    22.539637 
137352000    302.40166     365.8468    249.17176   -12676.287     12665.55    116.67504    22.576292 
137356000     324.8766    393.13962    352.46536   -12753.478    12729.145    40.674253    22.640408 
137360000    283.91312    491.15731    345.51674   -12793.367    12802.125    145.64057    22.727152 
137364000     281.9688     387.2533    231.17017   -12836.652    12851.634    156.08313     22.76056 
137368000    268.99054    409.31621    204.85494   -12877.501    12895.317    204.46127    22.805434 
137372000    249.49576    344.14555    153.71861   -12913.357    12951.781    190.42694    22.878372 
137376000    277.18487    263.85273     274.9975   -12988.907    12994.837   -11.144764    22.857633 
137380000    278.75029    265.02216    194.99797   -13051.102    13053.634    70.024189    22.893552 
137384000    273.39842    255.48903    251.68399   -13098.318    13094.423    3.8050439    22.877071 
137388000    297.80704    250.44992    293.06057   -13151.819    13136.844   -42.610649    22.907058 
137392000    295.26039    219.46595    231.72566   -13183.532    13194.364   -12.259703    22.884994 
137396000    286.78807    330.33837    340.10566    -13230.47    13227.058   -9.7672934    22.939027 
137400000    289.16919    429.15413    305.26804   -13247.908    13255.892    123.88609    23.005461 
137404000    308.12684    424.46374    264.91567   -13303.853    13289.373    159.54807    23.050839 
137408000    260.21615    249.81354    146.73303   -13345.773    13349.423    103.08051    23.135135 
137412000    272.48826    344.07348    641.06438   -13361.341    13368.899   -296.99091    23.078836 
137416000    278.87824    395.50305    234.10245    -13403.35    13431.131     161.4006    23.100485 
137420000    255.95256     308.0728    237.10211   -13426.903    13453.423    70.970688    23.028224 
137424000    289.27424    258.88392    302.14479   -13469.523    13468.124   -43.260865     22.95621 
137428000    287.03949    240.59011     332.5068    -13546.72     13546.43   -91.916691     22.90895 
137432000    284.58513    177.89887    161.99392    -13593.05    13582.778    15.904953    22.917572 
137436000    298.26965    378.39544    212.82832   -13636.219    13633.347    165.56712    22.868249 
137440000    301.21077    372.30875    518.24776   -13640.304    13648.867   -145.93901    22.932931 
137444000    260.31112    354.57239    354.63858   -13671.697    13715.164  -0.06618525    22.844994 
137448000     252.4215    285.49964    117.95282    -13722.97    13745.958    167.54682    22.801601 
137452000    266.41399    268.44302    381.39514   -13751.184    13775.676   -112.95212    22.793206 
137456000    282.83094    402.43585    210.15743   -13805.016    13812.595    192.27842    22.728532 
137460000    275.12241    198.21347    315.87946   -13824.043    13840.452   -117.66599    22.800425 
137464000    270.39797     291.8763    220.91121   -13883.719    13897.941    70.965085    22.835543 
137468000    277.03196    308.94902    319.87345   -13897.659    13904.401   -10.924425    22.875977 
137472000    267.88614    196.32986    215.82046    -13954.39    13952.849   -19.490605    22.889772 
137476000    292.04108    163.46525    276.82234    -13992.02    13993.978   -113.35709    22.911888 
137480000    276.53709    230.68641     339.5446   -14051.607    14047.345   -108.85819    22.850707 
137484000    296.61278    480.65174    366.97702   -14099.927     14098.48    113.67472    22.871713 
137488000    264.42747     338.8493    173.91139   -14127.747    14155.922    164.93791    22.894555 
137492000     319.0406    395.82448    417.45651   -14209.701    14187.876   -21.632034    22.952587 
137496000    272.58026    302.15237    314.63802   -14232.852    14250.432   -12.485644    22.941007 
137500000    264.16204    311.59763    285.07313   -14276.495    14298.163    26.524509    22.958029 
137504000    300.23045    365.91259    360.57263   -14328.521     14333.76    5.3399557    22.954065 
137508000    298.67296    361.95018    494.60062   -14354.026    14345.448   -132.65044    22.828581 
137512000    286.79001    240.35858    394.20993    -14385.04    14391.172   -153.85135    22.805912 
137516000    283.63604    306.42726    266.58676   -14420.144    14425.775    39.840505    22.662854 
137520000    305.88485    457.20582    446.23766   -14456.593    14455.381    10.968164    22.806117 
137524000    298.64468    292.11633    476.16085    -14518.41    14502.945   -184.04452    22.679686 
137528000    286.11561    242.60518     247.7011   -14558.286      14553.5    -5.095913    22.650008 
137532000    288.87759    403.01912    521.43265   -14603.218    14605.404   -118.41353    22.672583 
137536000    270.08744    337.11025    519.88905   -14619.365    14640.892    -182.7788      22.7284 
137540000    282.02544    382.58704    352.03311    -14642.47    14656.482    30.553924    22.802851 
137544000    271.52321    275.11161    184.05656   -14657.975    14666.449    91.055041    22.799006 
137548000    269.72742    368.66261    195.39102   -14693.226    14708.259    173.27158    22.770602 
137552000    277.63482    289.45636      202.903   -14736.338    14746.844    86.553369    22.742496 
137556000     291.3396    411.81404    315.91351   -14799.887    14802.869    95.900527    22.763597 
137560000    271.82613    419.95471    181.19666   -14828.582    14837.956    238.75805    22.700451 
137564000    278.92245    434.90308    363.98837   -14847.211    14869.416    70.914714    22.741075 
137568000    300.77045    348.80243    314.10708   -14879.106    14873.454    34.695354    22.667556 
137572000    262.63256     291.5528    228.29772   -14911.131    14911.286    63.255083    22.742218 
137576000     302.0492    426.06014    328.13219   -14976.115    14962.826    97.927947    22.802031 
137580000    261.88646    299.83546     225.1801   -15022.341    15044.087    74.655363     22.79315 
137584000    264.76265    306.62118    206.90705   -15034.877    15062.902     99.71413    22.869813 
137588000     265.2794    220.63302    404.96893   -15070.007    15092.837    -184.3359    22.899497 
137592000     274.8649    271.50828    325.89896   -15101.697    15117.716   -54.390683    22.921686 
137596000    267.57053     317.1011    252.09753    -15152.52    15165.668    65.003565    22.942515 
137600000    304.73481     429.2141    390.65914   -15209.098    15183.719    38.554964    22.840893 
137604000    318.39015    391.14418    472.85176   -15219.994    15211.202   -81.707587    22.761004 
137608000    297.37259    271.60505    358.08987   -15234.803     15233.74   -86.484819    22.753276 
137612000    283.25377    298.51111    596.45131   -15255.652    15263.496    -297.9402    22.822173 
137616000    271.34054    376.46885    253.80782   -15298.088    15317.771    122.66102    22.890963 
137620000    266.79459    247.63161    443.61394   -15334.562    15336.614   -195.98234     22.96595 
137624000    291.11127    324.01275    238.92426   -15389.522    15381.546    85.088485    22.920124 
137628000    262.08172    327.77786    320.76428    -15406.16    15437.438     7.013577    22.905839 
137632000    296.94761    294.76803    201.83497   -15457.673    15473.622    92.933066     22.94228 
137636000    284.09372    428.65917    282.96171   -15516.133    15513.451    145.69746    23.006135 
137640000    298.53362    435.24137    505.91208   -15573.634    15569.496   -70.670711    23.021448 
137644000    306.51948    178.56414    405.84242   -15611.243    15603.083   -227.27828    22.965621 
137648000    274.88081    436.96601    260.84471   -15648.201     15654.52    176.12129    22.964398 
137652000    322.92423    323.06688    304.56568   -15720.865    15698.053    18.501203    22.994026 
137656000    335.94644    349.80086     288.5575    -15766.89    15728.349     61.24336    23.022895 
137660000    259.21106    243.26229    398.76199    -15749.26    15763.659    -155.4997    22.961782 
137664000    295.42619    306.21836    361.55665   -15806.058    15816.697   -55.338286    22.987996 
137668000    291.33971     350.8774    388.59579   -15814.466     15808.94   -37.718389    22.952913 
137672000    275.05991    273.15512    228.01029   -15864.717    15880.168    45.144831    22.962445 
137676000    299.94391    382.63509    394.69187   -15922.674    15924.232   -12.056782     22.99197 
137680000     257.8282      360.271    206.52293   -15967.362    15968.339    153.74807    23.003848 
137684000    289.07168    604.78825    211.38553    -16022.59    16009.101    393.40272    23.025024 
137688000    295.56264    472.31066    412.99193   -16040.723    16030.051    59.318736     23.01556 
137692000    290.16833    346.61995    463.68451   -16066.076    16077.491   -117.06456    22.960735 
137696000     272.7722    273.61521    247.12473   -16142.128    16127.495    26.490486    22.974888 
137700000    308.90875    589.75862    449.82104   -16178.472    16169.767    139.93758    23.065367 
137704000    277.78066    283.67303    436.12365   -16233.708    16246.646   -152.45062    23.020848 
137708000    299.10656    368.43781    353.21369   -16268.629    16270.617    15.224122    23.083105 
137712000    289.79508    431.19552    244.26847   -16288.492    16297.973    186.92704    23.063382 
137716000    287.62327    451.98512     303.8213   -16329.489    16337.047    148.16381    23.056487 
137720000    263.92694    358.38185    288.36114    -16367.22    16387.411    70.020716    23.011765 
137724000    287.28817    262.06325    384.13942   -16413.442    16429.341   -122.07617    22.970999 
137728000    297.74509    332.53383    300.01206   -16469.544    16475.449    32.521772      22.9977 
137732000    264.64821    279.79121    176.26187   -16501.781    16504.789    103.52934    23.088276 
137736000    261.02743    317.34543    321.33166   -16541.189    16551.936   -3.9862224    23.085389 
137740000     270.8278    273.58187    219.24779   -16565.276    16575.535    54.334083    23.092245 
137744000    275.28932    356.28993     212.7077   -16600.154    16613.896    143.58223    23.184291 
137748000    294.19397    372.78432    353.98828   -16640.364    16650.299    18.796042     23.24416 
137752000    302.96428    480.60796    358.15943     -16718.4    16722.228    122.44853    23.378619 
137756000    257.93925    323.86015    250.91723   -16743.173    16764.964    72.942914    23.404941 
137760000    279.90371    347.90626    210.50682   -16768.672    16765.003    137.39943    23.443968 
137764000    293.96286    395.67847    253.33036   -16820.189     16815.76    142.34811    23.394017 
137768000    296.60308    470.00318    293.27621   -16868.432    16862.873    176.72697    23.381498 
137772000    291.32858    347.95558    386.55084   -16884.735    16884.677   -38.595257    23.434525 
137776000    292.62716    272.35908    458.03427   -16939.517    16938.982    -185.6752    23.450985 
137780000    311.92607    346.85705    390.22352   -16975.613    16952.134   -43.366474    23.432546 
137784000    307.01513    364.05409    266.60138   -16989.448    16972.945    97.452709    23.441892 
137788000    305.55136    477.50002     239.8373   -17009.513    17012.896    237.66272     23.47337 
137792000     302.6491    476.04645    341.88436   -17048.764    17043.786    134.16208    23.445332 
137796000    298.81748    397.54478    382.92933   -17109.177    17091.587    14.615447    23.473228 
137800000     297.2067    313.34316     278.3441   -17165.943    17160.401    34.999064    23.465521 
137804000    274.55227    178.03075    371.27309   -17230.722    17238.394   -193.24234    23.413248 
137808000    285.92764    410.42807    228.22788   -17255.993    17277.431    182.20019    23.373603 
137812000    265.54343     398.8925    469.10791   -17285.935    17302.393   -70.215406    23.510404 
137816000    282.86011    307.03377    402.55158    -17316.66    17317.964    -95.51781    23.549811 
137820000    275.90687    296.53717    274.40567   -17366.795    17364.499    22.131501    23.539215 
137824000    277.39698    383.22847    273.83697    -17369.25    17390.447     109.3915    23.556412 
137828000    278.93087    277.93742    289.10273   -17414.799    17430.567   -11.165312    23.569651 
137832000    297.30557    546.75568    179.24816   -17487.802    17479.931    367.50751    23.611146 
137836000    292.25491    284.51396    291.71708    -17519.05    17522.585   -7.2031175    23.665556 
137840000    317.23998    359.56105    407.43388   -17555.849    17548.184   -47.872831    23.630666 
137844000    296.90334    426.41853     229.7412   -17595.676    17590.888    196.67734    23.678992 
137848000    289.46959    303.79175    403.13362   -17604.274    17633.289   -99.341871     23.67287 
137852000    274.44113    284.65116    383.85286   -17657.863    17668.413   -99.201697      23.7485 
137856000    307.91332    402.06639    429.32651   -17715.942    17718.054   -27.260123    23.740473 
137860000    297.09651     302.6789    333.81845   -17741.585    17743.691   -31.139556    23.739169 
137864000    255.38162    260.93429    224.61794   -17779.396    17800.933    36.316359    23.750639 
137868000    245.32529    314.03496    197.31306   -17822.922    17841.428     116.7219    23.828244 
137872000    266.02706    302.94381    215.39953    -17864.84    17882.431    87.544275    23.799688 
137876000    295.60774     234.6821    347.40723   -17923.934    17928.709   -112.72513    23.790572 
137880000    282.65987    500.50374    318.14737   -17992.086    17997.032    182.35637     23.82427 
137884000    303.61207    388.60909    411.35211   -18036.024    18050.104   -22.743014    23.821651 
137888000     283.2086    424.27385    378.35891   -18106.877    18117.433    45.914933    23.864489 
137892000     257.9347    231.81422    242.76126   -18143.051    18163.962   -10.947043    23.822045 
137896000    270.37448    339.28734    287.49447   -18170.743    18175.954    51.792867    23.903533 
137900000    307.99387    365.67048    260.40174    -18204.46    18179.681    105.26874    23.909625 
137904000    286.22263    231.15262    455.84305    -18211.38    18211.079   -224.69043    23.885115 
137908000    309.97756    420.28521    562.80815   -18245.935    18241.249   -142.52294    23.872429 
137912000    267.67696    255.08762    311.61465    -18256.12    18255.436   -56.527021    23.925235 
137916000    264.22472    352.43798     344.9943   -18288.046    18302.107    7.4436764    23.972382 
137920000    300.52889    572.78966    229.65008   -18332.814    18321.957    343.13958    24.026612 
137924000    324.02514    332.23673    142.28373   -18375.834    18363.386      189.953    24.099785 
137928000    302.62036    461.04938    260.24822   -18400.538    18396.517    200.80117    24.172193 
137932000    292.27459    368.36144    196.77729   -18460.637    18468.213    171.58416    24.182592 
137936000    263.12711     203.1406    449.54969    -18468.72    18492.637   -246.40908    24.169338 
137940000    307.33772    238.63286    323.34127   -18531.083    18503.205   -84.708411      24.2204 
137944000    282.02954    195.53132    385.23877   -18553.359    18555.164   -189.70746     24.18247 
137948000    272.17525    381.19809    272.34807   -18596.252    18595.765    108.85001     24.23543 
137952000    292.06954    354.77036    504.22675   -18614.543    18620.284   -149.45639     24.26085 
137956000     276.2753    316.03797    317.30541   -18662.773    18669.425   -1.2674411    24.201778 
137960000    277.13562    242.53263    231.78457   -18688.473    18706.425    10.748057    24.196815 
137964000    277.20389    526.68364    245.91649   -18708.587    18726.279    280.76716    24.170589 
137968000    270.53013    211.48272    352.66408   -18711.276    18739.631   -141.18136    24.157018 
137972000    266.94315    414.99648    244.62893   -18755.186    18778.188    170.36755    24.122218 
137976000    287.92479    390.11115    268.50161   -18804.994    18815.885    121.60954    24.111475 
137980000    279.31499    354.38401    276.17945   -18844.424    18853.526    78.204562    24.143508 
137984000    277.76747    522.41807    194.79963   -18854.797    18855.314    327.61844     24.10685 
137988000    289.17534    272.27044    380.88001    -18896.97    18914.011   -108.60957    24.045006 
137992000    260.56978    256.88763     402.2462   -18920.595    18947.392   -145.35857     24.05384 
137996000    285.77278    198.79372    211.14311   -18984.839    18979.834   -12.349389    24.083046 
138000000    298.42633    341.78006    385.39679   -19041.521    19022.182   -43.616725    24.213273 
138004000    266.56059    333.19961    269.26394   -19073.617    19070.449    63.935667     24.26273 
138008000    291.85752    350.84582    349.52373   -19091.933    19099.054    1.3220854    24.295359 
138012000    288.02991    300.57426    231.38147     -19098.1    19102.451    69.192787    24.250204 
138016000    325.79622    278.98854    300.43941   -19128.325     19095.68   -21.450868    24.317485 
138020000    278.86746    292.95957    179.84617   -19155.237    19161.978     113.1134    24.355868 
138024000    275.00856    400.29145    210.62065   -19181.645     19186.65     189.6708    24.372568 
138028000    270.16397    283.58802    334.45157   -19186.497    19205.181   -50.863552    24.365775 
138032000    296.89399    355.30426    358.75385   -19245.556    19244.671   -3.4495955    24.379843 
138036000    280.81438    249.42842    439.29781   -19269.348    19269.344    -189.8694    24.383711 
138040000    299.21668     372.9207    387.26326    -19311.91    19308.351   -14.342564    24.352645 
138044000    275.73658    410.84424    193.73568   -19326.342    19325.204    217.10856    24.385409 
138048000    277.30494    335.80186    507.91676   -19372.632    19388.626   -172.11489    24.343376 
138052000    286.79984    512.85345    307.47161   -19417.457    19422.234    205.38184    24.350669 
138056000    284.22655    331.40212    253.68448   -19442.514    19454.988    77.717639    24.343394 
138060000    277.50929    344.30701    315.02933   -19486.114    19499.962    29.277675    24.340244 
138064000    295.93713    392.91631    233.53442   -19552.963    19537.673    159.38189    24.425076 
138068000    278.99432    354.92272    466.95363   -19625.132    19613.551   -112.03091    24.431677 
138072000    302.78085    258.92962    461.96442   -19671.672     19661.27    -203.0348    24.436044 
138076000    323.56709    509.66941    369.30344   -19708.975    19670.058    140.36596    24.419976 
138080000    321.42154    523.32063    226.36069   -19760.681    19724.665    296.95993    24.509224 
138084000    290.35517    541.91043    435.93948   -19758.424    19765.669    105.97095    24.562559 
138088000    270.56076    532.07099    273.88207   -19822.676    19824.196    258.18892    24.576749 
138092000    307.33163     308.0404    396.35361   -19881.396    19882.157    -88.31321    24.557232 
138096000    253.02812    371.51267    167.91898   -19868.075    19894.795     203.5937    24.609155 
138100000    280.34625    367.84811    482.05651   -19890.717    19911.378    -114.2084    24.681939 
138104000     278.1465    249.59154    419.74458   -19925.367    19942.743   -170.15304    24.682024 
138108000    265.87238    331.25806      278.432    -19962.85    20003.393    52.826052    24.640339 
138112000    283.30031    345.25652    293.18514   -20059.755    20060.607    52.071385     24.65943 
138116000     242.4871    222.49132    287.69249    -20086.23    20109.344   -65.201171     24.67607 
138120000    269.30536     242.7358    205.90852   -20112.555    20126.279    36.827273    24.665687 
138124000    280.00863    284.07724    479.80629   -20142.231    20142.321   -195.72905    24.669262 
138128000    317.78098    171.91986    377.84526   -20165.412    20157.277   -205.92541    24.728421 
138132000    284.14268    386.83033    349.18895   -20220.179    20224.864    37.641379    24.765062 
138136000    302.89972    482.78434     262.2971   -20230.756    20216.162    220.48724    24.820942 
138140000    280.86862    323.92244    494.18915   -20265.504    20272.331   -170.26671    24.772854 
138144000    288.80545    334.40685    342.04856   -20349.423    20354.082   -7.6417122    24.769869 
138148000    291.53908    462.95979    339.78963   -20405.171    20399.294    123.17016     24.72221 
138152000    272.44936    309.70106    320.90895   -20426.968    20443.504   -11.207887    24.739511 
138156000    286.98168    614.64527    265.15546   -20489.516    20483.227    349.48981     24.73407 
138160000    260.74629    131.04509    379.29793   -20533.516     20547.87   -248.25284    24.600031 
138164000    268.80364    322.59898    279.87804   -20581.937    20601.143    42.720934    24.576199 
138168000    273.91754      522.386    272.77598   -20621.541    20629.091    249.61002    24.645069 
138172000    285.84356    330.09163    359.01929   -20682.002    20686.249   -28.927662    24.618273 
138176000    301.89598    432.77232      273.204   -20730.123    20726.828    159.56832    24.560804 
138180000    262.50011    269.86302    269.41186   -20765.033     20787.34   0.45115948     24.58479 
138184000    287.59938    317.82274    289.79569   -20823.707    20811.091     28.02705     24.55678 
138188000    266.08377    285.94999    362.24553   -20870.645    20882.035   -76.295541    24.594062 
138192000    301.72281    344.54688    366.04738   -20939.698    20923.999   -21.500503    24.552435 
138196000    284.38865    297.24372    485.06528   -20992.723    20997.053   -187.82156    24.560898 
138200000    269.07366    402.08471    313.82738   -21013.889    21036.922    88.257326    24.549196 
138204000    250.85573    358.72057    253.78799   -21039.612    21060.408    104.93258    24.538689 
138208000    273.38169    309.10958    280.40811   -21050.338    21066.073    28.701463    24.513488 
138212000    297.91681    375.43449    235.56158   -21059.346    21050.646    139.87291    24.531168 
138216000    288.29292    323.41889    371.46197   -21093.608    21085.527   -48.043075    24.567228 
138220000    262.23349    246.59909    211.52282   -21117.277    21148.694    35.076268    24.482268 
138224000    286.97137    351.60684    238.78381   -21159.542    21162.229    112.82303    24.483308 
138228000    287.54544    350.29753    472.77833    -21218.34    21205.269   -122.48081    24.500928 
138232000    248.68386    262.54037    438.75935   -21258.317    21283.789   -176.21898    24.514349 
138236000    269.34021    436.59871    362.47861   -21324.629    21320.693    74.120107    24.563328 
138240000    297.46734    485.07505    248.73265   -21308.352    21310.732     236.3424    24.576379 
138244000    265.60816    351.94355    314.62462   -21341.793    21354.968    37.318925    24.574179 
138248000    278.77159    406.46358    379.00557   -21377.471    21391.726    27.458012    24.593453 
138252000     293.8533    391.01349    483.07173   -21427.498    21426.216   -92.058239    24.576937 
138256000     305.5052    400.32792     444.2856   -21485.594    21477.098   -43.957684    24.575757 
138260000    290.79773    462.74546    264.35219   -21525.761    21530.898    198.39327    24.584553 
138264000    294.32873     475.7822    203.91995   -21541.377    21537.188    271.86225    24.623398 
138268000    314.50415     369.2578    425.19022   -21556.843    21553.586   -55.932419    24.631431 
138272000    277.97984    201.82274    474.05797   -21560.628    21591.632   -272.23523     24.60865 
138276000    256.60278    313.45939    153.85441   -21615.787    21638.731    159.60497    24.549192 
138280000    268.73271    293.09159    200.00842   -21673.779    21683.273    93.083172    24.577058 
138284000    286.81978    364.89568    283.18573   -21693.435    21715.096    81.709946    24.619545 
138288000    275.69249    393.22628    312.60599   -21726.894    21734.788    80.620288    24.613802 
138292000    316.81369    364.60354    378.58636   -21755.693    21754.874   -13.982822    24.642156 
138296000    275.96114     379.4806    280.79457    -21812.35    21811.326    98.686032    24.674165 
138300000    268.20527    347.42237     351.8622   -21836.416    21858.888   -4.4398368    24.649491 
138304000     287.0376    259.95029    179.95854   -21900.763    21899.326     79.99175    24.606827 
138308000    293.57907    359.09284    355.11263   -21952.017    21948.709    3.9802081     24.65358 
138312000     309.9808    467.82521    349.17564   -21998.117    21990.491    118.64957    24.631695 
138316000    276.98674    258.28988    448.05667   -22020.618    22032.365   -189.76679    24.578748 
138320000    252.42605    381.82592    269.88546   -22036.602    22069.974    111.94046    24.526626 
138324000     248.5664    474.98424    213.56208    -22101.42    22119.529    261.42216    24.557996 
138328000    263.02948    360.68958    328.26432   -22080.731    22109.927     32.42526    24.553713 
138332000    272.30947    370.20315    327.50253   -22114.171    22123.377    42.700628    24.585351 
138336000    276.15379    471.81576    173.54375   -22140.031    22154.616    298.27201    24.589503 
138340000    291.27997    404.68059    294.62117   -22172.742    22181.947    110.05942    24.636891 
138344000    266.81016    255.48143     322.6482   -22201.201     22233.13   -67.166768    24.689664 
138348000    278.87582    377.37813    277.37655   -22244.782    22240.141    100.00157     24.67661 
138352000    286.61357    397.03278     344.6426   -22284.851    22279.773    52.390182    24.718061 
138356000      304.454    154.33347    402.78282   -22337.405    22318.702   -248.44935    24.686881 
138360000    286.57146    447.40343    439.41094   -22383.168    22386.878    7.9924862    24.665143 
138364000    257.36887    365.95746    370.12619   -22433.669     22452.27   -4.1687313    24.660308 
138368000    269.98039    263.54185    409.41911    -22494.09     22507.27   -145.87726    24.642662 
138372000     262.7322    264.30029    194.69871    -22530.89    22556.011    69.601579    24.647277 
138376000     297.0163    326.66798    251.16315   -22598.558    22600.155    75.504834    24.625308 
138380000    298.91261    316.71344    595.51293   -22651.402    22652.184   -278.79949    24.605184 
138384000    281.72924    355.81828    390.37956   -22683.074    22700.387    -34.56128     24.58172 
138388000    288.97451    370.26798    207.99178   -22712.039    22711.018     162.2762    24.574512 
138392000    314.36197    393.28836    435.71384   -22770.398    22763.806   -42.425475    24.581772 
138396000    266.05921    258.46951    249.19972   -22821.833    22845.968    9.2697838    24.577921 
138400000    294.87536    340.35435    518.19716   -22890.599    22885.396   -177.84281    24.563115 
138404000    300.49025    388.02362    456.10798   -22945.191    22932.203   -68.084356    24.591809 
138408000    281.55149    420.35873    212.17805   -22977.815     22977.11    208.18067    24.600528 
138412000    279.79784    311.88993    265.26417   -23013.488    23036.178    46.625757    24.588511 
138416000    260.73937    383.79954    374.10781   -23044.955    23068.202    9.6917284    24.615916 
138420000    301.47877    202.50354    211.22042       -23101    23101.938   -8.7168816    24.667542 
138424000    283.58421    436.83431     333.8126   -23119.704    23121.596     103.0217    24.618254 
138428000    291.27886    399.24136    505.49008   -23185.072    23180.948   -106.24872    24.620333 
138432000    280.11016    276.40205    375.91899   -23242.066    23253.384   -99.516945    24.604502 
138436000    296.97996    427.37839    226.74864   -23286.679    23281.691    200.62975    24.583754 
138440000    272.52328    220.87412    279.22401   -23310.947    23334.418   -58.349887    24.593883 
138444000    220.42737     334.5244    258.06244   -23362.364    23394.538    76.461954    24.533132 
138448000    274.99621     257.5444    449.33643   -23398.352    23407.127   -191.79203    24.561772 
138452000    278.55111    353.39281    303.79598   -23438.482    23446.904    49.596825    24.516965 
138456000    270.35091    384.44059    319.25291   -23469.901    23483.674    65.187679    24.521223 
138460000    282.78957    294.65333       396.85   -23479.164    23501.468   -102.19667    24.475466 
138464000    280.36199    426.30628     324.5378   -23491.551    23500.612    101.76847    24.458697 
138468000    284.84989    337.52567    299.63291   -23533.512    23542.813    37.892754    24.403536 
138472000    268.46237    226.57473    315.00206   -23573.787    23603.704   -88.427335    24.413804 
138476000    311.81642    222.38391    278.78681   -23651.357     23640.02     -56.4029    24.384097 
138480000    279.97308    238.19072    371.85301   -23690.239    23701.081   -133.66229    24.378698 
138484000    265.44175    243.90232    238.62886   -23696.401    23716.609    5.2734635    24.408484 
138488000    293.31702     454.6574    290.32033   -23770.077    23785.577    164.33707    24.415269 
138492000    268.09255    218.48622    310.18026   -23798.884    23820.749   -91.694046    24.453046 
138496000    271.78749    533.15558    285.30895   -23847.093    23864.588    247.84663    24.525011 
138500000    301.69448    371.30042    275.92263   -23899.712    23879.578    95.377799    24.453975 
138504000    270.43675    300.03559    216.60233   -23946.388    23953.922    83.433255    24.452742 
138508000    263.67087    359.06069    363.07381   -23997.931    24010.125   -4.0131226    24.466668 
138512000    284.92446    373.98257    286.62274   -24041.878    24052.888    87.359836    24.474893 
138516000     260.5099     349.7485    319.19337   -24060.481    24060.121    30.555128    24.511457 
138520000    315.40848    350.01432    426.35407   -24094.619    24079.524   -76.339747    24.540331 
138524000    281.15008    317.84181    417.65909   -24139.903    24138.685   -99.817277    24.530967 
138528000    291.70826    484.75109    174.59946   -24236.425     24249.39    310.15162    24.554273 
138532000    286.40644    427.13843    341.01388   -24289.395    24280.776    86.124549    24.543883 
138536000    268.51622    250.35257    304.66923   -24324.637    24324.805   -54.316665     24.50545 
138540000    271.98889    381.57869    478.84519     -24355.2     24372.03   -97.266507    24.521834 
138544000    307.83298    342.41075    646.48629   -24421.349    24414.611   -304.07554    24.467243 
138548000    290.72667    315.41246    380.47514   -24453.174    24441.197   -65.062672     24.44772 
138552000    260.44442    239.45641    390.94897   -24484.332    24512.977   -151.49256    24.388433 
138556000     247.4548    323.75372    287.96064   -24536.563    24562.068    35.793082    24.393518 
138560000    298.49554    326.91762    273.85599   -24579.115    24581.896    53.061634    24.381372 
138564000    277.14588    280.16274    305.22354   -24586.666    24615.216     -25.0608    24.422834 
138568000    251.42844    429.50528    188.51089   -24573.756    24601.065    240.99439    24.405957 
138572000    274.03114    188.12709    336.35254   -24596.732    24605.738   -148.22545    24.385181 
138576000    274.45599    295.19434    312.85052   -24632.631     24640.72   -17.656179    24.375524 
138580000    272.29462    357.29904     230.9168   -24676.244    24692.538    126.38224    24.432905 
138584000     323.8891    438.07273    392.91094   -24734.942    24709.924    45.161783    24.398016 
138588000    273.48657    470.77132    449.62448   -24747.241    24767.104     21.14684    24.445648 
138592000    281.41866    308.21927    398.36501   -24766.061    24769.753   -90.145737    24.490613 
138596000    292.80103     258.7487    284.62789   -24792.352    24806.172   -25.879188    24.484256 
138600000    282.90578    265.19503    274.70161   -24832.462    24823.564   -9.5065733    24.480947 
138604000    297.77535    371.92203    311.71898   -24859.948    24855.383    60.203059    24.527336 
138608000    283.17331    362.29435    232.74651   -24894.622    24882.563    129.54784    24.482337 
138612000    262.41101    195.18255    339.33089   -24904.543     24914.17   -144.14834    24.562856 
138616000    259.02129    253.49849    174.90034    -25003.37    25004.221    78.598151    24.499408 
138620000    295.03554    352.29456     235.0391   -25039.665    25049.376    117.25546    24.515628 
138624000    242.46282    362.35299    151.33353   -25053.515    25074.045    211.01946    24.518547 
138628000    271.29314    319.13021    374.09062   -25083.515    25094.048   -54.960413    24.508295 
138632000    273.41133    507.74248    359.05534   -25152.811    25159.297    148.68714    24.493904 
138636000    283.53545    368.67155    252.90802   -25174.834    25203.014    115.76354    24.521955 
138640000    278.88629    480.87533    390.02254   -25231.421    25229.374    90.852788    24.572578 
138644000    268.46685    324.14711    339.65577   -25291.055    25297.009    -15.50866    24.559188 
138648000    272.33564     407.3989      292.113   -25308.813    25307.066     115.2859    24.557822 
138652000    307.25695    282.94999    447.90084    -25329.12    25319.744   -164.95085    24.509823 
138656000     276.0248    331.11856    241.62975   -25349.317    25370.627    89.488811     24.50739 
138660000    259.39984    304.00744    326.22356   -25382.145    25411.621   -22.216114    24.443129 
138664000    294.55261    333.85604    296.80256   -25458.061    25443.949    37.053484    24.478674 
138668000    288.53757     344.5409    389.60209   -25491.638    25498.701   -45.061192    24.501185 
138672000    264.49081    320.37968    423.18733   -25558.765    25573.871   -102.80764    24.456788 
138676000    300.64151    425.89153     370.6901   -25619.726    25596.499    55.201428    24.470717 
138680000    275.30301    213.10497    439.02144   -25666.217    25662.851   -225.91647    24.462086 
138684000     275.9671    411.21432    335.41742   -25692.852    25703.061    75.796902    24.472817 
138688000    291.55935    406.77632    394.18989   -25730.323    25735.017    12.586434    24.501274 
138692000    280.49205    251.11479    207.14409   -25794.075    25806.879      43.9707     24.51386 
138696000    274.13955    400.73209    269.58284   -25813.946     25827.44    131.14925    24.489585 
138700000    293.27552    257.18884    370.18463   -25861.679    25861.525   -112.99579    24.510414 
138704000    283.63492    374.03312    423.31269   -25909.857    25933.301   -49.279575     24.49343 
138708000    275.86518    378.88913    271.12075   -25976.182    25976.242    107.76839    24.443999 
138712000    321.50679    375.95766    281.22441   -26044.822    26027.666    94.733251    24.481648 
138716000    284.55664    350.56165    256.91767     -26090.5    26088.621    93.643975    24.471148 
138720000    254.21945    357.89377    208.05539   -26130.479    26157.135    149.83839     24.46883 
138724000    297.11047    361.96262    351.85848   -26169.507    26176.328    10.104144    24.460865 
138728000    270.60387    403.15125    152.97929   -26230.211    26243.281    250.17196    24.428697 
138732000    285.13109    404.19984    224.72819   -26266.212    26269.129    179.47166    24.405016 
138736000    290.91073    293.70147    391.02774   -26328.073    26337.519   -97.326269    24.442076 
138740000    285.90387      399.595    233.89756   -26338.453    26353.484    165.69743    24.411526 
138744000    257.37434    325.48973    187.31078   -26372.524    26393.519    138.17894    24.389985 
138748000    257.74886    265.56323    371.64889   -26403.073     26434.63   -106.08566    24.381806 
138752000    275.70872    239.24775    372.38311   -26463.576    26472.641   -133.13536    24.393829 
138756000    269.62657    350.57015     380.0368    -26518.48    26524.804   -29.466655    24.476406 
138760000    286.43107    326.30318    300.55764   -26575.171    26593.904    25.745548    24.472598 
138764000    298.30572    351.71467    263.17651   -26612.039    26624.774    88.538162    24.500679 
138768000    293.68639     218.8753    474.08438   -26643.021    26644.477   -255.20908    24.495726 
138772000    275.55395    378.29903    486.57356   -26671.232    26674.436   -108.27452    24.472951 
138776000    292.31377    346.12627    314.25635   -26685.706     26711.06    31.869916    24.433836 
138780000    282.95046    668.49059    398.04444   -26712.767    26726.244    270.44615    24.437124 
138784000    293.61181    354.52026    281.84584   -26763.457    26775.364    72.674423    24.485645 
138788000    304.59841    353.44132    251.33713   -26784.598    26781.511    102.10419    24.510235 
138792000     277.8872    326.89974    320.35461   -26851.021    26848.799    6.5451328    24.520098 
138796000    298.75506    382.45469    335.20899   -26891.996    26883.365    47.245696     24.51975 
138800000    280.59277    303.27858    321.34446   -26924.296    26930.542    -18.06588    24.523671 
138804000    270.59777    377.27988    219.29537   -26955.263    26983.385    157.98451    24.492904 
138808000    281.39438    650.93744    198.32493   -27031.402    27033.657    452.61251    24.481671 
138812000    285.93124    291.81495     360.1233   -27062.712    27058.947   -68.308345     24.49532 
138816000    300.15858    515.25713    429.04802   -27097.409    27091.112     86.20912    24.489412 
138820000     298.1655    353.14488    431.39195   -27138.936    27140.148   -78.247078    24.478625 
138824000    283.64675    409.84422    509.80908   -27138.433    27136.391   -99.964859    24.483619 
138828000    255.96911    278.64131    246.82687   -27146.122    27162.774    31.814438    24.487707 
138832000    264.71287    421.26043    317.13685   -27192.154    27202.314    104.12358    24.431194 
138836000    234.72701    250.89397    308.71341   -27258.127    27301.881   -57.819444     24.43179 
138840000    274.20425    260.36896    319.94201   -27315.794    27345.542   -59.573053    24.427174 
138844000    257.59142    367.85881     307.7552   -27341.024    27372.281    60.103615     24.43855 
138848000    283.31006     430.3816    157.27229   -27417.883    27445.497    273.10931    24.456503 
138852000    299.69959     495.6261    363.89401   -27499.442    27500.241    131.73209    24.423874 
138856000    273.31933    532.83125    302.61095   -27532.263    27545.053     230.2203    24.384786 
138860000    267.23863    269.87621    247.20588   -27564.857    27584.236    22.670332    24.369932 
138864000    279.44025    275.84229    255.62742   -27574.849    27594.549    20.214868    24.370628 
138868000    282.24499    386.17535    318.60038   -27586.982    27577.862    67.574964    24.375464 
138872000    280.50872    373.30156     342.3609    -27602.79    27590.164    30.940663    24.346727 
138876000    263.42171    329.42727    321.77179   -27600.305    27637.562    7.6554737    24.351074 
138880000    251.44513     370.7854    305.90467   -27652.649      27681.2    64.880722    24.316106 
138884000    284.54937    385.67265    483.78379    -27696.42    27697.221   -98.111136    24.319393 
138888000    299.37358    606.52527    470.43316    -27699.94    27706.823     136.0921    24.319643 
138892000    285.71751    294.81787    291.78088   -27728.194    27744.047     3.036993    24.299483 
138896000    283.62072    347.35894    260.38537   -27761.258    27759.104    86.973573    24.290117 
138900000    269.59995     230.2265    314.89797   -27781.795     27783.94   -84.671468    24.323326 
138904000    266.17037    321.41991     315.2742   -27801.268    27828.277    6.1457143    24.367992 
138908000    289.31135     371.6283    209.32221   -27858.782    27882.953    162.30609    24.345447 
138912000    290.39446    363.25792    461.78709   -27899.579    27910.242   -98.529176    24.363095 
138916000    287.11327    333.50129    411.55866   -27973.577    27976.312   -78.057373    24.376796 
138920000    295.79261    357.04278    215.57499   -28054.981    28034.463    141.46779    24.350486 
138924000    281.31055    511.05744    413.20987   -28072.712     28085.14    97.847568    24.324459 
138928000    255.93036    397.61265     281.0576   -28126.094    28127.606    116.55506    24.374672 
138932000    291.82844    415.09651    370.84527   -28163.803    28168.401    44.251237    24.350785 
138936000    266.96036    342.00987    323.87311   -28201.749    28218.826    18.136754     24.35411 
138940000    302.94638    436.95055    434.67273   -28235.516    28238.872    2.2778205    24.329871 
138944000    312.79577    353.21031    335.78346   -28289.384    28291.395    17.426848    24.303888 
138948000    291.25831    265.43724    284.66045   -28342.529    28355.137   -19.223209    24.339196 
138952000    317.19718    370.11359    299.58538   -28411.823    28395.309     70.52821    24.349373 
138956000    301.22276    287.54252    436.30005   -28476.821      28464.1   -148.75753    24.338664 
138960000    278.52695    270.94759    222.25057   -28502.933    28517.907     48.69702    24.369955 
138964000    269.98282    407.76065    223.36679   -28527.269    28561.485    184.39386    24.361846 
138968000    290.92557    330.10004     251.7148   -28602.931    28621.055    78.385248    24.393483 
138972000    293.25013    360.94257    448.31006   -28668.305     28669.43   -87.367481    24.365199 
138976000    273.14413    383.32348    256.47467   -28697.495    28719.413    126.84881    24.363208 
138980000    278.25317    242.52264    156.36693   -28748.277    28767.144    86.155714    24.361941 
138984000    293.64599    427.04173    350.97191   -28827.274     28821.04    76.069822     24.32981 
138988000     285.0024    363.47465    228.43322   -28918.085    28917.294    135.04143    24.347541 
138992000    310.68012     328.1535    244.23655   -28967.327    28964.124    83.916948    24.365244 
138996000    288.01576    295.49307    275.06815   -28990.225    29000.043    20.424923    24.412298 
139000000    269.90863    325.81497    197.43953   -29048.722    29080.238    128.37544    24.409478 
139004000    274.96072    414.53626    357.22004   -29105.806    29125.087    57.316221    24.386849 
139008000    263.78163    265.80429    367.20356   -29133.845     29153.87   -101.39927    24.387248 
139012000     290.9542    256.30697     408.0579   -29155.486    29162.539   -151.75093    24.405345 
139016000    296.50131    414.16319    275.17255   -29186.206    29188.376    138.99064    24.374782 
139020000     295.8732    513.09076    261.83387   -29237.905    29255.739    251.25689    24.371078 
139024000    274.47829    437.58922    455.32212   -29290.905    29306.007   -17.732903    24.357992 
139028000    289.43843     370.9562    298.18005   -29315.698    29323.118     72.77615    24.348893 
139032000    312.72032    450.53034     322.5062   -29367.031     29357.71    128.02414    24.333598 
139036000    301.73999    363.75634    278.07831   -29393.895    29383.184    85.678021    24.294976 
139040000    296.91438    309.19145    256.84837   -29421.451    29428.159    52.343077    24.275735 
139044000    254.90218    270.79144    389.91426   -29452.752     29499.42   -119.12282    24.241707 
139048000    271.80468    215.88406    384.59841   -29531.155    29553.993   -168.71435    24.227817 
139052000    272.54769    435.84531    414.69257   -29590.965     29610.48    21.152745    24.215507 
139056000    293.88328    291.45366    465.06715   -29634.408     29656.78   -173.61349    24.181868 
139060000    276.61597     352.1207    392.50333   -29684.962    29701.214   -40.382623    24.171996 
139064000    266.99526    247.18869    380.80391   -29713.228    29730.726   -133.61523    24.165853 
139068000    271.09041    387.75863    221.39864   -29753.253    29766.683       166.36     24.15473 
139072000       269.64    187.28326    323.86608   -29796.567    29814.412   -136.58282    24.192757 
139076000    303.48356    332.08209    372.74719   -29858.572     29854.61   -40.665105    24.190225 
139080000    299.17149    315.79686     304.9662   -29884.251    29896.358    10.830653    24.217222 
139084000    271.44379    438.30569    268.46687   -29908.503    29939.416    169.83882    24.249947 
139088000    283.35345    204.72933    337.48824   -29980.812    29987.215   -132.75891    24.215834 
139092000    273.63206     357.4732    306.82984   -30007.716    30038.681    50.643359    24.187374 
139096000    289.25848    253.05521    308.32104   -30049.283    30056.411   -55.265825    24.237467 
139100000    288.78604    309.03005    281.29184   -30123.414    30138.468    27.738218    24.220086 
139104000    269.28333     396.2019    302.43516   -30188.029    30210.992    93.766735     24.26086 
139108000    294.52034    292.65888    297.32742   -30225.981    30225.765    -4.668549    24.233007 
139112000    287.00389    372.70854    221.81558   -30265.424    30270.799    150.89296    24.231377 
139116000    265.61066    252.47992    138.31375   -30301.057    30320.959    114.16617    24.243567 
139120000    283.55633    418.81312    286.17749   -30381.486    30384.755    132.63564    24.268732 
139124000    275.56177    233.77088    291.66154   -30367.315    30388.801   -57.890658    24.235027 
139128000    268.35821    371.35152    397.25251   -30456.242    30472.297   -25.900991    24.229298 
139132000    283.81259    407.20262    328.52852   -30477.954     30497.55    78.674104    24.199427 
139136000    266.59216    447.05118    138.21429   -30520.789    30547.978    308.83688     24.18806 
139140000     288.8908    183.75978    387.16004   -30545.359    30555.062   -203.40026    24.148842 
139144000    298.48441    393.70459    398.70508   -30622.714    30609.719   -5.0004906    24.160341 
139148000    293.83351    311.77343    534.13786   -30639.302    30649.285   -222.36443    24.157647 
139152000    293.99445    347.01028    355.82322   -30672.236     30694.17   -8.8129461    24.241887 
139156000    275.17945    399.93535    392.74611   -30708.407    30726.839    7.1892371    24.227977 
139160000    281.32066    449.76444    187.81619   -30732.333     30729.38    261.94825       24.279 
139164000    281.72053    293.45859    478.14343   -30781.057    30797.403   -184.68484    24.257135 
139168000    305.49552    296.64679    300.55983     -30834.1    30837.427   -3.9130365    24.258169 
139172000    319.55576    281.49331    301.20423   -30886.456    30888.504   -19.710919    24.289757 
139176000    297.62654    637.40788    234.86551   -30942.596     30935.22    402.54237    24.338912 
139180000    270.69321    387.39794    195.61189   -30940.432    30962.357    191.78605    24.357836 
139184000    270.66573    287.01281     206.1325   -30983.653    31003.911    80.880311    24.349424 
139188000     264.6069    390.69099    323.50631   -30998.748    31011.677    67.184677    24.301601 
139192000     296.7647     423.0306     339.6663   -31048.598    31050.537    83.364302    24.328069 
139196000    289.37285    211.12175    334.99779   -31068.947      31077.7   -123.87604    24.352937 
139200000    302.03688    280.25669    406.15577   -31095.974    31086.463   -125.89908    24.349833 
139204000    278.59011    404.97433    299.07788   -31135.756    31162.011    105.89645    24.375731 
139208000    298.55365    440.07152    317.43829   -31174.466    31186.468    122.63323    24.357905 
139212000    281.99942    349.72887     196.8551    -31220.21    31236.384    152.87377    24.339151 
139216000    294.24614    477.69491    487.07123   -31292.258    31299.947   -9.3763199    24.315883 
139220000    233.63068    207.51808    193.23643   -31302.267    31351.646    14.281646    24.346844 
139224000    262.47027     419.8235    355.32379   -31380.595    31393.792    64.499708    24.357614 
139228000    299.31618     519.2664    379.81709   -31463.138    31442.526    139.44931    24.299274 
139232000    281.31322    268.54633    313.03936   -31476.457    31488.652   -44.493026    24.319568 
139236000    274.68572    269.14637    294.26159   -31494.774    31527.624   -25.115218    24.331867 
139240000    286.46936    448.89238    201.25123   -31542.749    31560.578    247.64115    24.296519 
139244000     237.2247    306.10555     374.3136   -31557.868    31583.306   -68.208055    24.320939 
139248000    266.95197     264.7106    309.80487   -31590.517    31610.125   -45.094271    24.249908 
139252000    267.44586    335.05899    203.62102       -31631    31659.001    131.43797      24.2716 
139256000    295.11818    205.01723    440.25497   -31649.141    31672.107   -235.23774    24.283475 
139260000    293.08498    384.07694    463.41957   -31706.084    31713.855   -79.342636    24.289076 
139264000    302.99662    223.53506    300.03393   -31773.452    31786.451   -76.498875    24.277912 
139268000    299.28405    326.76642     215.1754   -31816.239    31799.145    111.59102    24.249126 
139272000    274.57338    201.88715    287.93867   -31853.526    31883.127   -86.051524    24.237053 
139276000     246.1195    349.77678    490.10492   -31879.919     31924.77   -140.32814    24.240152 
139280000    264.48231    349.61147    294.86747   -31884.592    31917.195    54.744006    24.243453 
139284000    276.93338    417.91395     384.5686   -31934.679    31949.814    33.345352    24.254318 
139288000    292.68856    254.57619    406.36642   -31995.861    31987.262   -151.79023    24.253263 
139292000    279.41537    263.67141      420.041   -32020.098    32025.244   -156.36959    24.242492 
139296000    289.95376    213.64458    261.84361   -32042.839      32048.6   -48.199027    24.196517 
139300000     289.5658    383.61073    299.26726   -32029.629    32064.365    84.343462    24.164458 
139304000    269.45427    281.74542    459.34407   -32055.567    32078.385   -177.59865    24.100033 
139308000    257.32272    226.13581    249.84381   -32070.139    32096.574   -23.708003    24.088276 
139312000    271.26396    357.19207    450.54282   -32090.399    32123.712   -93.350748    24.071738 
139316000    290.06016    360.32544     317.2525   -32132.115    32145.592    43.072938    24.111065 
139320000    280.02896    425.90645    350.70099   -32189.688    32210.379    75.205456    24.139155 
139324000    279.73929    436.09967    120.27946   -32236.798    32267.204     315.8202    24.162186 
139328000     285.6086    381.93046    429.32651   -32286.052    32284.899   -47.396045    24.144873 
139332000    262.80856     274.3427    394.13074   -32296.613    32335.172   -119.78804    24.112735 
139336000    283.65274    347.98284    342.13359   -32348.669    32365.433    5.8492484    24.125005 
139340000    271.71872    351.48516    347.84285   -32396.102    32421.697    3.6423096    24.098378 
139344000    285.59137    349.79058    200.73798   -32456.595    32474.349     149.0526    24.075633 
139348000    235.87711    274.45111    176.29963   -32541.759    32580.742    98.151482    24.108759 
139352000    259.47594    494.16065    285.65984    -32578.05    32606.978    208.50082    24.110718 
139356000    281.50417    449.15056    556.50484   -32614.714    32632.792   -107.35427    24.112475 
139360000    261.64096    362.01117    271.45149   -32647.807    32668.189    90.559684    24.124067 
139364000    300.52399    344.11941    377.71362   -32717.265     32725.41   -33.594218    24.112744 
139368000    272.12479    250.13623    219.70985   -32755.238    32766.837    30.426382    24.166275 
139372000    269.29343    277.27239    530.79692   -32773.397    32783.269   -253.52453    24.201227 
139376000    283.56436    206.06787    453.66312   -32821.942    32820.827   -247.59526    24.198054 
139380000    250.83003     381.4439    270.67529   -32831.631    32873.566    110.76861     24.22377 
139384000    256.50717    189.73807    318.38213   -32859.233    32893.477   -128.64406    24.192149 
139388000    255.23596    289.40131    214.78171   -32922.977    32955.643    74.619603     24.20833 
139392000    237.52783    230.01688    282.38535   -32975.374    33003.038   -52.368469    24.207262 
139396000    293.07014     264.0889    354.96573   -32976.106    32988.379   -90.876822    24.247169 
139400000    311.03126    386.75002    288.87502   -33050.139    33043.387    97.875006    24.247783 
139404000    267.32589    195.15623    265.21745   -33092.752    33098.053   -70.061218    24.219452 
139408000    276.52236    256.22655    229.57434   -33164.528    33163.628    26.652207    24.224326 
139412000    274.40964    191.56057     383.8252   -33206.264     33229.24   -192.26463    24.198274 
139416000    279.88967    305.76536    307.67406   -33274.641    33296.573   -1.9087033    24.240382 
139420000    266.86495    369.76067    495.60669   -33334.343    33353.367   -125.84602    24.233556 
139424000    260.58293    343.71466     302.1764   -33341.831    33372.775    41.538269     24.17386 
139428000     274.1882    464.59766    379.40029   -33400.776    33402.567     85.19737     24.17035 
139432000    289.82187    362.93449    262.13425   -33453.059    33455.942    100.80024    24.172073 
139436000    273.19471    510.06539    245.92607   -33530.309    33537.801    264.13931    24.186446 
139440000    272.76295    197.15142    237.05591   -33559.483    33582.746   -39.904494    24.186522 
139444000    294.14125    415.23941    361.70544   -33664.255    33650.956    53.533969    24.187005 
139448000    266.94269    301.44335    284.32261    -33699.01    33732.029    17.120738    24.229631 
139452000    285.75586    373.28741     457.2255   -33758.109    33767.699   -83.938083    24.231001 
139456000    290.19838     386.3403    257.68539   -33787.138    33792.268    128.65492    24.267578 
139460000    288.18656    367.91802    492.72071   -33816.401    33827.094   -124.80269    24.269465 
139464000    294.16464    783.77624    431.40821   -33858.692    33871.925    352.36803    24.258267 
139468000    261.43991    425.49646     297.6206   -33891.227    33914.194    127.87586    24.249545 
139472000    282.07932    436.75294    217.06833   -33927.101    33941.446    219.68461    24.279272 
139476000    273.20706    402.91268    195.68651    -33986.12     33999.94    207.22617    24.292704 
139480000    271.68304    249.26331    284.84434   -34044.913    34067.618   -35.581037    24.288835 
139484000    298.40087     313.7301    385.76554    -34094.29    34068.866   -72.035433    24.306948 
139488000    267.89144    166.51252    320.47414   -34089.003    34118.826   -153.96162     24.30917 
139492000    269.88255    370.50928    263.44625   -34153.104    34157.132    107.06303    24.271179 
139496000     278.9332    391.70141    309.00732   -34197.083    34196.392    82.694084    24.271243 
139500000    307.90765    280.30463    515.82106   -34249.416    34232.563   -235.51644    24.249783 
139504000     296.2038    217.31767    300.56905   -34271.944    34270.994   -83.251381    24.256554 
139508000    313.38903    235.38332    333.60088    -34271.91    34279.774   -98.217553    24.234454 
139512000    267.09793    418.06479    354.89507   -34295.189    34316.181    63.169713    24.297314 
139516000    310.58901    437.01407    375.34983   -34340.556    34355.705    61.664247     24.28895 
139520000    307.17123    405.47122    388.59803   -34374.396     34363.87    16.873191    24.319757 
139524000    284.38354    261.32174    254.54771   -34413.258    34421.251    6.7740325    24.319611 
139528000    269.94957    268.49949    266.41149     -34437.7    34457.889    2.0879988    24.319592 
139532000    296.19032    394.29824    186.23201   -34493.368    34499.477    208.06623     24.32797 
139536000    261.28699    299.38223    333.11886   -34481.971    34501.649   -33.736637    24.346462 
139540000    280.53524    287.19706    259.77569   -34498.739    34515.847    27.421365    24.396953 
139544000    263.28954    284.91637    399.28804   -34526.778    34555.874   -114.37167      24.3743 
139548000    310.37343    266.62011    443.63466   -34572.686    34562.604   -177.01455    24.380909 
139552000    273.39082    320.93829    392.15446    -34585.93    34596.075   -71.216173    24.386029 
139556000    267.77692    283.81048    310.69023   -34644.496    34662.491   -26.879744    24.416681 
139560000    300.04645    342.38002    480.75667   -34675.695    34679.625   -138.37665    24.425356 
139564000    293.65002    479.20645    319.27668    -34751.68    34752.252    159.92978    24.416663 
139568000    296.14429     397.2578    283.22693    -34794.15    34798.096    114.03086    24.455319 
139572000    278.24353    290.95626    346.62525   -34798.717    34807.232   -55.668998    24.472174 
139576000    276.20134    264.29777    415.40492   -34816.395    34824.308   -151.10715    24.463923 
139580000    277.30659    416.01293    478.67093   -34868.831    34902.337   -62.657994    24.464896 
139584000    281.46643    341.55727    405.14767   -34904.063    34912.837   -63.590396     24.48282 
139588000    339.29766    437.76272    184.79724   -34952.484    34933.937    252.96548    24.463288 
139592000    312.56778    371.35112      442.596   -34985.066    34989.003   -71.244872    24.488378 
139596000    279.79593    229.84793    265.83174   -34999.068    35016.738   -35.983809    24.505177 
139600000    280.34163    305.86383    239.27702   -35058.444     35055.37    66.586811    24.477884 
139604000    289.36317    338.90123    334.05705   -35093.568    35108.707    4.8441759    24.488635 
139608000    263.51567    217.18495    286.87712   -35137.713    35161.352   -69.692175    24.481395 
139612000    285.81286    317.87579    473.44188   -35174.889    35189.916   -155.56609    24.458955 
139616000    327.43533    633.03206    543.30302   -35234.327    35201.172    89.729036    24.445819 
139620000    298.72199    545.92287    258.35712   -35269.899    35253.453    287.56575    24.489555 
139624000    258.68207    243.43887    189.89441   -35279.609    35292.029    53.544465    24.490505 
139628000    278.91017     214.9385    439.76664   -35320.339    35321.302   -224.82815    24.457737 
139632000    271.17471    255.39004     248.0665   -35386.068    35401.239    7.3235363    24.474079 
139636000    278.96982    355.62027    442.04567   -35407.701    35412.811   -86.425401    24.460946 
139640000    277.51266    341.78696    368.72621   -35437.918    35470.233   -26.939251    24.462871 
139644000    265.60729    264.63677    321.42555   -35462.238    35469.843   -56.788783    24.457189 
139648000    306.39052    286.39143    339.22428   -35511.945    35511.128   -52.832843    24.504135 
139652000    281.25367    344.07753    265.47772    -35519.56    35531.203    78.599812    24.508159 
139656000    292.79508    388.38991    246.86884   -35561.647    35568.075    141.52107    24.514354 
139660000    305.29915    330.37352    442.56936   -35610.573     35619.76   -112.19584    24.517859 
139664000    300.92888    341.33434    333.81817   -35651.247    35636.729    7.5161694    24.521059 
139668000    273.96341    413.53084    456.25716   -35647.265    35659.872   -42.726318    24.525733 
139672000    296.85502    293.56974    360.63235    -35684.53    35696.663   -67.062611    24.520423 
139676000    252.64376    500.86286    338.54233   -35726.522    35764.567    162.32053    24.509325 
139680000    287.61681     325.9197    345.12076     -35778.9    35797.136    -19.20106    24.492644 
139684000    275.38992    475.73452    267.53135   -35774.595    35796.374    208.20317    24.442833 
139688000    260.89341    407.16673    415.03039   -35815.444    35829.503   -7.8636615    24.422026 
139692000    307.22228    312.89241    199.61874   -35865.269    35863.753    113.27368    24.400792 
139696000    267.79248     257.9797    358.24337   -35897.585    35925.992   -100.26368    24.398395 
139700000    310.07673     475.8729     447.6647   -35948.907    35953.496    28.208197    24.338517 
139704000    277.42541     337.6933    301.57228   -35978.205    36011.694    36.121019    24.327124 
139708000    275.50671     388.9328     351.7469   -36022.737    36038.818    37.185902    24.340343 
139712000    285.90999    361.38921    196.49981   -36057.185    36080.152     164.8894    24.323992 
139716000    284.43739    243.37485    371.74173   -36120.611    36148.082   -128.36688    24.318943 
139720000    283.55152    395.58144    213.26733   -36195.588    36203.555    182.31412    24.344224 
139724000    271.55585    263.50727    214.70451   -36237.074    36255.047    48.802766    24.379847 
139728000    242.74416    273.64935     295.4506   -36255.928    36298.995   -21.801255    24.379524 
139732000    289.78223    203.17768    307.14899   -36301.178    36324.081   -103.97131    24.368403 
139736000    273.33707    277.86547     374.1043   -36328.205     36347.43   -96.238833    24.348328 
139740000     282.3411    361.76826     313.5652   -36399.503    36407.767    48.203066    24.357234 
139744000    279.99418    308.75629    315.63581   -36418.936    36449.837   -6.8795265    24.351629 
139748000    290.02359    306.86351    449.05631   -36454.618    36468.093    -142.1928    24.349678 
139752000     269.0277    227.51497    354.34866   -36454.173    36462.841   -126.83369    24.342372 
139756000    252.94073    402.01601    246.34006   -36498.147    36529.769    155.67595    24.357253 
139760000    293.76664    367.81892    328.07166   -36527.831    36541.341    39.747257    24.376836 
139764000    276.56828     386.4832    163.31706   -36582.908    36585.675    223.16614    24.385969 
139768000     287.5278    358.70432    397.15252   -36612.752    36620.112   -38.448204    24.426354 
139772000    261.21832     397.4984    253.60077   -36664.744    36708.375    143.89763     24.39573 
139776000    275.85562    301.07133     254.1887   -36695.479     36696.33     46.88263     24.39328 
139780000    261.28881    288.17058    196.25103   -36706.543     36735.13    91.919548    24.421955 
139784000    295.86003     345.5936    152.43419   -36733.407     36733.05    193.15942    24.429161 
139788000    258.60499    280.51272    327.91881   -36762.105    36775.179   -47.406095    24.445051 
139792000    315.53522    348.06864    281.16489   -36815.274    36809.133    66.903757    24.436134 
139796000    278.37067     396.4733    296.62143   -36818.984    36827.687     99.85187    24.453428 
139800000    269.20714     122.5083    229.28116   -36857.605     36859.59   -106.77286    24.458825 
139804000    290.79738    486.62264    267.60767   -36873.467    36879.405    219.01497     24.47993 
139808000    284.21889    369.46475    465.92487   -36919.857    36919.595   -96.460118     24.49414 
139812000    310.22011    284.10517    368.66598   -36934.888    36946.278   -84.560808    24.479354 
139816000    280.57228    365.44277     290.0448   -36984.276    36991.912    75.397977    24.469984 
139820000    294.48407    549.07144    302.32246   -37007.136    37009.661    246.74898    24.502955 
139824000    265.02543    339.75988    236.78101   -37048.547    37049.678    102.97887    24.542404 
139828000    264.03342     245.4523    460.00435   -37099.715    37113.882   -214.55205    24.551979 
139832000    270.07337    246.22641    437.08933   -37154.989    37165.895   -190.86293    24.543666 
139836000     296.9252    379.45051    226.97151   -37183.845    37199.286    152.47899     24.55364 
139840000    315.33749    226.19878    487.36108   -37239.572    37237.777    -261.1623    24.582651 
139844000    317.80286    327.22499    295.68191   -37292.775    37272.389    31.543078    24.593638 
139848000    270.19317    333.83782    263.51261   -37303.264    37315.852    70.325206    24.596914 
139852000     274.5494    220.29604    215.89705   -37363.861    37357.451    4.3989919    24.580575 
139856000    266.96144     252.4216    295.38618   -37383.078    37378.916   -42.964576    24.599917 
139860000    275.78519      357.174    415.08037   -37388.157    37403.897   -57.906373    24.604404 
139864000     274.7309    157.30834    338.50375   -37438.029      37460.1   -181.19541    24.584672 
139868000    268.91867    356.50867    274.59122   -37488.954    37507.363    81.917457    24.604983 
139872000    262.74642    281.84032    377.87116   -37551.852    37574.346   -96.030831     24.56434 
139876000    313.06743    450.52516    307.77813   -37620.118    37632.585    142.74703    24.545052 
139880000    272.90826    445.60246    282.94339   -37647.306    37651.999    162.65906    24.581223 
139884000     249.7967    163.27009    236.16311   -37684.113    37698.721   -72.893019    24.575949 
139888000    284.84461    218.69516      274.998   -37772.489    37761.216   -56.302835     24.58738 
139892000    258.00829    266.23724    256.89825   -37783.638    37806.513    9.3389825    24.574399 
139896000    298.57842    203.16416    423.56128   -37870.508    37854.539   -220.39711     24.58135 
139900000    305.49208    368.62948    395.71105   -37896.932    37897.387   -27.081567     24.55199 
139904000    291.46354    318.35253    305.03208   -37925.344    37937.219    13.320455     24.54882 
139908000    269.96031    329.62325    448.18609   -37970.597    37988.753   -118.56284    24.523036 
139912000    263.57729    251.54512    314.20291   -37995.015    38018.307   -62.657797    24.528348 
139916000    307.23539    265.61728    375.08786    -38068.11    38061.449   -109.47057    24.533823 
139920000    256.12325    388.64091    245.57394   -38115.203    38122.233    143.06698    24.557303 
139924000    300.84129    368.09537    315.24149   -38177.302    38178.421    52.853879    24.548147 
139928000    276.90462    490.25553    295.50456   -38228.421    38251.545    194.75098    24.534369 
139932000    273.27828    336.11051    320.14943   -38282.872    38307.358    15.961072    24.508882 
139936000    268.45601    328.78384     352.0813   -38340.815    38345.787   -23.297465    24.518387 
139940000    289.89328    220.81554    294.87738    -38384.61    38400.477   -74.061842    24.488483 
139944000    330.79959    458.37681    444.73036     -38464.6    38433.282    13.646444    24.506759 
139948000    252.59853    326.69752    312.93883   -38466.785    38493.538    13.758687    24.495064 
139952000     261.9533    316.82462    274.77655   -38555.948    38564.112    42.048077    24.496856 
139956000     286.2172    544.05012    227.66816   -38572.381    38583.524    316.38196    24.498731 
139960000     308.6099    300.96826    413.62014   -38626.704    38611.728   -112.65188     24.49674 
139964000     296.3743    425.80679    414.42466   -38635.241    38630.216    11.382137    24.509782 
139968000    291.31949     417.8642    540.03369   -38660.456    38674.426   -122.16949    24.498629 
139972000     306.9404    336.13205    673.43192   -38714.726     38718.46   -337.29987    24.487197 
139976000    297.22596    338.54309    294.77047   -38768.092    38777.369    43.772621    24.498982 
139980000    270.47824    284.50771    363.88847   -38784.826    38809.832   -79.380755    24.467015 
139984000    294.13455    359.17168      233.923   -38824.163    38819.247    125.24867     24.51082 
139988000    300.23237    238.80055    211.97941   -38877.176    38885.171    26.821149    24.517747 
139992000    275.80653    403.82596    328.31934   -38922.084     38929.97    75.506619     24.51437 
139996000    264.93556    495.03466    204.26392   -38945.876    38968.795    290.77074    24.499059 
140000000    281.08057     342.9967    309.35554   -38960.144    38997.069    33.641155    24.535583 
140004000     236.2161    226.28929    230.26606   -38993.098    39035.217   -3.9767663    24.489493 
140008000    274.85392     237.8768    302.49612   -39040.554    39068.558   -64.619323    24.502608 
140012000    254.42803    183.61534    240.77331    -39068.68     39108.02   -57.157971    24.505417 
140016000    269.82732    258.46805    395.28153   -39135.427    39159.223   -136.81347    24.515037 
140020000    296.61952    456.75459    403.71939   -39179.311    39174.561    53.035198     24.53495 
140024000    291.22652    391.47026    240.09034   -39227.468    39230.144    151.37992     24.54653 
140028000    288.73417    390.58011    466.30142   -39252.465    39248.351   -75.721311    24.522423 
140032000    275.00373    418.66275    490.14894   -39288.348    39297.215    -71.48619    24.546443 
140036000    292.94061    385.28085    246.58136   -39302.603    39326.803    138.69949    24.580533 
140040000     254.1926    302.90355    245.15779   -39327.503    39342.647    57.745764    24.596492 
140044000    279.45322    251.16452    331.16642   -39369.776    39383.496   -80.001903    24.590015 
140048000    289.75932    354.23241    375.23832   -39391.091    39395.385   -21.005912    24.552026 
140052000    294.60518    346.25677    459.36625   -39445.577     39447.16   -113.10948    24.542535 
140056000    292.80524    375.20911    309.71738   -39483.304    39492.897    65.491736    24.528814 
140060000    281.00534    322.19798    496.22815   -39552.551    39546.912   -174.03017    24.531803 
140064000    275.24309    461.70137    288.93194   -39608.979    39619.747    172.76943     24.55085 
140068000    274.83771    412.98232    182.31082   -39637.005    39654.298    230.67149    24.525157 
140072000    288.32624    194.76662    314.02702   -39690.024    39677.808   -119.26041    24.551253 
140076000    288.59732    397.48499    377.81422   -39718.028    39722.779    19.670765    24.561297 
140080000    269.84979    311.71193    358.68201   -39763.381    39776.699    -46.97008    24.553898 
140084000    283.93618    490.48904    363.69715   -39807.928    39805.785    126.79189    24.554119 
140088000    273.27035    296.63656     235.6952   -39812.407     39834.34     60.94136    24.541275 
140092000     263.2993     162.0429    388.30601   -39853.343    39839.155   -226.26311    24.549736 
140096000    276.65766    434.41663    248.90247   -39877.801    39875.221    185.51415    24.564829 
140100000     280.6406    491.17505    260.80582   -39959.378    39959.574    230.36923     24.56735 
140104000     275.7982    280.48905     512.9227   -39980.802    39996.363   -232.43365    24.561379 
140108000    265.13035    389.23054    336.08861   -39993.752     40007.66    53.141928    24.529115 
140112000    257.24347    181.52239    404.47762   -39998.824     40037.01   -222.95523    24.572685 
140116000    311.13934    434.43762    483.01306   -40056.047    40056.553   -48.575439    24.519532 
140120000     296.0435    487.42853    375.65909   -40082.577    40083.434    111.76944    24.518973 
140124000    303.82596    413.77427    217.07623   -40107.759    40113.273    196.69805     24.52207 
140128000    280.00863    320.67267    391.33896   -40146.723    40155.471   -70.666283    24.509564 
140132000    288.83086    313.27395    348.09003   -40203.894    40220.879   -34.816083    24.469933 
140136000     297.9861    338.46261    291.40349   -40245.643    40240.276    47.059116    24.498027 
140140000    287.71036    431.71734    383.63539   -40276.026    40274.533    48.081955    24.528559 
140144000    272.51208    381.47403     212.8187   -40306.491    40304.933    168.65533    24.516979 
140148000    298.24583    242.50482    313.51961   -40345.879    40353.213   -71.014793    24.507345 
140152000    290.90926    564.89917    342.96012    -40373.85    40381.884    221.93905    24.489224 
140156000    251.00769    362.44531    323.71269   -40358.129    40392.812    38.732624    24.484136 
140160000    272.20866    254.07432     338.2878    -40392.57    40391.795   -84.213487    24.498432 
140164000    283.86701    390.03129    357.68467   -40415.408    40422.569    32.346617    24.513497 
140168000    282.41652     399.5268    377.81037   -40461.775    40462.822    21.716424    24.531582 
140172000    307.10174    449.03445    480.30007   -40536.491    40532.217   -31.265618    24.529054 
140176000    268.98235    428.07674    313.02888   -40568.155    40589.876    115.04786    24.511017 
140180000    252.42966    345.58467    257.50893   -40587.166    40612.147    88.075737    24.483445 
140184000    296.83629    387.35014     350.2156   -40642.313    40651.001    37.134535    24.464734 
140188000    280.42957    422.18647    400.61579   -40669.778    40688.982    21.570681    24.476182 
140192000    275.17282    281.20728    322.15114   -40680.107    40708.301   -40.943868      24.4678 
140196000    273.39505    455.05374    358.45379   -40725.475    40744.013    96.599956    24.511734 
140200000    271.59293    473.22152    413.97922   -40731.194    40756.515    59.242298    24.509415 
140204000     276.1469    293.73375    400.29694   -40781.207    40781.549   -106.56319     24.53961 
140208000    278.60568    205.67908    248.35083   -40806.767    40817.442   -42.671751    24.521749 
140212000    289.75341    512.45018     284.3466   -40852.308    40865.111    228.10357    24.520252 
140216000    265.44331    226.00999    203.25685   -40884.172    40921.292    22.753144    24.536498 
140220000    256.34984    226.40799    363.77467   -40920.328     40953.45   -137.36668    24.526709 
140224000    276.47809    311.97283    208.02391   -40996.711    40992.914    103.94892    24.529155 
140228000     291.9195    356.59892    390.87145   -41005.855    41023.165   -34.272529    24.518624 
140232000    312.60305    626.59594     394.5102   -41063.259     41059.59    232.08574    24.521657 
140236000    283.94839    405.37119    205.70415    -41121.22    41121.052    199.66704    24.534562 
140240000    280.27723    363.66439    314.99932   -41190.565    41197.139    48.665071    24.531142 
140244000    305.30244    358.50505    439.33622   -41233.755    41224.586   -80.831167      24.5209 
140248000    331.05554    347.89467    394.78544   -41283.275    41280.657   -46.890777    24.523917 
140252000     282.8144    309.54993    405.45572   -41329.792    41344.141   -95.905792    24.562178 
140256000    289.16088    511.55006    370.75046   -41399.485    41405.862     140.7996    24.569031 
140260000    289.08553    457.63927    258.29169    -41419.51    41423.217    199.34758    24.553679 
140264000    306.28905    356.90317    472.97621   -41441.864    41431.415   -116.07304    24.566629 
140268000    287.50196    467.08246    256.23494    -41480.43    41488.749    210.84752    24.578902 
140272000    296.67197    372.72613    284.09734   -41530.055    41523.055    88.628786     24.59864 
140276000    277.21936    438.14399    260.34544   -41567.388    41580.372    177.79855    24.606234 
140280000    284.55473    203.82582    283.35421   -41614.164     41622.36   -79.528387    24.612491 
140284000    295.91024    369.67206    234.42247   -41677.693    41670.632     135.2496    24.610005 
140288000    286.00172    291.09812    494.87456   -41706.086    41713.451   -203.77644    24.580182 
140292000    307.34723    510.19112    223.73129   -41746.005    41757.354    286.45982    24.573417 
140296000    267.24666    427.81764    209.62595   -41804.401    41811.159    218.19169    24.574981 
140300000    286.28903     495.4605    546.96259   -41821.395    41816.067   -51.502086    24.566601 
140304000    282.30079    300.32419    338.55726   -41819.378    41828.005    -38.23307    24.571581 
140308000    284.69686     540.2047    175.20982   -41858.673    41866.081    364.99487    24.584892 
140312000    283.07434     376.8765    280.63311   -41872.771    41881.558     96.24339    24.614735 
140316000    267.48412    280.68949    232.44143   -41905.174    41916.495    48.248055    24.593203 
140320000    258.81187    228.49536    401.00368    -41960.79    42005.022   -172.50832    24.595483 
140324000    281.62399     263.1229    299.59612   -42010.597    42025.933   -36.473225    24.584152 
140328000    317.70291     304.9376    256.80736    -42040.74    42037.054    48.130237    24.621565 
140332000    290.68299    273.82954    278.00752   -42069.819    42078.255   -4.1779777    24.600219 
140336000    297.28797    200.70464     330.8928   -42098.552    42110.024   -130.18816    24.594596 
140340000    281.82889    283.55236    313.55266   -42145.329    42159.358   -30.000297    24.590428 
140344000    273.52885    392.70437    295.55101   -42206.215    42202.476    97.153357    24.567215 
140348000    268.79798    312.78634    368.59602   -42230.737    42251.232   -55.809685    24.573365 
140352000    304.33238    516.36474    419.60706   -42292.182    42297.345    96.757674    24.585009 
140356000    285.32539    389.72375    315.22324   -42341.303    42357.876    74.500512    24.605703 
140360000    269.00976    435.11494    297.83953    -42362.99    42374.604     137.2754    24.600183 
140364000    279.44517    411.75883    331.85633   -42389.838    42401.124    79.902504    24.605042 
140368000    276.46903    298.17767     363.2711   -42407.826    42417.347   -65.093433    24.633823 
140372000    270.74103    290.13049     558.0961   -42471.694    42500.095    -267.9656    24.615934 
140376000     285.5889    261.81453    340.43054   -42495.765    42507.431   -78.616009    24.611444 
140380000    275.18238    258.05028    351.01254   -42529.039    42544.413   -92.962255    24.558339 
140384000    270.10909      438.659    389.41319   -42575.105    42580.242    49.245816    24.536554 
140388000    297.50032    323.02921    342.26656   -42653.325    42648.066    -19.23735    24.526098 
140392000    295.36019    390.34898    281.88919    -42680.28    42672.714    108.45979    24.535511 
140396000    295.42062    528.77989    505.65076   -42711.494    42723.226    23.129136    24.549004 
140400000    298.88699    373.27819     273.0933   -42761.375    42773.676    100.18489    24.545347 
140404000    297.58305    294.06556    295.53273   -42809.455    42830.579   -1.4671663    24.532514 
140408000    285.93084    232.67539    354.92176   -42843.269    42847.994   -122.24637     24.50679 
140412000    280.34869    467.85549    331.64234   -42870.967    42876.946    136.21314    24.469072 
140416000    292.35946    194.32701    411.78565   -42900.918    42903.742   -217.45864    24.493939 
140420000    280.36396    290.66573    258.14101   -42934.489    42934.541    32.524725    24.498568 
140424000    289.00887    564.61125    287.97351   -42986.597    42982.645    276.63774      24.5156 
140428000    297.27695    384.64487    369.08633   -43013.396    43013.994    15.558539    24.523209 
140432000    261.25328    296.47914    369.94405   -43062.712    43079.731   -73.464903    24.521366 
140436000    297.32015    294.30129     332.4634   -43112.678    43122.781   -38.162114     24.49905 
140440000    293.37265    307.55938    370.29182   -43136.858    43164.717   -62.732438    24.490159 
140444000    268.37243    297.98441    361.22232   -43161.876    43193.995   -63.237907    24.518303 
140448000    258.32556     382.6942    343.83071   -43212.646    43232.989    38.863482    24.532283 
140452000    281.07155    365.22431    236.57494   -43232.702    43249.041    128.64937    24.544451 
140456000    251.66334    429.96196    418.06464   -43259.817    43301.506     11.89732    24.540007 
140460000    301.24952    466.48357    426.21219   -43300.706    43291.487    40.271387      24.5497 
140464000    288.58349    456.86567    197.68756   -43314.748    43291.861    259.17811    24.579217 
140468000    294.74124    364.50425    477.32298   -43333.419    43348.036   -112.81872    24.580402 
140472000    294.25195    338.73157    206.44888   -43374.873    43380.812    132.28269    24.581768 
140476000    279.34197    302.14787    197.16652   -43401.716    43414.376    104.98135    24.582853 
140480000    296.54332    353.89611    292.77625   -43420.706    43441.144    61.119855    24.574791 
140484000    270.49625    402.38351    245.84579   -43463.814    43479.682    156.53772    24.554628 
140488000    276.20532    335.54637    209.10451   -43500.674    43531.167    126.44186    24.551804 
140492000     274.1367    350.64351    306.90695   -43516.525    43553.328    43.736565    24.557835 
140496000    283.60202    186.79697    437.83973   -43565.104    43591.069   -251.04276    24.540602 
140500000    292.67989    284.15304    183.22658   -43580.364     43608.83    100.92646    24.521817 
140504000    262.06932     216.4004    348.86638   -43641.048    43655.644   -132.46597    24.529522 
140508000    293.76693    348.50634    346.08974   -43677.208    43687.178    2.4166032    24.528097 
140512000    281.37235    363.39515    395.76133   -43714.473    43720.912   -32.366183    24.521309 
140516000    293.13199    623.29288    191.98788   -43747.838    43775.217      431.305    24.557756 
140520000    272.05037    287.75698    342.48244   -43770.468    43796.113   -54.725463    24.542896 
140524000    309.80512    475.11392    364.79111    -43821.98    43829.724    110.32281    24.532222 
140528000    275.22052    232.83429    313.10906   -43843.377    43866.858   -80.274769    24.552336 
140532000    275.66606      468.384    523.34841   -43918.734    43932.655   -54.964411    24.550616 
140536000    311.19895    265.37869    257.83619    -43978.66    43975.736    7.5424973    24.526617 
140540000    277.32618    340.96129    311.97212   -43994.905    44033.389    28.989163    24.535514 
140544000    293.12074    389.64013    394.49927   -44060.108    44074.485   -4.8591424    24.517264 
140548000    270.55646    209.17526    279.20511   -44094.095    44109.135   -70.029851    24.521469 
140552000    282.48234    334.59188    252.67339    -44135.35    44155.502    81.918488    24.500258 
140556000    270.05292     225.2659    251.58385   -44207.686    44210.483   -26.317945    24.491295 
140560000    262.84618    401.12371    412.11234   -44221.566    44243.509   -10.988631     24.44284 
140564000    257.35815    363.73817    225.04074   -44249.751    44276.685    138.69742    24.448713 
140568000    264.31814    218.41993    250.45164   -44303.823    44315.504   -32.031711    24.462088 
140572000    299.35974    431.56092    334.99866   -44370.877     44365.66     96.56226    24.478563 
140576000    285.55684    258.31227    313.98045   -44423.842     44444.08   -55.668184    24.473071 
140580000    288.84027    310.90807     326.5023   -44456.794    44472.225   -15.594225    24.476035 
140584000    275.50275    365.19527    310.67367   -44537.233    44551.188    54.521599    24.458589 
140588000    294.77926     419.2421     464.4311   -44577.484    44596.574   -45.189003    24.449845 
140592000    302.04512    540.45971      444.795   -44608.011    44630.936    95.664716    24.434377 
140596000    264.32397    262.29497    268.79524   -44635.217    44671.601   -6.5002713    24.435223 
140600000    276.10405    363.62492    272.63649   -44686.694    44718.037    90.988438    24.424247 
140604000    294.56916    532.88732    402.57088   -44746.125    44778.421    130.31644    24.400984 
140608000    286.47338    226.25658    510.76145   -44795.811     44814.08   -284.50486    24.384639 
140612000     274.3345    380.91508    415.59928   -44842.618    44855.418   -34.684208    24.393113 
140616000    265.54994    334.27738    291.44153   -44846.559    44873.976    42.835842    24.392024 
140620000    279.31191    361.55814    503.86101   -44907.174    44922.923   -142.30287    24.401862 
140624000    292.24666    351.51545    164.91874   -44936.234    44964.994     186.5967      24.4104 
140628000    305.93015    492.57814    301.51694   -44990.618    44994.759    191.06119    24.410635 
140632000    271.18054     393.2838    168.18333    -45031.14     45061.88    225.10047    24.387343 
140636000    234.81488    384.58591    299.04569   -45098.846    45145.774    85.540214    24.410714 
140640000    298.17086    521.33663    328.54671   -45142.865    45161.358    192.78992    24.404045 
140644000    287.44388     287.7617    547.88914   -45220.076    45224.913   -260.12744    24.400276 
140648000    265.09995    350.50995    333.05383   -45262.021     45289.32    17.456118    24.392631 
140652000    284.71689    244.84989    337.37015    -45288.61    45306.902   -92.520262    24.393363 
140656000    281.19856    359.67124    348.60831   -45316.365    45334.837    11.062933    24.409182 
140660000    303.90269    458.32943    157.31747   -45390.693     45384.52    301.01195    24.446989 
140664000    285.61359    286.94576    192.49154   -45424.884    45424.754    94.454214    24.458163 
140668000    283.66526    442.99135    260.22717   -45485.288    45500.074    182.76418    24.496737 
140672000     278.5263    244.55979    276.73445   -45497.308    45507.301   -32.174658    24.482518 
140676000    302.36229    375.66284    328.36692   -45544.844    45538.112    47.295918    24.466097 
140680000    287.50436    545.08312    487.25308   -45566.081    45578.132    57.830034    24.485581 
140684000     276.3068    360.17494     530.6583   -45609.797     45621.37   -170.48336    24.473458 
140688000    250.57454    414.69196    373.73197   -45654.645    45692.125    40.959994    24.457183 
140692000    286.13144    382.11602    159.49942   -45705.136    45722.612     222.6166    24.459436 
140696000    275.65219    273.95541    246.06862    -45707.07    45727.462    27.886795    24.449096 
140700000    286.86944    318.93995    390.48999   -45703.218    45726.455   -71.550038    24.428609 
140704000    284.22419    280.17017    435.68405   -45734.783     45762.73   -155.51388    24.401757 
140708000    293.17638    321.98105    430.56745   -45785.761    45798.757   -108.58639    24.399499 
140712000     272.9685    335.23533    222.20836   -45816.059    45829.377    113.02698    24.416441 
140716000    255.41853    184.87326    356.34718   -45840.686    45872.454   -171.47392    24.443811 
140720000    284.11195    402.19388    292.27352   -45908.007      45913.1    109.92036    24.419901 
140724000    283.79926    264.69406    259.32545   -45943.005    45970.073    5.3686081    24.409795 
140728000    316.50272     349.4519    281.72987   -45976.197    45975.913    67.722025    24.409252 
140732000    278.74282    222.55211    295.79499   -45960.597    45990.302   -73.242883    24.404981 
140736000    272.66174     214.8955    231.30817   -45988.632    46025.113   -16.412666    24.397907 
140740000    300.07086    386.40764    267.97619   -46059.629    46057.065    118.43145    24.368979 
140744000     299.2414    317.52592    468.55624   -46092.223    46096.597   -151.03032    24.357059 
140748000    310.40995    366.81358     477.6234   -46178.239    46167.857   -110.80982    24.335949 
140752000    300.85307    359.80186    381.63561   -46269.548    46262.498   -21.833745    24.344921 
140756000    292.22764    278.50227     392.1685   -46310.729    46301.193   -113.66623    24.338033 
140760000    244.12064    263.67896    264.10364   -46307.009    46341.386  -0.42467896    24.331132 
140764000    245.67911    401.95872    371.44268   -46321.564    46376.729    30.516038    24.317443 
140768000    287.13133    308.62512    395.76765   -46395.823    46418.293   -87.142526    24.314403 
140772000    303.63216    287.74015     291.9094   -46427.646    46427.581   -4.1692481     24.33188 
140776000    287.04225    148.86309    311.45726   -46423.584    46426.122   -162.59416    24.326546 
140780000    299.69389    308.89979    402.41811   -46446.608    46451.684   -93.518317    24.325972 
140784000    293.71944    553.90252    458.41737   -46499.401    46510.064    95.485151    24.323666 
140788000    285.26244    171.04585    443.99544    -46558.97    46558.651   -272.94959     24.28223 
140792000    295.38629    308.97675    427.26041   -46611.815    46618.177   -118.28367    24.257836 
140796000    275.33798    305.68019    277.93139   -46623.402    46633.352    27.748807    24.267415 
140800000    282.77183    354.99073    371.87685   -46652.439    46675.788   -16.886124    24.266301 
140804000    258.79345    344.09175    310.19238   -46694.821    46721.824    33.899363    24.256257 
140808000    276.15319    442.69268    354.36974   -46730.167    46747.958    88.322943    24.261559 
140812000    291.37655    395.87417    286.12728   -46782.835    46785.673    109.74689    24.236605 
140816000     268.5208    309.04875    398.82578   -46810.994    46822.097   -89.777033     24.21097 
140820000    280.17427    320.01316    402.95407   -46831.177    46855.706   -82.940912    24.192305 
140824000      271.038    290.57331    203.03986   -46867.843    46896.499    87.533453    24.168105 
140828000    270.53142    199.19407    318.42982   -46908.732    46937.409   -119.23575    24.171201 
140832000    259.50572    302.90892    263.43517   -46936.556    46963.634    39.473756    24.128629 
140836000    274.96857    341.40646    187.19181   -46993.985     46999.94    154.21465    24.170748 
140840000    296.76837    565.52491    330.58621   -47023.469    47019.389    234.93869    24.184165 
140844000    295.22526    347.00081    236.63447   -47039.936    47041.535    110.36634    24.206683 
140848000    297.50087    237.09804    274.11827   -47058.783    47068.326   -37.020227    24.208418 
140852000    270.76076    469.23927    391.22018   -47067.263     47094.62    78.019084    24.218172 
140856000    292.78009    310.15369    490.42337   -47111.438    47117.232   -180.26967    24.194704 
140860000    291.63107    472.16825    472.80273   -47154.981    47165.185  -0.63448519    24.180744 
140864000    255.34274    197.67688    306.58615   -47202.745    47246.788   -108.90927    24.197479 
140868000    297.48862    397.16253    390.63102    -47269.17    47286.068    6.5315164    24.198148 
140872000    269.57637    405.30575    249.24324   -47304.001    47315.477    156.06251    24.199039 
140876000    271.91307    390.43476    451.02778   -47354.572    47349.718   -60.593015    24.217618 
140880000    289.25251    197.64028    416.99203   -47404.696    47414.504   -219.35175    24.230797 
140884000    275.88686    230.32442    345.72873   -47427.596    47446.003   -115.40431     24.21901 
140888000    293.56546    491.54666    359.50374   -47463.621    47462.924    132.04291    24.254498 
140892000    331.69838    438.07042    339.62499   -47507.682    47474.566    98.445423    24.225976 
140896000    293.76493    312.01825    359.80982   -47503.751    47497.923    -47.79157    24.189258 
140900000    290.45939    247.92733    298.86796   -47554.249     47562.13    -50.94063     24.14395 
140904000    280.88755    315.15099    318.34151   -47586.953    47622.162   -3.1905229    24.148603 
140908000    279.29445    344.04026    316.38236   -47634.218    47644.589    27.657903    24.160924 
140912000    296.44439    377.31189    336.13456   -47606.925    47625.772    41.177336    24.158309 
140916000    291.55743    363.33275    359.41686   -47667.666    47678.296    3.9158844    24.141044 
140920000    261.05037    419.62291    332.05558   -47697.395    47711.855    87.567335    24.147161 
140924000    284.55337    262.01369    217.84956   -47751.164    47778.958    44.164131    24.168164 
140928000    273.67874    478.31209    259.87116   -47826.294    47857.851    218.44093    24.163503 
140932000    286.12347    417.39126     199.3194   -47894.641    47905.545    218.07187    24.140815 
140936000    309.92884    274.78746     291.9199   -47937.912    47931.949   -17.132441    24.134765 
140940000    296.16415    313.07807    337.96309   -47986.139    47985.838   -24.885022    24.110722 
140944000     269.6461    339.29438     261.1974   -48018.159      48040.5    78.096975    24.108842 
140948000    277.57795    314.72427    197.96082   -48057.596    48078.221    116.76345    24.108688 
140952000    286.19583    442.73045    342.40028   -48111.411    48121.171    100.33017    24.118683 
140956000    273.90852    327.30116    322.74209    -48109.47    48135.561    4.5590714    24.132635 
140960000    264.37061     356.2608    286.17744   -48156.817    48186.176    70.083362    24.157639 
140964000    267.51911    277.36455    240.80986   -48183.882    48202.277    36.554691    24.175581 
140968000    270.02262    414.00851     290.9618   -48245.142    48274.929    123.04672     24.18815 
140972000    272.83881    328.61804    437.18028   -48305.952    48330.738   -108.56225    24.190405 
140976000    281.45754    473.42367    378.04486   -48391.095    48404.513    95.378806    24.204107 
140980000    299.73461    314.10826    230.43968   -48419.527    48436.714    83.668573    24.207877 
140984000    319.16731    370.80626     514.3443   -48478.427    48460.226   -143.53805    24.208475 
140988000    283.81608    254.02716     210.0557   -48519.173    48518.995     43.97146    24.211686 
140992000    294.08537    389.33156    252.09245    -48575.38    48571.173    137.23911    24.246418 
140996000    293.56988    429.15823    413.47848   -48610.577    48619.881    15.679743    24.245958 
141000000    280.99208    263.92885    364.39848   -48672.156    48681.541   -100.46963     24.21255 
141004000    282.94321    304.23768    397.30858   -48719.494    48735.567   -93.070899    24.219528 
141008000     292.4362    307.34827     322.1327   -48787.327     48798.59   -14.784424    24.245164 
141012000    305.64245     298.3058     315.4343   -48811.963    48802.086   -17.128507    24.279283 
141016000    291.51748    469.84889    240.52013   -48844.583    48864.945    229.32876    24.253374 
141020000    284.82152    224.82606    545.61744   -48897.606    48905.419   -320.79138    24.226736 
141024000    252.45012    338.66936    349.32517   -48911.043    48936.996    -10.65581     24.22548 
141028000     262.9368    237.72303    428.23011   -48921.305    48959.378   -190.50708    24.235057 
141032000    293.93215    483.46088    319.82454   -49001.547    48988.835    163.63634    24.269347 
141036000    299.08133    354.84293    438.01086   -49044.049    49049.767   -83.167928    24.247395 
141040000    282.39768    262.04312    286.48102   -49081.521    49091.808   -24.437897    24.246507 
141044000    279.20509    369.78096    170.56546    -49141.62    49151.034    199.21551    24.234464 
141048000    290.59391    461.56891    381.52294   -49194.455    49223.919    80.045975    24.229512 
141052000    270.96815    301.09455    314.30642   -49252.712    49279.123   -13.211877     24.21355 
141056000    303.87189    555.13044    369.76391   -49315.881    49306.397    185.36653      24.2576 
141060000    265.50769    280.93564    273.89904   -49372.019    49389.875    7.0366057    24.263135 
141064000    289.01343    193.04444    262.05908   -49391.483    49413.023   -69.014644    24.256892 
141068000    279.78914    386.06882    389.74934   -49422.785    49447.177   -3.6805237    24.259068 
141072000    291.29048    275.47384    442.50734   -49446.574    49476.809   -167.03349    24.232164 
141076000    278.69904    354.53249    325.32402   -49479.488    49484.228    29.208468    24.241323 
141080000      273.941    304.08786    325.63606   -49488.021        49528   -21.548198    24.256826 
141084000    274.19749    435.54755     256.7623   -49525.065     49554.82    178.78525    24.246507 
141088000    293.82115    305.34013    286.76591   -49576.551     49592.85    18.574214     24.24027 
141092000    289.42817    319.43852    287.04836   -49622.957    49627.512    32.390166    24.234187 
141096000    289.28053    188.26324    253.44444   -49641.796    49653.686   -65.181207    24.257287 
141100000    308.99401    268.52064    460.74991   -49715.354    49689.282   -192.22927     24.25299 
141104000    305.34516    351.94738    373.96189   -49743.033     49747.87   -22.014509     24.26092 
141108000    278.30509     199.8084    200.01269   -49764.638    49788.897  -0.20429779     24.26763 
141112000    272.87962    250.53238    331.22663   -49786.053    49818.749   -80.694252    24.267446 
141116000    288.67549    439.53142    497.65399   -49843.186    49835.595   -58.122564    24.227276 
141120000    278.91845    374.15448    177.90397   -49889.791    49899.826    196.25051    24.253211 
141124000     281.2505    263.82337    287.86231   -49909.932    49928.866   -24.038935    24.263794 
141128000    267.73541    351.56808    154.65033   -49927.326     49954.17    196.91775    24.256075 
141132000    277.70389    263.40708    297.50878   -49980.247    50005.379   -34.101697    24.248671 
141136000    268.11832     284.4592    329.98842   -50001.257    50021.673    -45.52922    24.269305 
141140000    268.31506    272.95154    338.86738   -50047.529    50066.687   -65.915835    24.282459 
141144000    282.69085    342.34326    324.60654   -50115.235    50128.373    17.736726    24.268863 
141148000    263.38169    303.13744    339.61403   -50137.581    50185.063   -36.476592    24.258733 
141152000    289.71674    360.71367    245.11287   -50171.169    50178.615    115.60079    24.251143 
141156000    261.62347    279.78363    423.70835   -50198.469    50218.697   -143.92472    24.271331 
141160000    258.27659     322.5359    262.20232   -50215.407    50234.356    60.333583    24.292412 
141164000    268.76136    235.47018    355.80953   -50255.401    50280.655   -120.33935    24.317004 
141168000    287.46721    277.13155     348.1078   -50320.696    50334.319   -70.976242    24.354698 
141172000    270.92126    321.80184    340.37261   -50364.627    50382.095    -18.57077    24.326137 
141176000    284.69288    302.13265    433.83768     -50394.6    50411.266   -131.70502    24.324427 
141180000    293.31033    256.52148    472.42602   -50488.418    50484.131   -215.90453    24.309591 
141184000    265.24609    393.97393    281.49589   -50513.209    50549.098    112.47804    24.302075 
141188000    290.93701    279.72419    329.49512   -50587.745    50598.909    -49.77093    24.285113 
141192000    279.30038    264.81748    254.10054   -50604.848    50625.363    10.716934    24.289334 
141196000     287.4896    341.75583    419.88662   -50676.628    50675.122   -78.130793    24.279433 
141200000    320.90798    464.89421    295.34108   -50690.086    50684.173    169.55313    24.276777 
141204000     265.2635    341.05085    507.94703   -50723.254    50751.573   -166.89618    24.250753 
141208000    242.45812    254.76663    164.23301   -50774.878    50817.489    90.533618    24.246686 
141212000     273.4679    224.40487    336.67764   -50808.767     50824.36   -112.27278    24.258629 
141216000    278.14304    474.44543    254.08651   -50900.483    50905.438    220.35892    24.278377 
141220000    288.53547    301.42104     494.8768   -50960.146    50974.678   -193.45576    24.262822 
141224000    281.12024    493.73979     225.4441   -50996.754    51005.032    268.29569    24.259608 
141228000    283.31135    302.19725    284.41243   -51035.453    51055.582    17.784816    24.251456 
141232000    281.59228    172.67583    264.63644   -51045.504    51061.724   -91.960615     24.26386 
141236000    291.71457    373.26324    268.26769   -51072.218    51100.253    104.99555    24.265823 
141240000    274.64464    463.79539    366.03175   -51117.235    51134.371    97.763641    24.257246 
141244000     220.8665    335.88357    471.99893   -51170.442    51223.337   -136.11535    24.245144 
141248000    292.15592    305.11711    528.64999   -51213.931     51238.32   -223.53288    24.213431 
141252000    249.92302    352.61791    296.89922    -51246.94    51291.891     55.71869    24.205554 
141256000    295.54978    371.86752     358.8337   -51308.474     51303.68     13.03382    24.219998 
141260000      301.689    256.08502     395.6761   -51334.603    51348.097   -139.59109    24.213387 
141264000    288.22084    319.09213      449.926   -51358.053    51365.289   -130.83386    24.226354 
141268000    277.51242    356.84539    240.40626   -51410.818    51422.248    116.43913    24.210666 
141272000    273.47462     507.8353    420.99676   -51481.756    51503.313    86.838544    24.229447 
141276000    290.71382    252.21306    421.30424    -51519.97    51522.378   -169.09118    24.232529 
141280000    276.64167    189.34093    501.13348   -51561.828    51570.606   -311.79255    24.214437 
141284000     279.6717     303.9572    341.37371    -51595.87    51624.755   -37.416504    24.227977 
141288000    271.53223    213.33413     194.0661   -51654.097    51682.598    19.268029     24.21663 
141292000     296.1539    318.94795    215.55277   -51704.672    51712.046    103.39518    24.228004 
141296000    282.05927    375.00401    357.93315   -51758.522    51765.289    17.070867    24.235036 
141300000    320.59317     474.9462     410.5365   -51787.118     51787.13    64.409703    24.241191 
141304000    300.54849    321.61456    412.62421    -51805.27    51799.938    -91.00965     24.23622 
141308000    292.90493    563.41341    133.07952   -51849.562    51856.541    430.33389    24.257696 
141312000     284.3409    222.05558     389.9289   -51912.056    51930.664   -167.87332    24.245873 
141316000    273.78865    305.10183    212.26396   -51943.175    51969.882    92.837867    24.246776 
141320000    251.78323    315.47569    227.21292   -51977.413    52021.463    88.262775      24.2098 
141324000    261.60173    196.76568    290.80453   -52005.896    52035.402   -94.038851    24.216433 
141328000    280.69126    300.22978    268.10587   -52048.246    52073.412    32.123915    24.191155 
141332000    273.40447    255.73609    172.03526   -52071.577    52108.107    83.700833    24.223179 
141336000    272.64982    344.85406     429.4296   -52122.272    52142.877   -84.575535    24.224518 
141340000    294.51926    273.24769    589.65788   -52119.065    52136.378   -316.41019    24.202822 
141344000    259.99852    216.49835    349.74268   -52165.856     52187.21   -133.24434    24.194343 
141348000    280.77821    296.87594    326.70074   -52233.368    52247.042   -29.824804    24.188684 
141352000    284.29099     225.0322    363.09731   -52279.256    52283.367   -138.06511    24.182801 
141356000    308.45732    446.94492    357.42381   -52312.367    52318.503    89.521116    24.186799 
141360000    280.00309    358.42585    485.21063   -52336.491    52352.879   -126.78478    24.176553 
141364000     291.3476    330.65934    289.26326   -52392.569     52389.93    41.396075    24.196154 
141368000    290.72448    350.13476    247.60901   -52410.496    52424.448    102.52575    24.188802 
141372000    320.29453    427.13279    291.25665   -52449.984    52440.136    135.87614    24.201445 
141376000    268.58974    300.94487    266.46336   -52441.641    52464.317     34.48151    24.214288 
141380000    280.25284    199.60179    489.46849   -52473.362    52495.839    -289.8667    24.176998 
141384000    279.48931     272.5124    390.82583   -52538.374    52548.893   -118.31344    24.159573 
141388000    301.05686    262.11276    484.50576   -52549.187    52556.802     -222.393    24.149574 
141392000    286.48962    158.88235    365.35291   -52558.677    52579.515   -206.47056    24.136163 
141396000     248.8205    232.57174     280.4392   -52593.869     52626.19    -47.86745    24.139897 
141400000    291.64545    400.44918    273.26982    -52636.85    52646.318    127.17936    24.142732 
141404000    287.66745    318.08043    200.90912   -52689.679    52678.295     117.1713    24.153196 
141408000    279.33326     286.2567      406.589    -52697.58    52724.798    -120.3323    24.134124 
141412000    265.27227    233.44815    253.06575   -52726.992    52753.501   -19.617604    24.142622 
141416000    285.25127    331.55219    422.68365   -52741.289    52748.251   -91.131455     24.15002 
141420000    265.44763    414.54668    399.51832   -52742.362    52766.795    15.028359    24.160585 
141424000    295.21727    336.87952    379.55063   -52772.315    52795.619   -42.671112    24.142177 
141428000    240.16258    247.31758    327.35595   -52806.108    52838.045   -80.038363    24.117781 
141432000    287.49283    344.49731    350.77381   -52875.764    52884.009   -6.2765003    24.116936 
141436000     287.0616    307.86869    552.38459   -52921.406     52940.88    -244.5159    24.119945 
141440000    275.51163    328.37772    305.08033   -52944.855     52965.31    23.297393    24.152535 
141444000    316.87833    424.14353    538.76696   -53005.435    53010.362   -114.62343    24.135504 
141448000    294.36861    448.38728    277.60572   -53033.893    53056.585    170.78157    24.124091 
141452000    284.73944    247.79725    348.79199   -53048.302    53051.064   -100.99474    24.124306 
141456000     262.2122    281.23882    136.80883   -53091.603    53099.922    144.42998    24.140931 
141460000    303.78632     337.3083    259.39233    -53124.97     53129.04    77.915973    24.174467 
141464000    295.82885    409.98471    309.67343   -53171.935    53179.214    100.31129    24.195548 
141468000    308.25333    193.29563    267.99429   -53193.958    53209.503   -74.698656    24.175191 
141472000    284.44853    407.37054    294.76811   -53219.446    53237.903    112.60243    24.174642 
141476000    299.10005    269.37282    408.15627   -53254.258     53273.06   -138.78345    24.190915 
141480000    264.49826    329.92684     239.9073    -53305.36     53332.92    90.019538    24.191866 
141484000    289.54713    323.38854    274.21346   -53361.647    53388.056    49.175085    24.204195 
141488000     272.5051    246.75322    296.39474   -53392.219    53405.124   -49.641525    24.203602 
141492000    281.62029    479.77545    284.33097   -53426.418    53456.427    195.44448    24.219951 
141496000    263.42178    422.48381    259.65519   -53454.309    53482.782    162.82862    24.236753 
141500000    254.37808    326.40901    535.36064   -53482.337    53526.694   -208.95163    24.198773 
141504000    284.96965    202.88667    522.79988   -53545.882    53548.088   -319.91321    24.224179 
141508000    274.40462    419.69629    374.94542   -53587.783    53614.815    44.750874    24.237114 
141512000    300.93831    341.18709     382.1357   -53627.497    53642.337   -40.948611    24.238254 
141516000    269.47714     347.4646    424.21415   -53637.506     53668.28   -76.749552    24.256189 
141520000    303.17843    368.64709    328.13635   -53734.878    53740.592    40.510745    24.256873 
141524000    307.65338    361.00005     228.9285   -53756.594    53767.385    132.07155    24.235067 
141528000    256.13434    322.16579    291.76352   -53794.789    53834.457    30.402274    24.205077 
141532000    291.94539    457.09399    286.96581   -53846.073     53846.33    170.12818    24.217606 
141536000     280.4518    315.26076      343.502    -53876.94    53905.575   -28.241243    24.210792 
141540000    257.11477      367.485    289.90267   -53926.994    53960.457    77.582335    24.197369 
141544000    268.12133    263.57246    324.77551   -53981.377    54000.921    -61.20305    24.189319 
141548000    280.54046    292.43523    322.56227   -54037.082    54049.706    -30.12704    24.187596 
141552000    270.61981    167.92034    434.43315   -54081.362    54103.168   -266.51281    24.178986 
141556000    265.20867    295.01157    258.47988   -54088.176    54122.922    36.531692    24.176539 
141560000    271.67296    300.79653    354.07631   -54140.297    54169.909   -53.279778    24.172658 
141564000    317.32511    406.36704    407.50097   -54215.091     54223.03   -1.1339387    24.185559 
141568000    289.58129    236.95158    299.40886   -54272.203    54300.099   -62.457277    24.167214 
141572000    275.69736    298.35628    246.06426   -54294.193    54318.718     52.29202    24.146989 
141576000    278.74078    307.58521    345.97944   -54307.196    54320.558   -38.394231    24.153164 
141580000    313.32064    215.86365    363.06378   -54354.972    54352.198   -147.20013    24.146054 
141584000    265.96792    295.43721    198.32435    -54395.72    54425.038    97.112854    24.174294 
141588000    274.30316    318.73615    482.55953   -54463.094    54479.022   -163.82337    24.186861 
141592000    272.47094     352.7826    418.74681   -54527.102    54559.408   -65.964207    24.182626 
141596000    268.30432    467.78439    333.82105   -54554.841    54593.207    133.96334    24.167713 
141600000    268.29757    298.70901    350.50379   -54596.414     54638.01   -51.794778    24.163631 
141604000    299.77763    557.19057    160.41652   -54660.501    54673.219    396.77405    24.194411 
141608000    282.10107    379.62781    237.45684   -54710.567     54727.47    142.17097    24.183103 
141612000    295.53641    380.32846    322.83712   -54730.605    54757.575    57.491335     24.18357 
141616000    281.05811    216.05624    202.05373   -54746.117    54768.648    14.002515    24.168873 
141620000    306.28818    336.30272    289.04126   -54755.225    54765.142    47.261454    24.181381 
141624000     297.2197    279.92147     301.6024   -54773.732    54777.124   -21.680926    24.182731 
141628000     277.4902    549.97516    294.92658   -54793.629    54821.167    255.04858    24.172386 
141632000    311.91996    503.75783     513.9455   -54843.624    54849.181   -10.187673    24.166724 
141636000    295.93658    467.03009    417.32113   -54891.945    54904.991    49.708963    24.178567 
141640000    276.38902    255.03067     337.9102   -54909.516     54927.57    -82.87953    24.186107 
141644000    292.32573      409.411    379.53497   -54929.599    54928.803    29.876029    24.184888 
141648000    273.29707    262.72864    346.21567   -54949.011    54961.381   -83.487029    24.195371 
141652000     285.1877    199.19544    381.59079   -54967.326    54988.386   -182.39535    24.178694 
141656000    285.78612    362.28969    327.35566   -55006.399    55002.374    34.934025    24.175085 
141660000    276.15767    292.44843    408.81299   -55054.661    55073.271   -116.36457    24.154541 
141664000    282.18605    345.38635    364.42688   -55068.919    55106.485   -19.040529    24.150274 
141668000    275.97712    433.89016    277.55294    -55119.82    55160.232    156.33722    24.140525 
141672000     272.6436     230.3599    340.00788   -55147.198    55162.013   -109.64798    24.139395 
141676000    299.04259    343.10354    441.37187   -55204.153    55229.065   -98.268327    24.139705 
141680000    267.22768    317.03313    260.66709   -55227.573     55260.98    56.366043    24.149168 
141684000    286.07896    508.74121    301.77938   -55282.848    55307.928    206.96183    24.150325 
141688000    268.29545    463.50089    321.39397    -55342.85    55365.883    142.10693    24.155956 
141692000    287.72238    249.73356    282.43152   -55348.086    55371.531   -32.697957    24.161062 
141696000    286.46514    428.96683    234.80957   -55394.271    55403.182    194.15726    24.173432 
141700000    266.82744    216.24818    235.15778   -55431.943    55445.465   -18.909601    24.176421 
141704000    272.14534    293.26983    260.89162   -55445.082    55464.785    32.378211     24.16795 
141708000    301.20931    391.55177    296.23184   -55475.606    55480.161    95.319933    24.180052 
141712000    284.93382    339.10659    257.86591   -55507.598    55510.502    81.240685    24.176816 
141716000    281.92868     361.8743    312.22821   -55563.666    55578.439    49.646094    24.180073 
141720000    278.36624    466.44013    202.48082   -55624.242    55613.462     263.9593    24.190629 
141724000    300.97389     474.0294    349.58895   -55634.281    55650.319    124.44045    24.180871 
141728000     292.9522    360.70639    483.73343   -55684.862     55697.01   -123.02703    24.180675 
141732000    274.63124    359.53802    270.15326    -55693.18    55715.473     89.38476    24.207732 
141736000    258.26623    318.82595    166.13956   -55714.955    55757.397    152.68638    24.181806 
141740000    305.61881    419.08663    241.33547   -55760.115    55764.409    177.75116    24.182955 
141744000    295.18903    189.18736    392.24878   -55794.237    55794.055   -203.06142    24.158779 
141748000    305.34615    399.21707    179.11366   -55808.554    55809.145    220.10341    24.166155 
141752000    274.64677    213.20959    280.42015   -55808.871    55823.116   -67.210563    24.154724 
141756000    257.78034    391.24203    278.67447   -55849.979    55878.826    112.56756    24.155795 
141760000    271.78336    352.89841    288.98619   -55872.478    55908.579    63.912223    24.140254 
141764000    299.54766    442.34345    221.32221   -55938.229    55936.039    221.02125    24.124563 
141768000    279.70656     580.5345    269.15426   -55969.532    55976.065    311.38024    24.135054 
141772000    286.76472    244.92622    159.69927   -55973.677    55983.516    85.226948    24.134934 
141776000    285.03925    380.84724    405.90887   -56013.704    56018.674   -25.061628    24.125402 
141780000    251.43982    274.47771    242.85027    -56015.18    56052.413    31.627438    24.144312 
141784000    256.21195    300.14929    298.20843   -56038.915    56082.362    1.9408636    24.149072 
141788000    286.96358    297.66666    328.48461   -56116.904      56117.1   -30.817947    24.164412 
141792000    284.60778    293.64664    240.64652   -56165.706    56167.369    53.000124     24.14667 
141796000    278.80666    434.62192    583.13862   -56220.767    56227.325    -148.5167    24.151961 
141800000    276.13844    347.32531    156.84292   -56231.053     56259.85    190.48238    24.143592 
141804000    287.04589    275.19526    275.46523   -56265.654    56287.973  -0.26997559    24.135288 
141808000    285.19153    377.69393    251.32285   -56298.747    56314.924    126.37107    24.127739 
141812000    268.67973    402.26737    502.24501   -56341.372    56378.178   -99.977642    24.103555 
141816000    272.25751    260.58692    308.41793   -56392.727    56405.477   -47.831009    24.127798 
141820000    275.93156    315.17084    374.56621    -56413.75    56442.821   -59.395371    24.123177 
141824000     279.4518    353.93346    315.72186   -56448.757    56466.525    38.211601     24.12681 
141828000     297.2863    303.50302    480.45862    -56516.17    56512.732    -176.9556    24.151929 
141832000    275.82858    335.54219    334.02951   -56535.464    56551.487     1.512683    24.154685 
141836000    269.63914    407.38813    241.54625   -56579.625    56616.026    165.84188    24.157913 
141840000    286.38718    263.23494     253.6287   -56619.768    56644.902    9.6062347    24.122017 
141844000    280.79609    375.48969    188.71636   -56649.427    56670.295    186.77333    24.118977 
141848000    280.51851    423.65341    472.84325    -56694.38    56724.457   -49.189844    24.130364 
141852000    260.78137    406.75731     245.2281   -56716.706    56755.785    161.52921    24.138118 
141856000    283.27456    375.67795    283.54259   -56772.626     56781.68    92.135357    24.162253 
141860000    300.80619     475.8478    325.00315   -56813.812     56820.95    150.84464    24.171267 
141864000    276.33608    477.80073    341.85787   -56853.478    56875.625    135.94286    24.196096 
141868000    267.17216    347.25739    368.79514   -56868.059    56898.441   -21.537753    24.193155 
141872000    263.90503    294.90576    396.02226   -56934.552    56977.094    -101.1165    24.195987 
141876000    290.64165     401.1316    244.02624   -57029.765    57040.143    157.10537    24.182728 
141880000    269.51886    309.14283    369.71224    -57019.25     57052.56   -60.569413    24.192164 
141884000    266.36294    459.03182    205.27186   -57078.456    57107.178    253.75995    24.192457 
141888000    278.70411    489.26347     343.3558   -57124.136    57137.292    145.90767    24.195507 
141892000    289.76851    328.23625    504.88276   -57162.935    57177.057   -176.64651    24.181652 
141896000    305.12375     517.5859    312.31622   -57189.504    57205.555    205.26968    24.172029 
141900000    276.83028    330.80756     354.1552   -57191.146    57210.484    -23.34764    24.181608 
141904000    324.58085      530.961    322.88813    -57251.63    57254.433    208.07287    24.175333 
141908000    275.65554    283.84162    320.44796   -57299.497    57318.735   -36.606345     24.18609 
141912000    285.11832    242.45098    428.21892   -57303.543    57320.924   -185.76794    24.183614 
141916000    292.52877    390.13726    367.30216   -57357.362    57360.822    22.835101    24.198477 
141920000    307.09959    397.96015    301.37438   -57402.539    57405.516    96.585768    24.198184 
141924000     284.8875    182.13198    397.08153   -57451.641    57469.893   -214.94955    24.202514 
141928000    283.84684    452.07669    221.88201   -57508.467    57520.964    230.19468    24.202887 
141932000    274.53874    433.95794    259.01287   -57537.124    57567.469    174.94506    24.210863 
141936000    285.60525    557.05144    271.89332   -57589.476    57605.755    285.15812    24.198764 
141940000    272.90953    130.74611     306.7912   -57596.111    57625.287   -176.04509     24.19678 
141944000    285.48803    491.74158    237.06139   -57647.037    57655.142    254.68018    24.210745 
141948000    279.89653    294.69412    296.49089   -57652.043    57667.975    -1.796765    24.207759 
141952000    303.09691     368.8933    285.50723   -57702.952    57716.907     83.38607    24.209238 
141956000    275.03402    392.96978    404.93777   -57764.699    57783.578   -11.967993    24.214217 
141960000    264.35344    413.83791    278.25612   -57839.858    57871.054    135.58178     24.22117 
141964000    290.19253     202.6703    272.45675   -57864.071    57887.151   -69.786445    24.205219 
141968000    287.11413    314.05027    301.09499   -57890.984    57909.582    12.955283    24.233473 
141972000    286.42756      316.488    419.46355   -57942.346    57962.463   -102.97555    24.263884 
141976000     267.3438     404.4962    220.59813   -57976.706    57999.678    183.89807    24.272348 
141980000      277.206    352.28093    238.89669   -57992.411    58016.037    113.38423    24.263491 
141984000    278.64689    361.98465    300.83922   -58058.435    58075.453    61.145436    24.276702 
141988000    267.86643    244.73517    385.77273   -58090.094    58112.784   -141.03756    24.295824 
141992000    329.71622    482.08555    326.70306   -58126.117    58124.278    155.38249    24.302478 
141996000    291.01853    335.92442    313.04774    -58116.54    58159.091    22.876677    24.318678 
142000000    236.44873    294.52795    247.43862   -58138.453    58173.384    47.089329    24.311227 
142004000    270.92569    485.87441    306.79398   -58182.515     58202.49    179.08043    24.318984 
142008000    297.18488     327.9234    397.79444   -58241.043    58251.102   -69.871039    24.307807 
142012000    309.51915    440.74639    399.47159   -58259.075    58259.912    41.274793     24.32036 
142016000    281.55914    400.11216     372.2656   -58326.222    58343.869    27.846564    24.313811 
142020000    264.17469    436.57928    228.68641   -58381.471    58401.396    207.89287    24.314274 
142024000    275.86829    213.49749    166.95315   -58409.606    58433.145    46.544339    24.291628 
142028000    268.61903    259.22692    337.06353   -58454.457    58486.887   -77.836608     24.28371 
142032000    286.28578    352.68638    271.85485    -58489.89    58508.146     80.83153    24.283751 
142036000    271.99767    264.70692    344.86373   -58544.218    58561.425    -80.15681    24.285431 
142040000    311.25688    552.20119    538.94207   -58572.552    58593.406    13.259118    24.278686 
142044000    277.68456    295.41028    341.23756   -58585.152    58596.399   -45.827275    24.282165 
142048000    272.76734    399.37613    136.14664   -58638.176    58657.982    263.22948    24.284022 
142052000    290.85714    475.01669    314.40709   -58658.966    58664.975    160.60959     24.29408 
142056000    291.40922    403.06852    325.84598   -58704.606    58720.835    77.222536    24.300981 
142060000    289.52725    417.38309    677.49716   -58741.313    58757.252   -260.11407    24.286147 
142064000    290.69927    245.23283    272.08907   -58768.624    58774.022   -26.856239    24.301288 
142068000    295.67444    342.33686    191.14613   -58821.407    58845.777    151.19073    24.295958 
142072000    290.21556    596.67111    170.00112   -58853.363    58867.324       426.67    24.318868 
142076000    281.66467    300.05736    262.71038   -58883.286    58903.777    37.346982    24.317976 
142080000    298.25024    247.15276    409.49655   -58920.241    58934.145   -162.34379    24.316504 
142084000    273.60776    315.47001    235.81041   -58944.106    58963.582    79.659601    24.312459 
142088000    255.07517    349.31841    374.81508   -58979.662    59017.768   -25.496666    24.308997 
142092000    290.15747    377.01127    360.80224   -59038.142    59046.511    16.209026    24.313414 
142096000    282.50766    355.46117    300.50299   -59040.188    59076.485    54.958174    24.312773 
142100000     278.2199    348.13971    357.75732   -59077.956    59122.681   -9.6176077     24.31468 
142104000    294.86769    618.41383    203.31044   -59121.987    59136.994    415.10339    24.322789 
142108000     282.2657    376.30078    310.76206   -59179.398    59173.155    65.538726    24.348219 
142112000    281.76611    409.33431    369.07729   -59197.454    59217.735    40.257012    24.382984 
142116000    284.14072    425.43244     396.5242   -59253.753    59268.438    28.908247     24.37988 
142120000    291.07103    396.03088    520.27859   -59303.332     59314.99   -124.24771    24.355956 
142124000    262.88001    258.17534    295.13925   -59334.736    59376.596   -36.963908    24.350487 
142128000    286.16005     349.7714    388.51595   -59400.283    59416.417   -38.744541    24.349274 
142132000    260.35103    237.01346    369.71324   -59428.478    59461.542   -132.69978    24.353993 
142136000     279.8413    205.21442    290.31305   -59452.351    59462.506   -85.098638    24.350021 
142140000     240.5598    320.86589    450.24662   -59472.519    59518.956   -129.38072    24.332893 
142144000     279.5782    349.22469    243.01044   -59573.788    59605.738    106.21425    24.334663 
142148000    285.64619    185.90365    244.71245    -59628.45    59654.773   -58.808804    24.339404 
142152000    282.84302     242.8962    219.54027   -59667.051    59676.823    23.355928    24.336291 
142156000    293.69981    313.21543    289.81896   -59692.677    59712.245     23.39647    24.321181 
142160000    289.96839    241.77728    445.44606   -59712.433    59736.546   -203.66878    24.318965 
142164000    330.94244    348.51223    393.40074   -59736.865    59730.976   -44.888511    24.319545 
142168000    323.64306    320.17386    400.94679   -59815.267    59788.923    -80.77293    24.299637 
142172000    331.94577     400.8019    395.55724   -59847.915     59836.53    5.2446568    24.312254 
142176000    280.00548    417.22236    213.31282   -59863.729    59880.004    203.90954    24.295151 
142180000    256.73278     372.8195    164.52105   -59879.516    59918.016    208.29845    24.268442 
142184000    269.14237     329.4687    207.24914   -59927.752    59944.646    122.21956    24.260239 
142188000    272.83317    325.01742    324.52978   -59946.337    59955.653   0.48763439    24.270818 
142192000    278.93637    414.01167     447.8059   -59965.583    59989.167   -33.794229    24.256002 
142196000    285.80067    417.02023    366.03028   -59982.686    60008.393    50.989958    24.254123 
142200000    275.77218    307.44049    385.53898   -60034.277    60070.633   -78.098484    24.261824 
142204000     267.7887    494.76919    228.41546   -60065.801    60084.684    266.35373    24.253587 
142208000    316.53717    167.87455     295.6606   -60120.678    60108.308   -127.78605    24.251045 
142212000    276.69785    271.16231    271.12215   -60191.952    60214.423   0.04015736    24.249552 
142216000    266.57477    560.04029    342.07977     -60232.4    60267.076    217.96052    24.258447 
142220000    297.37844    347.52951    255.80589   -60305.566    60319.642    91.723619    24.253208 
142224000    304.65575     221.9451    289.52265   -60365.105    60351.227   -67.577547    24.241494 
142228000    272.26004    356.62557      324.582   -60400.028    60424.003    32.043566    24.240638 
142232000    280.12452     342.2059    339.43957    -60425.87    60461.486    2.7663372    24.264455 
142236000    239.62872    362.17261    292.63431   -60441.668    60486.734    69.538298    24.258128 
142240000    310.01441     337.8343    518.26688   -60517.028    60514.492   -180.43258    24.280382 
142244000    273.68969    223.89038    378.03686   -60537.338     60568.02   -154.14648     24.27367 
142248000    311.35023     383.5595    366.43864   -60626.509    60610.282    17.120865    24.262847 
142252000    263.68767    337.50384    413.68049    -60605.24    60625.715   -76.176651    24.244472 
142256000    302.38391     280.6281    442.98321   -60631.524    60636.506   -162.35511     24.24884 
142260000    287.86988    350.96097    408.64886   -60672.142    60698.462   -57.687886    24.233674 
142264000    308.56866    238.88854    246.35225    -60728.44    60728.561   -7.4637147    24.229666 
142268000    270.48734    182.30512    345.19399   -60788.623    60804.547   -162.88887    24.195848 
142272000    284.41065    264.54236     418.1427   -60874.306    60887.292   -153.60034     24.19306 
142276000    253.47249    224.77968    377.41046   -60884.454    60936.647   -152.63078    24.188309 
142280000    268.72648     368.1027     215.8297    -60957.92    60977.598      152.273    24.197721 
142284000    250.83464    349.36859    327.00896   -60977.539    61015.654    22.359635    24.220643 
142288000    255.05079    194.49473    277.96057   -61024.228    61067.664   -83.465847    24.205788 
142292000    266.28937    308.09057    215.47257   -61073.195    61107.352    92.618002    24.228121 
142296000    251.58532    258.09203    266.15454   -61126.544    61167.552   -8.0625118     24.24684 
142300000    294.69413    365.61989    391.66603   -61181.883    61203.361    -26.04614    24.240785 
142304000    266.36312     242.7521    308.55889   -61210.947    61246.941   -65.806789    24.242475 
142308000    268.33163    208.53573    320.02822   -61277.551    61304.512   -111.49249     24.23935 
142312000     274.4415    249.01341    281.83602   -61346.819    61371.814   -32.822605    24.227689 
142316000     264.6926    350.95415    335.88852   -61373.214     61392.74    15.065627    24.259543 
142320000    270.63006    377.72307    255.22831   -61434.549    61465.086    122.49476    24.263905 
142324000    284.56479    420.76406    283.31186   -61453.771    61473.244    137.45221    24.238724 
142328000    309.81455    395.30612    315.20935   -61493.124    61502.337    80.096769     24.23356 
142332000    252.53977    376.10739    145.79726   -61530.838    61556.171    230.31013     24.22874 
142336000    290.12674    295.72878    537.70812     -61600.1     61598.96   -241.97934    24.227992 
142340000     288.8249    361.66388    293.34486    -61612.57    61626.588    68.319014    24.240655 
142344000     297.2559    254.79499    279.38927   -61637.726    61655.356   -24.594278    24.237717 
142348000    298.19228    380.90236    391.35862   -61651.123    61671.693   -10.456258    24.218612 
142352000    288.90848    381.90809    301.27332   -61696.904    61695.034    80.634775    24.223085 
142356000    281.32572    428.70988    270.18243    -61716.49    61734.331    158.52744    24.228583 
142360000    279.76224    365.15335     436.2506   -61732.819     61759.69   -71.097248    24.233064 
142364000    276.09169    228.14522    240.07182   -61787.381    61810.222   -11.926606    24.255706 
142368000    312.13316    260.67309    260.40415   -61829.308    61821.362   0.26894122    24.256866 
142372000    291.40652    487.52138    252.27977   -61854.765    61864.284    235.24161    24.266563 
142376000    312.17594     416.3254    375.53842   -61888.021    61867.298    40.786983    24.272885 
142380000    312.03196    458.60284    699.28585   -61897.707    61885.899   -240.68302    24.265686 
142384000    281.63433    300.44597    322.91825   -61903.843    61921.204   -22.472282    24.281755 
142388000     283.3792    381.79259    334.90107   -61944.708     61972.84    46.891518    24.276114 
142392000    282.80818     316.2297    450.79404    -61981.38    61994.247   -134.56433    24.246526 
142396000    290.37031     301.1122    338.47054   -62002.715    62024.113   -37.358334    24.218664 
142400000    283.53383     314.5315    387.50809   -62010.516    62043.329   -72.976594    24.216183 
142404000    286.85507    266.18974    261.00648   -62014.565    62048.408     5.183265    24.223933 
142408000    268.69859    229.63221    328.44252    -62068.51     62098.49   -98.810307      24.2129 
142412000    274.15976    449.14037    505.38877   -62128.332    62156.206   -56.248396     24.22961 
142416000     276.0549    535.07067    190.22165   -62170.795    62211.612    344.84902    24.228786 
142420000    298.59259     340.0581    487.46791   -62219.279    62229.419   -147.40981    24.199563 
142424000    293.97749    402.55637    487.44885   -62248.027    62254.822   -84.892485    24.180383 
142428000    270.92379    340.45436    354.08565   -62289.934    62313.622   -13.631288    24.178379 
142432000    283.80409    238.66261     324.1554   -62349.242    62355.533   -85.492798    24.162608 
142436000    302.18735    384.70985    424.25931   -62383.679    62406.845   -39.549455    24.172386 
142440000    270.70801    433.35774    315.71721   -62408.206    62442.636    117.64053    24.168098 
142444000    301.94965    397.66945    183.23605   -62438.375    62450.819     214.4334    24.137072 
142448000     258.5797    316.05002    442.28559   -62453.607    62469.978   -126.23557    24.126098 
142452000    296.56173    276.17384    272.14799   -62479.002    62500.355    4.0258464    24.150112 
142456000    285.44053    312.36535    304.30891   -62547.242    62576.067    8.0564352    24.145911 
142460000    298.67291    382.21549    439.74861   -62605.465    62615.567   -57.533111    24.127172 
142464000    285.85841    372.54096    465.38336    -62627.75    62657.337   -92.842401    24.143132 
142468000     257.8494    248.45028    263.08632   -62659.711    62698.504   -14.636039    24.150408 
142472000    240.99644    301.85816    269.69977   -62721.343    62772.693     32.15839    24.158297 
142476000      291.094    300.01557    401.38241   -62764.753    62783.526   -101.36684    24.163287 
142480000    260.73959    433.62244    276.68234   -62786.616    62811.649     156.9401    24.177914 
142484000    262.42142    470.09264    266.59344   -62830.098    62862.535     203.4992    24.175494 
142488000    270.80379    289.43742    316.47371    -62868.51     62906.04   -27.036294    24.170543 
142492000    271.49364    397.61716    326.82747   -62894.277    62929.559    70.789693     24.18484 
142496000     300.0582    297.56376    447.27434   -62932.607     62946.24   -149.71059    24.189669 
142500000    256.06213    310.18791     348.5579   -62968.612    62984.472   -38.369982    24.186111 
142504000     257.4351     310.1701    414.07756   -63004.689     63037.46   -103.90745     24.16443 
142508000    269.72837    364.95826    399.43412   -63054.684    63073.181   -34.475854    24.157814 
142512000    294.86647    405.27122    270.38504   -63121.555    63152.309    134.88618    24.140291 
142516000    304.67209    287.54854    235.54368   -63168.157    63175.728    52.004861    24.129807 
142520000     299.4203    250.70252    321.81969   -63212.393    63204.095   -71.117169    24.113943 
142524000    270.27703    186.57631    398.35167   -63229.456    63255.719   -211.77536    24.115107 
142528000    298.66777    507.36158    555.85118   -63250.165     63274.38   -48.489605    24.111689 
142532000    268.69756    240.59962    403.26781   -63272.689    63312.783   -162.66819    24.117397 
142536000    294.03822     515.6478    245.55444   -63335.624    63363.363    270.09335    24.140393 
142540000    264.80841    408.15066    367.30064    -63397.04    63419.559    40.850018    24.132402 
142544000    249.13715    276.83827    369.75042   -63436.787    63491.372   -92.912144    24.133429 
142548000     281.9919    382.36225    366.78327   -63461.922    63498.206    15.578983    24.121168 
142552000    280.67273    427.80301    265.07318   -63491.015    63529.958    162.72983    24.086237 
142556000    307.21304    372.62201    261.66741   -63519.835    63532.544     110.9546    24.108873 
142560000    249.70012    276.84062    303.23884   -63522.354    63553.079   -26.398211     24.11828 
142564000    290.92116    319.85229    202.83476   -63572.364    63583.626    117.01753    24.090763 
142568000    268.25293    285.59214    286.15085   -63625.668     63653.63  -0.55871188    24.072044 
142572000    268.35063    399.94318    382.66367   -63635.294    63661.754    17.279508    24.080433 
142576000    271.86468    305.82367    305.67266   -63658.568    63688.546   0.15100952    24.065307 
142580000    284.20059     442.1518    394.87601   -63733.027    63770.381    47.275791    24.065167 
142584000    264.28001    394.88118    150.51536   -63779.013    63807.407    244.36581    24.061265 
142588000    282.42531    486.56409    159.88521     -63852.6    63870.014    326.67888    24.084502 
142592000    249.59883     197.3925    216.20793   -63886.243    63934.732   -18.815429    24.077761 
142596000    291.31031    386.44486    293.18149   -63953.058    63966.504    93.263371    24.092731 
142600000     307.0915     424.4879    197.33731   -63963.754     63973.97    227.15059    24.086515 
142604000     280.2474    340.71856    300.05428   -63975.554    64004.984    40.664285    24.096438 
142608000    280.12624    329.32379    332.03279   -64008.262    64034.869   -2.7090012    24.090327 
142612000    266.50051    231.93377    285.51669   -64050.518    64061.514   -53.582912    24.090046 
142616000    279.52685    463.86943    297.27605   -64088.627    64114.443    166.59339     24.08816 
142620000    264.66321    369.73991    367.20047   -64140.605    64180.752    2.5394436    24.082326 
142624000    260.00589    311.84826    453.84455   -64159.551    64190.157   -141.99628    24.080553 
142628000    291.44967    324.54595    163.74336   -64197.061    64198.292    160.80259    24.098754 
142632000    306.00407    368.60138    446.32739   -64207.694    64201.159   -77.726001    24.086732 
142636000    292.92559    375.29735    305.10807   -64230.661    64256.995     70.18928    24.061312 
142640000    275.62152    478.69733    338.79358   -64266.606    64299.229    139.90375    24.059771 
142644000    243.92377    161.23609    331.08229   -64279.628    64312.308    -169.8462     24.06193 
142648000    279.89793    598.64955    363.82046   -64334.042    64354.416     234.8291    24.056751 
142652000    270.08085    399.85936     184.8285   -64377.724    64406.595    215.03086      24.0563 
142656000    279.41939    420.05736    339.08885   -64410.439    64426.262    80.968507    24.052493 
142660000    278.61753    351.57405    365.59237     -64472.3     64484.87   -14.018326    24.032544 
142664000    294.33487    354.34387    285.93365   -64499.877    64525.949    68.410226    24.034227 
142668000     302.0837    465.84789    270.90336   -64581.058    64597.219    194.94454    24.036959 
142672000    305.44519    330.52369    349.38948   -64633.897    64642.682   -18.865786    24.033682 
142676000    277.12349    259.93818    213.27956   -64677.525    64712.396    46.658614    24.043654 
142680000    288.25489    227.70493    475.75767   -64761.101     64764.61   -248.05274     24.02077 
142684000    280.10075    402.82629     184.9824   -64791.463    64810.937    217.84389    24.015851 
142688000    292.33445     419.6699    413.54485   -64869.125    64861.653    6.1250454    24.020237 
142692000    275.58602    281.79051    362.54684   -64880.299    64916.014    -80.75633    23.989499 
142696000    273.62947    278.81284     358.2476   -64898.537    64948.002   -79.434763    23.987202 
142700000    280.37516     384.0444    309.07979   -64970.168    64983.825    74.964605    23.995606 
142704000    272.33429    217.18399    342.61472   -64993.339    65017.066   -125.43074    23.984472 
142708000    324.25745    264.55863    507.58825   -65086.897    65065.429   -243.02962    23.969153 
142712000    256.69455    356.43559     250.3319   -65132.223    65158.841    106.10368    23.943564 
142716000    295.95183    337.62122    301.83869   -65166.975    65192.975    35.782534    23.931482 
142720000    302.19409    458.37181    382.59661   -65189.083    65198.652      75.7752    23.941176 
142724000    304.62584    439.78942     377.5602   -65254.201    65268.007     62.22922    23.936318 
142728000    285.94065    200.36401    497.15973   -65281.363     65306.78   -296.79572    23.935241 
142732000    272.51664     480.3589     258.7281   -65323.908    65350.154    221.63079    23.940771 
142736000    300.39996    544.00154    332.43735    -65351.41    65378.374    211.56418    23.958708 
142740000    285.63103    316.80569    404.47188   -65380.764    65383.993   -87.666187    23.954485 
142744000      271.088    278.13295    320.11656   -65438.423    65466.289   -41.983613    23.962681 
142748000    284.08013    443.33992    518.81947   -65505.667    65524.323   -75.479548     23.95706 
142752000      282.603    354.14591    325.52721   -65560.832    65569.903    28.618694    23.967019 
142756000    285.35325    258.49355    595.15028   -65575.171    65594.271   -336.65673    23.951786 
142760000    271.04124    363.31877    321.27149   -65629.062    65672.574    42.047281    23.957896 
142764000     263.0021     250.2931     420.2832   -65691.572    65727.517   -169.99011    23.953978 
142768000    286.15452    361.65784    312.05051   -65723.776     65747.84    49.607333    23.943102 
142772000    290.16824    378.16592    324.21351   -65742.945    65766.272    53.952414    23.949152 
142776000    280.50583    340.39392    336.43933   -65782.713    65802.014    3.9545906    23.946533 
142780000    307.53682    388.66142    276.64994   -65842.826    65847.913    112.01148    23.947483 
142784000    275.13388    462.79846    263.13427   -65861.399    65881.249    199.66419    23.968894 
142788000    298.64572    395.98644    134.91387   -65891.569    65905.127    261.07257    23.964041 
142792000     299.3887    331.54269    281.71678   -65924.859    65922.713    49.825915    23.941185 
142796000    289.37906    352.79481    348.03192   -65944.947    65958.407    4.7628855    23.927243 
142800000    265.72594    290.61666    278.27914   -65977.153    66002.646    12.337513    23.905483 
142804000     285.2453     420.0586    298.28761   -66034.353    66051.282      121.771    23.908912 
142808000    295.13256    421.96805    288.84844   -66079.432    66085.921    133.11961    23.920689 
142812000    279.81219    343.84176    252.29306   -66083.448    66113.566    91.548699    23.928815 
142816000    290.30604    347.35598    406.91827   -66124.859    66135.798   -59.562289    23.907123 
142820000    308.95364    337.96024     357.3615   -66164.857    66187.441   -19.401256    23.930866 
142824000    259.54952    244.80001    323.75393   -66178.088    66219.362   -78.953925    23.925724 
142828000    333.94707     305.2061    244.89735   -66250.581    66230.082    60.308746    23.935308 
142832000    292.98684    433.74598    316.72654   -66284.032    66281.446    117.01944    23.931828 
142836000    291.57664    390.63862    364.64967    -66313.04    66304.811    25.988958    23.912418 
142840000    285.29367    350.66963    341.96461   -66365.072    66380.522    8.7050262     23.92081 
142844000    288.05863    396.75375     451.8442   -66415.931    66421.985   -55.090454    23.913914 
142848000       310.86     434.4065    257.51815   -66451.084    66463.044    176.88834    23.917901 
142852000    289.24991     312.1564    473.63226   -66466.275    66489.291   -161.47586    23.911632 
142856000    277.02777    277.68833    299.07665   -66534.142    66565.674   -21.388318    23.894436 
142860000    266.14091    292.08053    261.64337   -66550.371     66604.54    30.437159    23.887835 
142864000    268.43204    358.47347    177.17099   -66593.308    66629.242    181.30248    23.889641 
142868000    312.72571     419.6781    324.24267   -66662.274     66663.16    95.435421    23.891138 
142872000    241.24118     409.6073    167.89756   -66667.261    66715.839    241.70974    23.901829 
142876000    271.98816    300.06857    253.65418   -66692.569    66715.547    46.414395     23.89359 
142880000    256.86931    224.62524    312.16709   -66739.182    66772.226   -87.541848    23.906781 
142884000    282.83736    352.02476    239.75352   -66766.309    66805.648    112.27124     23.89892 
142888000    311.38026     429.6472    380.53296   -66814.718    66816.831    49.114235    23.902811 
142892000    287.78438    293.13209    392.33808   -66856.226    66878.049   -99.205988    23.886789 
142896000    274.48036     401.7369    337.39165   -66868.998    66886.189    64.345245    23.893209 
142900000    301.18324     467.5001    651.11088   -66932.522    66962.583   -183.61078    23.905237 
142904000     285.7612    377.30086    324.47898   -66979.627    67022.522    52.821886    23.900439 
142908000    282.82246      420.167    254.94012   -67035.247    67067.459    165.22688     23.89002 
142912000    308.97231    509.43478    525.94911   -67075.963    67090.398   -16.514329     23.88011 
142916000    276.72238    347.13818     321.3248   -67090.065    67118.657    25.813382    23.888177 
142920000    263.50902    452.40322    270.94969   -67103.175    67134.677    181.45354    23.906352 
142924000    263.28039    284.30379    310.38477   -67113.565    67148.761   -26.080982    23.916568 
142928000    303.33482    408.94983    565.28602   -67157.688    67166.966   -156.33619    23.907728 
142932000    284.21631    512.37274    466.95399   -67181.302    67202.922    45.418751    23.925694 
142936000     265.9809    439.23223    316.34368   -67210.982    67253.152    122.88855    23.949548 
142940000    293.65914    295.78839    553.10717   -67287.316    67297.279   -257.31877    23.934071 
142944000    301.10858    299.35902    272.57733   -67324.712    67347.418    26.781693    23.924607 
142948000    276.65723    389.35331    380.50604   -67348.221    67380.014    8.8472767    23.924538 
142952000    283.22818     185.3316    260.26774    -67415.66    67431.782   -74.936139    23.926627 
142956000    281.40895    288.67348    478.96951   -67492.197     67517.75   -190.29604    23.931059 
142960000    309.16297    439.53001    232.48706   -67547.034    67552.442    207.04294    23.921244 
142964000    272.42624    283.85982    358.26249   -67563.026    67592.214   -74.402673    23.925721 
142968000    311.23912    353.34742    235.64078   -67608.602    67617.918    117.70664    23.927416 
142972000    258.42476    222.53013    222.49408   -67640.546    67673.585  0.036050514     23.90977 
142976000    266.64128    290.18231    495.60748   -67663.045    67687.442   -205.42517    23.897762 
142980000    280.52814    383.49034    376.95801   -67699.798    67734.431    6.5323358    23.910463 
142984000    293.05731    161.63536    397.80457   -67737.704    67751.219   -236.16921    23.899907 
142988000    272.46615    335.73603     294.8807   -67755.836    67792.116    40.855331    23.903658 
142992000    288.77743    283.75056    207.27017   -67765.122    67788.164     76.48039    23.905519 
142996000    277.12955    274.55873    261.60429   -67798.015     67833.96    12.954433    23.907794 
143000000    296.81801    420.86333    265.31873   -67851.614    67871.944    155.54461    23.904129 
143004000    300.07935    415.72889    212.27668   -67910.364    67920.898     203.4522    23.899676 
143008000    297.65535    193.14484    237.08023   -67967.931    67965.586   -43.935391    23.895871 
143012000    273.55141    447.30908    197.02178   -67964.179    67987.377     250.2873    23.894593 
143016000    271.57341    444.63337    300.60306    -67995.82    68024.829    144.03031    23.909141 
143020000    245.35308    289.41713    208.44802   -67998.632    68047.145    80.969109     23.88651 
143024000    254.29927    285.46438    300.66308   -68011.008    68049.359   -15.198706    23.904559 
143028000    270.85042    361.07115    302.01713   -68075.186    68093.596    59.054019     23.92449 
143032000    251.00224     322.4231    263.16747     -68102.4    68130.937    59.255634    23.913405 
143036000    272.74611    276.96267    460.39331   -68163.133     68202.24   -183.43063    23.916667 
143040000    297.81777    467.85387    445.78319   -68205.964    68217.288    22.070684    23.901326 
143044000    283.04649    254.10047    272.38284   -68254.577     68290.49   -18.282368    23.897831 
143048000    268.85365    160.91667    310.95541   -68299.273     68328.61   -150.03874    23.891338 
143052000    278.17814     348.6415    182.85119   -68349.732    68396.118    165.79031    23.913787 
143056000    303.57241    375.77334    508.56738   -68411.961    68416.529   -132.79404    23.913994 
143060000    275.52895    483.83086    276.77929   -68440.506    68466.274    207.05157    23.908579 
143064000    293.25338    343.15139    310.31316   -68502.036    68521.938    32.838233    23.920161 
143068000    288.51326    560.02583    308.55801   -68531.697    68549.979    251.46782    23.926963 
143072000     283.7188    105.37248    327.41109   -68601.764    68610.176   -222.03861    23.909666 
143076000    290.06487    470.91756    323.01044    -68631.96     68652.51    147.90711    23.913435 
143080000    280.49588    400.06304    335.24664   -68697.473    68713.277    64.816402    23.900142 
143084000    304.44963    358.29262    316.96197    -68741.87    68766.167    41.330646    23.908705 
143088000    294.21864    246.76876    435.47069    -68770.06    68780.491   -188.70192    23.908298 
143092000    311.67827    548.47854    300.92961    -68817.15    68810.892    247.54893    23.913254 
143096000    315.83876     419.4247    400.63719   -68815.143    68806.747    18.787513    23.923457 
143100000    255.69776    314.27445     229.9165   -68831.372    68876.389    84.357951    23.917497 
143104000    312.74851    384.38505    341.07982   -68885.227    68864.708    43.305236    23.913205 
143108000    314.43278    328.58789    563.32698   -68930.542    68925.355   -234.73908    23.914654 
143112000    300.60336    339.81765    317.04567   -68966.387    68986.987    22.771979    23.907995 
143116000    274.33649     474.8802    249.71963   -69016.615    69030.503    225.16058     23.91114 
143120000     311.3898    357.93028    226.11097   -69047.908    69060.155    131.81931    23.914916 
143124000     296.0861    562.20785    360.13722   -69075.706    69098.492    202.07064    23.917268 
143128000    286.83714    312.68845    298.87375   -69148.852    69167.194    13.814701    23.905729 
143132000    297.39945    278.06784    522.38694   -69179.933    69199.146    -244.3191    23.892602 
143136000    313.50035    298.59158    308.30374   -69251.327    69249.346   -9.7121607     23.91553 
143140000     255.5384    306.67629    152.10396   -69261.113    69290.124    154.57233    23.925296 
143144000    266.81457    289.34829    307.64729   -69309.983    69361.003   -18.298997    23.956867 
143148000    275.67338    369.77423    254.32075    -69371.38    69403.155    115.45347    23.976598 
143152000    273.10144    352.02419    354.23569   -69407.848    69439.197   -2.2114963    23.979565 
143156000    286.86152    455.52138    209.74844   -69452.284    69455.275    245.77295    23.989652 
143160000    292.85766    435.40291    386.16529   -69478.476    69496.114    49.237612    23.993244 
143164000    323.88629    651.89375    287.99253   -69558.907    69563.046    363.90122    23.988325 
143168000    295.98679    283.89578    244.24965   -69596.663    69614.698    39.646124    23.972812 
143172000    264.57891    305.50037    267.07093   -69643.866    69669.554    38.429436    23.982793 
143176000    280.31559    224.63077    348.46988   -69684.383    69713.206   -123.83912    23.983349 
143180000    282.67055    270.64907    396.17003   -69745.161    69766.277   -125.52096    23.993686 
143184000     276.8023    417.38699    288.92139   -69785.292    69811.339     128.4656    23.976592 
143188000    284.68613    357.61081    319.72049    -69829.33    69843.356    37.890317    23.967095 
143192000    288.32897    409.37566    304.59947   -69878.606    69905.506    104.77619    23.966778 
143196000    298.08589    127.85031    337.49511   -69936.559    69960.681    -209.6448    23.990478 
143200000    288.40458    393.55133    275.10454   -69991.435    70003.745    118.44679    23.999996 
143204000    283.86633    437.06414     345.7064   -70026.842     70034.44    91.357732    24.015151 
143208000    277.65279    253.55929    441.42416   -70075.684    70113.021   -187.86488    23.995407 
143212000    275.65873    368.57772    313.00304   -70088.105    70123.985    55.574674    23.994093 
143216000    262.64293    281.03632    284.57533   -70118.092    70158.746   -3.5390111    23.992115 
143220000    305.72803    285.98543    338.46278   -70158.795    70179.413   -52.477345    24.009642 
143224000    280.74626    293.70625    285.22754   -70168.795    70216.267    8.4787175    24.023403 
143228000    287.61959    268.72391     225.0025   -70233.048    70264.253     43.72141    24.021694 
143232000    280.21627    494.88993     185.2479   -70272.981    70305.353    309.64203    24.034242 
143236000    271.54619    247.62891    288.52595   -70295.264    70344.326   -40.897034    24.020978 
143240000    292.56886    415.67431    301.01045   -70330.249    70361.441    114.66386    24.014803 
143244000    267.07783    327.77703    323.87291   -70348.927    70394.436    3.9041138    24.021748 
143248000    279.08267    353.44075    194.13232   -70361.428    70401.139    159.30843    24.029559 
143252000      292.424    464.84334    389.73408   -70412.161    70441.082    75.109263    24.031169 
143256000    277.36833    213.34103    311.05657   -70469.108    70510.159   -97.715539    24.033825 
143260000     257.7701    386.76698    252.62675    -70520.35    70556.135    134.14023    24.034052 
143264000    282.84234    318.89856    323.32977   -70560.563    70574.132   -4.4312106    24.022131 
143268000    270.90936    352.66708    275.02925   -70587.548    70617.094    77.637824    23.995305 
143272000    252.39525    242.56659    312.09478   -70613.995     70644.93   -69.528187    23.972007 
143276000    261.94371    357.65648    310.24013   -70652.458    70690.293    47.416355    23.966606 
143280000    282.96122    358.97199    254.87048   -70674.731    70710.946    104.10151    23.963459 
143284000    272.33348    217.03564    428.50458   -70668.668    70701.967   -211.46894    23.950845 
143288000    277.02169     351.6625    303.52437   -70732.233    70757.448     48.13813    23.962005 
143292000    277.65777    366.82891    378.18854   -70776.017    70824.023   -11.359629    23.964974 
143296000    250.34167    394.09261    272.20272   -70830.893    70864.035    121.88989    23.990011 
143300000    270.98394    236.74097    631.01441   -70865.176    70915.049   -394.27345    23.996105 
143304000    285.92965    302.95417    262.61334   -70903.976    70927.577    40.340825    23.990979 
143308000    278.85037    405.32119    329.09585   -70917.158    70942.953    76.225341    24.013622 
143312000    268.54196     273.2585    412.43473   -70943.905    70988.432   -139.17623    24.017036 
143316000    304.50206    394.87697    293.02426   -71006.319    71010.417    101.85271      23.9975 
143320000    287.93019    288.67338    396.03805   -71051.502    71054.522   -107.36467    23.998862 
143324000    316.75444     390.2681    248.06859    -71073.61    71076.366     142.1995     24.00035 
143328000    275.59925     410.4474    290.78586   -71103.704    71135.498    119.66154     23.98964 
143332000    275.55979    365.94839    371.36795   -71163.992    71201.073     -5.41956    23.981067 
143336000    298.96934    661.19941    263.53136    -71232.09    71240.434    397.66805    23.970523 
143340000    276.17725    337.38059    322.72369    -71253.43    71276.976    14.656905    23.959406 
143344000    295.19376     308.9484    562.21241    -71298.88     71318.02   -253.26402    23.944297 
143348000    259.75331    249.94305    443.52584   -71324.924    71367.062   -193.58279    23.924634 
143352000    292.84403    279.83462    311.74251   -71366.235    71382.159   -31.907894    23.910792 
143356000    291.19314    411.76708    321.76092   -71405.771    71423.025    90.006162     23.92551 
143360000    295.27436    402.19896    291.00181   -71429.344    71447.318    111.19715     23.91263 
143364000    267.56996    437.43381    144.96599   -71443.884    71487.791    292.46782    23.893084 
143368000    298.04429    427.40217     373.1488   -71472.541    71484.509    54.253373    23.888991 
143372000    285.73755    459.36892    193.58728   -71519.169    71546.259    265.78164     23.89238 
143376000    300.25707    471.87002    314.01149    -71570.54    71593.416    157.85853     23.89066 
143380000    285.28775    459.15008    312.30996    -71626.08    71662.372    146.84013    23.874304 
143384000    309.94929    429.21446    201.11223   -71675.573    71698.927    228.10223      23.8551 
143388000    270.62893    251.46377    353.60798   -71689.188    71735.036   -102.14421    23.854315 
143392000    320.54837    292.08388    325.21819   -71709.978    71734.549    -33.13431    23.828119 
143396000    304.18631    422.72093    239.12681     -71757.9    71767.264    183.59411    23.825988 
143400000    292.08831    520.63072    465.92679   -71764.057    71793.088    54.703925    23.832972 
143404000    285.89911    259.84854    517.44037    -71777.85    71797.868   -257.59184    23.826748 
143408000    278.46645    264.92485    331.15139   -71800.778    71822.867   -66.226537    23.818891 
143412000    292.58081    339.98175    534.94655   -71846.193    71875.228    -194.9648    23.806279 
143416000    287.79357    353.02701    256.71904   -71917.306    71946.504    96.307968    23.798025 
143420000    296.69223    221.29428    534.35827   -71993.179    71994.972     -313.064     23.79443 
143424000    256.68712    203.80647    289.80234   -72038.437    72067.949   -85.995862     23.81509 
143428000    332.01576    509.25919    257.01589   -72066.019    72057.832     252.2433    23.815977 
143432000    314.20986    294.68492     355.3772   -72101.904    72115.418    -60.69228    23.814795 
143436000    289.29236    239.02841    412.39071   -72139.085    72161.814   -173.36229    23.819435 
143440000    291.53571    237.33752    439.87606   -72219.413     72225.61   -202.53854    23.814245 
143444000    278.31271    255.38682    423.59526   -72232.648    72251.246   -168.20844    23.798553 
143448000     301.9619    444.84917    176.97631   -72255.479    72263.961    267.87286    23.813598 
143452000    306.16939    439.62442    474.63829   -72287.546    72316.775   -35.013871    23.799658 
143456000     276.1234    317.47499    293.38617   -72320.638    72342.039    24.088826    23.799627 
143460000    252.60917    239.89801    368.02036   -72348.663    72385.453   -128.12235    23.807701 
143464000    257.25588    300.94924    247.75151   -72404.273     72456.52    53.197732    23.805321 
143468000    262.31471    259.43424    277.39805   -72428.978    72465.962   -17.963805    23.808773 
143472000     282.3595    326.14893    346.86919   -72449.158    72483.258   -20.720263    23.813168 
143476000    275.52773    245.94472     338.5685   -72497.298    72530.062   -92.623775     23.79959 
143480000    256.79024    317.94309    316.16888   -72500.818    72538.646    1.7742123    23.798828 
143484000    274.57958    238.18292    216.45461   -72547.371    72583.777    21.728312    23.779873 
143488000    267.46333    364.18171    202.89095   -72583.278    72614.772    161.29076    23.768597 
143492000    295.67271    442.31478    177.88255   -72627.709    72649.292    264.43222    23.780379 
143496000    272.32561     270.1894    286.39584   -72635.175    72665.573   -16.206436    23.773259 
143500000    334.59173    587.02333    251.37323   -72688.554    72690.914     335.6501    23.800957 
143504000    314.60789    312.66796    362.09409   -72700.052    72712.635    -49.42613     23.81578 
143508000    290.81168     342.7717    328.11553   -72759.652    72766.953    14.656163    23.803467 
143512000     306.4473    275.24927    271.92771   -72832.463    72855.096    3.3215599    23.783169 
143516000     278.9661    253.39935    288.55437   -72848.023     72870.67   -35.155019     23.77367 
143520000    264.91505    292.98041    299.83014   -72886.037      72926.1   -6.8497231     23.76774 
143524000    305.18349    489.87306    235.11545   -72947.169    72958.793    254.75761    23.769291 
143528000    288.11688     437.5798    289.59095   -72972.047    73002.798    147.98885    23.774927 
143532000    306.96819    398.90392    357.06262   -73009.857    73000.193    41.841301    23.791514 
143536000    284.27995    498.97309    362.83129    -73054.04    73077.183     136.1418    23.787629 
143540000     291.4681    255.32605    244.24133   -73081.914    73119.709    11.084725    23.788753 
143544000    256.67391    549.97606    356.67543    -73118.49    73158.629    193.30063    23.790769 
143548000    251.09732    360.49546    266.91964   -73149.286    73199.492    93.575821    23.784791 
143552000    294.78744    327.75721    307.88974   -73183.554    73197.755    19.867475    23.763299 
143556000    289.90955    221.77753    249.51366   -73224.588    73252.398   -27.736136    23.765751 
143560000    279.58158    392.58846    231.89485   -73251.861    73287.077    160.69361    23.769607 
143564000    292.72828    385.20398    417.89417   -73294.998    73315.542   -32.690196    23.764529 
143568000    293.83734    306.65386    328.17243   -73353.494    73373.146   -21.518568     23.75347 
143572000    281.01371    336.67827    274.12035   -73357.302    73383.937    62.557917    23.754153 
143576000    294.23279    345.84013    408.45037   -73387.815    73422.897   -62.610239    23.747105 
143580000    237.65634    324.61506     235.3408   -73414.547    73468.163    89.274257    23.732442 
143584000    258.88317    222.40398     437.6904   -73506.569    73545.727   -215.28642    23.730559 
143588000    302.20967    268.59922    148.84044   -73523.796    73558.711    119.75879    23.738368 
143592000    256.16117    261.32948    415.34457   -73544.302    73571.415   -154.01509    23.754234 
143596000    286.88238    498.65351     343.3941   -73580.405     73598.42    155.25941     23.76726 
143600000    289.80801    281.10722    400.98494   -73620.613    73646.308   -119.87772    23.760412 
143604000    310.05176    372.91906    327.90461   -73672.767    73677.232    45.014449    23.751455 
143608000    270.62975    325.85465     365.0078   -73708.411    73743.158   -39.153148    23.736068 
143612000    286.97493    364.60747    396.78638   -73749.757    73795.386   -32.178911    23.746197 
143616000    272.71616     256.8308     291.6699   -73785.278    73825.486   -34.839102    23.759284 
143620000    300.45796    409.65567    273.98979   -73842.168    73856.872    135.66588    23.756013 
143624000    262.77767    326.69833     231.7196   -73873.607    73915.529    94.978724    23.746322 
143628000    297.88995    277.38106    439.64911   -73939.976    73952.516   -162.26805    23.740653 
143632000    266.95253    234.40153    343.02926   -73985.533    74028.723   -108.62773    23.728135 
143636000     256.4034    424.94957    337.27139   -74016.199    74068.081    87.678184    23.727715 
143640000    296.78113    490.23844    297.04432   -74074.727    74108.965    193.19412    23.745595 
143644000    273.24118    226.04483    246.09458   -74101.748    74125.008   -20.049749    23.735809 
143648000     299.1128    295.28845    458.80116   -74128.928    74153.111   -163.51271    23.726026 
143652000    273.66899    170.41118    369.93468   -74166.086    74198.584   -199.52351    23.726737 
143656000     273.0891     381.4202    381.22504   -74207.165    74250.026    0.1951579    23.730597 
143660000    279.52414     296.5065    152.97392   -74257.544    74287.199    143.53258     23.72598 
143664000    289.04262    481.46222    349.91806   -74288.833    74327.345    131.54417    23.736729 
143668000    267.73979    514.07798    385.39874   -74366.157    74404.199    128.67925    23.739085 
143672000    267.12858    359.25258    218.74308   -74418.631    74462.264    140.50949    23.750228 
143676000    284.06143    317.51043    386.00334   -74449.685    74475.185   -68.492909    23.739835 
143680000    309.95119    436.04076    234.49366   -74482.608    74489.846    201.54709    23.740126 
143684000    275.58366    334.82607    455.37896    -74538.22    74556.805   -120.55289    23.735625 
143688000    278.14583    331.17671    189.07831   -74574.283    74606.526     142.0984    23.757765 
143692000    295.92462    397.65201    512.60396    -74652.98    74665.459   -114.95195    23.747652 
143696000    301.33235    438.34511    480.24638    -74675.16    74680.689   -41.901267    23.742506 
143700000    290.40615    299.96941    243.40917   -74713.311    74735.344    56.560234    23.749755 
143704000    266.50706    236.78242    270.27841   -74750.399    74786.996   -33.495999    23.751413 
143708000    278.71982    483.29083    287.36807   -74786.531     74827.25    195.92276    23.757663 
143712000    283.32377    246.64886    434.12266   -74823.444    74858.193    -187.4738    23.757153 
143716000     273.7783    336.74698    297.86244   -74848.497    74869.537    38.884545    23.749893 
143720000    271.87643    460.81417    168.78913   -74879.199    74911.334    292.02504    23.748464 
143724000    297.68486    474.15922    294.59059   -74921.573    74944.854    179.56863    23.767481 
143728000    295.93974    442.80695    324.91146     -74970.3    74984.091    117.89549    23.768951 
143732000     280.3191    215.42382    502.53481   -74947.344    74968.663   -287.11099    23.775204 
143736000    265.36219    284.92846    282.26503   -74982.286    75018.234    2.6634337    23.769067 
143740000    269.86765    395.44582     337.2137   -75038.247    75066.442    58.232123    23.767081 
143744000    254.84507    322.63849    231.30898    -75057.08    75097.246    91.329514    23.757828 
143748000    289.46503    378.04529    226.94144   -75113.747     75137.78    151.10385    23.755671 
143752000    276.10053    299.07963    360.99922   -75159.406    75188.076   -61.919589    23.773684 
143756000     266.7496    303.14958    217.20491   -75172.201    75214.785    85.944663    23.751941 
143760000    292.48591    578.68012     343.8121   -75232.932    75239.703    234.86802    23.751017 
143764000    262.93512    321.61822    293.73618   -75236.225    75284.511    27.882044    23.746575 
143768000    277.83964    358.20263     327.4493   -75286.974    75310.545    30.753324    23.753101 
143772000    306.65971    363.41107     431.9794   -75322.817    75342.748   -68.568328    23.743587 
143776000    302.37832     403.8787    377.36709   -75354.507    75367.313    26.511615    23.752463 
143780000    266.37602     262.3043    261.02455    -75394.96     75417.84    1.2797523    23.758672 
143784000    279.34455    261.83116    225.12583   -75455.696    75482.912    36.705329    23.763013 
143788000    289.17656    431.44597    261.61032   -75499.762    75542.454    169.83565    23.761971 
143792000    295.05354    345.27204    247.61429   -75525.665    75549.049    97.657748    23.754449 
143796000    290.94775    275.29025    302.27497   -75573.988    75613.073   -26.984724    23.743612 
143800000    282.02806    299.65725      330.566   -75593.649    75622.904    -30.90875    23.746736 
143804000    294.74677    558.06527    329.75785   -75633.205    75639.089    228.30742    23.758606 
143808000    289.78505    434.29582    351.46131   -75685.762    75708.627    82.834505    23.764075 
143812000     283.8031    331.64911    463.06079   -75762.932    75791.284   -131.41168    23.781666 
143816000    283.29777    549.81409    504.12654   -75828.131    75855.285    45.687543    23.784616 
143820000     246.7062      284.219    315.99462   -75856.255    75897.376    -31.77562      23.7939 
143824000    270.41315    295.02689    239.04084     -75866.3    75907.489     55.98605    23.807476 
143828000    275.49623    322.50617    175.38898   -75905.967    75943.057    147.11719     23.81165 
143832000    277.45658    141.04969    200.33191   -75932.371    75975.472   -59.282215    23.797172 
143836000    278.81106     365.2686    313.17161   -75986.989    76025.335    52.096988     23.79003 
143840000    287.24007    244.58748    283.46137    -76014.15    76038.237   -38.873893    23.804381 
143844000    280.40257    344.57575    351.57794   -76067.075    76106.769   -7.0021874    23.818509 
143848000    266.41057    330.10132    370.46914   -76082.918    76107.055   -40.367822    23.812711 
143852000    288.33535    242.56001    398.80656    -76103.01    76133.704   -156.24655     23.80372 
143856000    289.02029    304.34997    352.21575   -76109.633    76146.608    -47.86578     23.79588 
143860000    275.56092    483.15113    392.19925    -76165.81    76191.627    90.951882    23.803536 
143864000    260.39837    136.59014    399.93699   -76214.283    76253.854   -263.34684    23.808763 
143868000    269.31802    283.55731     369.1608   -76261.173    76305.667   -85.603487    23.822559 
143872000    303.45374    302.20973     282.8273   -76334.191    76343.821    19.382429    23.812287 
143876000    280.17448    532.48006     177.2519   -76395.393    76414.086    355.22815    23.791561 
143880000    247.05978    208.38139    239.65204   -76395.586    76442.016   -31.270659    23.796909 
143884000    296.84168    264.64988    210.92369   -76437.951    76470.321    53.726188    23.804434 
143888000    280.67478    347.21791    425.21733   -76477.928    76515.615   -77.999427    23.810383 
143892000    275.93286    339.83331    253.87467   -76517.634    76546.384    85.958633    23.790316 
143896000    302.05774    333.58392    252.49401   -76579.123    76600.766    81.089915     23.80698 
143900000    294.94177    405.02415    443.84821   -76658.554    76669.599   -38.824059    23.822816 
143904000    299.89383    518.69266    277.80947   -76687.201    76687.908    240.88319    23.824763 
143908000     275.9894    432.74297    232.72526   -76688.608    76731.946    200.01771    23.836581 
143912000    282.15222    372.67991    409.58207   -76715.729    76758.964   -36.902159    23.837335 
143916000    299.59376    509.33918    372.68922   -76779.239    76790.931    136.64997    23.845283 
143920000    309.32911    487.67404    254.11227   -76825.518     76849.58    233.56176    23.841773 
143924000    272.39192    181.42318    370.30798   -76863.692    76904.691    -188.8848    23.837637 
143928000    264.40795    473.54972    191.41044   -76938.576     76966.57    282.13928    23.832365 
143932000    268.68464    375.02039    252.66715   -76972.121    77015.322    122.35324    23.826229 
143936000    272.80418    244.47685    305.03836   -76997.424    77043.637   -60.561505    23.832496 
143940000    295.15175    498.61272    265.22501   -77071.855    77095.857    233.38771    23.828029 
143944000    248.14743    268.66693    265.05916    -77071.99    77131.804    3.6077709    23.844302 
143948000    263.53932    366.87541    300.55821   -77125.928     77160.83    66.317208    23.848408 
143952000    309.28798    305.86484    478.09408   -77175.193    77195.533   -172.22925    23.834296 
143956000    297.43053    420.62655    392.25515   -77212.961    77227.004    28.371397    23.843015 
143960000    282.68397     363.7453    513.16944   -77246.588    77279.441   -149.42414    23.834788 
143964000    264.27056    328.37592    302.51474   -77247.792    77299.105    25.861177    23.837877 
143968000    278.67394    447.70303    254.08064   -77286.363    77305.951    193.62239    23.819345 
143972000    318.39006    524.15363    568.65034   -77341.333    77348.977   -44.496718    23.814107 
143976000    322.31211    299.15506     434.9476   -77421.439    77401.849   -135.79254    23.812605 
143980000    262.34696    202.29186    215.01823   -77426.616    77485.723   -12.726367    23.817277 
143984000     293.9582    254.59936    350.45122   -77469.782    77485.664   -95.851855    23.817739 
143988000    286.26007    448.43118    310.92674   -77489.316    77518.135    137.50444    23.819499 
143992000    287.26537    276.71377    287.66803   -77511.517    77533.546   -10.954256    23.822329 
143996000    303.20419    348.29008    460.63949   -77537.716    77544.905   -112.34941    23.819778 
144000000    276.37919    274.09834    132.78995    -77592.89    77640.836    141.30839     23.81907 
144004000    292.45821    278.96203    283.31497   -77652.213    77670.653   -4.3529364     23.81793 
144008000    290.00299    333.19712    214.79347   -77685.501    77700.267    118.40365    23.802867 
144012000    281.90378    363.37776    308.03088   -77720.014    77742.545    55.346879    23.818164 
144016000    302.70025    432.07684    296.38859   -77731.363    77759.895    135.68824    23.817259 
144020000    256.88175    253.94775    439.58494   -77759.562    77792.731   -185.63718    23.811951 
144024000    283.96395    484.99055    302.70371   -77818.798    77842.726    182.28684    23.811525 
144028000    284.07743    267.55667     306.8317   -77821.703     77850.86    -39.27503    23.781022 
144032000    288.73811    377.94258    274.76192   -77874.766    77884.691    103.18067    23.776186 
144036000    306.48107    268.40291    412.76504   -77904.794    77912.137   -144.36214    23.801369 
144040000    272.74164    415.34139    242.33751   -77939.069    77991.335    173.00388    23.801223 
144044000    248.05825    420.48738    424.69729   -77962.722    78015.388   -4.2099025    23.817026 
144048000    272.47816    201.38868    480.11944   -78005.485    78045.927   -278.73076    23.815703 
144052000    297.45089     334.2475    558.97682   -78052.231    78060.989   -224.72933    23.806696 
144056000    272.32588    371.07805    558.59053   -78072.433    78112.334   -187.51249    23.818029 
144060000    241.08519    377.15012    278.48204   -78102.931    78167.715     98.66808    23.814131 
144064000    258.81773    436.01359    346.57902   -78148.233    78195.098     89.43457    23.804219 
144068000    286.63046    411.96222    341.08643   -78171.774    78207.895    70.875788    23.798536 
144072000    269.91921    372.12479    445.51071   -78211.285    78250.316    -73.38592     23.78501 
144076000    291.98473    240.78471     328.8505   -78271.951    78287.238    -88.06579    23.778945 
144080000    284.76931    484.76269    391.89585   -78277.764    78301.734    92.866838    23.780573 
144084000    256.47151    192.99455    174.71825   -78288.336    78316.652    18.276301    23.784779 
144088000    312.53785    545.60327    437.88523   -78358.451    78361.926    107.71803    23.797781 
144092000    280.36619    265.91717    498.31364   -78383.462    78414.345   -232.39647    23.793044 
144096000    310.46145    350.06418    253.05018   -78447.652    78442.376    97.014003    23.789411 
144100000    296.32596    591.86675    256.86415   -78459.284    78469.692    335.00259     23.79022 
144104000    292.15969    282.64202    355.42773   -78488.152    78497.306   -72.785715    23.785431 
144108000    303.42614     380.5991    475.01294   -78510.356    78524.708   -94.413841    23.782553 
144112000    286.91209    383.70155    434.22635   -78515.452    78534.235   -50.524803     23.78854 
144116000    291.54438    377.34812    370.23598    -78554.81    78577.214    7.1121422    23.782429 
144120000    292.97963    392.78377    365.10019   -78593.336    78614.329    27.683576    23.768201 
144124000    290.07656    279.02567     315.6855   -78605.319    78632.128   -36.659835    23.784559 
144128000    267.42028    420.94617     220.0356   -78652.117    78707.018    200.91057    23.779398 
144132000    255.77668    368.09067    172.81533   -78714.047    78767.315    195.27533    23.781983 
144136000    244.76314    257.10125    383.98506   -78775.257    78827.584   -126.88381    23.763242 
144140000    301.13259    278.80024    293.05843   -78865.632    78883.431   -14.258196    23.744977 
144144000    296.29742    295.61374    322.77995   -78902.956    78924.026   -27.166213    23.761774 
144148000    274.36577    519.47662    196.49063   -78935.359    78984.059      322.986    23.766409 
144152000    292.88476    274.63755    315.49164   -78992.916      79012.9   -40.854088     23.76984 
144156000    282.93519    187.97958    425.92468   -79088.513    79116.021    -237.9451     23.78001 
144160000     290.0323     282.9698    442.43027   -79136.159    79163.398   -159.46047    23.762231 
144164000    278.38744    353.80039    476.80211   -79178.232    79217.207   -123.00172    23.748806 
144168000    269.10786    527.22335    179.39067   -79215.833    79250.341    347.83268    23.758222 
144172000    293.30701    250.50715     241.7252   -79286.009    79301.543    8.7819506    23.755449 
144176000    281.52417    143.82379    351.74861   -79341.315     79362.27   -207.92482    23.756017 
144180000      270.438    304.31074    260.95909   -79392.392    79433.859     43.35165     23.75843 
144184000    282.83439    332.52633    239.90224   -79420.811    79463.948    92.624088    23.788386 
144188000    295.55317    434.82549    370.00003    -79471.22    79493.126    64.825462    23.778254 
144192000       269.48    378.01556    365.89784   -79480.754    79512.805    12.117721    23.788324 
144196000    304.22968    293.95613    399.50306   -79516.112    79548.816   -105.54693    23.784664 
144200000    264.57344     323.0237    262.98675   -79540.288    79588.789    60.036948    23.806283 
144204000    267.12874    424.72603    361.76335   -79584.649    79628.479     62.96268    23.820917 
144208000    263.64043    181.02614    308.82698   -79620.993    79681.318   -127.80084     23.83318 
144212000    283.78488    361.69575    333.67482   -79682.657    79729.196    28.020927    23.839671 
144216000    244.68609     399.0956    242.05102   -79681.472    79749.306    157.04458    23.838222 
144220000    266.61283     405.9575    202.97666   -79723.916    79768.163    202.98084    23.845683 
144224000    257.30742    507.22546    178.53352   -79783.526    79836.349    328.69193    23.856381 
144228000    296.31287    285.10215    298.49021   -79865.455    79868.873   -13.388057    23.863901 
144232000    270.49914    345.09796    327.17672    -79921.27    79943.566    17.921241    23.874393 
144236000    291.36191    332.85526    262.12913   -79989.876    80021.906    70.726129    23.898842 
144240000    256.55388    226.50339    291.61204   -80035.634    80065.882   -65.108641    23.906511 
144244000    297.30001    335.35681    229.81976   -80100.313      80113.5    105.53705    23.906497 
144248000     319.3787    305.71565     251.4911   -80165.837    80172.108    54.224547    23.909625 
144252000    300.48909    359.94779     358.3499   -80176.378    80200.901    1.5978957    23.911507 
144256000    282.64792     331.2698    250.82079   -80196.473    80237.123    80.449006    23.928934 
144260000    282.60257    410.83932    282.62287   -80242.927    80259.081    128.21644     23.92315 
144264000    280.31738    306.07479    263.39832   -80284.904    80303.171    42.676465    23.925465 
144268000    292.37276    295.68775    312.93243   -80306.277    80322.464   -17.244677    23.913269 
144272000    290.53805    330.71528    165.00064   -80298.549    80324.013    165.71464    23.903456 
144276000     273.8949    280.27216    446.52241   -80293.771    80333.631   -166.25025    23.901709 
144280000    289.53704    348.02879    400.94566   -80321.216    80338.275   -52.916863    23.896193 
144284000    278.64133    484.72502    287.31639   -80362.922    80387.974    197.40864    23.895749 
144288000    266.04966    362.06365    393.15912   -80374.685    80417.247   -31.095472    23.898891 
144292000    298.58341    540.91688    203.89292   -80449.269    80475.937    337.02396    23.899478 
144296000    286.73906    294.44887    285.75808   -80480.066    80494.201    8.6907882    23.892798 
144300000    292.38683    236.39586    314.02909   -80501.225     80531.22   -77.633235     23.90267 
144304000    260.38612    407.65535    285.26464   -80549.605    80610.506     122.3907    23.895115 
144308000    287.96628    390.04158     382.2933   -80631.387     80650.42    7.7482806    23.893083 
144312000    271.20459     307.0293    362.91523   -80634.441    80675.709    -55.88593    23.892191 
144316000    293.67241    256.82087    340.45206   -80710.849    80726.177   -83.631198    23.882399 
144320000    281.73593    309.04112    352.52568   -80738.394    80756.356   -43.484563    23.860693 
144324000    286.15985    269.93001    381.81997   -80745.271    80776.128   -111.88996    23.848407 
144328000    278.27105    268.21556    278.10329   -80756.198    80797.181   -9.8877268    23.858005 
144332000    252.09184    257.61391    286.54877   -80811.319    80867.356   -28.934856    23.855954 
144336000    292.99023    335.39391     225.0562   -80885.838    80905.342    110.33771    23.866378 
144340000    261.47244    360.26542    271.97777   -80918.601     80946.44    88.287652    23.868519 
144344000    303.42528    254.91384    458.55355    -80978.47    80983.193   -203.63971    23.858805 
144348000    279.82869    360.13371    399.64477   -81031.749     81074.43   -39.511056    23.866322 
144352000    270.76509    527.55606     238.5215   -81072.387    81127.166    289.03456    23.873476 
144356000    289.13698    307.43158     264.3528   -81140.213    81167.953    43.078779    23.862503 
144360000    249.84983    237.50903    186.61067   -81151.283    81191.197    50.898358     23.84887 
144364000    301.65017    449.49604    264.09637   -81210.415    81217.927    185.39967    23.844647 
144368000    298.98803    335.99929    323.20526   -81298.987    81296.214    12.794029    23.841534 
144372000    292.24577     298.2443    464.58414   -81318.291    81340.482   -166.33983    23.832926 
144376000    300.88989    443.70045    338.78512   -81388.952    81395.735    104.91534     23.83469 
144380000    257.85708    279.74594    251.45387   -81416.197    81467.786    28.292061    23.828993 
144384000    278.93571    321.00594    272.72289   -81451.147     81484.01    48.283055    23.805786 
144388000    249.85294    213.26734    244.91134   -81486.541    81530.919   -31.644003    23.808589 
144392000    288.20967    354.36522    438.02398   -81553.522     81585.49   -83.658757    23.807589 
144396000    246.84918    256.28051    270.83914   -81604.814    81653.088   -14.558626    23.809167 
144400000    266.59778    411.10745    426.48895   -81655.905     81674.44   -15.381499    23.820442 
144404000    286.01778    259.02805     331.6969   -81693.406    81728.718   -72.668854    23.806796 
144408000    273.86585     354.0142    448.92407   -81723.105    81751.899   -94.909872    23.824994 
144412000    299.78883     284.3294    321.56671   -81760.861    81786.509   -37.237316    23.812849 
144416000     298.1548    372.97476    324.23051   -81790.665    81812.697    48.744255    23.812275 
144420000    270.91669    474.10359    302.27459   -81807.605    81847.668    171.82901    23.809738 
144424000    264.98089    379.15086    247.70154   -81864.599    81899.647    131.44932     23.80145 
144428000    293.28224    162.25935    387.73321   -81907.057    81927.459   -225.47386    23.797697 
144432000    278.59952     306.0417    400.40278   -81945.028    81977.612   -94.361077     23.78556 
144436000    254.44394    591.05106    387.60684   -81961.054    82003.007    203.44422    23.787365 
144440000    280.33582    385.75484    326.22449   -82003.138    82024.103    59.530344    23.774745 
144444000    245.44636    204.38264    337.66896   -82023.085    82062.547   -133.28632    23.773894 
144448000    293.03966    284.84846    430.15444   -82074.796    82086.064   -145.30598    23.762021 
144452000    299.53766    363.82935    365.90262   -82131.767    82129.621   -2.0732661    23.763871 
144456000    279.11301    234.29621    381.15253   -82139.197    82173.717   -146.85631    23.756754 
144460000    256.73533    363.38647    337.71929   -82177.468    82212.982     25.66718    23.762809 
144464000    276.78438    297.20875     297.3662   -82192.381     82223.59  -0.15745247    23.762159 
144468000    298.35067    338.58848     286.7377   -82270.248    82279.042     51.85078    23.758503 
144472000    321.02242    383.99132    320.23041   -82287.509    82315.777    63.760903    23.775593 
144476000    279.51441    414.05963    291.37343   -82332.715    82369.411    122.68619    23.774731 
144480000    274.03241    352.94076    355.24554   -82342.634    82393.105   -2.3047801    23.777939 
144484000     262.2297    252.78178    376.59227   -82394.213    82431.892    -123.8105    23.791574 
144488000    280.95379    240.61239    366.65689   -82405.288    82425.553    -126.0445    23.777171 
144492000    315.40827    360.88993    498.25918    -82431.36    82463.948   -137.36925    23.771832 
144496000    284.41846    285.50475    379.51525   -82470.566    82499.461    -94.01051     23.77237 
144500000    273.97503    321.45491    407.19344   -82500.992    82532.859    -85.73853    23.764864 
144504000    260.44786    375.33883     168.7558   -82537.196    82588.165    206.58303    23.768608 
144508000    256.25042    438.91655    288.26759   -82589.952    82633.883    150.64896    23.749412 
144512000    245.52003    288.57618    297.40106   -82612.755    82677.292    -8.824881    23.728914 
144516000    267.86063    252.48831     352.5396   -82655.108    82689.027   -100.05129    23.736811 
144520000    284.91237    278.86595    416.77439   -82706.012    82731.822   -137.90844     23.72194 
144524000    275.72997    324.56582    259.77078   -82733.369    82761.298    64.795045    23.705192 
144528000    281.39571    335.28774      337.916   -82751.095    82787.533   -2.6282588    23.710765 
144532000    279.30629     388.1286     310.4988   -82819.035    82834.788    77.629798     23.72171 
144536000    270.56499    493.99259    319.49299   -82837.175    82864.655     174.4996    23.732562 
144540000    259.44083    308.01881    215.50609   -82903.591    82933.907     92.51272    23.726921 
144544000    289.77898     345.3533    400.10943   -82970.933    83004.549   -54.756123    23.722774 
144548000    284.62104    330.98255    239.00969   -83008.909    83039.708    91.972866     23.72523 
144552000    277.05437    282.34597     302.4728   -83041.587    83073.662    -20.12683    23.718463 
144556000    270.78931    424.22076    362.68444   -83121.489    83157.647    61.536318    23.707373 
144560000    305.02653    333.98937    312.59631   -83179.218    83180.671    21.393058    23.694999 
144564000     263.0191    235.30589    314.99856   -83222.808     83263.58   -79.692674    23.691856 
144568000    279.86632    293.02976    288.94752   -83254.536    83279.279    4.0822393    23.712527 
144572000     293.5976      262.722    312.20282   -83317.808    83331.244   -49.480816    23.707018 
144576000     312.4808    535.80428    257.71829   -83395.359    83395.852    278.08598    23.700674 
144580000    304.66111    445.97966    259.20659   -83424.891    83424.845    186.77307    23.707601 
144584000    304.22885    271.14247    537.79043   -83442.739    83463.497   -266.64796    23.715791 
144588000    283.47516    280.29714    273.61581   -83481.179    83506.365    6.6813317    23.722294 
144592000    241.14011    185.28744       221.53    -83494.66    83545.954   -36.242559    23.723899 
144596000    289.51862    374.07501    331.11728   -83531.407    83555.207    42.957729    23.729585 
144600000    288.66036    460.34701    352.10024   -83618.101    83650.927    108.24677    23.731835 
144604000    274.52329     466.0399    423.50322   -83661.719    83698.169    42.536674    23.752862 
144608000    277.85912    446.64616    252.47792   -83704.676    83722.125    194.16824    23.761003 
144612000    299.13753    675.82295    400.17478   -83739.442    83758.191    275.64817    23.745656 
144616000    306.65094    439.17796    368.14964   -83773.977    83786.819     71.02832     23.74842 
144620000    274.23045    214.75742    292.24131   -83764.445    83801.037   -77.483899    23.745145 
144624000    306.14679    253.03777    249.31401   -83778.602    83781.286     3.723768    23.746768 
144628000    281.15336    358.31547    316.54914   -83820.132     83835.83    41.766335    23.748441 
144632000    283.31283    315.51796    291.36163   -83873.597    83899.865    24.156336    23.770003 
144636000      278.952    184.64252    360.74712   -83905.454    83955.034    -176.1046    23.776916 
144640000    308.64086    413.34044    397.11886   -83958.372    83981.659    16.221584    23.775027 
144644000    284.24094    343.68037    294.83063   -83983.383    84014.461    48.849745    23.787434 
144648000    281.40661    195.19893    157.58105    -84007.05    84043.028    37.617884    23.793906 
144652000    261.76124    252.16595    333.28616   -84047.468    84072.502   -81.120214    23.786454 
144656000    304.50274    323.84662    344.36458   -84087.546    84122.294    -20.51796    23.787438 
144660000    266.66144    257.50757    238.42047   -84124.197    84142.602    19.087098    23.783228 
144664000    294.16138    383.62333    515.28198   -84170.123    84183.009   -131.65865    23.769505 
144668000    285.88955    469.95994    406.78667   -84208.845     84252.38    63.173271     23.76746 
144672000    289.93075    453.72063     382.9294   -84264.198    84300.271    70.791236    23.768944 
144676000    283.33617    212.77017    340.76349   -84324.321    84353.549   -127.99332     23.77162 
144680000    302.83099    423.65651    464.25967    -84371.36    84394.145   -40.603159    23.761344 
144684000    259.08588    486.54427    160.21048   -84401.076    84449.977    326.33379     23.76578 
144688000    254.40084    325.77067    311.16724   -84445.903    84495.979    14.603423    23.769662 
144692000    294.29841    333.08304    262.57469   -84495.702     84523.45    70.508355    23.773621 
144696000    277.23217    305.23736    286.76725   -84525.068    84560.439    18.470112    23.768124 
144700000    288.75594    259.40199    555.24257   -84610.061    84633.861   -295.84058    23.779551 
144704000    283.29927    270.09339    185.28524   -84650.034    84669.207    84.808151    23.770859 
144708000     261.0647    338.54455    197.01617   -84709.154      84743.5    141.52839    23.790824 
144712000    244.65623    357.36126    461.87402   -84723.836    84777.419   -104.51276    23.793739 
144716000    256.61542    205.32358    221.44719   -84719.715    84760.181   -16.123615      23.7919 
144720000    270.53958    316.46827    273.33768   -84751.199    84780.354    43.130589    23.777367 
144724000    281.89333    357.46755    376.41754   -84785.744    84811.484   -18.949987     23.77114 
144728000    285.29731    294.85876    410.95363   -84806.571    84848.386   -116.09487    23.773308 
144732000    314.13757    443.72432    308.73563   -84859.022    84878.643    134.98869    23.762366 
144736000    275.42231    345.03767    433.60862    -84864.25    84901.206   -88.570956    23.772315 
144740000    257.38097    416.82822    560.99446   -84909.585    84952.138   -144.16624    23.749943 
144744000    259.95085    462.46694    244.14454   -84965.605    85012.342    218.32241    23.762217 
144748000    275.69555    377.37471    332.97853   -85044.703    85066.605    44.396184    23.772882 
144752000    304.82755    231.27026    316.32463   -85053.331    85072.516   -85.054369    23.777563 
144756000    323.25226    335.91163    481.30065   -85050.304    85062.754   -145.38902    23.776518 
144760000    288.20037    303.28866    257.89523   -85100.933    85111.922    45.393435    23.778658 
144764000    303.28877    401.71318    340.56875   -85157.442    85167.159    61.144427    23.780995 
144768000    273.42988    219.60685    377.42843   -85187.077    85214.614   -157.82158    23.775196 
144772000    275.26999    183.62919    346.28218   -85231.517    85257.161   -162.65299    23.774711 
144776000    282.74901    316.85191    325.24714   -85296.664    85319.737   -8.3952249    23.773359 
144780000    287.83863    434.06648    265.39804   -85344.142    85387.261    168.66844    23.776908 
144784000    293.37347    294.61907    415.71945   -85387.561     85425.57   -121.10038    23.758533 
144788000    281.82473    245.07118    361.21975   -85400.996     85432.08   -116.14858    23.750872 
144792000    281.67566    306.52454    387.81348   -85447.012    85478.876    -81.28894    23.750702 
144796000    285.92991    386.66875    302.20133   -85489.104    85522.974    84.467421    23.749996 
144800000    285.24222    283.46779    275.46724    -85540.66    85576.147    8.0005464     23.76868 
144804000     297.0144    543.16744    305.70982   -85628.841    85642.211    237.45762    23.781108 
144808000    293.94905    290.76117    440.83887   -85651.707    85666.569    -150.0777    23.778779 
144812000    300.81156       445.29    502.62825   -85705.676    85725.372   -57.338248    23.773765 
144816000    290.98882    456.35144    353.47386    -85758.85      85778.1    102.87758    23.778176 
144820000    261.52273    270.44498    330.44126   -85795.517    85838.167    -59.99628    23.772612 
144824000    277.47338    300.00128     336.5261   -85850.872    85893.241   -36.524825     23.77217 
144828000    295.07666    501.25786    343.33783   -85871.578    85893.767    157.92003    23.774443 
144832000    271.32717    227.02707    432.51925   -85900.245    85937.794   -205.49219    23.766811 
144836000     263.1822    325.12844    293.17785   -85931.403    85983.035    31.950594    23.776632 
144840000    271.63456    335.54943     409.4976   -85955.574    85979.007   -73.948168    23.777408 
144844000    306.46515    469.21301    538.39818    -86001.67     86007.02   -69.185174    23.771976 
144848000     292.7267    356.01662    212.46876   -86029.412    86049.486    143.54786    23.758512 
144852000     277.1074    526.55566    171.71856   -86074.018    86116.832     354.8371    23.757893 
144856000    292.48474    424.11237    319.44958   -86115.636    86140.976    104.66279    23.749085 
144860000    286.00514    350.42348    311.22786   -86171.304    86191.202    39.195623    23.745591 
144864000    269.85595    306.50554     163.4461   -86174.634    86210.157    143.05944    23.765696 
144868000    298.35041    384.99402     277.0165   -86222.365    86247.769    107.97752    23.768777 
144872000    311.30183    387.11956    376.55183   -86260.176    86270.623     10.56773    23.767805 
144876000     278.5273    304.54586    343.79736   -86296.871    86313.204     -39.2515    23.781485 
144880000    263.43096    323.67145     279.2172   -86323.177    86353.329    44.454247    23.783639 
144884000    292.26736    285.13587    403.43096   -86350.324    86384.888    -118.2951    23.777453 
144888000    285.18846    313.54283     370.4405    -86360.05    86387.394   -56.897671    23.787667 
144892000    337.22516    416.30826    413.94204   -86396.982    86406.044    2.3662169    23.793351 
144896000    279.15175    250.51368    257.16389   -86407.332     86431.24   -6.6502103     23.78199 
144900000    306.71811    331.03645    476.73171   -86413.334    86422.943   -145.69526    23.787079 
144904000    250.34094    179.31126    301.44819    -86411.47    86446.345   -122.13692    23.781427 
144908000    273.44279     381.2099    342.01451   -86454.428    86482.863    39.195388    23.767254 
144912000    270.60595    369.97441    300.36664   -86486.881    86513.827    69.607774    23.772326 
144916000    288.57349    301.66831    337.37343   -86535.252     86548.74   -35.705121    23.788129 
144920000    304.76974    389.33031    190.45484   -86588.208    86600.505    198.87547     23.77778 
144924000    284.63432    416.09526    343.82196    -86600.23    86624.019    72.273297    23.780771 
144928000    310.10573    467.45333    359.69775   -86648.138    86650.949    107.75558    23.784643 
144932000    291.33836    434.71291    360.94012   -86686.865     86708.56    73.772791    23.789174 
144936000    277.98635     245.3786    424.00877   -86708.303    86740.653   -178.63017    23.784311 
144940000    278.37931    281.20457    483.11187    -86741.46    86767.151    -201.9073    23.792679 
144944000     297.3758    326.25773    374.66331    -86775.09    86817.473   -48.405581    23.793009 
144948000    280.64318     348.2368    299.81209   -86820.327    86844.018    48.424709    23.787859 
144952000    271.62607    405.45624    344.73106   -86833.646    86872.708    60.725182    23.789594 
144956000    282.13329    398.05715    515.08691    -86837.79    86867.642   -117.02977     23.78959 
144960000    274.50608    339.31669    299.66541   -86899.779    86928.351    39.651281     23.78632 
144964000     299.4582    253.70602    433.26456   -86943.644    86939.645   -179.55855    23.789622 
144968000    308.13419    267.70643    243.24882   -86984.243    87003.911    24.457607    23.788999 
144972000    239.75097    177.09857    270.01801   -86975.941    87038.622    -92.91944    23.795991 
144976000    257.19966    318.52001    323.76361   -87007.031     87049.12   -5.2435956    23.780407 
144980000    266.71113    416.60613    232.16756   -87044.433    87081.052    184.43857    23.780841 
144984000    271.55731    283.63539    353.11005   -87099.159    87124.683   -69.474662    23.780992 
144988000    296.09929    409.65136    268.43355   -87139.348     87166.92     141.2178    23.771151 
144992000    305.29138    217.01723    395.99148   -87214.849    87212.636   -178.97425    23.767088 
144996000    247.26219    366.71603    210.91981   -87249.036    87311.737    155.79622    23.771381 
145000000    262.55349    322.92928    261.07902   -87313.778    87353.943    61.850264    23.778467 
145004000    272.62569    467.45374    241.66922   -87343.121    87362.988    225.78451    23.782955 
145008000    268.14152    351.23465    477.52151   -87372.768    87410.324   -126.28686    23.773548 
145012000    271.04806    198.85129    212.59952   -87425.716    87475.425   -13.748227    23.782144 
145016000    295.31701    303.23551    310.43438   -87502.108    87527.263   -7.1988688    23.779088 
145020000    283.96006    473.61751    237.20955   -87533.907    87572.212    236.40796    23.792413 
145024000    299.75662    295.82211     398.1862   -87590.343    87616.054   -102.36409    23.772934 
145028000    303.75072    373.25622    268.26843   -87623.738    87634.405     104.9878    23.773245 
145032000    291.17115    236.45135    402.69558   -87662.531    87670.824   -166.24424    23.777945 
145036000    307.14586    388.97791    340.59624   -87695.483    87704.252    48.381671    23.785809 
145040000    289.64008    499.56307     261.8828   -87722.668    87746.806    237.68027     23.78767 
145044000    304.49103    365.36725    256.58759   -87758.695    87774.585    108.77966    23.788677 
145048000    263.67845    419.27769    234.13782   -87757.035    87814.432    185.13987    23.786579 
145052000    287.91405     230.8666     395.3912   -87816.253    87851.526    -164.5246    23.774429 
145056000    293.45035    456.60675    339.33088   -87865.515    87888.851    117.27586    23.771152 
145060000    255.53134     312.2943    349.39049   -87877.878    87908.942   -37.096184    23.757972 
145064000    282.73934    311.33208    304.74069   -87923.988    87957.625    6.5913894    23.759833 
145068000     281.9649    357.49661    426.99592   -87957.435    87979.927    -69.49931    23.750029 
145072000     280.2422    385.79373    328.66097   -87962.996    88000.555    57.132766    23.748462 
145076000    290.47798    323.76286    573.35656    -87975.53    88023.174   -249.59369    23.733295 
145080000    272.97877    478.26808    311.64284    -88008.43    88050.528    166.62524    23.726443 
145084000    275.31382    275.22191    215.41655   -88094.998    88131.334    59.805361    23.710462 
145088000    276.25892    394.70687    333.50055   -88124.969    88162.439    61.206318    23.703737 
145092000    289.29127    365.03418    260.34293   -88169.644    88196.613    104.69125     23.71032 
145096000    307.39528    498.29952    385.63388   -88246.204    88258.469    112.66564    23.716648 
145100000    295.34736    323.63436     295.0892   -88286.997    88308.375    28.545163    23.689828 
145104000       295.78    353.28242    401.41282   -88330.963    88368.733   -48.130396    23.673423 
145108000    303.52489    392.14607     286.2576   -88366.507    88390.987    105.88847    23.676378 
145112000    299.44536    588.06908     220.7347   -88409.112    88425.527    367.33438    23.693915 
145116000    281.00382    170.70795     462.6177   -88452.219    88460.313   -291.90975    23.678664 
145120000    288.97029    372.85915    414.25363   -88496.703    88520.249   -41.394484    23.681267 
145124000     280.9907    401.52516    460.74099   -88519.121    88545.992   -59.215833    23.692108 
145128000    288.62857    493.58898    357.50053   -88556.333     88588.75    136.08845    23.694193 
145132000    263.11429    327.94499    343.05726   -88610.984    88650.551   -15.112272    23.678957 
145136000    287.62596    442.77479    255.22715   -88670.047    88702.125    187.54764    23.673013 
145140000    277.10884    225.26039    480.05449   -88705.872    88731.132   -254.79409    23.676177 
145144000    318.94946    248.69762    356.00231   -88759.767    88766.824   -107.30469    23.672127 
145148000     274.4206    337.28233     362.2751    -88775.15    88787.175   -24.992777    23.667023 
145152000    305.43818     302.9282    420.51942   -88798.157    88798.114   -117.59121    23.667414 
145156000    306.07778    190.36064    368.91009   -88842.214    88843.866   -178.54945    23.667723 
145160000    276.24136    324.05156    283.13776   -88840.203    88879.718      40.9138    23.667158 
145164000    271.17758    321.02843    230.62399   -88865.585    88911.223    90.404438    23.659776 
145168000     260.0156    247.45129    261.57814    -88910.12    88957.949   -14.126851    23.664524 
145172000    297.85526    328.45791    473.42963   -88934.853    88984.505   -144.97172    23.666154 
145176000     266.8717    262.33008    352.12095   -88992.706    89032.218   -89.790871    23.668869 
145180000    264.48989    276.37531    340.74869   -89022.032    89058.085   -64.373385    23.673352 
145184000     293.0848    478.22808    408.30719   -89060.753    89081.424    69.920886    23.673192 
145188000    255.57959    297.43525    357.02711   -89070.307    89118.036   -59.591863     23.66038 
145192000     305.5476    349.88397    407.44966   -89139.648    89164.595   -57.565692    23.655278 
145196000    256.22667    250.61802     307.2528    -89199.39    89233.381   -56.634779    23.639309 
145200000    292.33632    198.12433    247.98329   -89274.973    89305.355    -49.85896    23.650617 
145204000    277.68758    254.77942    341.85359   -89302.216    89332.504    -87.07417    23.653603 
145208000    267.39942    202.82601    411.62976   -89338.809     89381.48   -208.80375    23.650375 
145212000     298.4077     315.7754    344.62436   -89367.021     89397.23   -28.848962    23.645421 
145216000    289.62546    516.40118    430.13218   -89399.139    89435.943    86.269001    23.637859 
145220000    314.53151    438.11047    317.31916   -89441.743    89458.809    120.79131    23.632207 
145224000    301.40791    299.75232    393.96434   -89489.441    89490.615   -94.212023    23.634129 
145228000    267.24664    313.90003    315.48474   -89489.041    89528.869   -1.5847085    23.632107 
145232000    315.61608    388.33422    541.08172   -89558.243    89577.559    -152.7475    23.637718 
145236000    274.93042     269.7828    167.65141   -89628.303    89632.586    102.13138    23.650113 
145240000    294.27808    426.66887    292.83819   -89692.844     89714.39    133.83069    23.662441 
145244000     263.0409    255.34852    293.73029    -89714.27    89758.637   -38.381775     23.64321 
145248000    274.46745    316.17387    334.85363   -89745.031    89792.585    -18.67976    23.634947 
145252000     267.4698    357.62952     487.6642   -89796.286    89842.375   -130.03468    23.628252 
145256000    321.59697    511.37342    477.60351   -89850.904    89858.078    33.769906    23.607643 
145260000    274.07235    474.74454    312.75744   -89860.286    89875.602     161.9871    23.603974 
145264000    273.29343    364.54354    324.74622   -89865.166    89892.513    39.797317    23.601687 
145268000    301.75282    292.85021    257.11878   -89895.288    89899.112     35.73143     23.59151 
145272000    277.13875    332.33918    493.05361   -89953.017    89984.183   -160.71443    23.585076 
145276000    288.82564    551.24432    392.58889   -89986.456    90020.161    158.65542    23.587748 
145280000    324.18693     390.8696     307.5585   -90043.888    90032.812    83.311102    23.576803 
145284000     285.1108    299.32717    413.67129   -90051.828    90070.294   -114.34412    23.561062 
145288000    249.38293      183.077     381.5466   -90068.742    90121.402    -198.4696    23.549849 
145292000    275.62349     392.1669    241.01843   -90129.814    90146.763    151.14846    23.559565 
145296000     274.1638    338.70191    309.54081   -90153.002    90194.248      29.1611    23.560679 
145300000    280.79137    578.95887    269.03825   -90187.255    90223.158    309.92062    23.587678 
145304000    269.44328    353.68294    264.54351   -90226.739    90264.877    89.139432     23.58027 
145308000      273.967    253.96876    205.43806   -90265.949    90302.581    48.530705    23.580973 
145312000    289.62864    496.57858    458.51251   -90289.986    90317.644    38.066067     23.58163 
145316000    256.46367    223.32352    307.85411   -90333.733    90373.319   -84.530589    23.581644 
145320000      243.708     182.3699    169.44891   -90356.741    90404.751    12.920988    23.575023 
145324000    301.06402     393.5762    280.45187   -90413.879    90436.437    113.12433    23.586241 
145328000     290.3645    505.25401    419.16764     -90438.8    90452.242    86.086368    23.591864 
145332000     313.9831    423.42121     353.5489   -90462.376      90470.5    69.872314    23.581046 
145336000    262.52401    237.66564    384.61964   -90479.671    90509.188     -146.954    23.579502 
145340000    286.88017    310.66814    252.11209   -90509.486    90546.426    58.556053    23.580515 
145344000    267.67306    259.72816      213.521   -90535.151    90586.354    46.207159    23.586146 
145348000    286.92975    267.27171    347.63887   -90593.539    90614.157   -80.367164    23.583869 
145352000    300.79159    249.25671    273.33852   -90643.497    90667.951   -24.081816    23.579967 
145356000    250.88361    273.79987    386.28013   -90688.592    90740.015   -112.48026    23.576554 
145360000    289.42988    434.33079    257.29296   -90772.228    90782.631    177.03782    23.578247 
145364000    283.08877    367.29807    280.58453   -90857.957    90879.486    86.713547    23.578802 
145368000    272.08686    436.52576    409.38887   -90897.149     90920.05    27.136883    23.603523 
145372000    315.55816    564.91159    559.02128   -90940.906    90944.836    5.8903128    23.599714 
145376000    317.27404    315.62964    363.26887   -90969.952     90976.69   -47.639231    23.603137 
145380000    288.91459    531.51902    388.95094   -90984.569    91009.372    142.56808    23.614991 
145384000    264.67264    383.83016    263.79031   -91012.076     91057.58    120.03985    23.612785 
145388000    264.51046    341.87718    265.65919   -91031.122    91058.201     76.21799    23.608039 
145392000    278.67841    461.76941    265.72933    -91099.24    91121.884    196.04007    23.611064 
145396000    288.71133    395.07388    307.91416   -91136.117    91158.422    87.159715    23.625623 
145400000    265.60721    236.47746    262.42745   -91143.094    91192.793   -25.949991    23.622238 
145404000     275.2614     90.77813    402.39169   -91159.914    91218.182   -311.61356    23.626562 
145408000    306.68491    309.45983    453.06084   -91200.221    91239.681   -143.60101     23.63404 
145412000    245.37064    251.06011    221.21692   -91227.998    91277.208    29.843192    23.629523 
145416000    275.78769    408.39134    379.32164   -91272.442    91303.962    29.069704    23.638325 
145420000     280.5922     329.0521     378.7257   -91336.131    91363.169   -49.673603    23.648392 
145424000    283.94828    334.59472    196.47174   -91419.496    91459.429    138.12298    23.642048 
145428000    283.08486    329.30732      391.883   -91446.135    91475.954    -62.57568    23.642221 
145432000    259.63427    317.16942    376.27367   -91482.543    91528.326   -59.104244    23.627466 
145436000    331.05896    439.63227    506.76344    -91557.28    91567.369    -67.13117    23.623065 
145440000    284.74935    340.34953    350.37953   -91584.457    91601.738   -10.029999    23.615874 
145444000    272.05512    347.42392    240.63471   -91595.474     91645.31     106.7892    23.605769 
145448000    278.15618    505.48768    555.46231   -91661.372    91713.994   -49.974629    23.602871 
145452000    255.86248    215.01143    382.50779   -91724.629     91767.85   -167.49636    23.606082 
145456000    274.57599    277.26685     447.1425   -91756.141    91794.353   -169.87565    23.595493 
145460000     281.7949    304.68228    237.78824   -91812.516     91834.66    66.894039    23.600784 
145464000    310.92806    363.11381    287.78407   -91877.349    91878.929    75.329745    23.607504 
145468000    276.74398    375.05097    450.48308   -91892.227    91923.055   -75.432109    23.623252 
145472000    285.32929    306.01662    466.48512    -91921.08    91942.572    -160.4685    23.612402 
145476000    280.93134    322.20384    269.23398   -91940.461    91941.451    52.969863    23.607669 
145480000    295.09891    347.65552    348.08073    -91950.54     91977.97  -0.42520872    23.602973 
145484000    267.72005    305.64787    256.80386   -91954.966     91992.45    48.844012    23.594565 
145488000    273.48023    342.74192    199.90938   -91986.924    92024.027    142.83254    23.589492 
145492000    286.64161    409.92214    404.75126   -92035.213    92077.695    5.1708831    23.585006 
145496000    284.68213    327.42612    417.28665    -92095.36     92127.25   -89.860531    23.594802 
145500000    287.20484    249.30622    274.35653   -92132.208    92158.677   -25.050307    23.589562 
145504000    269.41705    439.19762    432.57118   -92142.406    92185.265    6.6264398     23.58683 
145508000    279.84474    578.00065    346.27787   -92172.104    92201.149    231.72278    23.577133 
145512000    292.88638     330.9509    415.58194   -92205.337    92233.115   -84.631042     23.58422 
145516000    274.05126    313.77242    228.84903   -92213.345    92254.743    84.923391     23.59258 
145520000    282.96758    419.79789    304.68125   -92218.017    92248.092    115.11664    23.584549 
145524000    288.78108    267.45674    239.71949   -92274.757     92297.01    27.737256    23.585305 
145528000    259.41526    245.03867    280.77501   -92287.354    92339.278   -35.736349    23.587023 
145532000    304.98657     259.8584    574.88503   -92328.931    92353.332   -315.02663    23.577175 
145536000    285.77251    242.36415    345.68568   -92363.763     92401.86   -103.32153    23.581564 
145540000    315.54153    393.15169    500.20276   -92416.202    92439.775   -107.05107    23.595285 
145544000    293.30322    361.58965    185.24854    -92464.54    92478.499    176.34111    23.603186 
145548000    254.19657    277.22604    263.09792   -92470.332    92502.927    14.128116    23.595069 
145552000    289.10023    317.69919    261.28495    -92533.41    92563.203    56.414233    23.607179 
145556000     259.9541    344.79464    297.27168   -92566.709    92597.135    47.522959    23.604193 
145560000    261.16483     300.8933     306.3758   -92580.907    92645.874   -5.4824995    23.598471 
145564000    306.02449    407.88721    442.91474   -92652.074     92673.85   -35.027532    23.604292 
145568000    268.16514    401.96082    386.49974   -92688.776    92727.251    15.461075    23.595993 
145572000    271.84113    282.27746    504.98813   -92745.487     92791.38   -222.71067    23.592488 
145576000    262.21954    328.37385    377.50655   -92782.157     92821.89   -49.132706    23.602509 
145580000     272.2306     206.2074    366.14849   -92817.125    92857.532   -159.94109    23.594634 
145584000    269.12445     370.5619    436.14642   -92843.551    92881.757   -65.584514    23.590328 
145588000    261.60062     367.3372    345.90628   -92884.338    92925.317    21.430925    23.572563 
145592000    264.93081    426.01775    165.21309   -92943.074    92976.731    260.80466    23.578314 
145596000    290.37607    245.34937     242.3054   -93002.263    93006.664    3.0439646    23.579429 
145600000    284.69219    450.07873    339.28762   -93048.086    93071.279    110.79111    23.588283 
145604000    287.87501     269.8849    351.07594   -93052.583    93081.601   -81.191039    23.586852 
145608000    296.09803    361.14433     257.6477   -93069.411      93097.2    103.49663    23.587045 
145612000    273.43719    538.50024    431.83994   -93082.271    93130.547    106.66029    23.595664 
145616000       277.37    370.14352    289.06283   -93142.265     93177.64    81.080691    23.591056 
145620000    281.88042    351.97878    345.73906   -93195.531    93229.236    6.2397203    23.599699 
145624000    315.34385    391.63242    348.85433   -93254.479    93264.558    42.778097    23.573681 
145628000    294.82162    342.73601    256.69959   -93284.564    93301.311    86.036427    23.561966 
145632000    277.41297    243.50307     361.5065   -93299.106    93324.202   -118.00343    23.571473 
145636000    293.86649    426.64511    470.03066   -93326.455    93342.711   -43.385543    23.576639 
145640000    263.65671    282.19466    294.50586   -93359.027    93399.963   -12.311204    23.575648 
145644000    263.35718    441.02774    303.87286   -93412.691    93455.071    137.15489    23.578299 
145648000    266.80091    390.52408    382.51526   -93474.523    93516.634    8.0088163    23.585112 
145652000    293.50768    290.99076     211.2536   -93530.106    93568.818    79.737161    23.597883 
145656000    278.57673    163.53303     323.8526   -93566.236    93585.804   -160.31957    23.601845 
145660000    291.38124    271.33185    361.28999   -93586.017    93623.093   -89.958139    23.596185 
145664000     273.5289    289.87932    300.96542   -93621.198    93663.873   -11.086099    23.600355 
145668000    286.41558    467.96145    357.05841   -93649.013    93676.616    110.90304    23.600708 
145672000    283.12281    353.26918    395.02796   -93659.943    93683.298   -41.758778    23.616897 
145676000    258.04094    366.94183    486.06229   -93686.101    93750.299   -119.12046    23.611263 
145680000    267.25127    277.48354    317.78412   -93737.097    93785.443   -40.300585    23.609275 
145684000    267.58745    516.22643    199.97441   -93767.543    93806.626    316.25202    23.604857 
145688000    266.19734      443.022    476.75633   -93801.006    93829.827   -33.734327    23.600666 
145692000    280.19835     529.6004    227.50714   -93857.235    93886.563    302.09326    23.601434 
145696000     289.3014    310.51326     249.8658   -93879.162    93911.572    60.647463    23.602897 
145700000    275.63557    369.70592    321.13807   -93940.475    93966.807    48.567848    23.602365 
145704000    258.70662    403.54677    330.20915   -93953.064    93999.099    73.337617    23.603213 
145708000    272.40395    239.50366    223.34404   -94014.791    94053.035    16.159615     23.60282 
145712000    289.26907    264.13163    449.71584   -94052.335    94091.385   -185.58421    23.596511 
145716000    254.94004    398.88674    508.26573   -94124.944    94163.073     -109.379    23.592253 
145720000    280.99102    352.22599    295.04971    -94165.73    94197.019    57.176285    23.593422 
145724000     284.9946    589.36515    316.65087   -94196.372    94220.676    272.71428    23.600542 
145728000    310.91147    403.07985    536.20245   -94239.373    94227.043    -133.1226     23.60235 
145732000    281.89584     328.3162    272.31278   -94255.959    94293.924    56.003416    23.605547 
145736000    291.44542    407.51115     249.4217   -94307.401    94334.795    158.08945    23.596625 
145740000    273.81307    233.89605     215.1545   -94349.379    94388.629    18.741545    23.583695 
145744000    290.51331    304.29247    335.92177   -94403.971    94435.935   -31.629297    23.582683 
145748000    287.28024    262.78842    181.86819    -94474.08    94501.389    80.920235    23.583135 
145752000    276.50194    215.80439    394.94551   -94493.439    94520.808   -179.14112    23.585434 
145756000    260.22426    430.25293    217.92277   -94551.538    94595.436    212.33016    23.573867 
145760000    301.75603    282.93549    345.06239   -94595.264    94612.241   -62.126902    23.575691 
145764000    296.29224    359.37704    322.07507   -94616.999    94632.432    37.301967     23.57595 
145768000    290.50516    452.66005    253.91453   -94660.608    94683.702    198.74551    23.577142 
145772000    317.93631     337.3311    351.73592   -94709.226    94723.516   -14.404815    23.575913 
145776000    264.60307    322.44231    245.78309   -94754.348    94800.939    76.659217    23.557655 
145780000    295.94344      256.013    470.89754   -94784.387    94813.583   -214.88454    23.551376 
145784000    259.72443    364.02564     321.5791   -94847.489    94881.831    42.446542    23.552077 
145788000    270.01185    423.70159    238.40568   -94887.222    94933.268    185.29591    23.557905 
145792000    314.18544    465.62027    444.04204    -94963.81    94983.386     21.57823    23.546466 
145796000    267.25366    369.83091    315.29434   -95005.614    95040.295    54.536573    23.558044 
145800000    268.93669    397.01144    304.17184   -95050.412    95097.635    92.839598    23.548557 
145804000    254.00183     196.7518    231.08149   -95111.077    95139.281   -34.329689    23.554266 
145808000    282.33497    296.42792    382.33839   -95153.944     95185.81   -85.910468    23.569106 
145812000    292.07433    311.76766    376.38019   -95198.435    95235.499   -64.612536     23.56894 
145816000    314.07255    431.92153    370.98879   -95263.212    95273.919     60.93274    23.560725 
145820000    272.46874      307.442    336.92507   -95265.627    95290.274    -29.48307    23.559972 
145824000    285.53427    298.83394    378.52441   -95297.429    95327.691    -79.69048    23.551832 
145828000    253.50478    360.33377    353.53368   -95353.472    95407.764    6.8000903    23.559443 
145832000    284.13927    290.18326    375.37694   -95427.148    95460.462   -85.193673    23.577215 
145836000    270.00575    249.97421    252.05659   -95466.906    95499.049   -2.0823765    23.572625 
145840000    297.30098    590.53612    348.57485    -95517.79    95528.386    241.96127    23.579171 
145844000    270.11897    452.90202    276.73347   -95548.205    95579.786    176.16855    23.578225 
145848000    283.81154    282.18917    263.38663    -95564.56    95598.948    18.802542    23.565563 
145852000    321.99715    444.05708    415.14484   -95625.888    95642.993    28.912241    23.554647 
145856000    277.91717    399.93358    431.38583   -95683.672    95705.292   -31.452243    23.544339 
145860000    262.05903    307.56931    226.48282   -95712.457    95741.977    81.086489    23.544524 
145864000    287.55322    412.37686    266.54222   -95734.647    95765.149    145.83463    23.551504 
145868000    254.10835    230.97954    393.15575   -95753.393    95807.923   -162.17621     23.55399 
145872000     278.1598    271.13208    387.37185   -95773.882    95808.017   -116.23977    23.547071 
145876000    266.52727    286.59934    447.07771   -95828.143    95869.586   -160.47837    23.551477 
145880000    280.24686    540.26957    277.39775   -95880.543    95926.457    262.87182    23.558831 
145884000    314.30862    325.12013    277.17684   -95946.892    95978.588    47.943284    23.558421 
145888000     242.9715    344.68272    230.98095    -95979.16    96048.341    113.70177    23.571651 
145892000    257.82749    413.66665    345.77785   -96031.351    96088.405    67.888798    23.573317 
145896000    265.19969    255.73638    404.13711   -96045.143    96102.173   -148.40073    23.573008 
145900000    253.30355    401.78195    292.67074   -96077.859    96111.364    109.11121    23.570266 
145904000    274.00882    446.29258    280.21125   -96075.227    96127.217    166.08132    23.558573 
145908000     308.8101    427.97957    456.23216   -96125.307    96138.815   -28.252588    23.555162 
145912000    257.42377    162.41538    248.37797   -96138.055    96193.474   -85.962589    23.553924 
145916000    270.18316    354.02332    199.75712   -96206.704    96239.362     154.2662    23.540227 
145920000    295.78728    277.13223    448.04028    -96278.44        96297   -170.90805    23.530193 
145924000    303.69346    251.73672    250.04567   -96327.107    96366.447    1.6910506    23.543049 
145928000    274.25471    432.01912    217.25172    -96379.39    96405.736     214.7674    23.549324 
145932000    292.36087    406.80056    436.96809   -96453.289    96470.587   -30.167531    23.540426 
145936000     272.2241    286.40435    339.81303   -96466.726    96502.477   -53.408676    23.534065 
145940000    268.28459     232.5323    301.41562   -96546.424    96583.706   -68.883327    23.516886 
145944000    260.80635    318.33047    323.40706   -96567.032    96603.547   -5.0765864    23.521201 
145948000    287.80953    312.72565    339.58899   -96638.406    96673.552   -26.863343     23.52517 
145952000    330.98573    252.35001    307.24212    -96680.26    96679.474   -54.892108    23.523697 
145956000    282.10425    424.37316    150.98734   -96743.623    96750.149    273.38582    23.528528 
145960000    285.52908    364.98368    280.76999   -96817.846     96839.62     84.21369     23.53535 
145964000     287.0786     393.7849    477.09833   -96846.536    96874.569   -83.313432    23.531156 
145968000    267.53177    528.88671    170.80478   -96885.139    96919.365    358.08193    23.525452 
145972000     255.0942    342.02308     347.8879   -96903.692    96955.404   -5.8648222    23.519549 
145976000    282.54917    334.97765    387.18896   -96929.243    96965.469    -52.21131    23.522253 
145980000    286.40636    518.15517    374.01956   -96992.497    97020.826    144.13561    23.514997 
145984000    293.82791    327.69261    304.09391   -97022.433    97048.768    23.598703     23.50547 
145988000    297.04089    256.12053    364.83088   -97052.959    97071.721   -108.71035    23.502482 
145992000    298.04291    449.55107    208.49637   -97082.754     97109.74     241.0547    23.505426 
145996000    270.71219    322.14525    522.90202   -97120.462    97163.139   -200.75677    23.494974 
146000000    281.68212    318.54052    255.03091   -97185.207    97218.667    63.509608    23.504239 
146004000    268.12268     244.2565    228.59312   -97264.582     97299.85    15.663374    23.494528 
146008000    282.27156    375.95127    433.92288   -97329.309    97381.712   -57.971604    23.503661 
146012000    250.94294    434.67573    318.09037   -97353.451    97400.066    116.58535    23.509206 
146016000    292.15102    411.20578    285.30618   -97412.164    97431.692     125.8996    23.508174 
146020000    278.75474    329.34077    345.62058   -97457.405    97506.875   -16.279802    23.507715 
146024000    259.88875    296.49406    377.91912   -97479.069    97524.185   -81.425051       23.506 
146028000    305.12081    324.67578    433.31247   -97535.484    97550.135   -108.63669    23.517614 
146032000    274.41774    224.33088    315.88136   -97559.762    97585.402    -91.55048    23.520103 
146036000    295.97507    499.81362    156.42868    -97591.78    97617.667    343.38494    23.521929 
146040000    279.13262    333.53768    499.57592   -97632.947    97658.241   -166.03824    23.511601 
146044000    284.42954    475.03895    443.71089     -97664.8    97702.819    31.328055     23.50466 
146048000    277.85005    238.89758    266.38894   -97691.308    97737.323   -27.491361    23.495807 
146052000    275.11596    332.54958    243.64103   -97741.153    97779.339    88.908544    23.491937 
146056000    282.59583    358.44952    238.75735    -97787.86    97825.673    119.69216    23.494809 
146060000    312.03914    259.88689    475.55635   -97859.942    97880.795   -215.66946    23.495905 
146064000    269.67543    300.64701    413.05718   -97889.524    97919.088   -112.41017    23.495548 
146068000    265.54663    300.43722    276.56076   -97910.232    97937.628    23.876458    23.496624 
146072000    285.71275    301.53533    311.90178   -97944.523    97975.407   -10.366449    23.508914 
146076000    311.15976     529.9549    352.29204   -98014.394    98036.633    177.66286    23.509352 
146080000    278.12422    365.67337    263.51641    -98041.74    98081.226    102.15696     23.51777 
146084000    276.03321    405.28726    309.64835    -98095.88    98130.924    95.638917    23.516192 
146088000    283.30215    439.73149     486.2135   -98115.905    98153.711   -46.482006    23.510603 
146092000    300.73964    313.84744    351.46825   -98156.181    98179.732   -37.620807    23.506206 
146096000    315.90652    232.34268    346.63091    -98230.31    98233.974   -114.28823    23.503343 
146100000    294.64891    530.89557    306.77176   -98241.613    98267.506    224.12381    23.521637 
146104000    305.48234    403.41047    280.34984   -98290.917    98307.553    123.06063    23.519125 
146108000    288.85161    341.76551    366.39776   -98336.274    98361.682   -24.632259    23.537602 
146112000    281.57202    221.43698    208.80683   -98367.269    98413.698     12.63015    23.538758 
146116000    292.83122    240.69281    358.55525   -98416.311    98445.462   -117.86244     23.53047 
146120000    292.99495    310.31976    402.67031    -98473.05    98496.108   -92.350547    23.530457 
146124000    292.35998    451.17444    392.51437   -98513.193    98518.514    58.660077      23.5334 
146128000    279.56163    249.91342    347.17246    -98548.08    98580.124   -97.259035    23.541018 
146132000    310.76102    424.02791    212.37681   -98605.643    98625.488     211.6511    23.544067 
146136000     292.0377    294.47903    246.34979   -98582.531    98607.508    48.129241    23.534658 
146140000    272.77523     294.3954    369.14881   -98599.449    98610.125   -74.753418    23.527084 
146144000     306.7078     216.4161     292.3679   -98665.723    98670.512   -75.951803    23.517788 
146148000     320.6942    265.40204    309.08488    -98693.58    98724.536   -43.682837    23.528786 
146152000    301.53684    368.47613    275.54606   -98782.291    98787.855     92.93007     23.54072 
146156000    284.02418    331.18902    376.05933   -98821.715    98847.052   -44.870312    23.541317 
146160000    243.89757    177.73347    393.51415   -98848.806    98897.822   -215.78068    23.551081 
146164000    306.52863    388.31798    412.48032   -98916.293    98939.567   -24.162335    23.559072 
146168000    241.22845    442.17788    226.87736   -98937.783    98978.951    215.30052     23.56891 
146172000    258.38326    274.18305    484.31777   -98972.354    99023.417   -210.13472    23.548049 
146176000    297.94867    425.01047     337.6022   -99042.532    99073.447    87.408267    23.542382 
146180000    264.72536    354.81195    310.56153   -99086.555    99125.735    44.250421    23.540503 
146184000    261.49717    406.60166    190.48355   -99086.452    99132.674    216.11811    23.539616 
146188000    280.76138    262.27266    479.70115   -99105.501    99137.054   -217.42849    23.525361 
146192000    251.50139    209.98478    409.61006   -99133.158    99180.957   -199.62528    23.543622 
146196000    271.41447    274.87449    445.00927   -99127.914     99164.35   -170.13478    23.562958 
146200000    255.84547    375.82421    312.18956   -99182.274    99221.293     63.63465    23.561402 
146204000    238.68806    300.93776    297.12138    -99214.57    99263.692    3.8163787    23.557186 
146208000    274.28744    335.71483    287.82353   -99285.018    99309.237    47.891295    23.559512 
146212000    265.60425    377.26028    233.15473   -99336.525    99376.752    144.10554    23.564023 
146216000    269.22539    272.11403    352.18532   -99384.075    99406.319   -80.071289     23.57211 
146220000    274.28016    256.04983    228.60147   -99431.515    99464.345    27.448357    23.566818 
146224000    267.60829    562.50014    211.05767   -99454.124    99492.163    351.44247     23.56665 
146228000     282.2382    326.96948    253.50877   -99502.244    99533.822    73.460709    23.574328 
146232000    298.28959    437.13551    386.42051   -99539.637    99573.558    50.714997    23.567816 
146236000    284.63753    348.09285     471.0244   -99570.499    99617.418   -122.93154    23.558805 
146240000    261.21309    266.18231    313.02711   -99589.202    99635.293   -46.844794    23.548137 
146244000    279.06438    293.90844    301.27267   -99628.711    99671.677    -7.364235     23.55035 
146248000    287.56458    298.45396    430.97642   -99680.024    99718.437   -132.52246     23.53895 
146252000    282.29844    319.12085    312.06506    -99759.46    99792.459    7.0557923    23.534153 
146256000    300.23411    467.81129    246.96859   -99788.085    99808.678     220.8427    23.528681 
146260000    270.98473    255.93125    249.93823   -99816.395    99859.531    5.9930208     23.52202 
146264000     294.9799     547.0387    382.00416   -99875.112    99923.373    165.03454    23.531886 
146268000    290.59194    308.13975    312.57738   -99898.749    99942.989   -4.4376263    23.543882 
146272000    286.71357    440.66451    248.51288   -99915.655    99955.072    192.15164    23.543619 
146276000    273.13232    220.54978    313.18649   -99976.649    100004.11   -92.636717    23.559373 
146280000    301.99664    533.52428    311.46432   -100017.34    100040.96    222.05995    23.546862 
146284000    297.37806    358.81436    383.97718    -100016.4    100055.08   -25.162825      23.5443 
146288000    319.32344     496.3918    259.32927   -100093.38    100084.63    237.06254    23.553639 
146292000    265.34672     286.8737    273.49532   -100112.76    100150.26    13.378381    23.573744 
146296000    318.38606      398.067    396.50389   -100166.59    100175.29    1.5631096    23.580522 
146300000    280.45932    513.85408    340.06002   -100213.32    100239.59    173.79406    23.586737 
146304000      285.424    303.49817    357.56374   -100262.15    100308.19   -54.065573    23.584171 
146308000    279.54783    326.02567      277.579   -100298.96     100332.5    48.446669    23.582233 
146312000    287.79415    398.87565    451.30087   -100357.41    100386.32   -52.425225    23.572084 
146316000    289.06431    519.44117    380.71223   -100393.96     100426.8    138.72894    23.570948 
146320000    264.58837    378.19732    254.02015   -100422.06    100452.27    124.17717    23.565309 
146324000    300.26637    326.40347    357.89416    -100462.1    100477.53    -31.49069    23.581523 
146328000    271.83535    328.00377    303.92612    -100504.8    100538.08    24.077652     23.57559 
146332000    298.42512    214.93399    268.48761   -100536.39     100560.9   -53.553618    23.575752 
146336000    269.25631    370.37186     446.0908   -100576.37    100620.35   -75.718937    23.576404 
146340000     268.6574    302.19206    353.26985   -100627.75    100659.07   -51.077786      23.5686 
146344000     250.4763    296.50757    351.03937   -100622.25    100679.71   -54.531793    23.559225 
146348000    275.69225    312.86131    376.09171   -100661.67     100712.6   -63.230397    23.553038 
146352000    266.10599    343.66037    214.93545   -100702.28    100748.17    128.72492    23.557639 
146356000    282.23879    489.76583    337.09922    -100774.6    100806.25    152.66661    23.558198 
146360000    285.57734    513.95641    205.98525   -100824.36    100849.33    307.97116    23.569306 
146364000    260.86706    281.19639    273.76545   -100849.58    100890.05    7.4309372    23.579344 
146368000    312.84159    316.39669     226.0019   -100875.81    100893.03    90.394788    23.592027 
146372000    289.41418    349.42029    388.15703   -100902.74    100928.31    -38.73674    23.583384 
146376000     308.3529    379.69781    210.96217   -100968.94    100978.89    168.73565    23.580178 
146380000    262.98076    177.25986    219.40223   -101021.39    101048.31    -42.14237    23.574715 
146384000     287.8745     297.1009    311.70803   -101073.72    101090.09   -14.607135    23.573351 
146388000    272.11637    312.02688    288.17282   -101098.49    101138.53    23.854055    23.586764 
146392000    279.88726    285.36608     441.0146   -101160.64    101179.07   -155.64852    23.583153 
146396000    304.28117    412.15039    378.34088   -101221.41    101233.15    33.809503     23.57602 
146400000    317.67196    290.68154     205.2231   -101281.81    101298.85    85.458432    23.565045 
146404000    317.91727    418.96141    302.90085   -101339.47    101353.67    116.06056    23.569163 
146408000    276.66478     465.2697    388.82613   -101370.48    101386.67    76.443571    23.564752 
146412000    318.25956    370.87602    506.96511   -101412.88    101429.26   -136.08908    23.560675 
146416000    250.10344    315.29565    401.11464   -101422.39    101471.58   -85.818988    23.559537 
146420000    284.74503    343.27128    356.99709   -101522.52    101552.28   -13.725813    23.561405 
146424000    294.13316    307.96728     195.5341   -101564.57    101585.83    112.43318    23.565856 
146428000    307.88692    268.13108    270.71381   -101599.24    101612.31   -2.5827211    23.556391 
146432000    251.60642     309.6992    243.18673   -101615.84    101662.09    66.512476    23.554061 
146436000    236.78043    293.42802    292.45446   -101619.77     101692.9   0.97356418    23.545013 
146440000    282.29484    439.92457    276.36577   -101676.25    101700.87     163.5588    23.545411 
146444000    259.33996    259.84932    344.09779    -101757.3    101781.88   -84.248473    23.546471 
146448000    264.57581    289.12504    317.56062   -101768.03    101804.58   -28.435589     23.54879 
146452000    283.84382    517.13971    275.95813   -101800.64    101839.52    241.18159    23.554452 
146456000     264.7859    488.92846    434.51251   -101831.11    101875.53    54.415949    23.554323 
146460000    292.34203     243.4133    348.80305   -101874.34    101891.84   -105.38975    23.550005 
146464000    265.15631    273.98669     228.6786   -101916.58    101958.93    45.308095    23.559028 
146468000    293.53824    386.41476    311.82472   -101982.35     102001.9    74.590035    23.567193 
146472000     256.3465    222.76221    366.28276   -101985.72    102038.51   -143.52054    23.566783 
146476000    271.04836    350.60324    310.88659   -102035.88    102078.78    39.716648     23.57687 
146480000    295.08989    401.89247    345.52789   -102103.61    102122.59    56.364581    23.573581 
146484000    253.01042    489.11268     292.9593   -102106.31    102167.34    196.15338    23.590453 
146488000    297.19548    335.91204     504.0985    -102177.9    102191.52   -168.18646    23.595697 
146492000    307.79754    364.99279    294.81839    -102218.5    102233.61    70.174406     23.59467 
146496000    316.68514    279.63305    222.45787   -102261.53    102276.08    57.175178     23.59459 
146500000    296.35085    371.46463    406.27738    -102290.3    102315.91   -34.812756    23.593266 
146504000    271.23987    279.82916    200.59219   -102342.74    102373.23    79.236976    23.601192 
146508000      281.183    162.01275    240.55355   -102363.23    102399.46   -78.540808    23.604918 
146512000    266.93971    270.65315    480.00558   -102389.46    102434.28   -209.35243    23.613329 
146516000    274.55827    446.27901    305.16845   -102426.36     102452.8    141.11056    23.603968 
146520000    291.76655    520.64201    238.54066   -102466.91    102491.49    282.10135    23.610021 
146524000     288.8082    266.17108    349.24912   -102512.63    102536.67   -83.078039     23.61161 
146528000    267.55755    261.65061    328.02335   -102559.72    102582.88   -66.372738    23.602123 
146532000     265.8187    340.83291    362.56445   -102619.25    102667.34   -21.731543    23.607672 
146536000    263.34244    346.83128    471.54738   -102646.51    102688.93    -124.7161    23.608779 
146540000    289.57072    335.96617     246.2232   -102691.98    102707.26    89.742973    23.609468 
146544000    282.50924    408.08264    241.38756   -102697.94    102735.31    166.69509    23.610763 
146548000    302.83418    398.81162    331.31345   -102734.81    102765.19     67.49817    23.601187 
146552000    278.72138     287.1855    395.65725   -102744.89    102775.17   -108.47175    23.606615 
146556000    306.94904    227.96236    371.90318   -102769.94    102791.99   -143.94082    23.608262 
146560000    283.18087    289.86385    252.75788   -102831.03    102856.42     37.10597    23.600683 
146564000    283.07208    401.77785    216.23338   -102907.12    102932.31    185.54447    23.613171 
146568000    292.54813    368.15692    294.03266   -102971.46    103003.78    74.124257    23.611832 
146572000    279.72076     420.1722    332.85687   -103022.68    103060.48    87.315334    23.610424 
146576000    316.36746    480.38503    294.79937   -103063.88    103069.84    185.58566    23.621223 
146580000    266.96319    408.90594    407.90467   -103069.48     103116.6    1.0012647    23.621638 
146584000    264.85185    293.63643    437.22384   -103082.23    103140.58   -143.58741     23.62086 
146588000    288.33232    292.17462    332.54424   -103181.95    103219.11   -40.369614    23.614093 
146592000    275.03398    502.81622    400.22921   -103205.33    103230.19    102.58701    23.612162 
146596000     314.4743    359.87705    338.19448   -103239.67    103234.45    21.682576    23.615953 
146600000    239.21836    261.44519    342.88277   -103241.78    103306.34    -81.43758    23.613152 
146604000    276.35774    488.74924    376.03142      -103338    103372.27    112.71782     23.60695 
146608000    300.25777     414.5053    437.88912   -103385.61    103399.86    -23.38382    23.605942 
146612000    293.10794    564.32425    350.90903   -103433.19    103464.99    213.41522     23.61053 
146616000    274.67531    320.82259    368.50969   -103470.74    103513.32   -47.687102     23.60833 
146620000    318.34857    471.45617    228.35687   -103537.13    103549.11    243.09929    23.610568 
146624000    297.53902    206.21083    436.61221   -103536.03    103586.67   -230.40138    23.610425 
146628000    282.13181    383.15045    198.38136   -103575.06    103606.95    184.76909    23.603566 
146632000     263.5212     155.6956    255.82389   -103593.19    103643.37    -100.1283    23.598299 
146636000    255.18525    322.69246    355.91749   -103590.87    103657.49   -33.225028    23.603665 
146640000    261.41441    340.87843    226.94205   -103632.46    103672.75    113.93638    23.616332 
146644000    296.36055    451.57122    220.09926   -103691.81    103708.34    231.47196    23.629222 
146648000    283.45977     346.9116    275.04692   -103715.22    103747.84    71.864679    23.619834 
146652000    300.55288    229.46478    217.36791   -103737.75    103768.72    12.096872    23.612084 
146656000    277.91834    253.50224    155.82347   -103782.59    103826.57    97.678769    23.622641 
146660000    294.59788    477.46189    257.66911   -103818.76    103854.47    219.79278        23.62 
146664000    266.56209    222.21656    179.46572   -103877.28    103909.17     42.75084    23.618304 
146668000    278.64022    256.98779    161.65241   -103943.74    103960.48    95.335376    23.605444 
146672000    295.50142    395.58477    243.22071   -103979.14    103987.96    152.36406    23.606038 
146676000    267.85757    407.41747    394.74035   -103970.57    104014.11    12.677122    23.613328 
146680000    300.65847    339.38617    318.81097   -104019.11    104058.21    20.575198    23.601258 
146684000    293.80611    431.26328    474.64946   -104057.32    104096.33   -43.386182    23.601286 
146688000    253.98404    276.35868    178.50797   -104057.13    104107.68    97.850714      23.5855 
146692000    277.34949    366.13903    503.41127   -104095.86    104123.78   -137.27224    23.581744 
146696000    290.40275    418.83415    256.30874   -104138.43     104169.7     162.5254    23.593178 
146700000    274.45985    247.36597    318.58582   -104169.81    104199.36   -71.219848    23.593494 
146704000    293.42236    404.68846     502.8336   -104175.55    104205.39   -98.145141    23.595848 
146708000    290.27912    378.33946    309.44536   -104197.38    104233.71    68.894091    23.601892 
146712000     288.4076     345.6856    390.78542   -104237.17    104243.09   -45.099818    23.613554 
146716000    281.72765     417.3087    396.20895   -104250.73    104274.16     21.09975    23.611959 
146720000    287.80995    374.20296    233.76851   -104291.46    104308.42    140.43445    23.605124 
146724000    284.98784     322.2873    222.68239    -104338.1    104362.16    99.604905    23.603544 
146728000    298.90971    514.66454    149.78704   -104368.46     104376.7     364.8775    23.601809 
146732000    317.58006    281.34624    278.92315   -104418.35     104404.9    2.4230937    23.598521 
146736000    313.13536    296.19908    387.74859    -104450.4    104459.86   -91.549516    23.592298 
146740000    304.29612    488.78196    282.69356   -104486.22    104525.53     206.0884     23.58964 
146744000    276.81631    329.68998    243.22488   -104553.39    104588.84    86.465101    23.581453 
146748000     286.5656    283.61433    366.35667   -104583.22    104633.58   -82.742337    23.575511 
146752000    283.04433    334.93485    300.91661   -104641.54    104668.65    34.018238     23.57941 
146756000    300.18923     512.3537     233.6361   -104705.43    104735.12     278.7176    23.584513 
146760000    282.42839     198.8977      324.987    -104727.8    104772.58   -126.08931    23.572209 
146764000    274.48659    235.81633    231.07034   -104770.33    104821.68    4.7459871    23.566212 
146768000    283.66962    375.36827    238.23593   -104836.49    104872.99    137.13234    23.571315 
146772000    284.14653    245.49972    245.76551   -104867.32    104913.23  -0.26579808    23.576838 
146776000    311.16105    415.33206    285.56881   -104918.47    104940.33    129.76325    23.570197 
146780000    304.63494    392.00928    487.89264   -104944.95    104972.52    -95.88336    23.577319 
146784000    282.47988    410.24572    320.50832   -104995.94    105015.19    89.737404    23.565983 
146788000    252.01854    288.41739    378.14685   -105015.04    105061.52   -89.729456    23.562756 
146792000    309.34924    516.91813    243.30047   -105092.47    105109.94    273.61766    23.562046 
146796000    290.80608    276.37481    410.99693   -105131.48    105167.55   -134.62211    23.569578 
146800000    257.77087    461.63864    368.97882   -105184.21    105230.83     92.65982      23.5709 
146804000    281.03029    279.24505    419.67899   -105234.46    105268.71   -140.43394    23.568745 
146808000    282.28868    276.84049    268.50052   -105311.89    105328.87    8.3399789    23.566263 
146812000    278.90903    434.72312    270.26445   -105336.67     105367.7    164.45867    23.566217 
146816000    278.98601    266.34874    394.13401   -105379.06    105420.19   -127.78527    23.559598 
146820000    281.58333     296.3598    281.38752   -105437.43    105483.12    14.972281    23.569313 
146824000    281.91512    241.93181    553.81436    -105512.7    105543.12   -311.88254    23.567571 
146828000    290.60127    260.44857    232.21808   -105561.73    105601.11    28.230491    23.563684 
146832000    277.52695    286.99604    253.02328   -105608.68    105636.04     33.97276     23.56055 
146836000    295.19801    407.27467    363.71903   -105638.03    105657.25    43.555637    23.563609 
146840000    276.06074    458.33237    183.87912   -105628.61    105685.24    274.45325    23.556594 
146844000    302.92526    399.56955    323.85431   -105685.78     105723.2    75.715238    23.555385 
146848000    281.45401    234.23597    334.25733   -105743.39    105783.41   -100.02136    23.558292 
146852000    280.90561    325.17482    354.87574   -105798.72    105835.72   -29.700917    23.558584 
146856000    276.60521    224.90717     222.3269   -105859.78    105890.27    2.5802731    23.559679 
146860000    276.47647    436.84107    340.67918   -105913.03    105958.92    96.161887    23.552324 
146864000    278.04549     315.2084    287.03648    -105925.7    105969.14    28.171919      23.5536 
146868000    288.43497    276.66311    350.51026   -105976.92    106009.77   -73.847152     23.54484 
146872000    270.92006    239.61743    232.57396   -106035.52    106072.97    7.0434721    23.557524 
146876000    280.54907    386.65042    321.35058   -106080.25     106112.7    65.299839    23.563579 
146880000    284.05039    571.31987    330.21455   -106146.48    106183.14    241.10532     23.57489 
146884000    295.84748    290.47823    242.70101   -106180.88    106199.25    47.777224    23.572727 
146888000    285.77804    311.25112    299.61599   -106230.46    106255.38    11.635133    23.571245 
146892000    309.69162    341.04911    268.34968   -106264.47     106285.9    72.699436    23.568417 
146896000    271.01414    387.67062    286.20755   -106296.19    106351.31    101.46307    23.565896 
146900000    290.51746    221.69675    216.60308   -106371.61    106403.22    5.0936692      23.5692 
146904000    293.05433    382.30786    408.01717   -106428.47     106454.9   -25.709315    23.566516 
146908000     280.6438    251.95478    202.05763   -106491.63    106521.82    49.897153    23.561662 
146912000    311.00836    242.24241    501.30051   -106537.83    106562.42   -259.05809    23.556047 
146916000    267.44297     270.9727     186.4829   -106568.29    106603.62    84.489801    23.548612 
146920000    265.19287    312.04239    159.76817   -106575.88    106625.51    152.27422    23.550475 
146924000    295.43408    304.74807    245.60455   -106601.63    106622.52    59.143521    23.550637 
146928000    287.18585    308.10996    404.67213   -106645.41    106686.15   -96.562171    23.547406 
146932000    296.08077    383.79673    307.53747   -106705.91    106735.05     76.25926    23.549223 
146936000    269.26712     299.4685    398.19254   -106727.83    106757.44   -98.724043    23.542639 
146940000    294.58657    431.21478    246.32328   -106779.12       106806    184.89149    23.548879 
146944000      264.647    346.41928    214.66666   -106800.37    106850.97    131.75262    23.550957 
146948000    329.09756    481.22462    340.75472   -106864.29    106876.71    140.46991    23.551204 
146952000    296.46163    304.60788    418.16033   -106884.66    106917.95   -113.55245    23.547969 
146956000    277.44003    407.84619     332.4468   -106923.87    106985.06    75.399389    23.545647 
146960000    257.62913     266.0984    304.74586   -106975.55    107021.62   -38.647465    23.539006 
146964000    305.95835    408.61198    280.46609   -107018.02    107044.57     128.1459    23.528606 
146968000    269.39348    333.25468    311.67508    -107063.9    107109.22    21.579595    23.535909 
146972000    263.11627    300.10368    249.37835   -107109.98    107157.61     50.72533    23.543335 
146976000    281.07602    369.85449    262.19939   -107155.47    107200.83     107.6551    23.545956 
146980000    303.88508    271.42459    472.40518   -107211.78    107230.88   -200.98059    23.550994 
146984000    275.34642    280.37198    421.63621   -107239.94    107272.92   -141.26423    23.544593 
146988000    290.11467    388.69629    360.76109   -107285.35    107332.68    27.935196    23.546858 
146992000     294.9282    376.27596    316.54184   -107331.41    107355.49    59.734115    23.540736 
146996000    292.53308    422.61454    325.03272   -107360.75    107388.41    97.581818    23.533572 
147000000     282.1982    290.37131    181.50661    -107394.5    107434.58     108.8647    23.535326 
147004000    265.20552    269.88205    409.08759   -107419.11    107451.73   -139.20554     23.53821 
147008000    264.69133    369.66278    170.07236   -107431.42    107468.65    199.59042     23.53801 
147012000    291.59266    312.70663    356.24311   -107470.75    107495.69   -43.536478    23.534933 
147016000    261.00073    289.19528    353.44072   -107512.77    107553.74   -64.245438    23.534169 
147020000    310.40507    355.02809    294.59392   -107558.77    107572.09    60.434167    23.530741 
147024000    288.35587    348.39392    400.05394   -107581.02    107614.19   -51.660028    23.520212 
147028000    251.14131    252.88174    228.88364   -107608.87     107655.4    23.998092    23.518231 
147032000     299.4434    335.61176    203.05346   -107649.23    107665.08    132.55831    23.511985 
147036000    291.98378    475.26003    232.42121   -107687.09    107703.92    242.83881    23.519795 
147040000    282.71535    291.35301    468.84979   -107703.29    107747.35   -177.49678    23.507869 
147044000    293.74209     335.4435    256.82373   -107752.94    107778.14    78.619774    23.507128 
147048000    289.98072    575.35429    269.18048   -107797.56    107832.22    306.17381    23.503919 
147052000    258.87622    348.52007    255.19622   -107813.01    107853.29    93.323853    23.499168 
147056000    287.25287    428.77003    399.92486   -107872.74     107895.9     28.84517    23.501123 
147060000    286.45052    259.43748    304.72184   -107917.41    107945.26   -45.284361    23.512557 
147064000    303.90284    308.00893    262.88505    -107974.5    108005.42    45.123881    23.514777 
147068000    301.63544    345.56034    363.18288    -108029.7    108058.52   -17.622534    23.507572 
147072000    276.03066    361.64437    322.71898   -108085.62    108123.29    38.925384    23.503585 
147076000    296.58645    488.35431    330.79361   -108146.76     108163.6     157.5607    23.515789 
147080000    281.11896    425.30387    271.03886   -108167.11    108214.28    154.26501    23.519023 
147084000    269.05152    373.42693     261.0884   -108223.64    108268.35    112.33852    23.517948 
147088000    270.85302    355.18976    209.17973   -108291.73    108331.12    146.01002    23.520951 
147092000    280.06964    270.81959    271.06398   -108312.22    108346.56  -0.24439239     23.51323 
147096000    259.12349     317.1425    279.64575   -108307.14     108361.4    37.496746    23.519193 
147100000    287.26025    342.94643    343.76178   -108350.22    108376.74  -0.81534653    23.516472 
147104000    270.35274    370.79664    276.76804   -108396.71    108426.96      94.0286    23.509416 
147108000    283.33911    343.49781    272.24586   -108419.31    108449.31    71.251951    23.502714 
147112000    283.44356    306.99847    424.17024   -108445.48    108475.25   -117.17177    23.496648 
147116000    262.11294    270.24774    275.48974   -108497.02    108525.97   -5.2420022    23.498915 
147120000    295.52815    286.41745    301.32013   -108543.69    108556.54   -14.902677    23.488872 
147124000    277.12108     300.6711    330.51571    -108574.7    108608.62   -29.844614    23.478792 
147128000    297.62995    270.86026    290.47001   -108622.14    108661.83   -19.609749    23.474368 
147132000    291.56472    361.49529    356.76211   -108715.67    108746.59    4.7331827    23.469127 
147136000    283.91892    399.45139    398.73388   -108758.11    108791.88   0.71751162     23.46817 
147140000    269.32301     376.1033    453.07377   -108770.38    108808.65   -76.970469    23.474316 
147144000    311.15544    377.75104    418.49314   -108819.65    108858.99   -40.742105    23.462173 
147148000    300.60248    474.52743     308.8955   -108862.41    108886.04    165.63193    23.468171 
147152000    275.66982    480.00485    502.12482   -108922.69    108932.87   -22.119962    23.464724 
147156000    263.10892    268.48944    204.77575   -108912.94    108976.66    63.713695    23.455981 
147160000    293.78715    262.51871    514.30559   -108983.89    109019.05   -251.78687    23.453189 
147164000    301.62673    522.35441     281.1598   -109059.05    109072.56    241.19461    23.454981 
147168000    291.01824     279.1462    402.96015   -109083.94    109103.43   -123.81395    23.444859 
147172000    286.56884    436.95217    343.53056   -109087.01    109125.88    93.421609    23.438331 
147176000    253.29803    362.32893    249.18371   -109112.11    109158.78    113.14522    23.441283 
147180000    300.46838    439.52693    300.65324   -109172.37    109204.36     138.8737    23.457072 
147184000     294.6981    291.33437    360.44411   -109221.39    109243.34   -69.109737    23.466299 
147188000    269.38715    310.48013    322.74711   -109242.49    109290.18   -12.266976    23.476839 
147192000    266.99609    330.22174    257.62829   -109278.24    109317.17    72.593457     23.47002 
147196000    261.80106    405.67477     434.2395    -109306.2    109358.31   -28.564728    23.465133 
147200000    264.95567       265.92    433.95934   -109381.39     109415.3   -168.03934    23.476317 
147204000     277.3937    319.05258    303.11095   -109431.22    109477.63    15.941639    23.475284 
147208000    282.47763    293.64159    356.75355   -109455.54    109516.24   -63.111956    23.465622 
147212000    254.14179    392.51138    333.76131   -109491.41     109541.7    58.750073    23.475207 
147216000    271.62966    284.91028    371.93378    -109566.8    109604.78   -87.023495    23.471845 
147220000    288.12976    193.96913    591.47932   -109608.76    109648.87   -397.51019    23.476599 
147224000     281.6414    256.21461    260.70483   -109638.35    109683.95   -4.4902156    23.483729 
147228000    254.32529    343.86345     403.8925   -109695.85    109734.53   -60.029057    23.472621 
147232000    298.52594    319.66991    352.30452   -109733.79    109761.67    -32.63461    23.469962 
147236000     257.3838    302.03251    491.54446   -109754.48    109809.18   -189.51194    23.473067 
147240000    323.44676    379.01982    474.50491   -109809.56    109828.61   -95.485095    23.480869 
147244000    290.19985    295.20937     215.5628   -109835.74    109857.98    79.646571    23.485516 
147248000    289.06879    324.17579    412.33616   -109890.58    109904.88   -88.160368    23.477432 
147252000    296.73607    261.88916    244.44372      -109934    109963.73    17.445437    23.475763 
147256000    299.00704    407.70335    401.28626   -109983.59    109989.11    6.4170921    23.476202 
147260000    273.99757    509.98259     360.5347   -110004.17    110045.41     149.4479    23.486864 
147264000    299.22354     341.8899    330.97205   -110083.27    110113.32    10.917846    23.488075 
147268000     307.7696    435.30256    266.50095   -110100.04    110122.59    168.80161    23.491713 
147272000    307.05018    377.33109    385.88299   -110134.33    110144.38   -8.5518964    23.493292 
147276000    295.59323    367.53797    233.89859   -110139.31    110174.36    133.63938    23.489602 
147280000    268.85962    244.46321    258.01096   -110196.55     110235.6   -13.547753     23.50248 
147284000    279.97342    250.55861    231.45535   -110263.02    110293.15    19.103264    23.503872 
147288000    272.27689    387.82991    321.09476   -110291.14    110348.23    66.735154    23.503747 
147292000    271.82389    426.56469    398.23117   -110330.02    110363.69    28.333523     23.49401 
147296000    312.41781    515.98034    272.52022   -110365.34    110391.74    243.46012    23.494338 
147300000    312.84497    589.89429     457.6425   -110400.86    110411.88    132.25179    23.491867 
147304000    280.78508     193.5052    293.17189   -110424.62     110471.1   -99.666692    23.488295 
147308000     284.2142     367.5897    310.41082   -110466.25    110505.59    57.178874    23.499307 
147312000    310.47406    363.33499    399.86757   -110496.77    110514.43   -36.532579    23.496339 
147316000    279.85493    391.70708    351.61935   -110529.61    110568.18    40.087729    23.489634 
147320000     281.4576    252.03724     413.8126   -110568.28    110608.95   -161.77536    23.495194 
147324000    282.21059    375.91519    503.53115    -110602.2    110621.37   -127.61596    23.493965 
147328000    314.08765      394.362    431.98245   -110655.83    110676.13   -37.620444    23.495642 
147332000    289.63621     193.1291    383.89005   -110732.76    110764.33   -190.76095    23.489688 
147336000    290.98112    282.20593     472.7075   -110787.95     110813.8   -190.50157    23.489675 
147340000    290.10769    304.11301    393.75978   -110818.98    110840.81   -89.646773     23.47415 
147344000    260.07075    377.30505    272.74223   -110838.15    110873.61    104.56282    23.483539 
147348000    275.61668    306.38916    268.83609   -110891.89    110928.45    37.553069    23.473252 
147352000    298.74181    269.85108    269.57035   -110939.87    110968.03   0.28073194    23.472765 
147356000    287.09645    305.99363    154.21303   -110980.16     111018.5     151.7806    23.480025 
147360000    276.60913    184.20197    276.41713   -111009.95    111040.45   -92.215158     23.48222 
147364000    296.51042     334.9464    620.14826   -111048.11    111071.08   -285.20186    23.484162 
147368000    283.52227    304.89965    268.51673   -111067.88    111103.67    36.382921    23.490638 
147372000    264.07226    374.78454    221.96147   -111137.91    111180.25    152.82306    23.482478 
147376000    262.34244    424.99798    174.09853   -111177.43    111218.53    250.89945    23.479286 
147380000     280.9948    375.71858    438.46908   -111209.64    111245.41   -62.750501    23.477518 
147384000    262.64359    377.62897    345.57801   -111234.13    111289.14    32.050956    23.485189 
147388000    275.66871    277.47937    278.53209   -111252.02    111297.76   -1.0527163    23.486706 
147392000    279.34548    283.96457    205.39158   -111309.49    111348.46     78.57299    23.484831 
147396000    256.83493    227.98326    207.67019   -111373.62       111418    20.313072    23.490419 
147400000    268.60821    318.39597    171.49384   -111412.77    111463.94    146.90213    23.487102 
147404000    287.50274    318.65648    294.28827   -111483.57     111502.3    24.368208    23.487086 
147408000    262.76558    270.50781    436.76193   -111502.08     111533.5   -166.25412    23.486512 
147412000    288.00622    381.55983     380.4599   -111542.63    111588.56    1.0999314    23.475272 
147416000    277.37094    319.53034    203.13946   -111584.06     111616.5    116.39087    23.470136 
147420000    287.01018    684.87164    323.46511   -111630.01    111651.24    361.40652    23.472408 
147424000    256.15263    251.95505    199.97428    -111672.3    111708.83    51.980771    23.463224 
147428000     296.2225    354.63432      263.253   -111714.57    111724.19    91.381319    23.468712 
147432000    285.55755    415.72838    422.29529   -111692.84    111727.63    -6.566905    23.467726 
147436000    291.87441    429.59926    317.77587   -111717.53    111766.45    111.82339    23.470211 
147440000    318.60668    389.57518    540.41836   -111811.09    111825.79   -150.84318     23.47812 
147444000    280.90867    390.28952    262.21389   -111830.43    111875.74    128.07563    23.484612 
147448000    283.23809    361.65852    239.61067   -111850.94    111900.38    122.04785    23.477472 
147452000    288.00332    366.53446    384.14086   -111946.26    111976.25   -17.606402    23.477274 
147456000    300.62103    423.29613    317.52732   -111978.67    112011.56    105.76881    23.475509 
147460000    253.16746    348.49745    309.90386   -112023.26    112076.14    38.593588    23.474155 
147464000    291.00871    348.16532    454.23408   -112073.82    112109.98   -106.06876    23.464616 
147468000     286.1803    305.94817    485.23254   -112132.52    112152.02   -179.28437    23.472423 
147472000    289.72565    174.36405    392.30021   -112183.02     112226.2   -217.93616    23.460257 
147476000    295.94423    361.39323    408.95432   -112242.36    112259.31   -47.561085    23.458664 
147480000    278.09448    471.69711    313.62726   -112292.46    112319.39    158.06985    23.468364 
147484000    286.67607    365.59504     398.1361   -112323.25    112375.82   -32.541057    23.460903 
147488000    276.05162    506.30199    273.66246   -112370.74    112407.07    232.63953    23.455771 
147492000    264.53359    350.86513    388.28697   -112390.12    112435.77   -37.421842    23.457736 
147496000    292.33303    399.31708    264.58005   -112426.27    112456.41    134.73703    23.460436 
147500000    274.63275    267.84924    322.03927   -112461.07    112486.76   -54.190035    23.459269 
147504000    306.82533    461.86836    354.21894   -112482.26    112511.86    107.64942    23.460126 
147508000    277.30641    364.78188    224.69955   -112522.14    112553.74    140.08233    23.462974 
147512000    263.70628    276.99415    234.54679   -112568.25       112598    42.447351    23.460624 
147516000    294.65721    262.27286    263.97847   -112629.85    112654.52   -1.7056166    23.454464 
147520000    277.67594    267.08529    390.68635   -112678.91    112719.45   -123.60106    23.455403 
147524000    283.36341    224.12373    388.42156   -112730.94    112764.12   -164.29782    23.456867 
147528000      264.106    293.62974    287.99425   -112754.02    112803.11    5.6354872    23.453624 
147532000    273.88312     400.4248    341.77525   -112784.27    112839.59    58.649559    23.451305 
147536000    260.62516    343.33924    247.48261   -112799.13    112866.49    95.856629    23.446966 
147540000    280.13048    345.45226    199.35761   -112814.53     112846.7    146.09465    23.447528 
147544000     286.9242    517.53073      294.996   -112852.32     112888.4    222.53473    23.443462 
147548000    288.60759    314.96897    407.64838   -112886.95    112924.77   -92.679412    23.439442 
147552000    293.09831    339.89899     464.0471   -112943.71    112968.08    -124.1481    23.441512 
147556000    306.73074     424.4576     533.2136    -113030.3     113039.7     -108.756    23.437401 
147560000    289.39795    408.50284    228.71142   -113050.62    113065.73    179.79142    23.450802 
147564000     303.4753    351.14851    386.99809    -113100.8    113129.42   -35.849588    23.455421 
147568000    285.26473    372.15201    353.45072   -113132.55    113168.16    18.701291    23.466193 
147572000    279.50612    307.18041    424.79722   -113179.52    113218.51   -117.61681    23.465872 
147576000    314.93619    549.72242    411.23118   -113240.91    113242.58    138.49124    23.477992 
147580000     300.6089    419.55715    237.55121   -113279.25    113305.86    182.00593    23.478873 
147584000    247.67434    190.04779    294.55597   -113298.98    113354.64   -104.50818    23.475531 
147588000    285.99772    319.13135    339.06311   -113361.91    113396.51    -19.93176    23.469475 
147592000    267.12506     309.8989    366.04112   -113376.62    113421.84   -56.142226    23.464683 
147596000    261.93639    261.40734    307.81517   -113424.69     113462.6   -46.407826    23.463179 
147600000    275.02774    272.55471    309.05099   -113454.16    113488.99   -36.496283    23.470068 
147604000    296.11935     311.4816    462.41008   -113474.95    113508.51   -150.92849    23.467425 
147608000    294.99896    365.68299    292.78308   -113546.32    113572.61    72.899908    23.469026 
147612000    287.01155    346.31845    263.69087   -113592.39    113630.42    82.627579    23.465768 
147616000    277.00467    474.69885    294.62975   -113626.23    113684.26     180.0691    23.457863 
147620000    277.49108    295.53483    294.52342   -113658.19    113695.72    1.0114152    23.451745 
147624000    265.33737    286.96605    322.32461   -113688.96    113737.77    -35.35856    23.448743 
147628000    272.70076    383.74841    327.07733   -113738.93    113798.56    56.671075    23.456219 
147632000    280.18299    305.29365    193.10912   -113809.66     113855.5    112.18453    23.457145 
147636000    320.14242    506.31439    398.23248   -113872.07    113893.89    108.08191    23.452705 
147640000    300.31012    395.89802    341.43549   -113907.97    113914.06     54.46253    23.458704 
147644000    296.84556    626.69978    277.64842   -113918.89    113935.44    349.05136    23.458074 
147648000    293.71075    310.27892    391.81814   -113923.48    113953.01   -81.539216    23.453284 
147652000    286.41477    438.13284    375.44143   -113964.83    113995.45    62.691407    23.440532 
147656000    283.48948    309.67982    286.76687    -113975.5    114025.62    22.912955    23.442588 
147660000    305.81185    402.35886    471.11863   -114058.34    114090.42   -68.759769    23.449291 
147664000     289.9435    300.19887    289.90161   -114131.03    114162.01    10.297253     23.43977 
147668000    313.79148    437.48369    402.81561    -114171.7    114187.13    34.668088    23.436431 
147672000    284.21684    377.06237    347.32311   -114171.28    114206.34    29.739261    23.432326 
147676000     270.4762    474.55901    263.52592   -114235.74    114281.48    211.03309    23.438345 
147680000    273.36102    408.22186    384.25081   -114260.76    114291.93    23.971048    23.436022 
147684000    276.90023    157.70807    287.11343   -114310.49    114357.83   -129.40536     23.44833 
147688000    278.49484    327.92913    167.52549   -114339.19    114370.73    160.40363    23.458096 
147692000    285.89619    455.95025    307.70938   -114368.72    114419.11    148.24087    23.478471 
147696000    287.61797    548.77337    324.94674   -114418.06    114467.32    223.82663    23.484691 
147700000     283.3058    168.14108    304.06676   -114454.37     114475.4   -135.92568    23.479719 
147704000    312.10307    201.55609    408.82893   -114493.86    114516.17   -207.27284    23.477931 
147708000    261.87025    226.91125    300.84641   -114525.35    114573.16   -73.935153     23.48144 
147712000    276.01469    456.53339    249.74484   -114569.08       114611    206.78855    23.486536 
147716000    260.68332    328.40842    366.68921    -114625.3    114663.93   -38.280798     23.49248 
147720000    264.40761    584.28731    221.11932    -114668.4    114708.98      363.168    23.492692 
147724000    293.50769    308.33514    477.87783   -114708.64    114715.33   -169.54269    23.485139 
147728000    251.05175    478.98834    259.47576    -114720.6    114787.63    219.51257    23.475913 
147732000    270.12144    350.92586    306.01871   -114789.18    114826.94     44.90715    23.493903 
147736000    301.83507    502.91057    339.54882   -114834.51    114859.54    163.36174    23.510352 
147740000    308.90674    315.31593    319.13817    -114880.6    114893.32   -3.8222355    23.514983 
147744000    307.88709     457.9305    314.19494   -114921.96    114943.33    143.73556    23.497488 
147748000     278.7514    448.14741    206.64444   -114950.97    115002.94    241.50298    23.511982 
147752000    242.70831    226.29852    239.40999   -115001.69     115060.2   -13.111475    23.518586 
147756000    281.30271    365.22931    448.70765   -115033.13    115094.58    -83.47834    23.518651 
147760000    298.75991    332.07193    324.85253   -115102.01    115138.46    7.2193957    23.519238 
147764000    298.72755    478.51748    400.89708   -115158.73    115187.19    77.620397    23.523637 
147768000    265.96131    260.67206    357.99352   -115187.69    115236.53    -97.32146    23.527038 
147772000    265.59536    355.06668    315.74118   -115228.09    115282.37    39.325502    23.526252 
147776000    296.43517    260.41838    326.19566   -115297.83    115318.74   -65.777277    23.520441 
147780000    253.02551    333.73303    215.46451   -115331.63    115390.79    118.26852    23.528704 
147784000     288.9177     368.2342    388.71606   -115367.53    115407.24   -20.481852    23.521016 
147788000    254.91618    202.41994    297.58335   -115398.89    115469.13    -95.16341    23.514241 
147792000     297.2612    230.60231    489.12197   -115464.06    115500.03   -258.51965    23.508801 
147796000    310.90371    473.64397    260.26714   -115526.74    115549.07    213.37683    23.494254 
147800000    298.09567    352.98636    332.84632    -115553.4    115572.69    20.140046    23.500037 
147804000    282.90141    520.12678    301.41812   -115563.83     115598.8    218.70866    23.496548 
147808000    312.31575     594.2978    169.51808    -115646.1    115656.31    424.77973    23.493638 
147812000    266.94101    422.24431    298.54973    -115664.6    115713.46    123.69458     23.50173 
147816000    279.66983    387.48963    324.35955   -115740.27    115786.72    63.130071    23.505021 
147820000     267.1948    344.20257    394.80738   -115735.96    115792.12   -50.604804    23.502306 
147824000    282.13157    347.72355     601.9237   -115782.63    115825.74   -254.20015    23.494069 
147828000    272.80733     423.2117    212.58805    -115845.4    115883.33    210.62364    23.512164 
147832000     308.8704    449.53835    437.84486   -115875.83    115909.09    11.693493     23.50924 
147836000     301.0311    339.56855    349.70195   -115957.46    115984.23   -10.133402    23.514267 
147840000    274.81537    457.96169    200.07656   -115980.77    116006.66    257.88513    23.520168 
147844000    309.64844    526.12282    180.67878   -116044.45    116049.31    345.44403    23.524032 
147848000    313.11664    361.00377    289.23727   -116065.68    116096.78    71.766496    23.525264 
147852000    281.22998    486.21431    256.33111   -116095.85    116131.38     229.8832    23.516444 
147856000    256.20562    363.88714    230.07087   -116143.17    116201.56    133.81628    23.516611 
147860000    276.19376    305.85456    221.18627   -116208.56    116248.79    84.668292    23.508283 
147864000    287.98006    394.70053    719.79147   -116231.25     116266.8   -325.09094    23.516754 
147868000    285.20726     369.8313    258.79816   -116265.89    116299.66    111.03313    23.517547 
147872000    281.71462    278.49771    222.42734    -116323.6    116354.32    56.070372     23.51438 
147876000    291.57881     306.4078    344.35946   -116380.32    116415.54   -37.951662    23.511149 
147880000    262.65218    347.21591    179.26717   -116425.73    116474.84    167.94874    23.515082 
147884000    285.13237    490.90427    291.54509   -116451.57    116489.32    199.35918    23.514708 
147888000    283.63384    406.04255    445.65271   -116489.39    116524.09   -39.610164     23.50378 
147892000    299.97173    301.76269     311.8435   -116549.65    116585.75   -10.080816    23.508504 
147896000    301.98389    325.51416    381.04323   -116568.76    116607.99    -55.52907    23.505034 
147900000    281.48436    393.08794    303.32479   -116600.19    116644.15     89.76315    23.503467 
147904000    265.06138    349.06152    263.20785   -116661.65    116703.99    85.853667     23.50802 
147908000    257.70653    334.55859    236.80775   -116685.31    116749.77    97.750834    23.501611 
147912000    259.16523    340.06428     429.0378   -116722.42     116776.3   -88.973512    23.500708 
147916000    277.19132    374.61155    278.15048   -116764.94    116809.64    96.461074    23.491988 
147920000    267.71089     255.9379    199.57076   -116848.18    116877.55     56.36714    23.477723 
147924000    316.77642    362.74775    390.13476   -116875.86    116907.49   -27.387015    23.486504 
147928000    285.33386    283.10172    185.47595   -116912.88    116959.86    97.625773    23.491369 
147932000    283.04655    248.72312    219.74344   -116958.77    116989.11    28.979678    23.486395 
147936000    282.60812    311.34392    421.36822   -116984.73    117037.63    -110.0243    23.482193 
147940000    278.32018    246.07473    311.57932   -117039.67    117093.63   -65.504589    23.494604 
147944000    310.99994    384.39886    370.32003   -117117.08    117144.59    14.078826    23.497226 
147948000    260.03761    287.77413    265.04271   -117189.74    117254.19    22.731424    23.497137 
147952000    266.36299    366.07622     372.7126    -117252.1    117301.93   -6.6363799    23.500136 
147956000    276.28764    554.70767    282.80751   -117281.94    117337.86    271.90015    23.505632 
147960000    294.91583    301.03306    416.65853   -117304.65    117348.08   -115.62547    23.510657 
147964000    302.90603    487.65074     388.7825   -117374.35    117407.59    98.868242    23.513376 
147968000    271.45945    346.37518    139.10308   -117406.08    117449.32     207.2721    23.519105 
147972000    319.81056     363.8509    396.18657   -117482.37    117480.14   -32.335674    23.523153 
147976000    302.16363    419.16617    330.62189   -117472.05    117502.87    88.544277    23.513543 
147980000    283.97734    147.54059    443.21261   -117510.42    117557.04   -295.67202    23.511196 
147984000    303.01055    277.54735    309.44695   -117502.78    117528.18   -31.899596    23.508482 
147988000    265.86902    194.51407    254.39248   -117520.42    117566.78   -59.878411    23.501817 
147992000     273.0355    228.59166    285.34898    -117557.5    117596.24   -56.757325    23.503707 
147996000    296.74304    406.87052     344.8301   -117584.45    117607.74    62.040412     23.50168 
148000000    301.42895    395.72086    555.48855   -117624.56    117651.18   -159.76769    23.503544 
148004000    305.45398    400.22549    271.48202   -117628.86    117655.92    128.74346    23.508624 
148008000    259.47903    285.52343    334.43303   -117659.87     117718.2   -48.909599    23.514864 
148012000    259.35191    228.24037    328.53292   -117702.26    117763.36   -100.29255     23.52065 
148016000    288.14103    271.85428    486.81703   -117755.44     117794.2   -214.96275     23.51558 
148020000    291.62872     402.9423    245.52319   -117800.26    117827.08    157.41911    23.517505 
148024000    307.50648    556.88694    379.30414   -117825.49    117835.83     177.5828    23.519351 
148028000    289.05758    386.88577    295.24209   -117838.36    117872.68    91.643686    23.521996 
148032000    259.95201    407.79085    325.71542   -117872.53    117923.72    82.075431    23.518324 
148036000    277.89015    226.34334    430.32092   -117927.14    117978.17   -203.97758     23.50858 
148040000    310.21014    239.21145    418.19901   -117973.72    117989.63   -178.98756    23.506702 
148044000    264.35513    421.25551    204.57527    -118024.9     118072.4    216.68024    23.510339 
148048000    300.70838    376.04132    407.26592   -118077.69    118105.45   -31.224605     23.50158 
148052000     291.5915     337.4055    376.04319   -118088.45    118114.56   -38.637687     23.50362 
148056000    286.13291     265.4001    425.44192   -118100.96    118139.08   -160.04182    23.516841 
148060000    304.93047    312.69682    535.57735   -118162.03    118191.57   -222.88053     23.51476 
148064000     265.5769      269.892    418.00154   -118187.87    118247.39   -148.10955    23.507422 
148068000    255.11633    300.28019    289.42731   -118209.03    118268.84    10.852871    23.508722 
148072000    318.21714     337.4291    298.06373   -118255.09    118270.48    39.365369    23.508376 
148076000    320.37574    356.20651    257.43645   -118274.19    118297.11    98.770053    23.505683 
148080000    287.77173    375.39147    370.24071   -118290.82    118314.15    5.1507598    23.508269 
148084000    276.75851    231.69994    259.59388   -118311.09    118349.85   -27.893935    23.503074 
148088000    276.06952    238.99557    250.12591   -118367.04     118417.2   -11.130343    23.508801 
148092000    267.87712     220.9241    331.37566    -118380.5    118423.16   -110.45157    23.499832 
148096000    268.07941    354.17575    165.63426   -118391.05    118429.17    188.54149    23.492793 
148100000    274.21752    385.99955    377.88662   -118417.67    118480.28    8.1129299    23.491047 
148104000     280.6678    429.24781    251.84149   -118479.27    118514.07    177.40632     23.48848 
148108000    261.01716    282.57509     337.9927   -118501.61    118561.07   -55.417603     23.49559 
148112000    240.34025    280.80751    181.40033    -118527.3    118587.75    99.407179    23.505331 
148116000    296.04887    391.57807     332.0965   -118611.99    118619.22    59.481565    23.494626 
148120000    301.77212    527.21049    467.88418   -118644.15    118674.61    59.326313    23.493342 
148124000    290.95439    217.73099    357.73065   -118683.05    118706.94   -139.99966    23.502024 
148128000     271.1061    487.32947    435.84793   -118742.15    118778.06    51.481548    23.493317 
148132000    271.05341    340.08876    240.53348    -118747.7    118802.88    99.555276    23.487773 
148136000    305.26131    443.43979    390.95976   -118783.74    118808.58    52.480025    23.490184 
148140000     300.0955    400.51384    366.76053    -118814.6    118847.89    33.753305    23.490589 
148144000    286.84023    438.87668    197.39294   -118879.75    118921.43    241.48375    23.510411 
148148000      288.969    332.84399    245.26241   -118935.91     118975.2    87.581575    23.507188 
148152000    253.32984    281.36692    306.29825   -118953.55    119007.91   -24.931332    23.497366 
148156000    256.49079    458.28317    353.44952   -119014.23    119048.62    104.83364    23.483798 
148160000    293.83381    342.87679    282.24658   -119053.18    119096.21    60.630206    23.491743 
148164000    293.53852    339.36212    348.83521   -119111.48    119139.77    -9.473092    23.491808 
148168000    258.39498    491.38144    246.77928   -119144.93    119183.52    244.60216    23.493131 
148172000    261.68128    380.56724    233.70876   -119180.95    119228.45    146.85848    23.496083 
148176000    281.65163    471.52574    305.41042   -119246.64    119288.85    166.11532    23.492639 
148180000    315.12721    342.94424    352.79405   -119312.61    119329.71   -9.8498054    23.495418 
148184000    306.37584    240.73408    555.27359   -119350.06    119378.52   -314.53951    23.492629 
148188000    288.75518     283.1698     245.1366   -119402.05     119439.6    38.033195    23.493171 
148192000    265.58887    216.81344    311.53161   -119432.78    119492.56   -94.718165    23.488796 
148196000    288.23275    380.18292    371.73451   -119451.72    119503.05    8.4484173    23.499176 
148200000    285.60923    458.91614      337.538   -119518.11    119558.87    121.37814    23.506274 
148204000    266.41453    581.72798    287.07914   -119580.21    119633.19    294.64884    23.513845 
148208000    282.70195    252.91002    332.55209   -119632.41    119669.78   -79.642076     23.51945 
148212000    270.45251    269.45028    365.86584    -119661.1    119707.37   -96.415556    23.512011 
148216000    309.19322    256.46151    351.11057   -119736.81    119771.86   -94.649058    23.510028 
148220000    281.41752    365.35405    366.05476   -119742.28    119789.92  -0.70070891    23.507518 
148224000    281.24264    335.08373    317.61564   -119810.54    119839.17    17.468093    23.517541 
148228000    289.19562    308.69845    376.72498   -119853.78     119875.9   -68.026524    23.516212 
148232000    256.24162    290.74032    314.84024   -119896.84    119957.12   -24.099917    23.516643 
148236000    317.63463    361.45326    308.78237   -119935.79    119965.64    52.670894    23.518143 
148240000    281.97243    424.13376    222.38203   -119998.53    120040.67    201.75172    23.509732 
148244000    245.95217    311.67502    218.94754   -120008.19    120069.03    92.727477    23.506916 
148248000    293.74521    359.27426    257.65882   -120068.99    120112.28    101.61544    23.511709 
148252000    301.18793    378.78183    403.90662   -120131.47    120180.92   -25.124787    23.503955 
148256000    277.93488    342.92522    320.34702   -120186.08    120229.36    22.578201    23.499841 
148260000    298.64921    385.32402    224.21087   -120268.94    120296.13    161.11315     23.51164 
148264000    268.51591    379.57163    401.51044   -120278.75     120327.8   -21.938807    23.511215 
148268000    269.73222    321.86777    202.54636   -120327.14    120381.64    119.32141    23.520367 
148272000    283.48137    353.54637    195.93781   -120373.01    120424.14    157.60856    23.508624 
148276000    296.24796    241.35521    215.93523   -120427.66    120467.23    25.419979    23.515992 
148280000    309.22133    415.72545    576.16101   -120482.58    120496.13   -160.43556    23.516551 
148284000    298.50691    419.68939    431.73903   -120492.95    120533.39   -12.049635    23.507718 
148288000    275.54548    244.55467    376.84788   -120480.73    120530.93   -132.29321    23.507393 
148292000    271.88023    372.07118     543.2879   -120514.72    120561.55   -171.21672     23.50087 
148296000    277.12498    427.78734    235.43881   -120559.17    120607.03    192.34852    23.498007 
148300000    254.89486    207.41342    262.53161   -120576.26    120641.44   -55.118197    23.500824 
148304000    295.14703    327.80091    523.42687   -120652.71     120697.4   -195.62596    23.504016 
148308000     292.9456    419.36258    245.44456   -120733.99    120758.75    173.91802    23.493036 
148312000    297.00699    355.11886     469.9203   -120763.43    120791.89   -114.80144    23.487731 
148316000    307.79759    280.30176    376.01795   -120839.74    120849.61   -95.716185    23.484124 
148320000    304.97838    489.28703    287.19122   -120861.06     120887.4    202.09581    23.474771 
148324000    264.06934    291.07335    154.72049   -120902.85    120947.04    136.35285    23.478228 
148328000    286.78441    492.40324     289.9297   -120972.66    121014.03    202.47354    23.476142 
148332000    298.45411    358.33282    243.33766   -121031.58    121077.07    114.99516    23.473385 
148336000     275.1346    360.86215    369.50116   -121073.33    121112.03   -8.6390088    23.465464 
148340000    276.07277    471.34227    284.99219   -121103.11    121150.48    186.35008     23.46101 
148344000    276.09486    436.62214    367.00372   -121126.03    121171.52    69.618421    23.463489 
148348000    313.10461    389.86013    254.17674   -121180.14    121191.62    135.68339    23.463397 
148352000    296.26574    272.05121    209.44377   -121189.22    121226.62    62.607436     23.45646 
148356000    297.30309    453.45611    257.02301   -121223.83    121247.56    196.43309    23.452381 
148360000     299.1487    490.08254    378.31024   -121268.09    121284.64     111.7723    23.461109 
148364000    266.41398    233.95838    286.28373   -121273.93    121326.55   -52.325349    23.461261 
148368000    285.05079    206.60114    489.92501   -121300.64    121338.25   -283.32387    23.465046 
148372000    267.54207    349.17393    244.51038   -121364.25     121414.3    104.66354    23.470948 
148376000    272.69407    433.10542    371.74427   -121448.87    121486.57    61.361152    23.469398 
148380000     285.2388    352.61046    258.06972   -121478.05    121516.99    94.540744    23.459784 
148384000    270.48058    377.92297    265.91363   -121521.52    121578.25    112.00935     23.46451 
148388000    284.74333    429.19892    282.79526   -121569.56    121605.41    146.40366    23.460641 
148392000    306.93469     324.7789    259.15653   -121608.42    121618.43    65.622369     23.45828 
148396000    316.11422    330.72586    379.01084   -121678.36    121689.19   -48.284977     23.44916 
148400000    321.09179    372.62446    386.40684   -121706.86    121721.31   -13.782386    23.445876 
148404000    272.84852    275.62045    217.70076   -121758.39    121795.91    57.919685     23.44538 
148408000    287.74841    432.15707    378.10187   -121800.54    121843.59    54.055194    23.441168 
148412000    248.79623    327.93707    165.65497   -121841.93     121885.9    162.28211    23.452345 
148416000    294.52677    370.74847    459.35923   -121882.34    121911.12   -88.610761    23.439233 
148420000    289.58064    437.49977    327.38582   -121915.53    121962.15    110.11395    23.443072 
148424000    277.60111    366.82704    237.26576   -121913.36    121970.32    129.56128    23.446393 
148428000    273.96398    366.78005     312.6553   -121894.25    121929.53    54.124749    23.451479 
148432000    258.01136    362.52582    376.43178   -121917.32       121973   -13.905963    23.446567 
148436000    260.27322    444.02295    347.68862   -121956.37    122024.99    96.334336    23.453402 
148440000    286.51096    254.92361    418.67278   -121990.02    122034.86   -163.74917    23.444712 
148444000    288.79589    295.93333    358.13149   -122014.08    122059.83   -62.198166    23.445679 
148448000    301.26733     240.8469    421.56295    -122065.9    122095.46   -180.71605    23.447691 
148452000    285.60316     507.9768    185.57561   -122120.72    122157.09     322.4012    23.441278 
148456000    272.81095    273.91813    433.38785   -122139.55    122185.98   -159.46971    23.439254 
148460000    261.97802    287.03279    160.94878   -122152.84    122207.42    126.08401    23.437841 
148464000     277.6519    375.97472    490.30634   -122194.61    122240.83   -114.33162    23.439494 
148468000    265.90423    509.09868    371.46553   -122270.88    122317.24    137.63315    23.437886 
148472000    295.70174    287.12026    384.12223   -122281.68    122316.52   -97.001967    23.435566 
148476000    291.56185    286.89606    324.59831   -122281.43    122333.81   -37.702251     23.42978 
148480000    268.30006    243.71438    380.27351   -122300.21     122356.4   -136.55913    23.438966 
148484000    296.20741    384.39322     275.8064   -122331.04    122369.41    108.58682    23.440277 
148488000    282.79109    347.77536    363.37256   -122366.57    122409.33   -15.597202     23.43758 
148492000    287.17296    270.39763    446.07742   -122417.77    122452.52   -175.67979    23.447736 
148496000    276.95926    353.94455    329.95003    -122444.2    122505.71    23.994522     23.44341 
148500000    262.29182    269.10639    441.40757   -122487.79    122534.38   -172.30117    23.443558 
148504000    306.78515    282.52811    337.16604   -122567.46    122591.11   -54.637926    23.444353 
148508000    297.34743     387.3634    348.04468   -122617.81    122637.65     39.31872    23.446146 
148512000    311.96178    423.49238    358.29307   -122642.26    122692.84    65.199316    23.442062 
148516000    295.09073     342.9582    263.71749   -122652.51     122701.7    79.240712    23.434797 
148520000     289.0734    340.89672    273.71726      -122710     122747.7    67.179455    23.435737 
148524000    251.60517    289.85686     230.8899   -122710.24    122771.21    58.966959     23.44962 
148528000    284.58991    466.30683    178.27532   -122782.28    122819.74    288.03151    23.452388 
148532000    272.46897    294.53908    259.43974   -122819.57     122863.7    35.099342    23.452514 
148536000     287.8475    412.77777    290.22219   -122894.84    122944.39    122.55558    23.459152 
148540000    266.19728    335.55111    380.76845   -122927.96    122970.21   -45.217342    23.456831 
148544000    276.96226     317.5207    219.18251    -122974.4    123022.21    98.338194    23.456253 
148548000    263.43756     270.0547     142.6838   -123022.28    123076.58     127.3709    23.459951 
148552000    277.70535    344.32253    216.89147   -123069.82    123103.43    127.43106    23.459933 
148556000    272.16546    363.20573    213.97954   -123119.37    123166.14    149.22619    23.464527 
148560000     314.8432    274.61172    343.67547   -123159.78    123187.78   -69.063755    23.462869 
148564000     295.0475    280.55516    218.46721   -123202.51    123240.27    62.087946    23.464954 
148568000    265.17399    280.75925    178.43627   -123238.02    123286.44    102.32297    23.468721 
148572000    297.82516    394.71532    416.85762   -123304.71    123345.49   -22.142301    23.464144 
148576000    280.52453    558.40092    433.89002   -123349.44    123387.53     124.5109    23.465412 
148580000    267.28237    302.16777    207.45442   -123393.33    123457.45     94.71335    23.471368 
148584000    296.72974    281.88725     252.7343   -123456.81    123501.42    29.152946    23.477185 
148588000    281.11389    469.27589    396.42518   -123512.78    123555.95     72.85071    23.482751 
148592000    289.62114    356.92077    246.24866   -123569.61    123610.77    110.67212    23.483165 
148596000    277.81327    480.91905    391.63145   -123621.63    123667.74    89.287602     23.48065 
148600000    258.73341    308.09114    212.46168   -123641.34    123699.49    95.629461    23.485024 
148604000    287.53138    393.48122    344.13555   -123680.05    123733.78    49.345669    23.475171 
148608000     302.0077    503.41688     448.8583      -123724    123759.36    54.558585    23.483841 
148612000    269.09323    181.77321    418.05414   -123746.53    123795.42   -236.28093    23.480027 
148616000    256.93678    423.10023    303.38646   -123786.76    123837.99    119.71377    23.480374 
148620000    282.04151    291.37551    275.49745   -123825.86    123871.37    15.878056     23.47479 
148624000    275.97321    361.62419     362.7521   -123856.62    123915.85   -1.1279162    23.482916 
148628000    257.26815    274.17867    172.92244   -123882.38     123945.7    101.25623    23.482825 
148632000    266.86769    409.75585    415.53102   -123927.31    123965.68   -5.7751697    23.492104 
148636000    280.31375     421.3712    281.98805   -123981.68     124029.9    139.38315    23.495095 
148640000    273.45802    368.96407    264.99262   -124049.06    124090.65    103.97146    23.493488 
148644000    281.98403    329.27144    495.97674   -124087.52    124127.83   -166.70529    23.488801 
148648000    295.97239    424.87883    251.17035   -124136.52    124188.63    173.70847    23.487834 
148652000    285.09862    262.92752    303.07487   -124167.04    124223.45    -40.14735    23.486306 
148656000    270.55381    346.68677    353.19096   -124185.88    124240.33   -6.5041849    23.490952 
148660000     283.7227    291.62555    252.90647   -124227.81    124286.84    38.719083    23.486966 
148664000    302.64702    306.65322    195.95809   -124285.69    124327.14    110.69514    23.496303 
148668000     303.1189    295.93865    561.58359   -124327.03    124346.52   -265.64494    23.489476 
148672000    281.67304      367.644    180.06187   -124349.32    124371.12    187.58213    23.497338 
148676000    305.76119    479.84236    333.35943   -124364.58    124386.86    146.48293    23.499805 
148680000    265.64597    375.90733    326.88607   -124380.66    124448.87     49.02126    23.493281 
148684000    271.57816    338.28801    247.51412   -124442.53    124485.22    90.773898    23.490461 
148688000     273.8736    338.05536    237.30836    -124469.5    124530.95    100.74701    23.494438 
148692000    255.39053    477.07683    399.71682   -124518.18    124586.39    77.360006    23.499406 
148696000    285.29473    352.45605    285.44449   -124565.46       124606     67.01156    23.487094 
148700000    294.37707    371.82044    278.12722   -124600.92    124635.21    93.693213    23.486031 
148704000     273.2939     313.8083    245.64255   -124657.26    124716.25    68.165744    23.488916 
148708000    267.58922    273.08004    282.11103   -124708.22    124764.52   -9.0309855    23.483074 
148712000     277.6731    255.41231    470.87368   -124740.65    124795.45   -215.46136    23.481095 
148716000    286.75739    611.76783    208.34342   -124788.27    124844.87    403.42441    23.483327 
148720000    259.24283    285.70353    421.68982   -124822.01    124878.57   -135.98629    23.481496 
148724000     309.4653    254.85141    454.02815   -124894.94    124909.82   -199.17674    23.494614 
148728000    307.36184    565.58226    257.43858   -124949.88    124975.46    308.14368    23.499605 
148732000    282.52803     435.7686    307.01727   -124981.42    125036.35    128.75133    23.504195 
148736000    269.73859    180.89604    236.80788   -125054.74    125117.44   -55.911838    23.502598 
148740000    297.48152    452.37496    253.54606   -125102.55    125141.05    198.82889    23.494003 
148744000    268.35463    321.82222    345.01983   -125155.49    125195.49   -23.197605    23.489538 
148748000    277.06263    335.85799    322.68976   -125172.29    125214.63    13.168227    23.492364 
148752000    280.34613      397.665     206.5082   -125209.62    125243.27     191.1568    23.494849 
148756000    281.26277    410.64288    476.54592   -125261.71     125305.3   -65.903048     23.49328 
148760000    292.83922    330.88279    455.11287   -125317.89    125358.64   -124.23008    23.481897 
148764000    305.41524    397.74786    294.82852    -125360.7    125382.77    102.91934    23.478574 
148768000    292.23546    279.11212    441.16399   -125398.24    125425.39   -162.05187    23.476371 
148772000    256.84397    231.45222     208.9334    -125408.2    125475.36    22.518818    23.480507 
148776000    288.17211    474.37883    207.74315   -125443.66    125484.74    266.63567    23.471805 
148780000     274.6074    352.90001    214.95865   -125494.79    125535.72    137.94136    23.487421 
148784000    286.49592    260.51697    269.22158   -125540.66    125565.02   -8.7046052    23.489961 
148788000    266.08981     426.2458    290.58566   -125627.43    125663.38    135.66014    23.492523 
148792000    277.62029    292.23472    350.29998    -125651.7    125697.65   -58.065263    23.493454 
148796000    261.72551    370.19739    371.02845   -125665.85    125744.37  -0.83105762    23.494945 
148800000    270.49336     437.4854    375.44989   -125750.72    125800.92    62.035516    23.503934 
148804000    237.15135    211.67335    192.28026   -125779.47    125834.34    19.393087    23.506196 
148808000     280.5553    356.70736    343.34918   -125833.77    125871.65    13.358173    23.510156 
148812000    262.25762    398.19537    266.69121   -125854.28    125918.67    131.50416    23.511458 
148816000    285.56638    217.98685    292.07853   -125922.06       125964   -74.091675    23.510148 
148820000    295.07235    442.09683    370.93238   -125987.44     126033.9    71.164446    23.517318 
148824000    288.95061    289.16492    229.74783    -126034.7    126072.17    59.417095    23.509886 
148828000    273.09465    379.91719    367.91109   -126042.73    126080.98    12.006098    23.516703 
148832000    285.46276    327.63761    191.97542   -126086.66    126120.57     135.6622    23.515229 
148836000    295.53695    441.78932    165.40649   -126127.12    126153.24    276.38284    23.520949 
148840000    280.63096    279.77109    179.36472   -126171.63     126216.5    100.40636    23.519678 
148844000    286.50817    411.94758     263.0415   -126237.95    126270.15    148.90608    23.515231 
148848000     308.5735    296.57017     283.7105   -126253.75    126297.93    12.859674     23.52531 
148852000    264.22099    323.35951    324.06842   -126277.64    126338.13  -0.70891427    23.516814 
148856000    286.65534    320.22467    576.78109    -126294.3    126338.07   -256.55642    23.518395 
148860000    307.58888    265.13142    462.53903   -126329.43    126372.95   -197.40761    23.521747 
148864000    258.57927    419.94957    239.82918   -126345.11     126410.4    180.12039    23.518011 
148868000    294.20928    353.94621    422.99364   -126394.46    126448.75   -69.047434    23.510061 
148872000    278.85022    350.56251     284.5518   -126433.96    126477.25    66.010704    23.502973 
148876000    274.78825    285.57405    379.77801   -126444.19    126520.97   -94.203957    23.506164 
148880000     280.1917    263.25316    309.08015   -126532.31    126592.97    -45.82699    23.505564 
148884000    294.05744    590.79172    331.25543   -126605.85    126627.29    259.53629    23.504287 
148888000    262.33287    266.46674    329.11544   -126640.41    126697.31   -62.648697    23.495813 
148892000     255.9796    224.80721    142.07374   -126653.62    126736.76     82.73347    23.501804 
148896000    284.81645    316.12677     303.5297   -126677.36    126749.18    12.597069    23.503058 
148900000    267.93986    496.27973    358.56778   -126749.32    126811.95    137.71194    23.515977 
148904000    277.02738    380.89688    197.96044   -126800.34    126866.78    182.93645     23.50633 
148908000    267.99224     570.9157     320.7351   -126865.05    126920.83     250.1806    23.513825 
148912000    295.48335    257.64274    344.97616   -126885.53    126940.77   -87.333424    23.509044 
148916000    262.93831    200.96354    395.45049   -126916.85    126972.25   -194.48696    23.502058 
148920000    294.22968    363.81458    550.84093   -126959.37    127008.56   -187.02635    23.493772 
148924000    281.82775    231.88189    421.66681   -127045.15    127066.32   -189.78493    23.491208 
148928000    247.61372    218.71736    310.81109      -127064    127134.28   -92.093727    23.484219 
148932000    282.23316     270.8096     252.7756   -127112.55     127148.7    18.033994    23.484384 
148936000    300.97052    427.18677    443.25669   -127154.56    127202.59   -16.069916    23.483264 
148940000    273.04477    329.01016      209.513    -127171.2    127234.91    119.49716    23.477139 
148944000    280.04896    324.24688    288.66854   -127188.09    127245.24    35.578336    23.486166 
148948000    296.76489    299.94435    364.57664   -127254.62    127289.12   -64.632287    23.475346 
148952000    310.26106    466.98157    186.65247   -127316.03    127346.13    280.32911    23.477724 
148956000    307.45003    208.94059    335.58762   -127371.64    127402.63   -126.64703    23.468895 
148960000    282.61152    382.33042     393.7902   -127407.66    127438.13   -11.459778     23.46591 
148964000    293.90875    442.94536    146.83416   -127444.36    127476.95    296.11119    23.470422 
148968000    339.88458    554.61048    302.21483   -127479.51    127499.82    252.39565    23.474551 
148972000    269.35682    479.18257     344.2901   -127533.85    127576.94    134.89247    23.477018 
148976000    256.00241    265.57931    364.99595   -127561.46    127628.33   -99.416635    23.482128 
148980000    277.54592    352.30639    372.45158   -127620.45    127662.41   -20.145195    23.478846 
148984000    294.21839    360.59285     254.9649   -127639.52     127677.6    105.62795    23.479212 
148988000     293.8057    489.34207    292.58466   -127643.52    127688.86    196.75741    23.482134 
148992000    276.40479    357.79976    385.78301   -127690.81    127732.67   -27.983253    23.488727 
148996000    296.88576    330.32091    351.46048   -127751.77    127774.44   -21.139572    23.483901 
149000000    259.84042     306.7124    361.69232   -127762.35    127810.27   -54.979924    23.482809 
149004000    318.50725    252.05392    426.94792   -127778.76    127806.75     -174.894     23.48375 
149008000    292.72158     389.6709    415.97633    -127826.8    127854.28   -26.305433    23.483819 
149012000    291.12776    326.45096    632.29325   -127834.38    127879.12   -305.84229    23.474159 
149016000    290.55483    297.91404    250.86992   -127883.72    127921.08    47.044114    23.464147 
149020000    278.63403     215.6854    252.32922   -127912.43    127963.43   -36.643812    23.457553 
149024000    289.83711    213.00416    406.84949   -127969.54    128009.63   -193.84533    23.449643 
149028000    289.21924    290.65894    463.41475   -128002.37    128057.48   -172.75581    23.439605 
149032000    267.37501    327.31766    309.03297   -128006.48    128064.48    18.284693    23.449721 
149036000    266.54181    304.49314    320.26483   -128042.11    128105.74   -15.771693    23.449003 
149040000    268.64044    292.94538     159.3375    -128072.7    128139.85    133.60787    23.450195 
149044000    286.35618    361.35569    244.17077   -128106.96    128151.84    117.18492    23.446432 
149048000    294.98638    448.63034    364.14218   -128149.38     128196.1    84.488165    23.442217 
149052000     314.5763    500.64568    310.51137   -128236.59    128261.47    190.13432    23.447733 
149056000    285.86632    382.40337    198.12853   -128260.35    128297.58    184.27484    23.453231 
149060000    274.07051    302.29513    294.06235    -128303.7    128350.57    8.2327838    23.459205 
149064000    304.14878    471.18152     164.3828   -128348.45    128386.08    306.79873    23.454935 
149068000    282.07896     216.6487    275.59621   -128381.53    128424.67   -58.947509    23.465789 
149072000    307.64579    241.13904    308.85086      -128433    128467.87   -67.711826    23.466263 
149076000    277.79473     480.5157    285.96182   -128490.38    128521.86    194.55388    23.463548 
149080000    298.52059    239.01651    832.98126   -128523.21    128560.28   -593.96474    23.459305 
149084000    253.72696    364.24825    351.69129   -128555.03    128619.11    12.556959     23.45417 
149088000    286.11749    456.29674     309.9171   -128585.27    128624.19    146.37964    23.445654 
149092000    299.10849    182.80165    296.43156   -128623.48    128643.61   -113.62991    23.433691 
149096000    281.43998    414.51742    179.02153   -128659.11    128684.61    235.49589    23.439913 
149100000    260.50019    379.40591    336.66355   -128664.51    128731.16    42.742358    23.434028 
149104000     288.4813    260.64727    254.04311   -128700.96    128734.63    6.6041612     23.42915 
149108000    285.43523    335.24436    146.43991   -128719.96    128751.19    188.80445    23.430928 
149112000    287.91789    272.80575    303.78895    -128734.8    128788.82   -30.983206    23.430273 
149116000    302.58726    451.34367    275.85031   -128803.38    128852.29    175.49336    23.430338 
149120000    305.35095     387.4769      250.443   -128848.52    128887.22    137.03389    23.436286 
149124000    292.33596    270.01169    241.20584   -128872.87    128911.16    28.805857    23.446769 
149128000    267.62656    330.53928    293.70618   -128894.34    128947.76      36.8331    23.440205 
149132000    281.39092     418.1754    316.33937   -128921.69    128970.44    101.83603    23.439656 
149136000    285.72237     337.2704    358.95116   -128980.69    129026.01   -21.680756    23.443977 
149140000    274.46242    306.83134    319.15887   -129025.84    129066.32   -12.327526     23.45211 
149144000    259.53972    301.39817    208.01164   -129045.66    129106.98    93.386527    23.447432 
149148000     272.7105     249.3552    377.81814   -129104.51    129160.37   -128.46294    23.431864 
149152000    298.58487    294.36254    283.02981   -129178.31    129210.96    11.332733    23.437484 
149156000    278.09381    322.47726    275.54446   -129184.52    129240.81    46.932805    23.434024 
149160000    271.56015    403.34589    266.75061   -129221.37    129265.98    136.59528     23.43394 
149164000    281.35363    582.71092    373.09273   -129253.83    129277.28    209.61819    23.427948 
149168000    284.36534    255.51225    174.59912   -129267.25    129298.34    80.913126      23.4332 
149172000    301.17808    371.39676    284.42385   -129310.11    129331.92    86.972908    23.426523 
149176000     281.2798    309.10627    354.83061   -129343.24     129388.2   -45.724343    23.432931 
149180000    304.66348    289.15623    239.83675   -129368.93    129415.73    49.319483    23.428248 
149184000    310.29428    451.16362    229.01394   -129400.49    129427.63    222.14968      23.4267 
149188000    274.89583    173.62179      549.439   -129425.73    129466.39   -375.81721    23.422873 
149192000    269.25836    445.64467    324.11754   -129460.96    129490.02    121.52713    23.418901 
149196000    272.84425    331.22982    209.98244   -129506.38    129549.22    121.24738    23.414094 
149200000    286.22488    314.72903      328.205   -129548.61    129597.97    -13.47597    23.415268 
149204000    260.60011    241.52253    275.59869   -129582.12    129653.61   -34.076156    23.411584 
149208000    255.79751    377.85016    245.90265   -129602.25    129659.78    131.94752    23.418547 
149212000    254.50439     222.6102    481.23972   -129640.96    129716.04   -258.62952    23.414115 
149216000    252.17871    353.65089    448.92278    -129678.2    129744.28   -95.271881    23.420284 
149220000    291.99012    380.33126    239.16388   -129702.57    129744.93    141.16738    23.411408 
149224000    259.15494    173.88942    193.90257   -129747.58    129797.58   -20.013156    23.403619 
149228000    303.02469    335.36993    692.16119   -129802.02    129847.77   -356.79127     23.39972 
149232000    283.57866     309.3301    334.85704   -129864.39    129930.08   -25.526935    23.399485 
149236000    311.41759    271.29393    476.85365   -129919.22     129944.3   -205.55972    23.395069 
149240000    252.88329    422.65856    231.06803   -129949.08    130023.95    191.59054    23.406046 
149244000    295.30679    478.52405     338.0569   -129994.57    130036.63    140.46715     23.41149 
149248000    259.38312    296.22911    239.09953      -130041    130092.05    57.129578    23.413773 
149252000    270.74024    344.65225    346.21143   -130067.04    130126.46   -1.5591868    23.412264 
149256000    259.18421    316.30947    293.65304   -130085.64    130158.91    22.656435    23.406769 
149260000    259.64099     396.5738    273.73809   -130135.99    130208.07    122.83571    23.412992 
149264000    281.15054    327.49654    286.67776   -130191.61    130252.16    40.818779    23.416325 
149268000    261.33027    277.27823     287.3384   -130233.03    130296.63   -10.060169    23.414683 
149272000    308.65082    294.65202    316.26257   -130284.44    130328.76   -21.610544     23.41585 
149276000    276.07502    254.48107    351.02907   -130333.08    130380.92   -96.548001     23.40609 
149280000    308.52516    352.40662    505.27101   -130398.75     130431.3   -152.86439    23.406534 
149284000    258.60871    208.38197    293.54797   -130412.94    130464.96   -85.166002    23.410265 
149288000    244.75947     174.1355    194.96815   -130446.84     130506.1   -20.832648    23.396227 
149292000    266.69226    288.49698    391.70729   -130507.48    130552.62   -103.21031    23.402965 
149296000    297.80728    314.73079    478.28532      -130538    130554.16   -163.55452    23.402862 
149300000    291.67167    346.46009    593.96373    -130578.8    130620.27   -247.50364    23.407566 
149304000     309.1053    565.46515    497.24677   -130611.46    130634.18    68.218379    23.400818 
149308000    267.42456    299.69799    378.76461   -130642.24    130697.47    -79.06662    23.394146 
149312000    285.37069      432.554    372.85912   -130709.08    130747.59    59.694884    23.389065 
149316000    283.85844    512.74894     304.8972   -130767.63    130809.59    207.85174    23.397637 
149320000    306.86726    335.34219    214.64563   -130815.16    130839.44    120.69656    23.406184 
149324000    288.92785    267.77424    248.15729   -130823.38    130874.83    19.616946     23.40468 
149328000    277.39511     401.1557     264.0748   -130857.27    130901.58    137.08091    23.401133 
149332000    289.27805     334.0389    234.25897   -130877.39    130910.66    99.779928    23.403003 
149336000    314.46468    422.88595    463.66936   -130920.75    130946.85   -40.783412    23.404831 
149340000    275.03188    306.96155    348.68342   -130975.57    131016.52   -41.721868    23.400044 
149344000    284.79534    241.76736    356.70965   -130994.77    131027.58   -114.94229    23.397855 
149348000    277.59667    292.19701    161.42759   -131066.23    131120.33    130.76942    23.401722 
149352000    269.96726    303.40952    290.98677    -131108.4     131169.6    12.422747    23.397108 
149356000    262.42536    276.68531    282.23428   -131129.86    131188.71    -5.548974    23.394044 
149360000    262.59218    244.26212    545.21218   -131187.55    131236.59   -300.95006    23.393211 
149364000    295.71326    369.04878     395.8377   -131252.47    131293.26    -26.78892    23.392889 
149368000    273.51982    441.66619    486.69421   -131290.38     131346.7   -45.028023    23.401156 
149372000    286.64735    336.68848    212.12227   -131300.06    131341.34    124.56621    23.408935 
149376000    293.96939    297.40042    288.12338   -131291.92    131351.33    9.2770485    23.422143 
149380000    283.87641    438.34777    353.21101    -131346.3    131385.41    85.136756    23.404532 
149384000     279.7366    356.80083     273.7033   -131402.82     131435.4    83.097527    23.397817 
149388000    287.88345    416.29113    480.52063   -131416.95    131476.68   -64.229496     23.39137 
149392000    279.94599    323.44523    286.51619   -131478.53    131509.22    36.929032    23.388934 
149396000    269.07938    346.94657    302.99935   -131496.85    131558.14    43.947211    23.389589 
149400000    269.93273    256.06549    193.36951   -131534.07    131596.56     62.69598    23.385063 
149404000    284.74355    412.24402    316.13591   -131577.16    131624.44    96.108111    23.389333 
149408000    296.03129    246.25248    219.54616   -131626.03    131658.78    26.706326    23.386851 
149412000    303.81389    551.14154    211.71173   -131654.31     131696.2    339.42981    23.396142 
149416000    297.64447    243.10724    423.55076   -131687.67    131725.77   -180.44353    23.386765 
149420000    263.79102    434.53791    321.82196   -131726.39    131777.06    112.71596    23.396485 
149424000    303.99828    381.22502    246.33305   -131779.04    131807.34    134.89197    23.403634 
149428000    275.57671    447.10478    350.75397   -131815.63    131871.31    96.350803    23.401118 
149432000    277.55995    338.34548    233.29791    -131869.9    131920.58    105.04757    23.407108 
149436000    281.26163    349.06082      336.485   -131902.14    131930.69    12.575815    23.410903 
149440000    298.21738    387.08978    330.66634   -131937.51    131962.32    56.423442    23.418297 
149444000    284.94538     434.9839    150.76815   -131965.69    131993.01    284.21575    23.421212 
149448000    279.44029    221.59249    300.34103   -132002.33    132039.13   -78.748547    23.420667 
149452000    301.37165    462.24637    331.08715   -132038.17    132074.88    131.15922    23.432746 
149456000    276.25197    343.81441    333.80892   -132105.57    132163.46    10.005481    23.433481 
149460000    320.33764    388.63448    467.65542   -132134.86    132153.51   -79.020939    23.418911 
149464000    311.60444    397.62574    730.52834   -132193.66    132212.26    -332.9026    23.410686 
149468000    296.45442    306.97204    272.44983    -132225.5    132270.89    34.522204    23.410357 
149472000    271.79949    296.26221    201.26845   -132274.34    132318.82    94.993762    23.409737 
149476000    291.72583    386.57323    406.99199   -132338.77    132357.63   -20.418763    23.407665 
149480000    267.47573    226.04042    440.25006   -132360.63    132411.08   -214.20965    23.399092 
149484000    283.37958    328.37943    279.57003   -132416.45    132466.39    48.809403     23.39515 
149488000    302.13414    327.22523    246.84939   -132482.59    132506.19    80.375837     23.38658 
149492000    308.23606    376.17746    156.77629   -132523.05    132542.01    219.40118    23.397796 
149496000    264.67798    418.83997    389.07456   -132548.07    132593.72    29.765404    23.397786 
149500000    312.96462    330.03078      255.668    -132588.5    132605.88    74.362774    23.401851 
149504000    307.27941    351.18415    605.05088   -132655.47       132673   -253.86673    23.395024 
149508000    273.52078    348.58348    249.81769   -132690.47    132726.49    98.765783    23.392222 
149512000    263.38327     273.6815    439.24567   -132733.46    132780.41   -165.56417    23.395771 
149516000    286.37849    402.53745    410.26644   -132789.49    132831.27   -7.7289871    23.396823 
149520000    298.75445    230.30981    450.94656   -132844.49    132878.79   -220.63675     23.39256 
149524000    286.78308    281.10718    307.74606   -132853.32    132907.99   -26.638883    23.394301 
149528000    276.49394    374.86567    535.18048   -132910.93    132965.01   -160.31481    23.392464 
149532000    273.84657     309.3564     274.3556   -132929.45    132968.89    35.000799    23.393626 
149536000    259.00224    383.82865    356.30936   -132982.52    133048.91    27.519292     23.40804 
149540000    268.68166     253.1981    264.19104   -133013.37     133077.9   -10.992941    23.409272 
149544000    297.95922    393.05387    507.71832   -133028.94    133056.36   -114.66444    23.408422 
149548000    277.82948    421.28397    135.65173   -133056.33    133098.96    285.63224    23.409026 
149552000    276.95038    252.86657    351.53974   -133078.28    133136.93   -98.673161    23.408405 
149556000    263.85479    593.82903    323.19325   -133128.98    133178.88    270.63578    23.405986 
149560000    269.50399    339.42413    89.066946   -133164.24    133222.43    250.35718    23.409192 
149564000     272.3216    301.70968     257.7462   -133200.67    133256.56    43.963477     23.42559 
149568000     333.0483    414.07184    421.15512   -133252.95    133265.84   -7.0832885    23.423095 
149572000    281.91859    362.91738    173.75966    -133293.5    133333.88    189.15772    23.427283 
149576000    319.70561    296.48421    319.33793   -133354.44    133380.93   -22.853717    23.426444 
149580000    286.50881    331.86739    302.07883   -133389.39    133433.59    29.788564    23.423213 
149584000    283.92029    271.09887    271.28964   -133406.43    133443.64  -0.19076825    23.411553 
149588000    295.95647    263.02861    373.30113   -133429.34    133451.22   -110.27252     23.41135 
149592000    295.15206    335.38628    188.67538   -133460.63    133506.07     146.7109    23.406455 
149596000    277.02068    272.92079    323.35589    -133484.5    133527.77   -50.435093     23.40536 
149600000    295.25051    401.30016    213.69705    -133501.5    133544.39    187.60311    23.407105 
149604000    269.98901    346.41923    288.23172   -133551.13    133596.63    58.187512    23.401447 
149608000    311.08151    412.50532    369.44237   -133588.06    133616.11    43.062949    23.404412 
149612000    282.88757    403.82748     188.3438   -133592.92    133630.89    215.48369    23.413302 
149616000    286.77413    259.06525    371.23108   -133631.57       133680   -112.16583    23.415093 
149620000    266.11312     219.1744    288.07348   -133676.61    133719.01   -68.899081    23.407134 
149624000    266.17622    388.50156    300.35663   -133697.39    133752.17     88.14493    23.411147 
149628000    282.19533     455.5206    259.57016   -133749.59    133801.78    195.95045    23.413182 
149632000    273.61929    334.59255    278.89221   -133795.04     133829.1    55.700346    23.410022 
149636000    268.60658    369.88523    242.55344   -133819.74    133861.14    127.33179    23.415901 
149640000    301.26864    310.79008    526.62285   -133851.65    133877.45   -215.83277    23.415663 
149644000    296.14437    340.57246    535.22525   -133892.11    133915.72   -194.65279     23.41965 
149648000    299.14997    310.91898    339.47051   -133924.85    133956.53   -28.551535    23.425869 
149652000    301.15854    366.51351    350.83219   -133963.86    133977.32    15.681317    23.424378 
149656000    271.31105    178.12052    231.17667   -133961.62    134005.39    -53.05615    23.425459 
149660000    268.25036     385.1715    363.18564   -133978.64    134022.73    21.985858    23.433306 
149664000    305.36069    325.01335    473.67417   -134021.21    134049.17   -148.66082    23.432765 
149668000    298.39639    317.73664    258.35656   -134062.49    134075.24    59.380078    23.428671 
149672000    271.99066    365.21694    393.93931   -134080.83    134118.44   -28.722372    23.424883 
149676000    260.80247    292.56332    293.47005   -134119.46     134164.3   -0.9067298    23.428638 
149680000    264.26404    158.44696    247.77868    -134175.9     134236.7   -89.331722    23.419874 
149684000    277.59639    438.38772    280.55077   -134220.61    134268.48    157.83694    23.422706 
149688000    289.09554    370.37777    254.26694   -134227.96    134267.56    116.11083    23.434726 
149692000    298.37373    434.77616    325.59432   -134291.11    134327.74    109.18184    23.431192 
149696000    218.08542    418.66006    255.15253      -134315    134414.99    163.50753    23.432118 
149700000    286.21493     246.8445    275.83718   -134381.31    134416.75   -28.992671    23.424577 
149704000    247.90156    259.53164    272.84706   -134412.05    134485.02   -13.315419    23.423246 
149708000    286.45622    526.58882    453.70618   -134454.48    134483.26    72.882641    23.424124 
149712000    291.33812    333.63794    267.06689   -134520.54    134551.15    66.571043    23.424698 
149716000    281.71145    469.40262    298.28429   -134552.01    134604.11    171.11833    23.430068 
149720000    257.36792    308.70169    161.37674   -134596.38    134640.46    147.32495    23.431219 
149724000     259.2622    363.51592    257.59951   -134622.81    134671.45     105.9164    23.436441 
149728000    262.71454    348.06615    313.76338   -134685.37    134726.12    34.302769    23.437392 
149732000    238.90642    246.19787    220.80475   -134706.67    134768.59     25.39312     23.43784 
149736000     311.7888    399.27725    299.97479   -134761.61    134785.37    99.302465    23.437465 
149740000     256.7459    277.11948    216.33241   -134784.61    134829.72    60.787066    23.428175 
149744000    278.70721     326.5196    185.89618   -134834.88    134866.82    140.62342    23.434494 
149748000    274.53507    613.49949    243.42851   -134889.03    134932.25    370.07098    23.437073 
149752000    279.83995     349.9943    480.13504   -134936.84     134980.7   -130.14074    23.430571 
149756000    276.96522    250.77548    485.55402   -134960.66    135003.13   -234.77855    23.426312 
149760000    323.33733    640.33489    359.17915   -134999.62    135034.33    281.15574    23.419204 
149764000    288.91239    321.31841    387.08012   -135050.57     135085.9   -65.761713    23.426952 
149768000    280.81802    331.46248    397.05363   -135055.34    135093.97   -65.591146    23.429555 
149772000    307.87144     415.5307    424.42306   -135079.18    135102.78   -8.8923554    23.433116 
149776000    286.37135    616.33009    376.99492    -135131.8    135151.24    239.33517    23.441842 
149780000    262.68282    406.59065    461.30984   -135160.68    135217.16   -54.719188    23.438645 
149784000    294.17268     392.8768    392.04869    -135213.5    135238.58   0.82810308    23.439205 
149788000    275.30774    216.63368    250.37399   -135241.89    135279.32   -33.740307    23.436364 
149792000    293.65955    273.82018    299.61439   -135256.61    135279.94   -25.794211    23.433755 
149796000    272.83266    311.20666    245.22953   -135308.53    135371.33    65.977133    23.441323 
149800000    267.20316    388.98912    209.08068   -135377.17    135421.05    179.90844    23.438457 
149804000    264.62024     229.1926    404.15679   -135440.04    135488.71   -174.96419    23.439914 
149808000    295.62715    482.74305    299.73297   -135485.84    135530.24    183.01008    23.439109 
149812000    301.49618     232.9394     291.3226   -135543.22    135567.59   -58.383206    23.433152 
149816000    279.14453     409.4683    301.86892   -135576.28    135613.04    107.59938     23.44104 
149820000    278.97424    441.36901    307.50918    -135612.8    135669.76    133.85983    23.447766 
149824000    263.97139    279.08959    270.84992   -135687.17    135734.88    8.2396664    23.444737 
149828000    319.26107     301.4692    453.51406   -135751.92    135764.48   -152.04486    23.446408 
149832000    287.92611    313.01702    220.90598   -135795.58    135826.43    92.111034    23.442077 
149836000    282.95406     201.9762    319.74369   -135805.32    135846.19   -117.76749     23.43997 
149840000    285.37438    284.44119    423.04252   -135849.37    135883.71   -138.60133    23.434173 
149844000    295.08211    422.39011    294.91961   -135898.37     135928.9     127.4705     23.43208 
149848000    286.92656    299.46424    442.73929   -135912.72    135954.12   -143.27506    23.421112 
149852000    281.56167    305.63993    589.56238   -135943.53    135996.97   -283.92245    23.417317 
149856000    272.14103    469.69454    373.31473   -135958.32    136002.17    96.379817    23.414958 
149860000    283.57859    272.01411     304.4694   -135979.82     136013.4   -32.455293    23.417428 
149864000    290.09553    357.44417     265.2302   -136018.45    136042.94    92.213966     23.41015 
149868000    284.12353    302.23267    447.28128   -136088.71    136114.38   -145.04861    23.407938 
149872000    271.35192    374.89128    287.44463   -136090.51    136157.77    87.446651    23.405828 
149876000    255.47456    325.24279    150.66246   -136107.69    136167.14    174.58033    23.411302 
149880000    298.03659    339.31847    349.25572   -136145.81    136183.86    -9.937242    23.403456 
149884000     295.2464    442.18004     344.5384   -136168.88    136219.12    97.641635    23.402799 
149888000    267.45319    276.30421    226.78187   -136195.07    136254.12    49.522342    23.410092 
149892000    310.15807    301.22795    271.00485   -136245.31    136258.81    30.223092    23.409663 
149896000    304.64538    429.01392    363.21732    -136264.5    136300.88      65.7966    23.408392 
149900000    289.37452    396.00048    302.22835   -136333.07    136357.94    93.772129    23.422766 
149904000    275.60126    345.10988    322.81484   -136349.61    136402.62    22.295041    23.420442 
149908000    280.44279    460.87588    317.60124   -136389.27    136447.81    143.27464    23.426842 
149912000    291.22251     286.1972    371.88122   -136442.22    136489.58   -85.684023     23.42173 
149916000    293.60027     536.1268    514.00999    -136491.3    136515.71    22.116816    23.417518 
149920000    302.42703    383.04016    396.15943   -136535.99    136577.12   -13.119265     23.41912 
149924000    285.72382    481.00611     175.8574   -136598.61     136640.3    305.14871    23.415861 
149928000    287.06652    312.10139    412.20268   -136630.03    136664.99    -100.1013    23.414105 
149932000    313.02455    455.74583    280.94388   -136691.08    136731.84    174.80195    23.420322 
149936000    262.29419    451.26906    266.88037   -136708.09    136780.86    184.38869    23.414203 
149940000    268.71596    318.18547    220.03563   -136767.96    136821.36    98.149842    23.412299 
149944000    270.75826    429.41099    178.83552    -136810.1    136859.06    250.57546    23.413851 
149948000    290.92171    321.25555    433.33764   -136841.29    136877.16    -112.0821     23.40861 
149952000    281.63974    268.86423    360.39606   -136865.96    136896.62   -91.531825    23.401649 
149956000    280.42844    386.15137    277.29295   -136892.08    136931.83    108.85842    23.400944 
149960000    300.82906    265.28199    330.70581   -136915.21    136959.24   -65.423814    23.406502 
149964000    267.50974    457.06148    401.17231    -136947.2    137003.57    55.889168    23.410476 
149968000    280.65873    516.77934    343.21213   -137004.73    137051.02    173.56721    23.418266 
149972000    297.09208    334.92263    245.06356   -137029.86    137066.17    89.859074    23.420973 
149976000    284.23318    260.64684    437.94831   -137090.97    137147.84   -177.30147    23.414379 
149980000    270.74679    352.86083    316.55241    -137122.2    137163.26    36.308428    23.422275 
149984000    297.70142    371.07293    214.24601   -137171.25    137217.04    156.82691    23.426613 
149988000    293.78276    180.98071    269.33025   -137219.96     137269.4   -88.349539    23.425452 
149992000    286.63441    354.13489    388.15821   -137218.88    137273.08   -34.023325    23.421219 
149996000    295.27793    300.23299    336.45598   -137263.39       137302   -36.222992    23.418783 
150000000    262.04425    270.69094    272.80936   -137280.16    137333.68   -2.1184156     23.41049 
150004000    283.87856    289.72377    467.77828   -137309.87    137352.46   -178.05451    23.412901 
150008000    260.41134     358.6419    342.60612   -137308.48    137372.81    16.035782    23.424549 
150012000     269.6921    259.03825    391.86617   -137351.41    137397.27   -132.82791    23.432172 
150016000    275.35459    188.75816    341.82914    -137391.4    137428.75   -153.07098    23.424108 
150020000    283.56102    268.50873    243.69749   -137466.09    137501.38    24.811237    23.424638 
150024000    300.88809    380.00846    409.87611   -137523.48    137556.08   -29.867642    23.431039 
150028000    268.65973    240.55893    231.50069   -137540.12    137597.28    9.0582429    23.431233 
150032000    289.52099    493.24042    334.10416   -137590.05    137617.69    159.13626    23.436601 
150036000    275.86429     319.6158     246.1888   -137630.35    137681.41    73.427004    23.432669 
150040000    273.54989    261.80124    286.07902   -137685.67    137734.09    -24.27778    23.432331 
150044000    311.58741    380.14493    189.18151   -137691.29    137747.48    190.96342    23.433774 
150048000    277.53417    372.18964    398.21475    -137733.4     137785.7    -26.02511    23.436797 
150052000    273.74453    230.24305    267.22981   -137760.99    137804.84   -36.986767    23.438754 
150056000    295.92473    305.77051    520.37438   -137748.11    137790.53   -214.60387    23.441565 
150060000    299.59086    327.81911    373.24078   -137787.61    137823.44   -45.421663    23.439549 
150064000    270.26429    218.30368     274.6787   -137822.21    137861.08   -56.375026     23.43858 
150068000    277.40935     415.0262    318.00073   -137836.97    137888.59    97.025462    23.442159 
150072000     284.4205    516.49627    365.18558   -137889.82    137940.71     151.3107    23.445197 
150076000    288.91921    597.42385    242.25639   -137940.05     137979.5    355.16746    23.454905 
150080000     302.0269     484.0576    359.03236   -138001.79    138024.41    125.02525    23.450779 
150084000    263.97984    486.08647    297.59869   -138042.02    138079.91    188.48778    23.445068 
150088000    286.91457    375.75624    343.38658   -138094.51    138126.42    32.369657    23.440887 
150092000    302.16914      340.318    358.47304   -138140.03    138155.14   -18.155046    23.440507 
150096000    287.24149    163.07283    339.58048   -138190.13    138214.99   -176.50765    23.433676 
150100000    299.49331    471.45166    329.36518   -138228.45    138246.67    142.08648    23.440282 
150104000     267.3933    282.31888    368.13558   -138251.69    138310.14   -85.816703    23.432049 
150108000    293.47224    320.68788    337.87178   -138291.31    138320.45     -17.1839    23.422112 
150112000    261.63951    386.87076    457.01646    -138318.5    138383.94   -70.145702    23.424893 
150116000    262.07827    449.11324    274.68758   -138369.56    138422.08    174.42566    23.427892 
150120000    265.27541    363.78809    242.62105   -138389.55    138438.55    121.16705    23.425607 
150124000    251.85841    372.09694     347.7832   -138446.11    138498.73    24.313743    23.432321 
150128000    249.36672    371.18092    295.65317   -138488.56    138553.29     75.52775    23.436102 
150132000    255.22641    342.26222    411.17596   -138522.42    138597.27   -68.913738    23.438425 
150136000    279.67304    439.05321    378.07041   -138553.01    138604.22    60.982797    23.441356 
150140000    266.77017    306.60134    428.81168   -138587.78    138641.73   -122.21035    23.441752 
150144000    260.94244    220.86827    196.77211   -138629.52    138701.43    24.096153    23.432253 
150148000    298.49726    494.78641    251.59681    -138676.8    138692.49     243.1896    23.436643 
150152000    300.48158    409.50506    306.26167   -138704.17    138735.59    103.24339    23.435879 
150156000    272.21455    447.23343    296.60745   -138742.57    138792.61    150.62598    23.438951 
150160000    291.11913    281.13287    529.96569    -138800.5    138833.04   -248.83282     23.43877 
150164000    278.30594    472.18589    293.99916   -138810.31    138882.27    178.18673    23.434421 
150168000    303.40459    437.18113    438.93235   -138831.15    138861.74   -1.7512179    23.430596 
150172000    308.23607     327.3689    286.74118   -138886.15     138925.6    40.627723    23.433305 
150176000    314.60329      426.592     227.5836   -138909.85    138957.67     199.0084    23.441637 
150180000    271.82714    343.94028    292.94765   -138933.63    138981.95    50.992636    23.443466 
150184000    294.10859    272.34592    357.90493   -139003.76     139048.7   -85.559013    23.448399 
150188000    284.07513    329.79077    478.10168    -139036.7    139063.86   -148.31091    23.438714 
150192000    289.47587     357.1011    413.67183   -139054.49     139091.8   -56.570736    23.433529 
150196000    287.89731     456.8491    495.84104   -139085.54    139129.22   -38.991934    23.430731 
150200000    268.53399    240.51191    274.75799   -139145.79    139200.13   -34.246084    23.426442 
150204000     290.9837    277.00844    349.17856   -139202.07    139242.09   -72.170116    23.436506 
150208000    293.10408    367.74097    438.57998   -139207.62    139262.42   -70.839005      23.4408 
150212000    286.15375    351.61424    340.79425   -139240.19    139264.71    10.819983    23.442742 
150216000    276.39856    433.65034    394.10651   -139266.75    139313.16    39.543836    23.432828 
150220000    271.20565    367.23406    257.72523   -139287.35    139351.22    109.50883    23.441439 
150224000    279.61148    300.65965    239.67714   -139349.93    139392.96    60.982509     23.44331 
150228000    319.22488    239.02069    592.47806    -139407.1    139434.53   -353.45737    23.439763 
150232000    298.48039    581.30943    235.50093   -139451.45    139503.49     345.8085    23.441597 
150236000     278.8584    236.63881    316.67317   -139499.35    139534.72   -80.034362    23.445906 
150240000    285.10606    312.57103    628.55369   -139505.83    139550.41   -315.98266    23.443068 
150244000    290.33111    290.85478    362.37558    -139551.7    139584.21   -71.520796    23.440947 
150248000    304.28565    367.36749     335.5671   -139584.43    139606.93    31.800396    23.440007 
150252000    269.77078    202.25026    145.70605   -139579.04     139641.9    56.544204    23.443835 
150256000     284.4781    225.76652    325.04921   -139624.41    139665.91   -99.282686    23.433997 
150260000    288.55158    310.13718    317.91044   -139682.69    139734.46   -7.7732545    23.429293 
150264000    271.06008    406.41727    421.77341   -139741.16    139792.04   -15.356139    23.433686 
150268000    279.04421    330.98037    200.66357   -139801.34    139839.91    130.31681    23.438334 
150272000    273.10943    267.74791    551.91626   -139852.04    139902.96   -284.16835    23.432452 
150276000    282.46903    456.26013    397.32235   -139876.38    139938.56    58.937774    23.420265 
150280000    264.35002    506.28172    362.53211   -139947.36    140013.23    143.74961    23.419008 
150284000    289.70061    394.03212    306.17837   -139998.83    140038.62    87.853751    23.426298 
150288000    279.43107     354.1727    302.77096   -140065.13    140113.42    51.401736     23.42917 
150292000    292.14759    415.47957    391.02856   -140090.73    140149.34     24.45101    23.430932 
150296000     296.9093    283.84703    384.19535   -140162.11    140193.58   -100.34832    23.431071 
150300000    295.43447    617.48291    413.14247   -140225.78     140256.4    204.34044    23.431987 
150304000    259.77327    414.54345    234.96082   -140211.86    140268.86    179.58264    23.426955 
150308000    244.10248    266.82926    427.79748   -140243.17    140297.05   -160.96822     23.41852 
150312000    294.64066    548.91118    291.59283   -140269.53    140305.41    257.31834    23.423262 
150316000     294.9495    414.39134    263.08322   -140306.26    140338.48    151.30812    23.416586 
150320000    277.20843    492.92311    254.49373   -140347.15    140383.41    238.42938    23.429675 
150324000    285.85663    421.96082    326.47614   -140389.47    140446.72    95.484683    23.432543 
150328000    276.99469    310.10543    295.06523   -140454.81     140496.6    15.040199    23.427557 
150332000    294.59184    197.07185    445.24235   -140487.64    140525.66    -248.1705     23.43371 
150336000     284.3558     274.6104    538.65413   -140518.19    140558.61   -264.04372      23.4376 
150340000    290.75641    482.55447    259.37461   -140550.25    140593.23    223.17987    23.440064 
150344000    280.07599    391.28051    336.55187   -140582.85    140632.26     54.72864    23.440352 
150348000    288.68119    273.85311    231.53006   -140608.05    140657.22    42.323057    23.440952 
150352000    258.73101    275.02716    255.78207   -140634.49     140693.9    19.245088    23.434126 
150356000     269.8679    522.93964    303.56397   -140662.54    140711.09    219.37567     23.44248 
150360000    284.99742    262.39198    421.23133   -140711.99    140759.68   -158.83935    23.440347 
150364000    265.75473    321.39521    228.69349   -140752.29    140806.41    92.701723    23.444641 
150368000    282.58581    329.93591    400.34703   -140789.14    140840.96   -70.411124    23.436673 
150372000    245.90394    294.01335    234.22514   -140810.68    140878.69    59.788206    23.424837 
150376000    300.38955    283.46585    189.53976      -140862    140898.75    93.926096    23.425999 
150380000    289.18681    318.64982    263.74165   -140901.66    140929.18    54.908168    23.418907 
150384000    276.49698    299.98474    328.11228   -140936.78     140979.6   -28.127537    23.423686 
150388000    285.68814    347.53917    281.56511   -140942.65    140984.13    65.974065    23.423473 
150392000    259.96668    419.27836    230.54098   -140981.15    141040.85    188.73738    23.426429 
150396000     280.7932    265.17099    369.79084   -140992.81    141042.27   -104.61985      23.4264 
150400000    288.56239    344.11965     229.7003   -141031.49    141066.19    114.41935    23.421455 
150404000    268.54456    479.24393    383.84615   -141072.03    141115.74    95.397785    23.415651 
150408000    289.38456    398.31898    341.92014   -141119.46    141148.49    56.398848    23.414732 
150412000    275.72587    267.54249    168.05997   -141160.37    141206.87    99.482513    23.425281 
150416000    265.76297    370.79422    329.19631    -141192.3    141242.09    41.597906    23.425671 
150420000    302.40545    140.02441     476.6187    -141184.3    141230.64   -336.59429    23.421895 
150424000    300.75553     312.2184    259.14808   -141247.64    141279.35    53.070324    23.408082 
150428000    283.86135    388.69323    334.84383   -141238.07    141306.09    53.849395     23.41027 
150432000    297.57484    259.85505    292.73636    -141291.6    141344.62   -32.881315     23.40407 
150436000    280.96489    334.17836    623.83207   -141319.04    141369.88   -289.65372    23.401855 
150440000    287.65998    375.30903     384.6746   -141339.71    141396.86   -9.3655715    23.404245 
150444000    270.12696    352.20094    270.21779   -141369.71    141426.22    81.983144    23.400526 
150448000    291.87314     292.9974    351.96772   -141419.03    141449.91   -58.970318    23.401443 
150452000    250.55829    341.30593    393.03487   -141430.26    141510.47   -51.728941     23.40745 
150456000     266.3146    271.60269    379.71767   -141495.78     141554.5   -108.11498    23.404748 
150460000    275.06741    347.57641    238.06722   -141546.03    141588.15    109.50919    23.403096 
150464000    277.59877    614.80428    265.18294   -141592.86    141623.77    349.62134    23.403108 
150468000    309.24412    324.05983    188.10174   -141615.54    141645.65    135.95809    23.397706 
150472000    297.08381    384.84308     365.3764   -141647.65    141688.17     19.46668    23.403939 
150476000    299.30418    388.88121    305.80459   -141697.57    141721.33    83.076623    23.400077 
150480000    269.58768    295.22586    343.75801    -141707.9    141756.09   -48.532143    23.396559 
150484000    283.45114    279.55151    340.88416   -141739.46    141793.34   -61.332656    23.390993 
150488000    250.19711    183.78845    346.92745   -141770.38    141842.29     -163.139    23.379021 
150492000     271.5219    498.68549    258.71364   -141827.54    141868.24    239.97185    23.379082 
150496000    264.54683    415.85498    351.33734   -141831.45     141906.8     64.51764    23.383959 
150500000    265.05014    308.51721    374.32134   -141860.81    141930.28   -65.804134    23.383508 
150504000    292.72271    358.46529    269.77397   -141912.55     141947.9    88.691321    23.387253 
150508000    309.94769    411.47175    287.82146   -141940.34    141976.25    123.65029    23.382209 
150512000    264.46618    171.96144    271.89583    -141940.8    142018.46   -99.934391    23.379772 
150516000    302.89655    370.15646    313.91597   -142026.49    142059.56    56.240495    23.382761 
150520000    274.70719    197.23662    277.86896   -142039.32    142092.27   -80.632342    23.387311 
150524000    274.22388    311.52825    336.36826   -142113.82     142153.1   -24.840008    23.377681 
150528000    280.65189    513.22822    306.80133   -142131.03    142168.35    206.42689      23.3799 
150532000    289.47621    319.69595    296.16848   -142229.06    142260.79     23.52747    23.381423 
150536000    309.67125    282.89663    194.53202   -142257.52    142287.41    88.364609    23.383346 
150540000    304.78624    454.48339     497.5799   -142294.32    142339.44   -43.096504    23.386544 
150544000    290.30477      310.371     283.2074   -142336.78    142355.11    27.163602     23.38635 
150548000    288.34969    332.14621     424.1478   -142381.86    142444.74   -92.001592    23.376696 
150552000    297.11121    269.12286    440.34817   -142451.69    142483.22   -171.22531     23.37246 
150556000    296.42451    321.48608    310.37508    -142501.2    142541.02       11.111    23.377101 
150560000    288.02106    369.46401    352.38841   -142555.78    142599.24    17.075602    23.374954 
150564000    255.59006     184.3692    262.66317   -142580.02    142655.51    -78.29397    23.378532 
150568000    283.87338    244.89069    306.37342   -142632.59       142685   -61.482726    23.373224 
150572000    285.79907    236.07011    300.91488   -142698.62     142746.1   -64.844773    23.382281 
150576000     275.4736    266.56116    254.39432   -142719.02    142754.23    12.166835    23.383861 
150580000    280.22708    342.33806    237.39807   -142746.83     142781.5    104.93999    23.389467 
150584000    266.90302    336.73491    380.96007   -142764.68    142812.69   -44.225162    23.383585 
150588000    276.91897    284.45077    291.93021    -142782.4    142838.49   -7.4794408    23.373757 
150592000    271.92485    344.08231    230.87897   -142827.08     142870.1    113.20334    23.375646 
150596000    252.99528     290.1446    186.90135   -142857.25    142914.93    103.24325    23.379426 
150600000    294.37861    271.47414    374.41348    -142930.6    142972.33   -102.93934    23.370732 
150604000    238.32743    293.68378    137.90452   -142962.23    143030.06    155.77926    23.368319 
150608000    289.98318    550.70068    279.70752   -142999.11    143041.02    270.99316    23.375612 
150612000    285.06601    382.02479    386.98134   -142993.06    143057.23   -4.9565573    23.373251 
150616000    279.89051     364.6526    419.02291   -143074.78    143116.12   -54.370312    23.366247 
150620000     256.6223    422.31624    250.38435   -143102.67    143145.71    171.93189    23.372894 
150624000     291.4961    489.75526    255.91606   -143164.92    143200.53     233.8392    23.371945 
150628000    281.83595    533.17712    370.42603   -143169.27    143229.79     162.7511    23.373376 
150632000    255.89955     220.6728    282.95773   -143201.02    143276.26   -62.284929    23.375256 
150636000    306.37897    432.05168    422.33486   -143245.27    143277.28    9.7168161    23.376779 
150640000    287.00966    360.25824    397.69482   -143265.73    143311.65    -37.43658    23.375811 
150644000    274.25408    542.83645    143.41323    -143283.5    143334.81    399.42322    23.376681 
150648000    287.91227    300.85083    250.02423   -143312.36    143375.94      50.8266      23.3829 
150652000    284.51699    315.44134    310.94039   -143348.79    143403.82    4.5009539     23.39194 
150656000    260.99915    499.06082    323.31239   -143363.85    143422.35    175.74843    23.397148 
150660000    310.19317    364.05896    179.97752   -143391.37    143428.81    184.08144    23.394221 
150664000    250.30803    181.17376    177.27429   -143408.48    143468.84     3.899471    23.402526 
150668000     293.8724    279.84491     378.0686   -143454.47    143500.79   -98.223698    23.395981 
150672000    301.45173    367.25621    396.38883   -143471.85    143516.62   -29.132619    23.398822 
150676000    293.99117    494.57317    269.84704   -143505.81     143535.4    224.72613    23.408658 
150680000    270.05453    306.22522    260.21812   -143522.68    143584.28    46.007105    23.410462 
150684000    283.28308    351.79222    245.14153   -143534.75    143598.17    106.65069    23.421262 
150688000    272.25476     112.5622    269.58651   -143610.56    143665.93   -157.02431    23.425603 
150692000    277.71173     374.7897    208.13576   -143665.08    143715.55    166.65394    23.436484 
150696000    286.52192    242.34764    238.03045   -143710.67    143757.87    4.3171889    23.433077 
150700000     313.9331    421.44143    261.78374   -143784.38    143810.49    159.65769    23.429129 
150704000     316.2691     319.0323    221.48657   -143865.21     143891.8    97.545732    23.432634 
150708000    263.14463    307.86959    233.00557   -143931.81    143956.96    74.864016    23.429421 
150712000    263.13734    263.65632    354.92594   -143972.62    144050.67   -91.269616    23.437942 
150716000    285.15721    356.04006    366.93853   -144028.52    144071.23   -10.898469    23.440193 
150720000    276.95252    335.80178    334.71515   -144050.38    144107.97    1.0866333    23.436192 
150724000    274.04361    353.17031    255.54246   -144059.84    144130.93    97.627852    23.434084 
150728000    274.32074    370.84708    336.11981   -144143.26    144190.95    34.727271    23.423455 
150732000    280.37376    382.75836    420.79371   -144191.59    144254.96   -38.035352    23.417294 
150736000    271.61393    337.36963    531.58169   -144224.83    144272.04   -194.21207    23.407602 
150740000    272.93813    342.14611     481.6577   -144261.55    144310.54   -139.51159    23.401426 
150744000    271.69656    244.75569    258.82646   -144289.26     144349.2   -14.070778     23.41399 
150748000    301.75587    419.09875    305.93543   -144335.11    144361.78    113.16332    23.422008 
150752000    297.25693    544.92211    287.81972   -144364.74    144395.62    257.10239    23.421435 
150756000    310.78359      267.631    502.35002   -144420.51    144442.35   -234.71902    23.412215 
150760000     306.6076    507.38301    444.37355   -144468.25    144486.87    63.009459    23.416883 
150764000    270.04763    215.98567    392.85858   -144478.68    144529.72   -176.87291     23.41998 
150768000    261.43858    265.49743    255.74523   -144500.99    144564.15    9.7521975     23.42825 
150772000    299.09451    486.07456    373.39671   -144556.48    144586.72    112.67785    23.421497 
150776000    257.55766    197.82344    532.74678   -144597.53    144649.78   -334.92334    23.418765 
150780000    305.36476    482.29115    316.48318   -144635.25    144669.71    165.80797    23.428943 
150784000     291.1252    472.08874    381.02155   -144686.11    144731.64    91.067192    23.436838 
150788000    266.22385    374.99727    260.31755   -144689.22    144773.61    114.67972     23.43804 
150792000     285.5841    334.12216     269.4873    -144706.4    144752.91     64.63486    23.437119 
150796000    277.46786    311.10189    303.05033   -144747.88    144797.97     8.051561     23.43413 
150800000    296.24739    378.27686    429.94287   -144790.71    144826.55   -51.666015    23.436356 
150804000    281.98342    406.30712    294.79993   -144837.91    144864.24    111.50719    23.440088 
150808000    317.27092    409.04035    221.54422    -144894.9    144912.45    187.49612    23.444495 
150812000    300.04746    417.86683    260.19859   -144948.28    144978.12    157.66824    23.435632 
150816000    279.56973    261.04525    333.11104   -144982.22    145027.05   -72.065793    23.438954 
150820000    283.73304    329.33215     371.7432   -145012.35    145064.95   -42.411045     23.43668 
150824000     282.8176    294.72278     305.8355   -145045.24    145086.34   -11.112713    23.438299 
150828000    263.00399    341.43699     433.0091   -145092.38    145153.66   -91.572107    23.440759 
150832000      292.069    282.57885    351.24572   -145159.23    145195.36   -68.666875    23.440272 
150836000    292.49887    354.29893    330.57894   -145156.23    145189.64    23.719996    23.443189 
150840000    252.17517    293.88852    339.80357   -145172.97       145227   -45.915051    23.438031 
150844000    271.39176    250.28548    351.35905   -145229.74    145293.18   -101.07357    23.440817 
150848000    268.02804    335.27573    190.41211   -145269.64    145319.68    144.86361    23.438787 
150852000    300.42778    344.51847    279.88324   -145324.34    145357.29    64.635221    23.435805 
150856000    296.26227    292.41117    216.04635   -145373.03    145407.53    76.364828    23.438427 
150860000    271.06441    324.75004    429.80002   -145401.26    145447.73   -105.04998    23.436131 
150864000     262.4097    274.05839    242.92377   -145435.39     145495.3    31.134622    23.437497 
150868000    282.63734    393.05868    418.96823   -145488.61    145537.33   -25.909548    23.438148 
150872000    319.57353    517.67107    341.77967    -145527.2    145559.62     175.8914    23.441017 
150876000    275.25929    297.55174    288.06231   -145561.42     145616.2    9.4894329    23.441982 
150880000    317.21123    572.01679    486.02304   -145643.01    145648.35    85.993758    23.442456 
150884000    253.10204    283.11209    258.78616    -145656.4    145701.47    24.325927    23.431661 
150888000     304.9486    254.86475    290.20172   -145699.33    145726.79    -35.33697    23.430962 
150892000    280.26829    471.89709    141.00317   -145713.72    145760.92    330.89392    23.435142 
150896000    278.70997    291.61266    415.91016   -145733.37     145787.8    -124.2975     23.43645 
150900000    262.77041    318.14008    260.09919   -145781.22    145842.61    58.040895    23.436994 
150904000    291.60645    492.48608    237.35857   -145838.22    145884.08    255.12751    23.435869 
150908000    327.39277    282.63726    631.70285    -145876.1    145901.63   -349.06558    23.436497 
150912000    284.30678    523.55562    271.26256   -145907.77    145972.14    252.29306    23.437172 
150916000    318.27238    355.99768    325.85157   -145949.92    145971.61    30.146104    23.437619 
150920000    266.86376    183.11168    307.61446   -145994.69    146049.32   -124.50278    23.439985 
150924000    309.17572    351.37541    346.22657   -146050.16    146089.84    5.1488339    23.443191 
150928000    291.62592    339.20621    313.23712   -146070.56    146117.55    25.969092    23.448966 
150932000     291.9291    176.05302    249.84542   -146095.57    146134.49   -73.792401    23.448713 
150936000    272.39756     366.8351    237.09018   -146130.75    146186.02    129.74492    23.443913 
150940000    287.88749    537.10569    208.63487   -146178.97    146214.97    328.47081    23.455348 
150944000    274.41021    336.75738    252.00993   -146218.98    146288.39    84.747444    23.470143 
150948000    301.96108    350.45693    433.10803   -146242.25    146275.66   -82.651102    23.467976 
150952000    295.30753    434.96222    374.67863   -146304.31    146338.14    60.283591    23.471058 
150956000    273.44434    263.35597    499.00146    -146332.1    146374.13   -235.64549    23.460647 
150960000    268.67318    311.69686    278.40044   -146354.72    146418.38    33.296421    23.467734 
150964000    284.21029    218.89666    463.84992   -146377.56    146435.18   -244.95325    23.463296 
150968000    264.42479    475.81967    470.50926   -146418.85    146471.47    5.3104089    23.461105 
150972000    273.38191    340.05554    317.32231   -146463.43    146516.44    22.733229    23.454598 
150976000    294.26603    226.97723    286.46794   -146534.02    146581.44   -59.490706    23.452301 
150980000    301.26775    235.77128    305.38968   -146596.86    146626.31   -69.618396    23.456497 
150984000    311.15636    332.70484    528.52711   -146689.28    146721.32   -195.82227    23.461839 
150988000    253.85767    453.39051    350.34419   -146708.06    146782.05    103.04632    23.456878 
150992000    295.98908    353.00631    275.98953    -146754.4     146788.3    77.016782    23.456194 
150996000    288.72704    325.71026    510.31458   -146808.56     146844.9   -184.60432    23.448085 
151000000    287.40674    350.99506    337.19279   -146853.91    146887.82    13.802274     23.45098 
151004000    284.28327     319.3038    352.76484   -146906.34    146958.37   -33.461046    23.452699 
151008000    267.96539    268.39659    313.37716    -146949.9    146995.79   -44.980568    23.448078 
151012000    246.50189    362.77544     477.9897   -146980.68    147036.07   -115.21425    23.441975 
151016000    294.55391    247.03113    344.48789   -147012.24    147056.97   -97.456767    23.441168 
151020000    283.27821    312.39096    325.35948   -147028.42    147091.04   -12.968517    23.441719 
151024000    285.96242    492.70258      279.308   -147064.72    147112.04    213.39459    23.446452 
151028000    294.95692    335.09148    505.26781    -147088.2    147128.99   -170.17633    23.442345 
151032000    295.82023    374.49547    235.89677   -147109.68    147150.24     138.5987    23.447003 
151036000    332.96568    406.22093    611.74158    -147192.3    147209.94   -205.52065    23.449212 
151040000    289.63044    304.77478    303.38003   -147217.92    147262.67    1.3947523    23.451137 
151044000    311.33428    324.20917    466.30925   -147273.31    147307.61   -142.10007    23.452813 
151048000    307.68418    269.11874    347.47064    -147298.8    147343.09   -78.351896    23.449511 
151052000    265.94485    285.28081    313.83247   -147318.39    147373.14   -28.551662    23.450634 
151056000    297.73136    316.94196    353.34731   -147323.41    147383.44   -36.405357    23.452159 
151060000    272.26699    412.24394    366.90608   -147386.71    147431.92    45.337855    23.443944 
151064000    272.57094    359.37497    244.35406   -147438.06    147474.34    115.02091    23.445572 
151068000    266.59017    319.22234    440.84965   -147476.55    147526.51   -121.62731    23.450876 
151072000     294.9743    278.41416    224.26715   -147537.23    147559.06    54.147001    23.442024 
151076000    328.63828    309.56035    303.48392    -147564.7    147585.29    6.0764229     23.45057 
151080000    304.82268    291.03142     516.4626   -147578.33    147613.22   -225.43118    23.463066 
151084000    299.90579    277.42278    392.75768   -147604.21    147630.85    -115.3349    23.469802 
151088000    277.85501    356.33563    389.88875   -147629.61    147679.21    -33.55313    23.474078 
151092000    292.06806    436.50887    500.24729   -147670.74     147714.5   -63.738423    23.475723 
151096000    275.64846    220.65869    334.51108   -147724.76    147771.67   -113.85239    23.483026 
151100000     255.0231    485.04251    243.97044   -147742.86    147789.83    241.07207    23.479228 
151104000    283.07433    314.00556    334.74046    -147768.8    147815.52   -20.734899    23.487608 
151108000    308.81034    376.99293    371.81993   -147800.35    147847.81    5.1729983    23.491937 
151112000    323.27765     392.8357    323.57046   -147844.75    147877.85    69.265241    23.493136 
151116000    274.36164    388.49024    268.35884   -147870.29    147930.17     120.1314    23.490735 
151120000    288.50511    289.42479    322.08822    -147917.6    147962.78   -32.663424    23.499085 
151124000    302.87637    428.99139    342.47795   -147972.51    147997.24     86.51344    23.497182 
151128000    311.34371    373.71178    503.71134   -147995.19    148016.05   -129.99956     23.49219 
151132000    299.87381    243.48168    239.93607   -148028.57    148035.57    3.5456169    23.497093 
151136000    283.37715    471.99961    241.82803   -148067.39    148116.98    230.17158    23.499659 
151140000    298.34115    468.77114    364.14739   -148113.14     148144.9    104.62375    23.497863 
151144000    320.63744    289.70928    564.99134   -148140.22    148163.35   -275.28206    23.495217 
151148000    290.97833    514.18636     220.7889   -148180.36    148227.93    293.39746    23.499043 
151152000    277.50456    323.49536    273.14644   -148214.63    148243.46    50.348926    23.495374 
151156000    288.67208    501.61906    285.79551   -148277.09    148318.47    215.82355    23.501645 
151160000    259.29797    307.18262    349.88633   -148318.68     148371.2   -42.703708     23.50304 
151164000    263.09493    268.97417    396.49633   -148311.25    148369.79   -127.52215    23.510997 
151168000    283.12553    372.67704    235.94669   -148326.88    148382.92    136.73036    23.510199 
151172000    301.13182    412.59429    316.53305   -148382.35    148433.54    96.061237     23.51091 
151176000    292.24348    410.99151    278.97385   -148437.47    148491.78    132.01766    23.505587 
151180000    246.12406    553.53136     208.3383   -148481.37    148545.98    345.19305    23.513936 
151184000    283.47156    215.31459    416.63431   -148533.41    148555.46   -201.31972    23.509672 
151188000    296.00946    453.65624    220.79238   -148527.33    148566.77    232.86386    23.518578 
151192000    275.40525    218.08558     212.2343   -148548.68    148608.73    5.8512717    23.515931 
151196000    289.50887      433.715    381.62113   -148575.05    148643.95    52.093869    23.513987 
151200000    273.05588     285.2464    435.31084   -148637.15    148682.97   -150.06444    23.516105 
151204000    311.25637    367.45379    410.53495   -148680.59    148713.51   -43.081164    23.514101 
151208000    254.51502    281.65593    297.77279   -148707.16    148775.67   -16.116858    23.515359 
151212000    291.60134    292.82537    435.39534   -148785.19    148821.89   -142.56997    23.515114 
151216000    257.22999    355.44371    414.68993      -148828    148892.38   -59.246222    23.504881 
151220000      265.406    426.04982    244.02791   -148866.07    148920.75    182.02191    23.505966 
151224000     300.1176    264.42191    231.60352    -148901.3    148949.38    32.818384    23.505402 
151228000    298.05507     201.5052    294.17431   -148943.44    148990.35   -92.669111    23.504195 
151232000     316.4563    435.31417    565.58564   -149010.37    149027.48   -130.27147    23.501746 
151236000    275.73544    363.69654    271.44319   -149049.18    149099.02    92.253356    23.506276 
151240000    270.98863    359.23182    223.90699   -149051.31    149128.39    135.32482    23.501755 
151244000    276.76575    355.58707    374.22252   -149116.87    149156.43   -18.635452    23.504952 
151248000    257.31856    222.20151    269.12095   -149160.24    149208.73   -46.919435     23.51022 
151252000    302.47492    497.42627     337.2136   -149215.81    149261.47    160.21266    23.506714 
151256000    295.80115    317.18434     327.1209   -149303.59     149329.6   -9.9365648    23.505891 
151260000    307.41685    248.10079    442.03157   -149328.34    149368.49   -193.93078    23.492129 
151264000    270.78163    355.69493     226.1795   -149356.95    149415.62    129.51543    23.489852 
151268000      271.602    423.33186    408.52357   -149380.37    149430.52     14.80829    23.487748 
151272000    262.13875    462.11091    279.23323   -149414.39    149468.21    182.87768    23.488585 
151276000    304.55186    388.41039     290.0706    -149426.5    149463.45    98.339789    23.487901 
151280000    306.57481    475.37825    307.66562   -149469.91    149507.84    167.71264    23.484756 
151284000    287.52307    326.37714    475.56817    -149495.8    149542.42   -149.19103    23.484499 
151288000    276.43668    322.46449    224.48229   -149555.15    149606.88    97.982196    23.488595 
151292000    262.63762    296.60824    413.24628    -149606.6    149687.75   -116.63803    23.484141 
151296000    277.89095    192.46148    306.69333   -149654.95    149697.03   -114.23185    23.486465 
151300000    317.97447    787.65192    384.52804   -149715.75    149729.13    403.12388     23.49249 
151304000    300.58166    334.96243    445.95692   -149725.05    149767.48   -110.99449    23.499388 
151308000      313.126     367.6605    268.14735   -149760.77    149796.83    99.513151     23.50516 
151312000    290.96195    308.35317    358.13887   -149750.36    149788.67   -49.785694    23.513499 
151316000    274.30017    228.86519    296.67632   -149754.85    149818.52    -67.81113    23.510021 
151320000    279.31398     328.6937    279.36242   -149789.59    149851.22    49.331282    23.515717 
151324000    284.24739    502.99815    296.16936   -149805.99    149857.72     206.8288     23.51777 
151328000    264.09833     229.9689    204.53279   -149828.33    149891.88    25.436115    23.513969 
151332000    301.42474    350.49832    311.08718   -149880.15    149917.24    39.411139    23.507437 
151336000    287.93727    519.91485    277.18466   -149936.13    149995.98    242.73019    23.501685 
151340000     274.5654    378.98973    280.39217    -149982.2    150034.23    98.597563    23.505535 
151344000    256.15564    370.36278    188.77361   -150034.37    150096.98    181.58916    23.509058 
151348000    287.90749    293.28985    345.05212   -150067.58    150121.26   -51.762271    23.503826 
151352000    292.06466    237.24112    235.15122   -150120.82    150155.98    2.0899049    23.503664 
151356000    279.57024    322.50749    257.36312   -150150.27    150188.61    65.144366    23.503042 
151360000    308.71006     368.2143    332.17333   -150200.33    150231.98    36.040972    23.497912 
151364000    305.34433     300.8073    349.95326   -150230.27    150279.46   -49.145955    23.494298 
151368000    280.34581    209.63452    171.72909   -150243.55    150290.81    37.905429    23.495597 
151372000    293.35172    371.37032    191.33965   -150274.68    150317.25    180.03067    23.493426 
151376000    275.53446    478.48739    247.90853   -150290.01    150356.44    230.57886    23.500479 
151380000    274.37818    285.70824    325.31082   -150289.08    150355.47   -39.602576    23.504509 
151384000    276.61064    278.81326    560.57366   -150367.14    150410.43    -281.7604    23.497254 
151388000    272.08294    309.07947    327.23586    -150419.6    150471.26   -18.156399    23.496853 
151392000    289.66526    474.11425    271.97956   -150470.12    150525.84    202.13469    23.495051 
151396000    260.98821    287.54164    392.90251    -150506.3    150571.87   -105.36087    23.499268 
151400000    294.99121    309.64007    397.95134    -150548.7    150581.76   -88.311276     23.50641 
151404000    285.26239    279.51865    261.10032   -150582.94    150632.78    18.418324    23.504297 
151408000    285.55534    466.06447    332.06314   -150651.59    150694.42    134.00134    23.512544 
151412000    261.17477    379.66645    382.33868   -150692.49    150767.06   -2.6722263    23.512414 
151416000    266.18529    488.42618    290.82245   -150724.94    150776.34    197.60372    23.517467 
151420000    281.75925    275.08517    291.50556   -150765.14    150803.73   -16.420392    23.513494 
151424000    312.55566     375.1824    222.66516   -150821.98    150851.71    152.51724     23.50293 
151428000    288.65349    284.48743    323.01212   -150848.24    150916.95   -38.524694    23.508747 
151432000    256.90132     423.8051    360.50118   -150915.83    150980.62    63.303919    23.503674 
151436000    293.27094    291.88799    297.95671   -150980.53    151025.51   -6.0687191    23.505309 
151440000    290.61291    632.12285    260.78301   -151015.64    151050.25    371.33984    23.505973 
151444000    306.66814    399.92203    448.55632    -151047.3    151071.73   -48.634289    23.507022 
151448000    295.50271    327.33085     298.6278   -151084.38    151114.77    28.703049    23.510856 
151452000    292.34417     411.3195    416.23342   -151117.02    151156.87   -4.9139167    23.512604 
151456000    303.17357    316.12209    370.90599   -151179.33    151213.94   -54.783901    23.507705 
151460000    264.37285    177.70199    305.62858   -151180.12    151266.25   -127.92659    23.507797 
151464000    259.52703    301.60706    216.13717   -151221.42    151289.59    85.469888    23.505425 
151468000    284.21333    360.88723     398.7987    -151270.9    151336.77   -37.911464    23.504604 
151472000    318.08754    423.46992    375.93934   -151327.71    151369.16    47.530577    23.503345 
151476000    266.06303    290.85421    400.75757    -151370.2    151429.76   -109.90336    23.502445 
151480000     305.4921     268.5766    208.57793   -151408.23    151445.02    59.998665    23.506446 
151484000    270.16763    396.46972    450.62874   -151496.58    151540.53   -54.159017    23.502429 
151488000    273.65853    375.14724    247.94483   -151509.34    151568.87    127.20241    23.517303 
151492000    313.63806    299.64296    169.39949   -151581.37    151613.12    130.24347    23.522977 
151496000    271.63001    244.09322    285.03194   -151574.86    151638.89   -40.938727    23.523015 
151500000    282.23114    397.86274    241.99847   -151610.52    151672.48    155.86427    23.523187 
151504000    276.61233     264.7362     378.5908    -151645.5    151718.82    -113.8546    23.518494 
151508000    288.81311    372.91679    337.90791   -151699.29    151741.79    35.008883    23.509751 
151512000    308.57932    418.37328    268.20925   -151743.88    151772.71    150.16403    23.504887 
151516000    261.36084    375.42939    375.05091    -151803.4    151855.01    0.3784712    23.493349 
151520000    299.87283    460.19845    285.83381   -151854.87    151893.53    174.36465    23.483029 
151524000    278.22528    236.74719    299.54176   -151912.43    151958.13   -62.794567    23.475312 
151528000    291.50969    370.30467    392.33007   -151928.78    151983.96     -22.0254     23.47511 
151532000    287.63031    468.36523    326.15453   -151963.23    152015.76    142.21071    23.474499 
151536000    269.58312    421.99622    342.88772   -152007.69    152051.06    79.108498    23.480545 
151540000     272.2509    312.69436    268.41982   -152069.41    152124.07     44.27454    23.482777 
151544000    286.53419     403.3569    413.85887   -152112.67    152165.97   -10.501971     23.47341 
151548000    285.10074    373.00312    222.56021   -152161.82    152201.65    150.44291    23.469387 
151552000    295.68604    219.44334    413.52946   -152193.03    152249.34   -194.08612    23.468604 
151556000    295.80769    319.45678    329.11966   -152223.49    152257.01   -9.6628785    23.465635 
151560000    318.93097    464.54767    373.33633   -152287.81       152307    91.211336    23.457051 
151564000    269.46524    340.72516    309.63522   -152294.17    152349.18    31.089941    23.462911 
151568000    276.17549    239.37431    368.71171   -152343.12    152408.39   -129.33739    23.457096 
151572000    289.10019     282.1099    353.27871   -152376.81    152436.69   -71.168806    23.458383 
151576000    295.83402     295.7014     667.6885   -152409.22    152447.57    -371.9871    23.455326 
151580000     293.5318    357.99785    342.73122   -152444.59    152511.98    15.266632    23.449586 
151584000    285.63546      312.066    330.77064   -152488.11    152548.87    -18.70464    23.456452 
151588000    294.07004    314.00833    418.32901   -152535.89    152580.43   -104.32068    23.458853 
151592000    290.44922    495.46029    323.98099    -152558.3    152599.94    171.47931    23.462669 
151596000    266.39947    320.62985    254.50193   -152583.33    152651.74    66.127926    23.467019 
151600000    293.46465    294.81682    554.00155   -152661.43    152704.47   -259.18473    23.460742 
151604000     275.7157    235.77422    426.27561   -152727.75    152778.56   -190.50139     23.46019 
151608000    287.62483    434.61508     298.9953    -152772.9    152812.75    135.61979    23.448441 
151612000    269.15727    365.29042    242.84906   -152792.31    152849.26    122.44135    23.447678 
151616000    287.07628    227.32728    289.30892   -152834.05     152885.6   -61.981643    23.443818 
151620000    281.31046     279.2871    304.04535   -152875.41    152918.78   -24.758242    23.440912 
151624000    308.95284    374.56453    400.42463   -152916.17    152965.26   -25.860093    23.441941 
151628000    268.09296    259.08897    365.80177   -152965.46    153012.76   -106.71279    23.440546 
151632000    306.41644    320.39513    225.16398   -153028.91    153064.01    95.231148    23.433517 
151636000    292.48778    366.72213    334.69246   -153084.25    153122.68    32.029671    23.431763 
151640000    279.31667    294.56785    251.66199   -153147.08    153199.74     42.90586    23.440591 
151644000    273.57476    308.69996    597.68968   -153145.55    153202.89   -288.98972    23.432984 
151648000    282.09469    243.46737    410.84678   -153202.46    153263.01   -167.37941    23.432123 
151652000    268.21098    157.93138    378.72792   -153235.64    153307.54   -220.79654    23.425005 
151656000    277.16257    355.49488    381.65925   -153306.74    153377.22   -26.164367    23.425593 
151660000    264.60264    154.64618    518.64031   -153362.83    153434.79   -363.99413    23.429373 
151664000     299.4379    227.22164    391.66167   -153402.31    153448.19   -164.44003    23.434942 
151668000    266.14928    216.57529    272.29456   -153426.79    153502.78    -55.71927    23.436005 
151672000    274.97667    446.24881    304.10031    -153485.2    153555.26     142.1485    23.437794 
151676000    255.73942    397.47227    305.77198   -153528.46    153602.37    91.700282    23.435218 
151680000    287.15926    263.55155    432.32286   -153560.98    153609.38   -168.77131    23.424571 
151684000    289.88001    456.11396    483.59539   -153622.82    153664.75   -27.481425    23.412825 
151688000    280.14992    308.90064    274.20898   -153632.73    153685.92    34.691653     23.41383 
151692000    280.04814     401.3524    351.63131   -153667.84    153710.11    49.721085    23.407291 
151696000    272.30903    249.28854    166.49404   -153703.65    153758.83    82.794501    23.403258 
151700000    316.37929    470.78239    355.97321   -153749.22    153775.27    114.80918    23.406315 
151704000    275.98768     399.3833    161.31214   -153779.24    153832.29    238.07116    23.407209 
151708000    275.72032    459.03749    140.97631   -153862.12    153902.69    318.06118    23.412384 
151712000    271.70144    265.90466    258.77872   -153866.99    153934.88     7.125937    23.417814 
151716000    289.26769    337.38372    392.23799    -153900.1    153934.61   -54.854274    23.419911 
151720000    295.97784    529.40478    226.61149   -153921.85     153966.4    302.79329    23.413769 
151724000    289.28928    514.09627    433.63867   -153979.66     154022.5    80.457602    23.410604 
151728000    258.89281    180.74377    232.56398   -153990.12    154060.33   -51.820204    23.405852 
151732000    259.01546    215.85004    303.53289   -154048.47    154124.18   -87.682853    23.402204 
151736000    283.82821    304.72474    406.73007   -154107.93    154157.16   -102.00533    23.400592 
151740000    290.78115    308.89501    393.75194   -154158.53    154205.01   -84.856936    23.400943 
151744000    275.47664    250.65044     443.4524   -154196.53     154252.8   -192.80196    23.400628 
151748000    305.06691    355.51414    322.12879   -154273.35     154314.2    33.385353    23.400455 
151752000     281.9544     212.9973    299.56382   -154279.84    154322.16   -86.566523    23.402004 
151756000    297.26305    321.45457    435.11074   -154311.14    154351.63   -113.65617    23.405642 
151760000    286.73413     508.3043    286.93625   -154366.66    154410.77    221.36805    23.403618 
151764000    306.52652    495.33117    325.26514   -154405.19    154440.12    170.06603    23.400108 
151768000    290.60273    224.59929    401.05595   -154415.93     154455.3   -176.45666    23.406806 
151772000    283.26482    504.88768    453.86762   -154452.74    154479.75    51.020057    23.406946 
151776000    294.37539    351.59937    242.82992   -154475.12    154526.64    108.76946    23.412795 
151780000    287.87629    260.59542     328.7761   -154506.01    154555.07   -68.180678     23.41298 
151784000    309.37549     534.7203    318.16567   -154563.53     154606.6    216.55462    23.409004 
151788000    279.11759    214.04177    265.25764   -154583.54    154645.55   -51.215869    23.411694 
151792000     267.3872    378.91682    216.16615   -154604.54    154674.68    162.75067    23.410986 
151796000    278.26521    254.19315    248.85271   -154628.42    154682.56    5.3404407    23.413661 
151800000    286.57931    287.93037    364.40175   -154667.62    154718.44    -76.47138    23.414742 
151804000    281.98656    344.45564    245.18698    -154686.3    154754.26    99.268655    23.411361 
151808000    292.71631    548.77764    297.58147   -154696.97     154760.2    251.19617    23.409239 
151812000    316.15428    412.12592    484.53273   -154718.03    154776.85   -72.406812    23.409753 
151816000    305.93877    324.57512    235.07196   -154768.79    154799.49    89.503163    23.411259 
151820000    269.16684    256.33188    442.88149   -154803.49    154856.73    -186.5496    23.409837 
151824000    288.40684    352.29012    367.65906   -154858.36    154910.25   -15.368941    23.414559 
151828000    281.67619    274.32731     152.9066   -154858.11    154923.96    121.42071    23.413752 
151832000    315.76132    517.86547    321.84234   -154896.24    154928.07    196.02313    23.415426 
151836000    269.16702    355.23839    185.88902   -154930.82    154991.42    169.34938    23.411658 
151840000    277.71541    403.94708    393.86898    -154972.5    155003.21    10.078097    23.409226 
151844000    290.01184    321.76605    429.26052    -154983.4    155027.24   -107.49447    23.400551 
151848000    328.66052    299.98684    415.45878   -155023.78    155079.49   -115.47193    23.398962 
151852000    266.39599    277.07997    342.65802   -155043.17    155109.49   -65.578048    23.402316 
151856000      284.375    241.42713    271.48814   -155111.85    155173.93    -30.06101    23.404757 
151860000    279.00471     289.6769    312.17912   -155177.38     155237.8   -22.502222    23.409928 
151864000    263.63157    260.31312    339.95802   -155242.74    155292.45   -79.644902    23.405132 
151868000    280.63417    398.02635    465.29406   -155261.79    155322.78   -67.267703    23.402909 
151872000    314.38031    533.38373    314.94075    -155332.1    155374.52    218.44297     23.40178 
151876000    307.92046    185.78543    260.76143   -155376.59    155421.28      -74.976    23.410266 
151880000    273.64765    330.40037    240.32709   -155378.88    155457.06    90.073273    23.413918 
151884000    261.42169    332.46507    396.44913   -155414.12    155487.51   -63.984056    23.416713 
151888000    280.52371    274.07684    361.25978   -155457.89    155514.53   -87.182943    23.426077 
151892000    291.06458    340.18639    291.63257   -155471.64    155528.73    48.553817    23.426608 
151896000    292.12735    615.45445    253.42527   -155525.38    155562.62    362.02918    23.427817 
151900000    286.50483    423.91645    199.28125   -155568.32    155623.96     224.6352    23.424051 
151904000     285.6265    243.72047     350.6236   -155585.35    155638.99   -106.90313    23.427557 
151908000    317.85484    429.96469    433.24015   -155601.98    155642.02   -3.2754626    23.424878 
151912000    301.82497    550.68385    459.50393   -155647.03    155678.45    91.179919     23.42246 
151916000    289.58262    313.92856    245.66963   -155691.81    155749.27    68.258933    23.428177 
151920000    281.23802    269.99765    185.54928   -155766.75     155820.2     84.44837    23.430602 
151924000    289.09146    317.95431    455.83368   -155819.01     155865.6   -137.87937    23.423523 
151928000    260.60231    284.17633    368.19946   -155842.16    155922.87   -84.023129    23.422471 
151932000    269.79253    443.93655    334.87279   -155890.89    155955.51    109.06376    23.412791 
151936000    295.86026    323.52432    242.78137   -155938.21    155983.44    80.742947    23.407002 
151940000    270.99171    412.13986    493.43911   -155966.52    156017.85   -81.299249     23.41126 
151944000    295.66322    341.51183    332.33022   -155959.99    156015.04    9.1816085    23.410839 
151948000    320.62925    343.13476    431.69339   -156051.55    156064.18   -88.558632    23.406841 
151952000    267.07832    255.69098    265.83267   -156096.51    156147.73     -10.1417    23.410884 
151956000    297.52801    232.04999    520.70941   -156111.64    156176.14   -288.65942    23.400954 
151960000    288.36864    395.00155    289.14314   -156126.29    156168.67    105.85841    23.407418 
151964000    241.28763    146.88128    196.34466   -156141.16     156221.7   -49.463372    23.407686 
151968000    308.07023    537.44463    259.65252   -156216.24    156268.18    277.79211     23.39725 
151972000    278.68801    223.33258     379.5414   -156245.17    156281.39   -156.20882    23.389275 
151976000    296.82193    400.07712    300.66651   -156282.92    156330.11    99.410616    23.399583 
151980000    296.12454    413.86746    460.86041   -156320.48    156377.17   -46.992953    23.395969 
151984000    269.54195    220.42873     268.2283   -156386.99    156440.86   -47.799569    23.399156 
151988000    295.11273     370.3603    381.82843   -156440.33    156478.55   -11.468131    23.402622 
151992000    290.58183    346.41835    506.14545   -156510.04    156572.37    -159.7271    23.401126 
151996000    291.01342    414.35566    321.54513   -156545.08    156599.59    92.810529    23.396642 
152000000     286.9596     346.2263    351.86912   -156586.45    156646.15   -5.6428221    23.397349 
152004000    277.87447    449.42348    334.08478   -156631.61    156677.58     115.3387    23.403555 
152008000    294.56685    313.90565    334.82758   -156672.97    156724.58   -20.921933     23.40564 
152012000    299.11605    375.39821    343.78895   -156696.57    156754.91    31.609255    23.412514 
152016000    269.02374    308.65245    310.55613   -156728.14    156774.62   -1.9036754    23.412567 
152020000    277.34096    341.63919    259.99004   -156778.21    156829.87    81.649151    23.419892 
152024000    252.23243    286.92533    531.67191   -156798.52    156873.72   -244.74658    23.418582 
152028000    273.94468    349.57266    387.20623   -156854.62    156921.19   -37.633564     23.42053 
152032000    258.45174    298.77234    153.99882   -156897.86    156968.88    144.77352    23.421645 
152036000    295.47158    234.82915     512.7604   -156930.74    156984.42   -277.93125    23.411963 
152040000    279.68898    372.20755    227.05819   -156980.96    157030.73    145.14936    23.414999 
152044000    284.25376     397.4312    233.83949      -157013    157073.46    163.59171    23.421725 
152048000      318.843    274.38011    204.82822   -157063.86    157113.96    69.551883    23.416096 
152052000    306.15499    333.68811    310.93465   -157107.64    157136.03    22.753469    23.423397 
152056000     316.0525     382.6004    304.83954   -157165.98     157186.7    77.760859    23.417064 
152060000     276.0054    335.35607    374.36314   -157207.66    157235.28   -39.007069     23.41616 
152064000     280.0806    348.45931     258.4087   -157220.92    157295.11    90.050613    23.419484 
152068000    283.78711    278.37256    360.53594   -157246.21    157304.42   -82.163385    23.411966 
152072000     253.3433     192.3291    285.20038   -157261.64    157332.19   -92.871289    23.413204 
152076000    268.22137    255.36539    348.30494   -157292.77    157355.78   -92.939549    23.421876 
152080000    270.71729    262.85839    349.49582   -157322.24    157375.02   -86.637427    23.420109 
152084000    287.08126    324.33129    268.58406   -157345.88    157398.48    55.747226    23.424221 
152088000    295.72802    349.24269     420.1673   -157368.84    157409.06   -70.924611    23.425576 
152092000    250.17145    386.65952    354.72789   -157391.09    157458.07    31.931623    23.429438 
152096000     229.0179    371.99868    251.14101   -157414.01    157489.09    120.85767    23.430689 
152100000    282.81454    303.66726     214.8942   -157444.14    157496.85    88.773067      23.4381 
152104000    257.83587    226.12893    188.00252   -157454.37    157516.46    38.126404    23.442021 
152108000    258.99936    253.33591    278.61171   -157498.96    157559.28     -25.2758    23.439402 
152112000    270.28374    239.16501    312.00787   -157541.03     157590.1   -72.842855    23.449892 
152116000    299.04662    258.62444    439.73854   -157567.48    157625.47    -181.1141    23.440974 
152120000    257.75936    392.25759    235.53755   -157618.19    157667.08    156.72004    23.443645 
152124000    278.94885    257.37951    212.52965   -157637.58    157675.37    44.849863    23.440858 
152128000    271.75558    193.61074    255.19548   -157664.88    157714.53   -61.584739    23.438294 
152132000    299.12491    376.19726     236.1748   -157722.88    157755.35    140.02247    23.436071 
152136000    268.07834      261.216    384.45177   -157786.25    157833.99   -123.23576    23.436698 
152140000    318.15573    384.19184     408.0511   -157826.43    157860.41   -23.859257     23.44045 
152144000    304.21945    333.39499     372.5531   -157854.94    157913.68   -39.158117    23.431487 
152148000    310.38742    418.35485    406.00257   -157926.67    157957.16    12.352273     23.43663 
152152000    293.67338    256.27977     300.5318    -157990.9    158034.58   -44.252024    23.439631 
152156000    292.27902    352.75549    286.50926   -158063.64    158109.65     66.24623    23.432904 
152160000    305.18391    329.34856    304.31206   -158097.56    158135.34    25.036494    23.428574 
152164000    299.29739    319.24896    263.57933   -158123.39    158173.04    55.669632    23.421077 
152168000    303.11883    254.12339    297.50597   -158143.49    158201.86   -43.382582    23.420921 
152172000    293.86168    476.59663     348.1454   -158213.08     158271.4    128.45123    23.420112 
152176000    311.61753    376.48445    299.91451   -158266.36    158298.38    76.569936    23.418194 
152180000    295.72489    380.61465     468.8614   -158297.35    158349.42   -88.246752    23.416083 
152184000    293.65659    478.51165    392.81797   -158306.48    158359.04    85.693683    23.414993 
152188000    260.34394    352.20536    297.45514   -158326.94    158393.93     54.75022    23.422114 
152192000    287.78085    205.70759    211.32767   -158374.21       158416   -5.6200861     23.42006 
152196000    274.58993    242.86796    354.02049   -158419.57     158470.3   -111.15252    23.424409 
152200000    288.00579    269.06934    314.30801   -158461.05    158501.49   -45.238666    23.425489 
152204000    284.76541    408.93688    408.13741    -158492.9    158543.45   0.79947406     23.42954 
152208000    283.08465    418.71017    292.81483   -158528.29    158575.44    125.89535    23.430151 
152212000    250.67315    315.48224    200.70891   -158523.96    158611.69    114.77332    23.432764 
152216000     289.3886    252.18996    361.33489   -158580.62    158625.88   -109.14492    23.430645 
152220000    286.61129    440.31824    288.37486   -158602.63    158643.77    151.94338    23.426772 
152224000    296.82662    407.84012    236.82092   -158640.03    158687.38    171.01919    23.423473 
152228000    286.54862    302.83328    417.79486   -158670.84    158715.72   -114.96157    23.424675 
152232000    302.62094    337.80843     421.4711   -158698.41    158739.62   -83.662667    23.424157 
152236000     286.9049     338.5008    240.23625   -158726.43    158782.39    98.264548    23.420063 
152240000    305.18784    269.18981    449.24577   -158759.63    158798.46   -180.05596    23.411068 
152244000    271.98707    422.98289    265.31309   -158747.45    158815.73     157.6698    23.415107 
152248000    317.10576    405.99839    538.64104   -158803.48    158833.35   -132.64264    23.418107 
152252000    264.19331    271.17128    274.47578    -158833.1    158884.38   -3.3044986    23.414534 
152256000    276.34999    288.33374    267.82307   -158845.75    158906.39    20.510667    23.420301 
152260000    278.63278    306.99414    273.71952   -158883.64    158939.18    33.274621    23.414139 
152264000    282.75894    396.79497     290.0506   -158922.97    158968.71    106.74437    23.418879 
152268000    297.90921    382.01033    240.45574   -158978.25    159012.19    141.55459    23.424321 
152272000    281.11868    277.42593    287.45658   -158988.51    159024.36   -10.030648    23.422952 
152276000    277.79054    293.94922    406.89372   -159020.74    159071.98   -112.94449    23.423412 
152280000    269.19774    364.36382    294.48376   -159040.53    159112.08    69.880066    23.418194 
152284000    278.55562    361.59504    272.28268   -159079.19    159134.53    89.312365     23.42023 
152288000     256.5703     295.6159    212.28446    -159124.8    159184.78    83.331446    23.414437 
152292000    286.94228    235.53942     395.9989    -159169.1    159229.53   -160.45948    23.417416 
152296000    274.94424    292.71886    341.69861   -159204.48    159267.75   -48.979751    23.415147 
152300000    287.79994    267.67568    338.54664   -159248.05    159302.65   -70.870961    23.418993 
152304000    284.38207    388.76985    248.20363    -159294.9    159353.18    140.56623    23.422324 
152308000    285.89815    308.27954    344.80175   -159340.95    159394.99   -36.522218     23.42977 
152312000    259.78619    217.76404    330.69749   -159377.79    159446.96   -112.93346    23.429754 
152316000    240.62994    288.70187    445.13272   -159412.58     159482.9   -156.43085    23.419802 
152320000    290.61328     461.2522    267.13141   -159465.76    159512.41    194.12079      23.4258 
152324000    277.84665    409.15877    204.84631   -159504.96    159551.01    204.31247    23.434026 
152328000    261.31311    421.51179    175.07181   -159527.09    159586.33    246.43998     23.42771 
152332000    286.35617    337.65618    357.01001   -159595.52    159638.46    -19.35383     23.43496 
152336000    291.53867    302.76634    492.58777   -159645.22    159686.34   -189.82143     23.43256 
152340000    290.95697    407.19416    340.57721    -159652.4    159719.33    66.616947    23.434971 
152344000    283.29856    373.63907    388.97601   -159682.35    159747.03   -15.336938    23.440036 
152348000    263.39944    393.69268    260.21076   -159730.75     159792.7    133.48192    23.441391 
152352000    273.64579    337.82737    180.87457   -159767.64    159825.08    156.95281    23.444831 
152356000    302.17519     431.7444    171.78027   -159803.29    159841.95    259.96413    23.450334 
152360000     253.0592    368.53163    335.61608   -159820.83    159879.72    32.915549    23.446685 
152364000    289.45247     333.9227    213.43346   -159841.94    159900.61    120.48924    23.443574 
152368000    291.74964     320.8613    449.42512   -159910.05    159949.01   -128.56382    23.447214 
152372000    298.83516    570.82561       418.49   -159966.14    160003.62    152.33561    23.448925 
152376000    303.39532    295.09602    320.66069   -160023.79    160060.94   -25.564666    23.450132 
152380000    265.15546    333.16965    280.80292   -160049.16     160110.6     52.36673    23.448842 
152384000    273.80552    388.21519    344.92629   -160100.46    160172.74    43.288897    23.447818 
152388000    271.75326    235.13178    373.76914   -160130.32    160202.48   -138.63736    23.442517 
152392000    314.06951    278.88271    350.56612   -160201.23    160244.06   -71.683413    23.446908 
152396000    316.54853    595.63287    424.25463   -160231.11    160264.05    171.37824    23.441087 
152400000    296.53208    539.16046    302.27112    -160268.6    160327.99    236.88934    23.433119 
152404000    272.44792    278.80278    194.01071   -160326.37    160375.95    84.792073     23.42884 
152408000    252.14945    386.61918    249.97814   -160337.21    160402.64    136.64103    23.429838 
152412000    304.83532    357.12001    401.33595   -160358.08     160399.3   -44.215941    23.434369 
152416000      279.069    394.91607    254.15166   -160383.36    160427.72     140.7644    23.436066 
152420000    261.99192     286.8647    307.91344   -160411.92    160479.57   -21.048738    23.443773 
152424000    309.90217    376.16434    306.33829   -160449.27    160492.39    69.826055    23.437509 
152428000     301.2502    501.68843    448.18678      -160487     160529.7     53.50165    23.437136 
152432000    269.02198    311.14082    253.63944   -160528.48    160588.82    57.501382    23.432654 
152436000    277.75213    408.10457    279.60352   -160577.12    160624.79    128.50105     23.43794 
152440000    270.88128    349.70861    420.55874      -160612    160673.02   -70.850135    23.445034 
152444000    289.71442    296.65565     376.6337   -160665.36    160713.18   -79.978053    23.447139 
152448000    284.41969    343.18011    284.56256   -160682.18    160746.25     58.61755    23.445981 
152452000     285.9635    393.86573    274.53245   -160752.44    160806.44    119.33328    23.447104 
152456000    295.91371    232.29704    239.96225   -160812.97    160859.81   -7.6652119    23.445013 
152460000    277.21345    300.70989     503.2072   -160839.43    160897.46   -202.49731    23.450633 
152464000    272.39408    338.23134    554.55516   -160874.18    160935.52   -216.32383    23.448843 
152468000    299.80218     583.0615    298.01338   -160942.58    160992.33    285.04811    23.455837 
152472000    263.56031    365.07435    405.48834    -160955.2    161032.63   -40.413992    23.461152 
152476000    289.37926    366.36609    390.49239    -160979.6    161035.48   -24.126295    23.458049 
152480000    273.25928    356.47895    210.24682   -161024.36    161070.63    146.23213    23.450678 
152484000    266.89543    367.34987    349.44334   -161050.91    161099.89    17.906527    23.449786 
152488000    293.02981    362.47894    255.16654   -161099.75    161137.21    107.31241    23.453863 
152492000    291.53762    526.02431    361.14585   -161159.22    161205.27    164.87846    23.444337 
152496000    284.63413    227.93382    354.04091   -161212.21    161270.95   -126.10709    23.450579 
152500000    306.79432    214.06227    336.21456   -161267.64    161306.04   -122.15229    23.446424 
152504000    308.33651    355.84579    225.80073   -161296.85    161343.87    130.04506    23.447396 
152508000    260.40321    240.19293    339.41247   -161334.62    161401.38   -99.219537    23.452484 
152512000    269.07932    343.22883      363.609   -161382.33    161440.62   -20.380166    23.445605 
152516000    304.56482    485.29579     379.6591   -161429.11    161474.72    105.63669    23.445476 
152520000    311.59154    545.43534     503.6261    -161476.6    161530.87    41.809236     23.44705 
152524000    283.39041    418.06688    497.98963   -161542.59    161601.64   -79.922758    23.437614 
152528000    279.23339     359.1626    299.91252   -161578.22    161659.86    59.250075    23.441582 
152532000    303.99581    418.50003    358.81171   -161641.37    161669.52    59.688316    23.441461 
152536000    303.25179    318.59246      330.234   -161646.75    161689.55   -11.641541     23.43308 
152540000    281.39684    296.88471     264.9578   -161689.26    161743.55    31.926908    23.427036 
152544000    299.51022    419.26276    250.86683   -161732.93    161776.47    168.39593    23.432719 
152548000    297.89268     328.4762    315.55898   -161750.48    161807.37    12.917224     23.43759 
152552000    293.01668    466.61302    198.99485   -161821.84    161863.99    267.61817    23.441878 
152556000    299.06091    233.85512    275.17005   -161852.52    161889.67   -41.314927    23.437828 
152560000     269.1849    390.03933    349.83809   -161865.72    161921.23    40.201239    23.429396 
152564000    311.54166     382.7365    286.66552   -161924.32    161964.87    96.070987    23.434573 
152568000    287.29718     404.9158    281.42979   -161970.59    162011.21    123.48601    23.437713 
152572000    268.51775    327.91784    335.82903   -161984.82    162049.35    -7.911198    23.435596 
152576000    260.59869    390.23958    364.14177   -162024.99    162086.69    26.097814     23.43198 
152580000    289.70399    267.82556    401.40752   -162042.22    162092.92   -133.58196     23.43427 
152584000    286.26702    269.10757    269.00327   -162057.59    162128.59   0.10430108    23.438307 
152588000     241.9743    362.48052    315.28561   -162102.61    162187.39    47.194909    23.444443 
152592000    263.79911    277.55065    390.30825   -162163.15     162227.1    -112.7576     23.44654 
152596000     265.6117    252.99462    255.11266   -162193.82     162268.3   -2.1180441    23.440521 
152600000    264.44242    306.07007    219.82339   -162239.77    162301.06    86.246684     23.44903 
152604000    285.91431    515.47001    231.88041    -162314.7    162364.94     283.5896    23.449434 
152608000    286.12779    263.13982     290.7475   -162351.04    162409.48    -27.60768    23.451672 
152612000    261.84393    338.67053    400.98385   -162351.97    162425.41   -62.313322    23.457753 
152616000     282.5884    286.95197    548.65009   -162386.43     162452.5   -261.69811    23.456713 
152620000    266.36587    419.45124    166.53388   -162420.86    162476.13    252.91737    23.451319 
152624000    268.35344    515.74734    357.69857   -162454.79     162526.2    158.04877    23.459938 
152628000    262.09763    176.66519     294.1042   -162457.19    162522.74   -117.43902    23.452329 
152632000    285.45721    549.20344    410.92683   -162479.08     162542.6     138.2766    23.451316 
152636000    295.22235    310.58219     266.8514   -162518.25    162576.48    43.730789    23.452343 
152640000     278.3122    329.30675    265.83194   -162582.82    162626.83     63.47481     23.44959 
152644000    277.18588    242.04156    331.36238   -162619.63    162685.61   -89.320811    23.452058 
152648000    286.57469    369.45584    264.55783   -162646.56    162706.12    104.89801    23.456711 
152652000    293.17945    547.14469    500.81134   -162699.38    162755.83    46.333346     23.44541 
152656000    259.17911     263.8733    319.84608   -162736.46    162814.67   -55.972782    23.441133 
152660000    287.44817    276.62295    386.66181   -162777.57    162854.69   -110.03886    23.437393 
152664000    270.85157    339.65882    306.08465   -162817.69    162864.35     33.57417    23.440458 
152668000    292.67869    509.24361    430.42437   -162834.01    162899.25    78.819239    23.440077 
152672000    263.10817    350.76591    395.98242   -162871.86    162938.47   -45.216513    23.436367 
152676000    261.05415     384.4705    243.70734    -162928.9    162998.17    140.76315    23.433424 
152680000    272.88347    506.00478    189.66131   -162944.33    163009.34    316.34347    23.433619 
152684000    276.96217    281.30352    289.75184   -163018.63    163070.96   -8.4483141    23.430627 
152688000    267.42149    292.84058    334.96184    -163049.9    163111.86   -42.121254    23.433194 
152692000    303.61211     387.5525    367.47027   -163097.38    163143.17    20.082226    23.423185 
152696000    280.72798    190.07298     346.0902   -163107.88    163140.73   -156.01722    23.424648 
152700000     273.1712    386.03223    477.76893   -163125.71    163173.54   -91.736705    23.432405 
152704000    292.47449    606.28404     363.1117   -163183.44    163251.41    243.17234    23.432751 
152708000    256.96145    312.11363    155.21119    -163221.2     163305.4    156.90244    23.431881 
152712000    274.04368    332.93341    220.71927   -163246.23    163297.72    112.21415    23.435591 
152716000    294.02837    390.26911    363.78262   -163282.66    163333.54    26.486492    23.433239 
152720000    263.28799    213.34545    311.35432    -163284.5    163358.61   -98.008864    23.430891 
152724000     270.4052    393.17728    412.45581   -163327.34    163396.43   -19.278529    23.430893 
152728000    276.41607    455.55137     397.4344   -163350.91    163413.62    58.116972    23.424267 
152732000    284.56198    219.68955     394.9234   -163377.71    163434.89   -175.23384    23.419577 
152736000    304.25415    309.08595    149.80058    -163426.6     163464.2    159.28536    23.420598 
152740000    272.27671    501.99337    348.91027   -163460.32    163534.46     153.0831    23.426162 
152744000    270.46976    293.84996    256.61265   -163476.69    163544.88    37.237311    23.420929 
152748000    280.17143    343.53797    400.26643   -163499.99    163553.42   -56.728467    23.423556 
152752000       289.26     379.4187    487.85791   -163539.12     163578.3   -108.43921    23.419943 
152756000    305.46649    508.15426    273.92713   -163586.45    163620.82    234.22713    23.424941 
152760000    280.40039    312.63632    232.01003   -163609.77    163672.05    80.626288     23.42405 
152764000    259.00131    263.70976    358.12054   -163622.56     163702.3   -94.410783    23.423847 
152768000    282.59082    504.00061    467.39505   -163689.74    163756.88    36.605558    23.428944 
152772000    279.21077    454.57906    266.34078   -163765.66    163818.78    188.23828    23.425598 
152776000    277.46789    233.88043    234.54999   -163812.52    163873.21  -0.66955974     23.43164 
152780000    270.74486    326.46687    511.15532   -163848.18    163908.92   -184.68845     23.42833 
152784000     275.3429    453.44433     244.0068   -163902.64    163965.81    209.43753    23.428194 
152788000    291.77839    253.18741    210.56008   -163968.86    164013.68    42.627337    23.422922 
152792000    297.76669    343.23323    505.63419   -164022.45    164060.91   -162.40096    23.411547 
152796000    269.36983    488.52934    254.24187   -164024.36     164082.2    234.28747    23.409321 
152800000     259.1577    255.07023    373.94254   -164033.32    164104.16   -118.87231    23.410166 
152804000    296.18522    299.14071    297.57601   -164090.94    164151.19     1.564702    23.415182 
152808000    270.36723    408.12225    270.61188   -164170.05    164246.43    137.51037    23.421527 
152812000     278.5762     263.8817    289.23821   -164235.54    164283.13   -25.356507    23.424151 
152816000    281.47396    379.41728    373.24157   -164262.95    164319.93    6.1757178    23.424717 
152820000    303.31567    555.70905    286.94689   -164335.59    164360.45    268.76216    23.424536 
152824000    250.78145    306.74772     238.2778   -164338.33    164414.31     68.46992    23.421712 
152828000    278.05045    413.59293    348.23942   -164382.56    164447.82    65.353512     23.42842 
152832000    300.38039    307.57178    367.13208   -164408.65    164459.57   -59.560303    23.431092 
152836000    285.13409     202.9883    547.07347   -164474.75    164523.06   -344.08517    23.423698 
152840000    272.50395    334.50788    181.56824   -164494.38    164559.64    152.93964    23.426833 
152844000    271.44865    319.13594    459.75508   -164522.46    164592.33   -140.61915    23.427526 
152848000    286.88035    327.88846    308.94089   -164556.27    164615.46    18.947578    23.424034 
152852000    301.60179    310.00983    389.08761   -164579.63    164628.24   -79.077779    23.426884 
152856000    320.70911    532.82468    288.11561   -164651.91    164686.65    244.70907    23.429099 
152860000    269.37357    177.73931    369.32072   -164687.72    164748.88   -191.58141    23.428128 
152864000    302.61888    584.69129    341.70043   -164758.45    164804.93    242.99086    23.420758 
152868000    289.11307    325.15328    333.51278      -164770    164821.46    -8.359507    23.411759 
152872000    283.09244    272.59478    342.51471   -164812.41    164856.35   -69.919936     23.41372 
152876000     248.3461    466.39926    319.42443   -164861.75    164937.23    146.97483    23.410239 
152880000    266.51939    414.38335    446.29706      -164881    164949.57   -31.913715     23.40884 
152884000    278.56388     354.7862    381.81447   -164917.93     164980.1   -27.028273    23.405523 
152888000    262.39706    346.14166    436.84683   -164997.08    165067.16   -90.705172    23.404643 
152892000    273.65312    316.43286    363.91093   -165002.01    165071.91   -47.478076    23.404684 
152896000    264.06055    341.49905    268.97455   -165045.77    165115.04    72.524505    23.404355 
152900000    303.17019    393.28207     183.6087   -165099.43    165136.35    209.67337    23.407997 
152904000    308.78358    278.07657     263.6056   -165150.54    165175.99    14.470973    23.409591 
152908000     302.2687    355.11143    403.25072   -165215.68    165250.51   -48.139297    23.401459 
152912000    281.99216    305.37284    292.07595   -165269.64    165328.35    13.296894    23.392123 
152916000    263.01571    215.59431    317.76474   -165301.71    165361.26   -102.17043    23.391035 
152920000    254.65512      277.885    293.86009   -165311.94    165381.32   -15.975093    23.391722 
152924000    284.91266    442.86935    445.99041   -165341.88    165406.37    -3.121064    23.381021 
152928000     304.8603     432.4446    439.85547   -165351.56    165395.91   -7.4108656    23.388045 
152932000    275.28247    237.70571    359.89516   -165370.58    165420.31   -122.18944    23.385984 
152936000    300.93883     363.3141     260.5533   -165412.33    165448.69     102.7608    23.385844 
152940000    286.15983    342.08637    263.20775   -165466.45    165532.12    78.878612    23.383991 
152944000    282.07725    304.31608    354.74212    -165506.8    165579.66   -50.426041    23.390134 
152948000    287.56408    335.48555    209.31201   -165533.05    165598.79    126.17354    23.395022 
152952000    298.85989    179.88557    206.37734   -165565.77    165621.72   -26.491767    23.387584 
152956000    283.93786    424.89093    339.95043   -165629.37    165687.85    84.940498    23.381681 
152960000    288.31714    247.30295     367.2194   -165656.62    165713.85   -119.91645    23.380261 
152964000    286.58445     319.7789    259.34894   -165764.96    165819.92    60.429957     23.38298 
152968000    277.58574    331.40561    319.59322   -165797.67    165848.72    11.812381    23.380692 
152972000    271.22098    270.89198    235.08365   -165831.75    165898.02    35.808321    23.378088 
152976000    287.21817    351.76284     281.1372   -165903.56    165974.99     70.62564    23.383775 
152980000    257.12576    348.72911     407.9149   -165936.35    166000.88   -59.185788    23.375994 
152984000    292.28246    479.39881    207.65645   -165962.95    166025.71    271.74236    23.366195 
152988000    313.22227    204.72174    342.04847   -166013.28    166057.86   -137.32673    23.365543 
152992000    282.29205    445.61016    389.06684   -166018.34    166084.66    56.543313    23.360344 
152996000    283.13979    328.81298    370.88341   -166070.38    166143.22   -42.070427    23.362057 
153000000    293.26542    352.79426    476.78014   -166123.93    166151.77   -123.98588    23.365308 
153004000    267.25465    505.68294    351.67672   -166131.85    166179.48    154.00621    23.359913 
153008000    284.18616    415.81569    205.01397    -166167.3     166213.3    210.80172    23.365303 
153012000    272.89661     416.5482    301.24853   -166188.71    166257.18    115.29967    23.367997 
153016000     269.2141    389.43285    268.23881   -166248.97    166319.68    121.19404    23.363926 
153020000    283.95911    451.53667    315.84762   -166266.54    166337.25    135.68906    23.366104 
153024000    285.83669    253.86362     476.0062   -166289.42    166349.95   -222.14259    23.361073 
153028000    266.99713    240.05009    309.40388   -166292.52    166362.54   -69.353784    23.355825 
153032000    276.47344    310.37032    531.21734   -166310.23    166372.75   -220.84702    23.349065 
153036000    283.18601    344.61819    467.98375   -166360.64       166423   -123.36556    23.343953 
153040000    240.93682     210.6941    296.07925   -166424.19    166490.76   -85.385152    23.351128 
153044000    277.56244    235.54565    362.49554   -166462.78    166512.54   -126.94989    23.345761 
153048000    289.81849    404.33885    343.44759   -166515.15    166552.06    60.891262    23.346151 
153052000    272.22452    463.82943    300.86377   -166513.65    166583.89    162.96566    23.349002 
153056000    303.11318    385.20767    309.94815   -166542.56    166589.27    75.259524    23.350571 
153060000    287.77203    279.31901    184.42098   -166586.56    166633.49    94.898031       23.349 
153064000    306.47416    349.46003    247.05516   -166648.78    166688.57    102.40487    23.343084 
153068000    293.79951    285.29991    376.56324   -166677.18     166732.8   -91.263334    23.337112 
153072000    261.37046    261.29456    300.28792   -166697.24    166784.56    -38.99336    23.344555 
153076000     254.1856    473.26213     432.9945   -166739.54    166821.08    40.267637    23.343985 
153080000    290.37002    295.59228    495.20284   -166808.05    166864.73   -199.61056    23.346267 
153084000    304.09199    354.11385    335.27898   -166849.62    166900.97    18.834873    23.347456 
153088000    270.72271    359.39991    250.64721   -166865.92    166944.32     108.7527    23.341575 
153092000      275.295    463.53672    253.16286   -166928.64    166973.93    210.37385    23.345645 
153096000    310.67508    399.43944    525.59423   -166940.31    166977.06    -126.1548    23.344525 
153100000     294.5543    359.83116    308.51791   -166970.07     167011.6    51.313242    23.341745 
153104000    278.01314    328.31179    307.54375   -166995.09    167043.38    20.768043    23.344772 
153108000    303.70489    517.82019    225.09664   -167044.48    167081.86    292.72355      23.3428 
153112000    250.61776    244.93516    294.28728   -167068.06    167134.86   -49.352121    23.335929 
153116000    275.65214    355.00105    347.56057   -167091.48    167153.39    7.4404781    23.335819 
153120000    272.14493    413.68552    287.71704   -167137.52    167203.59    125.96848    23.329584 
153124000    269.83645    346.92547    265.84104   -167144.87    167217.05    81.084427    23.326132 
153128000    292.33283      307.968    376.64256   -167185.37    167240.24   -68.674567    23.328044 
153132000    268.98979    308.31161    400.64528   -167202.49    167277.65   -92.333671    23.335281 
153136000    282.24098    331.43047    360.08864   -167243.52    167300.82   -28.658173     23.32457 
153140000    301.37407    286.75971    450.29912    -167285.3    167340.66   -163.53941    23.323388 
153144000    278.74547    317.13811    200.96557   -167360.53    167407.29    116.17254    23.323201 
153148000    287.10917     240.6696    266.75615   -167431.37    167496.05   -26.086546    23.318991 
153152000     269.0768    424.43765    338.23713   -167469.53    167547.05    86.200516    23.325092 
153156000    286.74088    311.14577    354.43322   -167555.21    167596.31   -43.287452    23.331242 
153160000     337.6286    289.01043    457.59296   -167593.25    167616.85   -168.58253     23.33404 
153164000    268.87915    225.76613    438.68219   -167604.24    167659.12   -212.91606    23.335545 
153168000    303.75808    312.71816     437.9706   -167645.93    167698.91   -125.25244    23.337916 
153172000    292.84803     295.3988    345.51865   -167673.15    167718.41   -50.119859    23.333593 
153176000    314.26437    421.99891    428.15095   -167734.78    167770.57   -6.1520442    23.328257 
153180000    284.00841    253.99493    225.11633   -167743.64    167796.72    28.878603    23.333576 
153184000    297.92962    289.47329    288.53271   -167781.87    167832.31   0.94057201    23.338248 
153188000       283.22    254.88493    481.52589   -167811.99    167864.14   -226.64097     23.33224 
153192000    290.21432    392.01555    272.21371   -167860.24    167918.05    119.80185    23.325231 
153196000     261.8108    414.28918    424.31922   -167879.69    167951.66   -10.030045    23.328424 
153200000    287.03372    336.05535       368.51   -167916.33    167973.97   -32.454649    23.324324 
153204000    306.24728    491.57726    470.39608   -167975.72    168021.32    21.181183    23.321483 
153208000    289.83879    319.39164    460.40054   -168039.21    168065.26   -141.00889    23.319857 
153212000    287.13054    530.04256    489.60052   -168042.16    168108.83    40.442043    23.317996 
153216000    272.66828    264.30808     388.6554   -168077.45    168141.65   -124.34732    23.311786 
153220000     296.2569    344.76291    304.05378   -168115.51     168172.8    40.709127    23.310279 
153224000     270.0977    210.92102    257.22556   -168161.85    168227.63   -46.304545    23.304926 
153228000    271.44012    337.48705    260.46876   -168200.41    168284.13    77.018283     23.30892 
153232000     283.6713    338.34412    350.25403    -168270.9    168330.59   -11.909904    23.305351 
153236000     292.4838    509.74825    294.60527   -168315.25    168381.65    215.14298    23.298096 
153240000    320.34965    268.60162     315.7292   -168402.71    168445.07   -47.127582    23.297496 
153244000    270.25456    417.64259    187.07725   -168425.76    168485.64    230.56534    23.294763 
153248000    291.51688    445.93879    483.91106   -168436.39    168492.48   -37.972271    23.293585 
153252000    290.84469    308.33858    400.16697   -168448.62     168500.6   -91.828389     23.28786 
153256000    296.11326    342.14086    347.24051   -168484.87    168523.76   -5.0996544    23.295795 
153260000      295.731    341.13744    304.55078   -168532.39    168575.68    36.586663    23.295141 
153264000    291.55066    302.60887    353.61596   -168536.44    168592.05   -51.007083    23.296209 
153268000    279.87434     271.2844    194.45688   -168587.54    168639.73    76.827516    23.293968 
153272000    275.29781    351.37915    439.50186   -168607.68    168677.73   -88.122716    23.288932 
153276000    278.71844    407.86193    310.24687   -168674.84    168716.88     97.61506    23.293879 
153280000    304.05733    318.79269    521.93572   -168752.56    168792.95   -203.14303    23.293365 
153284000    277.13432    353.34465    263.89979   -168771.35    168836.91    89.444863    23.296605 
153288000    318.22982    532.08461    357.34336   -168838.92    168874.35    174.74125    23.300955 
153292000    303.45944    257.70221    359.50287   -168877.81    168930.54   -101.80065    23.295622 
153296000    269.28796    547.74601    386.18508   -168908.42    168970.69    161.56093    23.291724 
153300000    287.40178    229.99213    315.88733   -168981.43    169030.44   -85.895202    23.281325 
153304000    272.26049    291.29406    184.14781   -169017.08    169056.32    107.14625    23.277907 
153308000    295.54653     290.9939    436.89562   -169039.84    169095.56   -145.90172    23.275697 
153312000     268.3856    484.19318    337.63084   -169056.66    169113.65    146.56234    23.278087 
153316000     299.8227     410.1199    450.26691   -169086.85    169132.42   -40.147009    23.277088 
153320000    293.09944    342.03789    281.07102   -169104.66     169147.6    60.966867    23.270481 
153324000    290.97804    247.89502    386.62815   -169112.68    169162.84   -138.73313    23.274935 
153328000    302.86485    340.63242    324.12319   -169135.15    169185.09    16.509224    23.285492 
153332000    278.26532    245.22147    284.02891   -169170.58    169221.12   -38.807449    23.292936 
153336000    287.64029    354.86756    314.62088   -169218.65    169270.78    40.246685     23.30109 
153340000    251.68583    118.07746    441.67548   -169233.45    169301.99   -323.59802    23.293066 
153344000    250.95823    184.31952    230.89589   -169268.62    169337.82   -46.576369    23.286089 
153348000    276.88282    343.12647    325.46331   -169327.32    169365.83    17.663167    23.279739 
153352000    294.86686    344.11072    314.21574   -169402.24    169435.15    29.894981    23.275505 
153356000     291.6808    261.70756    278.18389   -169426.02    169472.91   -16.476335    23.274388 
153360000     290.8966    308.30354    448.35242   -169448.93    169513.86   -140.04888    23.277129 
153364000    260.22251    232.88995    339.50796   -169480.22    169550.04   -106.61801    23.265659 
153368000    244.53702     205.9643    252.67863   -169529.87     169602.1   -46.714333    23.258051 
153372000    256.69673    317.14551    246.88904   -169570.22    169639.16    70.256467    23.247321 
153376000    269.68873    309.49667    234.66155   -169615.03    169689.55    74.835119    23.245535 
153380000    266.45342     186.7679    348.68698   -169636.05    169714.01   -161.91909    23.238963 
153384000    278.64822    299.92134    318.81004   -169696.23    169756.29   -18.888704    23.232385 
153388000    254.27553    328.63796    204.27489   -169746.05    169811.45    124.36307    23.234255 
153392000    267.79118    330.45532    354.73823   -169805.32    169870.72   -24.282909    23.231757 
153396000    283.90692    457.90995    537.15241   -169859.78    169920.19    -79.24246     23.23218 
153400000    290.85504    484.93426    364.30275   -169918.38    169965.55    120.63151    23.243519 
153404000     273.0145     260.3115    341.66193   -169962.77     170019.1   -81.350436    23.245115 
153408000    291.07268    468.85367    281.80417   -170009.26    170049.28     187.0495    23.252643 
153412000    292.90321    294.86167    494.14872   -170049.57    170100.52   -199.28705     23.25534 
153416000    275.04823    337.67033    418.85645   -170086.32    170147.39   -81.186116    23.251018 
153420000    280.93826    352.07859    553.37397   -170115.78    170168.95   -201.29537    23.244891 
153424000    258.51138    327.24343    208.09904   -170166.49    170248.65    119.14439     23.24634 
153428000    285.30926    456.20081    368.80237    -170213.1    170272.61    87.398436    23.247312 
153432000     288.7087    482.66329    406.95309   -170279.87    170338.76    75.710194    23.245764 
153436000    287.64108    188.45743    438.88254   -170322.21     170357.1   -250.42511    23.252044 
153440000    312.69352    223.03318    338.05301    -170343.9    170387.01   -115.01983    23.253428 
153444000    280.11301    474.12824    162.10247   -170392.91    170442.66    312.02577     23.26189 
153448000    247.37009    280.48181    156.10458   -170377.47    170460.31    124.37723    23.258859 
153452000    254.77314    306.59543    367.69323   -170422.79    170500.75   -61.097797      23.2599 
153456000    277.13801    266.25567    314.13111   -170511.92    170594.42   -47.875432    23.263557 
153460000    280.81917     428.1188    274.87233   -170538.02     170604.6    153.24647    23.266252 
153464000    312.09811    245.86372    342.71406   -170578.51    170637.87   -96.850339    23.259674 
153468000    305.21208    285.70767    495.53448   -170614.91    170658.26   -209.82681    23.260548 
153472000    260.74206    270.23906    273.09485   -170630.67    170709.42   -2.8557856    23.264678 
153476000    315.44671    236.14206    294.25658   -170687.36    170728.66   -58.114521    23.264101 
153480000    261.91185    214.72008    259.07178   -170711.78    170777.29    -44.35169    23.257745 
153484000    262.64189     335.7178    347.78761   -170757.64    170826.13    -12.06981     23.26263 
153488000    280.41027     342.5367    369.53238   -170820.89    170884.26   -26.995676     23.25882 
153492000    259.50453    438.75218    320.89131   -170876.79    170955.55    117.86087    23.260705 
153496000    279.27554    312.95433    337.73789   -170931.13    170993.87   -24.783557    23.262478 
153500000    274.33621    333.64387    353.21936    -170928.5    171006.61   -19.575491    23.260502 
153504000    270.19549    351.09764    459.90896   -170969.29     171040.2   -108.81132    23.260432 
153508000    296.54379    412.34289    215.67671   -171020.04    171092.86    196.66618      23.2549 
153512000     290.1112    464.35115    460.89922   -171056.12    171111.96    3.4519301    23.254422 
153516000    289.01853    464.89158    324.11006    -171092.7    171157.94    140.78152    23.250676 
153520000    273.69171    343.58668    309.11336   -171143.31    171206.03     34.47332      23.2482 
153524000    280.99329    367.62858    186.76642   -171178.47    171258.62    180.86216    23.249212 
153528000    301.39242    177.77615    289.28403   -171243.17    171286.04   -111.50788    23.245588 
153532000    254.00898    355.09938    232.94692   -171260.77    171322.11    122.15247    23.256054 
153536000    285.69931    241.47315    233.49511   -171297.25    171357.54    7.9780421    23.256143 
153540000    284.25362    320.85944    312.27812   -171348.93    171405.59    8.5813193    23.253509 
153544000    279.21607    643.38201    333.36403   -171359.89    171428.14    310.01798    23.251431 
153548000    266.45016    303.90153    270.89323   -171387.08    171453.42    33.008293    23.251339 
153552000    270.25646    233.92922    351.09401   -171409.43    171485.34   -117.16479    23.253692 
153556000    285.43167    267.98386    250.64666   -171487.93    171546.99    17.337193     23.25955 
153560000    302.52915    458.46976    384.12233   -171522.77    171562.83    74.347428     23.26424 
153564000    289.01095    457.13017    320.73157   -171540.06    171598.89     136.3986    23.267577 
153568000    312.68592    387.26141    228.67634   -171558.25    171598.54    158.58507    23.269166 
153572000    295.78309    382.48294    353.29672   -171587.33    171640.08    29.186227    23.272509 
153576000    266.04938    452.99417     258.1196   -171617.32    171684.43    194.87457    23.277402 
153580000    296.57332    295.50278    364.39601    -171661.7    171712.28   -68.893231    23.286486 
153584000     306.8808    284.59187    242.85988   -171715.83    171734.72    41.731989    23.285607 
153588000    301.28983    413.99574    451.01015   -171736.25    171782.45   -37.014405    23.281219 
153592000    291.36946    433.28906    361.45056   -171770.77    171821.57    71.838497    23.283462 
153596000    285.91756    359.50656    321.90097   -171817.37     171865.6     37.60559    23.284648 
153600000    294.41791     235.6268    473.32306   -171859.89    171906.74   -237.69626    23.279822 
153604000    275.91697    240.64104    248.13283   -171907.26    171974.49   -7.4917874    23.285045 
153608000    283.18836    360.07505    275.83703   -171947.82    172014.38    84.238023    23.293244 
153612000    290.76089    293.75783    540.67901   -171999.26    172053.66   -246.92119    23.295816 
153616000    281.76471    286.36459    477.12158   -172086.09    172127.07   -190.75699    23.295362 
153620000    262.04787    260.44353      278.423   -172105.65    172181.56   -17.979474    23.303374 
153624000    295.56543    483.51293    383.60744   -172177.48    172224.37    99.905492    23.306276 
153628000     310.4942    458.09274    199.27628   -172194.19    172262.22    258.81646    23.304983 
153632000    279.73789    317.64247    183.85112   -172246.63    172292.06    133.79135    23.309005 
153636000    284.04324    235.50396    303.97265   -172293.77    172339.23   -68.468692    23.301613 
153640000    295.41531     252.2516    359.07146   -172324.14    172350.76   -106.81986     23.29844 
153644000    286.20571    269.72888    308.83849   -172347.89    172385.37   -39.109603    23.301429 
153648000    301.17162    371.21072    393.66364   -172395.61    172430.82   -22.452919    23.288995 
153652000    276.55558    348.88006    265.39863   -172458.57     172507.1    83.481427    23.288567 
153656000    252.13796    259.71562    333.48654   -172498.21    172575.45   -73.770921    23.282747 
153660000    255.09299    374.93008     496.7476   -172551.32    172616.68   -121.81752    23.284506 
153664000    278.76855    200.12723    515.71786   -172581.27     172627.8   -315.59063    23.282067 
153668000    290.56697    484.00747    279.08156   -172598.43    172660.57    204.92591    23.278247 
153672000    272.15229    226.26943    414.13487   -172581.19     172649.2   -187.86544    23.278782 
153676000    316.81831    317.29149    514.10517   -172651.85    172692.77   -196.81369    23.284574 
153680000     278.8829    360.34922    253.72037   -172693.01    172743.14    106.62886    23.281457 
153684000     277.8082    406.39244    383.26569   -172733.36    172782.91    23.126757    23.282835 
153688000     281.0191    167.83055    309.10483   -172756.85    172804.37   -141.27428    23.274632 
153692000    282.78827    490.45132    420.66887   -172830.53    172871.11    69.782448    23.275606 
153696000     287.8415      261.726    377.72737   -172840.46    172883.09   -116.00137    23.281239 
153700000    296.95166    307.40599    414.15271   -172891.44    172946.35   -106.74671     23.27884 
153704000    286.49147    422.03849    160.44282   -172915.42    172963.55    261.59567    23.275628 
153708000    305.80678    288.46026    580.66157   -172962.93    173010.19   -292.20131    23.273356 
153712000    284.66739    213.58792    308.75252   -172996.36    173045.45   -95.164603    23.272335 
153716000    267.81807    331.65438    299.38927   -173024.67    173064.14    32.265113    23.273884 
153720000    285.52862    537.64397    242.88647   -173028.67    173087.71     294.7575    23.278468 
153724000    280.31264    550.13606    375.99733   -173104.88    173169.35    174.13873    23.283911 
153728000     309.9867    385.62408    403.41045   -173174.26    173207.75   -17.786378    23.280412 
153732000    283.28295    186.44106    329.28087   -173197.01    173247.37   -142.83981    23.270406 
153736000     266.1448    303.54346    240.52294   -173213.04    173300.67    63.020526    23.267484 
153740000     284.9111    439.17373    412.05157   -173269.13    173328.25    27.122151    23.268265 
153744000     274.4752    410.28541     211.5063   -173309.48     173372.2    198.77911    23.273689 
153748000    286.19194    367.70323    340.50274   -173351.32    173402.03    27.200492    23.278169 
153752000    305.10893    287.78075    313.92953   -173436.02    173489.28   -26.148782    23.278627 
153756000    268.52225    474.10673     336.7072   -173471.24    173549.71    137.39953    23.281723 
153760000    279.63993    280.59177    194.14727   -173527.39    173586.05    86.444505    23.279301 
153764000    311.18542    336.63032    325.83933   -173571.48    173603.09    10.790983    23.276499 
153768000    283.48269    293.31665    369.77414   -173625.84    173674.93    -76.45749    23.269415 
153772000    266.42684    274.45987    515.01069   -173639.44    173707.52   -240.55082    23.258191 
153776000    256.02685    440.97956    190.96674   -173672.24    173719.41    250.01282    23.256462 
153780000    291.85536    258.53541    399.29729   -173690.54    173748.36   -140.76188     23.24699 
153784000    292.35108    423.02682    339.20619   -173720.25    173798.46    83.820628    23.253063 
153788000    270.41482    312.42087    266.98153   -173779.95    173837.07    45.439342     23.25394 
153792000    272.86152    300.49568    147.43107   -173800.47    173868.01    153.06461    23.248352 
153796000    300.59019    451.20257    543.10266   -173856.48    173913.59   -91.900098    23.248169 
153800000    287.56079    313.81171    263.55943   -173911.35    173954.66    50.252284    23.256401 
153804000    283.89327    549.37916    353.88079   -173977.52     174027.5    195.49837    23.260616 
153808000    288.65103    238.20367    341.90748   -174010.58    174047.37   -103.70381    23.261539 
153812000    288.37016    168.05291    377.11674   -174065.65    174120.96   -209.06383    23.257871 
153816000     273.1341    400.68479    459.56482   -174119.21    174190.14   -58.880028    23.249282 
153820000    271.88277    382.02355    274.05308   -174190.69    174264.01    107.97046    23.250004 
153824000    276.72283    473.86191    313.57432   -174189.28    174268.78    160.28759    23.254979 
153828000    283.86868    240.68286    192.80209    -174251.4    174309.59    47.880766    23.259583 
153832000    268.01498    356.74884    276.03978   -174301.95    174369.47    80.709059    23.258509 
153836000    251.97823    309.99486    298.73053   -174275.52    174363.38    11.264337    23.258088 
153840000    280.78879    360.45984    244.85394   -174308.03    174380.35     115.6059     23.26214 
153844000    284.38419    298.79532    227.67932    -174358.1    174425.61    71.115997    23.259363 
153848000    287.99983    255.30066    342.17151   -174412.14    174456.79   -86.870851    23.260052 
153852000    240.18458    237.73009    408.16043   -174401.45    174481.82   -170.43034    23.255458 
153856000    311.09638    516.76483    328.09445   -174478.15    174527.96    188.67038    23.257195 
153860000    297.55555    405.94234    322.31507   -174501.65    174557.09    83.627278    23.256545 
153864000    279.57015    307.47229    231.99495   -174506.77    174590.56    75.477347    23.256114 
153868000    285.65953    303.44435    347.79695   -174534.55    174600.42   -44.352607    23.258067 
153872000    275.81734    326.11661     339.7773   -174597.79    174653.95   -13.660695    23.259717 
153876000    247.31216    239.34068     263.6662   -174618.16    174698.74    -24.32552    23.259762 
153880000     274.2621    363.57351    666.24699   -174641.06    174717.94   -302.67349     23.26005 
153884000    293.01526    615.18441    354.17383   -174681.47    174730.44    261.01058    23.261002 
153888000    291.34923    391.33959    327.80307   -174677.25    174720.32    63.536516      23.2627 
153892000    265.46572    410.55545    267.63366   -174701.59    174766.44    142.92179    23.260993 
153896000     278.5802    333.83652    253.77668   -174743.01     174798.8    80.059841    23.269134 
153900000    289.36099    349.08583    431.79069   -174791.24    174848.07   -82.704857    23.273543 
153904000    306.31885    441.70388    246.73736   -174791.25    174832.87    194.96652    23.277846 
153908000    259.76794    159.14813    182.57919   -174767.79    174841.13    -23.43106    23.275768 
153912000    276.72839    187.30209    296.97577   -174792.26    174857.39   -109.67369    23.269644 
153916000    254.21475    327.38456    223.44337   -174863.31    174927.23    103.94119    23.273095 
153920000    280.64438    449.35974    204.87422   -174894.21    174955.77    244.48552    23.276295 
153924000    283.99321     478.3725    331.21995   -174912.32    174981.48    147.15255     23.28175 
153928000    279.47143    437.90212    374.56981   -174964.99    175026.49    63.332313    23.278036 
153932000    292.62313    312.85755    340.38073   -175042.25    175100.44   -27.523181    23.277632 
153936000     279.0113    599.51594    289.71609   -175060.98     175119.5    309.79985    23.282322 
153940000    273.77284    359.38425    313.97784   -175099.25    175168.75    45.406411    23.286517 
153944000    294.42636    260.06653    391.43347   -175146.91    175190.92   -131.36694    23.285923 
153948000     295.1506    488.73879    199.19256   -175177.35    175228.92    289.54623     23.28496 
153952000    240.73529    200.79479    324.38157   -175158.68    175258.94   -123.58678    23.284764 
153956000    277.78219    469.96599    395.01384   -175201.49     175266.7    74.952146    23.282009 
153960000    294.84055    534.39632    185.39277   -175260.57    175313.02    349.00355    23.274353 
153964000    270.30882    284.04134    212.80448   -175267.95    175337.93    71.236861     23.27339 
153968000    282.76194    286.57114    330.56306   -175338.13    175383.51   -43.991922    23.277942 
153972000    322.02801    280.98118    467.97267   -175374.81    175402.81    -186.9915    23.274032 
153976000    267.34497    319.43109    281.37896   -175375.28    175444.72    38.052128     23.26802 
153980000    261.09176    560.98348    277.00864   -175446.73    175501.18    283.97484    23.264141 
153984000    255.69182    299.03383     279.7082   -175468.11    175534.18     19.32563    23.258814 
153988000    298.74001    226.76018    288.59494   -175523.09    175583.81   -61.834764    23.253909 
153992000    267.69438    328.83523    250.14327   -175549.25    175615.62    78.691961    23.252787 
153996000     263.2727    424.86183    225.13181   -175598.73    175678.39    199.73002     23.24821 
154000000    270.78064    346.40219    432.34995   -175608.81    175680.93   -85.947763    23.249511 
154004000    293.06402    502.81439    247.19532   -175668.58    175729.28    255.61907    23.250394 
154008000    284.02184    259.30917    280.35133   -175729.01    175780.15   -21.042163    23.254054 
154012000    296.18845    328.84177    301.48574   -175736.18    175803.74    27.356028    23.254581 
154016000    305.98931     485.3054    445.68813   -175754.84    175783.85    39.617265    23.253343 
154020000    267.75318    351.34063    269.90716   -175792.31    175861.02    81.433473    23.256585 
154024000    276.76038    256.75049    267.87246   -175825.62    175877.51   -11.121969    23.257802 
154028000    328.39141     328.9041    535.99361   -175886.27    175912.91   -207.08951    23.260674 
154032000    284.93283    298.96303    263.20467   -175894.67    175943.62    35.758358    23.265725 
154036000    302.21185    577.31957    261.77052   -175932.91    175966.17    315.54906    23.266173 
154040000    270.41297    203.09293    333.86009   -175964.88    176026.51   -130.76716    23.261623 
154044000    263.03555    371.29562    242.79662   -175976.96    176047.43      128.499    23.260814 
154048000    271.44048    426.77531    261.25198   -176008.63    176077.83    165.52333    23.253986 
154052000    281.80282    316.07197    205.38381   -176051.08    176108.08    110.68816    23.254642 
154056000    274.37844    309.08325    254.40594   -176073.66    176128.32    54.677311    23.246525 
154060000     285.1455    316.93532     317.2104   -176110.35    176164.92   -0.2750769    23.238833 
154064000     240.4368    287.75555    234.25392   -176142.12    176189.36    53.501628    23.236214 
154068000    295.06618    378.21068     463.7987   -176191.27    176243.44   -85.588026    23.244957 
154072000    277.96125    364.81515    285.21467   -176227.15    176296.39    79.600476    23.243626 
154076000    301.91197    276.73754    500.17598   -176264.52    176306.65   -223.43844    23.237904 
154080000    269.22585    318.74928    312.78526   -176274.75    176332.12    5.9640197    23.232863 
154084000    269.01389     323.3356     395.8352      -176328    176390.46   -72.499607     23.23332 
154088000    272.87428    470.22106    351.42058   -176383.92    176447.86    118.80048    23.229389 
154092000     267.3276     380.6898    315.70453   -176427.27    176495.02    64.985273    23.227965 
154096000    310.93548    662.51473    213.82344      -176491    176535.23    448.69129    23.229034 
154100000    296.52523    320.47282    413.95462   -176525.16    176571.74   -93.481803    23.224048 
154104000    309.17404    303.51017     237.5194   -176540.06    176594.13    65.990766    23.225958 
154108000    313.52119    399.95744    364.93914   -176588.17    176613.12      35.0183    23.216617 
154112000    272.11093    333.62107    425.01447   -176606.93    176652.08   -91.393402    23.210962 
154116000    273.78903    453.09628    329.79138   -176641.83    176716.32     123.3049    23.208354 
154120000    256.03166    346.56547    407.30958   -176672.13    176753.01   -60.744106     23.20385 
154124000    283.33765      402.685    368.26975   -176699.66    176760.78    34.415254    23.202877 
154128000    304.35779    449.73186    438.17367    -176750.1    176791.91    11.558185    23.203136 
154132000    285.83888    407.96848    567.64609   -176764.86    176820.91   -159.67761    23.194259 
154136000    266.05268    297.01581    206.98966   -176786.38    176859.01    90.026141    23.187336 
154140000    278.87402     269.1621    448.14823   -176835.79    176906.55   -178.98613    23.184314 
154144000    291.08225    204.78012    291.89994   -176917.65     176965.9   -87.119818    23.177267 
154148000    266.93581      433.651     232.0954   -176961.11    177021.55     201.5556    23.181905 
154152000    287.18656    277.52069     419.7721   -176973.93    177045.77   -142.25141    23.185137 
154156000     260.2406    264.28623    244.27917    -176997.2    177062.76    20.007057    23.186673 
154160000    277.10554     509.1905    175.47268   -177038.85    177109.32    333.71782     23.18763 
154164000    259.19109    323.40203    385.07528   -177055.42    177121.09   -61.673248    23.181476 
154168000    299.09032    290.03478    357.73096   -177092.11    177133.51   -67.696182    23.174838 
154172000    281.35112    461.51735    216.29711   -177146.51    177205.85    245.22024    23.179534 
154176000    270.52418    304.12514    531.53445   -177155.92    177226.83   -227.40931    23.181032 
154180000    271.69793    315.55933    370.52634   -177202.51    177269.41   -54.967016    23.178486 
154184000    305.42672     387.3048     291.8758   -177251.96    177303.27       95.429    23.180608 
154188000     284.9678     493.8227    304.34308   -177307.66    177356.13    189.47962    23.179259 
154192000     298.8729    308.73951    284.07965   -177334.01    177374.96    24.659857    23.182557 
154196000    282.82869    384.67517      315.007   -177373.97    177425.77    69.668174    23.180591 
154200000    272.26752    347.36458    270.41697    -177387.3    177453.44    76.947616    23.174475 
154204000    274.84542    425.11315    235.31649   -177438.17    177500.92    189.79666    23.184368 
154208000    263.19999    320.09381    361.74444   -177448.82    177516.92    -41.65063    23.181716 
154212000    279.92219    287.45426    355.71978   -177515.69    177566.28   -68.265517     23.18089 
154216000    301.45845    474.19557    288.80794   -177583.88    177645.18    185.38763    23.185364 
154220000    264.83283    436.81742    345.18888   -177637.18    177701.12    91.628546    23.188077 
154224000    266.10593    267.92066    255.79368   -177651.06    177717.64    12.126973    23.183718 
154228000    309.64522    342.01334    218.52049   -177716.91    177751.86    123.49285    23.186023 
154232000    279.94391    271.83418    295.29268   -177745.23    177795.92   -23.458502    23.185195 
154236000    286.30398    346.05798    606.37553   -177779.46     177828.3   -260.31755    23.186995 
154240000    272.97936    407.33492    295.32984   -177836.27    177908.83    112.00508    23.186571 
154244000    257.02265    177.71914       384.86    -177853.5    177940.99   -207.14086    23.184289 
154248000    293.28395    341.41685    317.08162    -177896.2    177947.04    24.335234    23.190505 
154252000    268.66303    266.48565    314.94825   -177910.07    177994.55   -48.462605    23.195826 
154256000    258.77657    484.15918    328.30887   -177919.78    177992.55    155.85032    23.196082 
154260000     309.5324    547.23874    288.65934   -177965.58    178016.07     258.5794    23.200293 
154264000    310.77091    260.19547    327.87809   -177972.55    178027.82   -67.682613    23.192184 
154268000    274.91918    301.64713    283.83406   -177989.57    178045.53    17.813079    23.196732 
154272000    269.24791    475.27828    329.94257   -178052.21     178109.5    145.33571     23.19907 
154276000    327.69703    251.32618    241.42266   -178103.85    178137.42    9.9035253    23.200455 
154280000    259.73434    292.61389    408.08941   -178117.65    178187.67   -115.47551    23.206547 
154284000    327.69277    351.42132    313.28146   -178185.71    178215.77     38.13986    23.211297 
154288000    284.55056    411.12338    295.23524   -178224.46    178265.55    115.88813    23.215244 
154292000    286.67722    401.11048     342.3212   -178264.79    178343.46    58.789284    23.217901 
154296000    255.75094    233.83526    197.45078   -178318.12    178386.36    36.384479    23.216317 
154300000    305.78106    366.39427    275.77711   -178333.51    178392.32    90.617157     23.21308 
154304000    286.41282    258.31013     246.6154    -178380.4    178429.74    11.694736    23.213817 
154308000    274.48073    422.92234    208.11605   -178432.42    178500.57    214.80629    23.210432 
154312000     258.4984    381.64298    405.33507      -178469    178544.15   -23.692086    23.212423 
154316000    285.94058    485.17368     361.0624   -178552.91    178614.72    124.11128    23.212042 
154320000    279.29294    250.66132    481.69608   -178623.23    178686.76   -231.03476    23.211088 
154324000    271.95944    259.83301     295.6786    -178668.5    178718.01   -35.845586    23.217406 
154328000    273.10111    356.27079    211.09059   -178672.97    178746.32     145.1802    23.215152 
154332000    298.40329      562.815    394.24599   -178695.05    178754.66    168.56901    23.220127 
154336000    270.35779     278.4214    415.43231   -178735.28    178806.03   -137.01091    23.215561 
154340000    279.10078    359.80923    429.18727   -178762.55    178843.69    -69.37804    23.206326 
154344000    264.80341    254.53552     356.1412   -178786.36    178867.69   -101.60568    23.216303 
154348000    270.61214    378.96389    346.86164   -178803.17    178873.98    32.102245    23.218806 
154352000    278.04853     258.8246     336.8736   -178834.12    178900.55   -78.048993    23.217119 
154356000    304.23632     369.3996    385.91254    -178887.2    178940.22   -16.512941    23.214838 
154360000    301.78375    492.39624    289.58312   -178922.15    178966.55    202.81312    23.212047 
154364000    279.47251    277.86291    242.36027   -178923.88    178998.92    35.502644    23.217165 
154368000    292.46171    293.42331    324.62598   -178982.94    179034.14   -31.202675    23.214844 
154372000    286.52975    242.13595    211.31615   -179002.07    179060.31    30.819797     23.21823 
154376000    298.80297    249.25118    275.56821   -179046.76    179078.17   -26.317034    23.217601 
154380000    293.56851    336.05856    304.45931   -179076.21    179126.65    31.599248    23.217646 
154384000    280.87393    359.59482    180.13629   -179138.99    179187.23    179.45853    23.210607 
154388000    303.07591    271.96492     239.9333   -179178.08     179225.5    32.031617    23.207137 
154392000    273.80604    460.22548    280.51941   -179216.66    179264.98    179.70607    23.212797 
154396000    254.42799    241.83219    316.96998   -179226.08    179299.34   -75.137784     23.21161 
154400000    278.84926     361.9387    405.74242   -179278.09    179319.55    -43.80372    23.215594 
154404000    291.56881     382.6435     468.8498   -179310.26    179370.43   -86.206304    23.223021 
154408000    280.82455    326.69195    390.59279   -179351.88    179410.28   -63.900839    23.220288 
154412000    306.67234     336.1631     261.3511   -179404.04    179458.38    74.811994    23.221814 
154416000    284.25041    502.07396    365.14324   -179445.81    179488.61    136.93072    23.222584 
154420000    311.87871    278.01577    466.65618   -179484.24    179515.74    -188.6404    23.221326 
154424000    290.06062    309.55655    424.10877    -179504.1    179544.88   -114.55222    23.224751 
154428000    263.62828    418.38879    204.30511   -179544.44    179608.51    214.08368    23.233667 
154432000    299.59629    393.02668    354.96473   -179594.76    179649.31    38.061947    23.233048 
154436000    267.95972    453.69829    322.99975    -179637.4    179699.48    130.69854    23.230822 
154440000    279.27239    324.30501    532.24383   -179702.84     179745.6   -207.93882    23.234201 
154444000    280.29115     500.0249    376.78694    -179768.2    179817.02    123.23797    23.231035 
154448000    270.91024    371.57345    302.77209   -179778.79    179843.33     68.80136    23.235353 
154452000    280.69766    327.10108    223.48677   -179799.85    179865.06    103.61431    23.243546 
154456000    306.01994    260.49741    323.94485    -179859.8    179916.71   -63.447445    23.239048 
154460000    305.93393    379.28937    213.12099   -179917.18    179968.11    166.16838    23.225292 
154464000    269.06055    401.12532    358.03834   -179916.27    180001.25    43.086979    23.227681 
154468000    275.38814    348.86383    302.64788   -179967.93    180028.44    46.215948    23.227684 
154472000    297.40034    258.02192    424.97519   -180011.24    180047.98   -166.95327    23.235227 
154476000    260.24261    232.81405    298.10569   -180014.18    180092.94   -65.291641    23.233101 
154480000    319.35132    383.44241    303.43068   -180049.91    180090.64    80.011729     23.23954 
154484000    292.07539    253.41826    261.85129   -180066.41    180112.65   -8.4330245    23.235311 
154488000    301.00006    440.92938    298.87487   -180107.91    180147.13    142.05451    23.236474 
154492000    278.91209    282.02963    260.70512   -180134.64    180189.15    21.324512     23.23609 
154496000    274.82171    205.59984    226.22404   -180149.96    180210.89   -20.624204    23.235328 
154500000    302.14804    349.05126    294.39725   -180185.59    180249.51    54.654015    23.235175 
154504000    300.19382    258.93627    337.17744      -180239    180295.64    -78.24117    23.230014 
154508000    292.41603    455.99982    184.80546   -180277.32    180338.26    271.19436    23.231762 
154512000    317.86226    320.42035    466.17774   -180307.15    180347.22   -145.75739    23.235418 
154516000    313.60989    349.68978    214.50762   -180358.64    180409.71    135.18216    23.243541 
154520000    319.70415    360.71909    310.93513   -180411.45    180458.83    49.783961     23.24741 
154524000    276.74444    286.77822    331.38402      -180448    180520.19   -44.605809    23.241882 
154528000    310.22155    345.36901    225.26211   -180472.96    180509.44    120.10689    23.246031 
154532000    293.13317    411.08688    294.74963   -180499.64    180549.29    116.33725    23.251988 
154536000    292.28879    470.93658    564.49166   -180536.24    180587.44   -93.555081    23.251207 
154540000    302.71581     568.3474     460.6335   -180598.21    180647.45     107.7139    23.255007 
154544000    318.68061    521.04067    488.57257    -180660.4    180681.08    32.468105    23.249055 
154548000    317.28416     403.9362    220.50075   -180723.34    180749.25    183.43545    23.247463 
154552000    259.92546    224.76919    253.93043   -180699.83    180787.33   -29.161239    23.251752 
154556000     285.1068     375.4679    293.70404   -180740.64    180805.17    81.763861    23.242624 
154560000    294.56964    388.56067    353.32717   -180782.23    180832.64    35.233493    23.247389 
154564000     255.4585    243.50286     222.9303   -180788.09    180866.59    20.572558    23.242561 
154568000    282.04843    471.17061     278.2933   -180862.86    180937.77    192.87731    23.232351 
154572000    275.55721    271.87191    258.86751   -180901.65     180985.1    13.004394    23.226283 
154576000    293.63524    333.00318    404.02891    -180939.6    180995.85    -71.02573    23.226755 
154580000    281.63765    425.38563    324.35959   -180996.98    181055.41    101.02604    23.220974 
154584000    297.62738     224.8185    366.95597    -181041.6    181100.84   -142.13748    23.223219 
154588000    302.01357    424.17564    335.23491   -181099.51    181148.82    88.940731    23.232828 
154592000    277.42678    327.77085    414.49217    -181143.5    181207.53   -86.721317    23.240134 
154596000    265.74435    401.88843    211.05086   -181181.53    181238.79    190.83757    23.235312 
154600000    266.44309    354.99243    293.02966   -181234.81    181310.73    61.962763    23.234841 
154604000    294.23796    222.92092    250.42742   -181315.64    181362.67   -27.506501    23.238214 
154608000    304.64149     239.7768    237.37586   -181362.78    181398.82    2.4009385    23.237752 
154612000    288.17166    386.31246     442.2158   -181411.46    181456.93   -55.903339    23.235642 
154616000    274.17729    315.51207     424.4622   -181449.43    181504.17   -108.95013    23.231036 
154620000    286.75351    484.49346    538.97243   -181489.49    181552.26   -54.478975    23.231365 
154624000    275.23372    243.25706     332.8334   -181530.18    181600.01   -89.576341    23.228554 
154628000    274.87795    431.76719     382.1497   -181579.89    181644.69    49.617489     23.22683 
154632000    281.48325    394.14642    251.78938   -181605.87    181678.49    142.35705    23.226948 
154636000     282.0957    346.44753    332.95681   -181642.23    181723.37    13.490717    23.231577 
154640000    305.20494    410.62392    172.17218   -181706.23    181748.71    238.45175    23.241627 
154644000    298.05534    475.79663    327.70919   -181743.67    181774.75    148.08744    23.240809 
154648000    227.11627    351.10983    248.72101    -181762.5    181848.25    102.38883    23.248148 
154652000    255.62444    213.24592    278.76805   -181798.66    181857.82   -65.522132    23.248593 
154656000    259.20555    364.80434    289.26525    -181833.2    181912.46    75.539095    23.253949 
154660000    285.76552    411.84187    228.55035   -181895.83     181954.4    183.29151    23.252901 
154664000    290.96172    500.92778    314.12974   -181938.82     181982.1    186.79803    23.256644 
154668000    279.33565     382.8288    229.67351   -181995.15    182053.01    153.15529     23.25169 
154672000    301.58602    356.03098    277.27715   -182037.85    182076.92    78.753832    23.244141 
154676000    267.47124     236.1713    303.80669   -182072.11    182141.21   -67.635398    23.244685 
154680000    238.54322    244.51741    291.84917   -182125.98    182204.79   -47.331763    23.247953 
154684000     291.7476    324.63592    291.73007   -182208.71    182260.72    32.905848    23.247777 
154688000    286.06116    308.55062    342.85721   -182251.33    182312.48   -34.306589    23.252286 
154692000    281.48316    344.95645    343.72398   -182284.44    182352.45    1.2324639    23.254152 
154696000    272.80652    289.12092    455.71796   -182309.33    182379.71   -166.59704    23.248203 
154700000    285.23934      336.836    149.75233   -182342.45    182409.07    187.08367     23.25264 
154704000    297.71909    377.42091    375.38624   -182394.13    182436.48    2.0346624    23.253315 
154708000    302.97095    333.37262    381.77726   -182420.95     182452.3   -48.404637     23.24533 
154712000    288.98708    489.86387    288.28987   -182439.85    182491.31      201.574    23.255707 
154716000     284.2421     455.8894    190.96837   -182455.16    182527.33    264.92103    23.256529 
154720000    274.61001    408.50887    381.27264   -182494.04    182577.75    27.236225    23.261653 
154724000    270.62141    341.66572    355.15822   -182521.94    182600.54   -13.492506    23.259222 
154728000    255.45689    231.45104    323.64368   -182561.42    182662.84   -92.192639    23.264529 
154732000    252.18668    331.68311    177.49829   -182615.88    182699.32    154.18482    23.259528 
154736000    287.30575    462.48892    468.00525   -182666.61    182736.37   -5.5163268    23.253475 
154740000    289.30407    308.61638     478.6403   -182716.27    182772.32   -170.02392    23.253812 
154744000    295.35233    457.16642    423.57846   -182750.79       182800    33.587959     23.25158 
154748000    281.10715    326.47989    363.20711   -182770.17    182839.79   -36.727221    23.258647 
154752000     295.9998    292.85009    286.31427   -182798.64    182848.14    6.5358232    23.261135 
154756000    290.37572    301.01958    225.71969    -182810.1    182885.17    75.299888    23.265035 
154760000     300.7773    366.56438    326.73229   -182856.42    182902.55    39.832089    23.270707 
154764000    278.82054    386.16782    280.65587   -182902.31    182967.51    105.51195    23.267571 
154768000    266.31921    370.94639    255.19197   -182950.15    183035.63    115.75442    23.268985 
154772000    255.15771    369.24403    352.13454   -182970.24     183056.7    17.109495    23.277081 
154776000    265.55392    238.82428    286.17945   -183042.79     183121.1   -47.355163    23.275242 
154780000    288.61539    297.96399    259.34201   -183093.77     183154.1    38.621986    23.275871 
154784000    264.99951    250.10694    346.76784   -183109.78    183186.76   -96.660898    23.272464 
154788000    243.07859    195.32645    291.19907    -183185.1    183261.69   -95.872619    23.277324 
154792000    277.17227    315.11446    256.12532    -183239.5    183306.17    58.989145    23.285219 
154796000    305.83042    303.86321    177.87363   -183255.99    183319.52    125.98959    23.285899 
154800000     309.6122    344.20956    422.36199   -183298.15    183347.48   -78.152438    23.291785 
154804000    277.77596    301.96579    274.86889   -183324.44    183386.34    27.096897    23.285408 
154808000     274.3056     293.5249     312.6311   -183351.41    183418.12   -19.106193    23.294589 
154812000    270.00269    228.82362    323.85802   -183353.94    183426.25   -95.034398    23.293961 
154816000    286.08271    310.35889    207.17121   -183386.28    183449.86    103.18768    23.294223 
154820000    285.71609    469.14309    248.68652   -183476.77    183533.35    220.45657    23.295664 
154824000    272.22712    271.31008    326.78733   -183509.29    183574.55   -55.477256    23.292135 
154828000    300.56782    318.75892    367.91896   -183542.96    183587.72   -49.160044    23.285515 
154832000    286.85943    224.42055    168.95264   -183615.48    183684.03     55.46791    23.282331 
154836000    282.37841    458.80435    354.38195   -183665.98    183715.38     104.4224    23.284376 
154840000    290.97708    394.49275    361.85218   -183698.82    183758.63    32.640564    23.291404 
154844000    276.22402     411.0876     298.4469   -183760.42     183816.2     112.6407    23.291791 
154848000    310.08584    489.98971    255.69705    -183780.3    183825.11    234.29266    23.293262 
154852000    300.60449    280.67621    331.05264   -183864.47    183905.96   -50.376433    23.295887 
154856000    285.51863    189.61477    212.01473   -183908.57    183956.73   -22.399957    23.291489 
154860000    272.10186    328.77089    311.74772   -183922.56    183989.79    17.023174    23.286997 
154864000    294.65299    317.16777    430.82465   -183923.08    183977.45   -113.65689    23.285711 
154868000     267.2309    293.28551    431.36262   -183970.86    184053.55   -138.07711    23.284554 
154872000    264.83882    282.72596     313.7611   -184016.14    184110.63    -31.03514    23.276644 
154876000    262.23947    276.03367    215.18678   -184057.25       184141     60.84689    23.281671 
154880000    274.85425    354.68534    192.24093   -184050.96    184108.62    162.44442    23.282626 
154884000    300.26056    326.22931    365.82271   -184064.61    184107.75   -39.593406    23.286562 
154888000     284.3411    341.69694     315.3873   -184101.75    184147.35    26.309644    23.293038 
154892000    281.02778    253.46258    281.61909   -184155.57    184193.47   -28.156517    23.302403 
154896000    256.74505    366.39787    269.43757   -184186.43    184266.41    96.960301    23.308727 
154900000    306.86057    438.41065    438.70883   -184223.11    184274.26  -0.29817844     23.31332 
154904000    297.69981    321.35058    498.92258   -184282.41    184333.46     -177.572    23.306691 
154908000    280.20251    338.59024    394.15368   -184286.81    184349.15   -55.563442    23.304444 
154912000    286.09813    336.60578    285.07562   -184325.45    184381.61    51.530162    23.300503 
154916000    278.96111     279.2552    431.12863   -184345.08    184395.48   -151.87343    23.301193 
154920000    292.77576    447.97832    329.48343   -184401.97    184454.83    118.49488    23.298516 
154924000     299.1854    368.47134    353.84953   -184455.44     184501.3    14.621817    23.306375 
154928000    353.57492    455.15302    397.53914   -184550.48    184554.14    57.613881    23.301335 
154932000    303.78701    716.14553    376.81425   -184586.13    184619.36    339.33128    23.303449 
154936000    294.72079    311.27275     250.5747   -184631.77    184671.45    60.698047    23.307065 
154940000    291.80964    424.43114     365.7352   -184659.45    184713.11    58.695936    23.305847 
154944000    269.66625    288.04988    332.36555   -184704.05    184775.04   -44.315676    23.306168 
154948000    303.04797    242.13488      324.951   -184770.34    184827.38   -82.816115    23.303292 
154952000    286.46007    383.21487    409.44244   -184799.16    184852.64   -26.227566    23.303982 
154956000    269.28871    260.03074    407.66828   -184843.86    184896.05   -147.63754    23.305449 
154960000    308.16105    353.62438     339.7794   -184900.93    184928.24    13.844977    23.303791 
154964000    286.86469    230.13551    305.70468   -184898.03    184957.41   -75.569169    23.305262 
154968000    256.34192    388.29949    364.36672   -184932.84    185024.07    23.932772    23.309085 
154972000      276.855    411.78709    379.85373   -185012.83    185075.78    31.933367    23.306765 
154976000     289.9871    623.38533    228.95712   -185101.54    185161.09    394.42821    23.309751 
154980000    251.88039    266.18525    267.44117   -185124.94       185212   -1.2559249     23.30761 
154984000    265.47979    417.74442    273.85456   -185169.76     185246.9    143.88986    23.307414 
154988000    288.65521    431.05583    438.71033   -185196.67    185258.23   -7.6544983    23.307469 
154992000    290.80525    300.47605    393.55983    -185257.7    185320.92   -93.083778    23.303664 
154996000    266.28781    398.26806    252.83934   -185252.53    185335.46    145.42872    23.310407 
155000000    268.88857    209.52799    364.19961   -185282.75    185366.08   -154.67161    23.301646 
155004000    272.10675    219.81039     178.4116   -185311.63    185375.09    41.398784     23.30533 
155008000    267.45712    253.77536    430.68259   -185349.24    185402.31   -176.90723    23.308519 
155012000    292.16333     266.2013    334.03545   -185398.57    185459.25    -67.83415    23.310904 
155016000    269.74472    466.81447    143.29665   -185441.92    185506.22    323.51782    23.302109 
155020000    317.33791    306.03758    330.63169   -185537.95     185570.7   -24.594112    23.291977 
155024000    284.47902    542.00669    171.73595   -185583.94    185641.31    370.27074    23.292351 
155028000    311.45879    258.10181    325.05224   -185610.38    185647.34   -66.950435    23.293649 
155032000    282.58054    332.29154    219.51396   -185595.39    185673.74    112.77758    23.296643 
155036000    280.18995    353.24638    163.61995   -185633.12    185692.29    189.62644    23.295756 
155040000    307.85708    324.46413    234.45848   -185697.49    185741.11    90.005649    23.290534 
155044000    290.05525    305.57969    355.33119   -185755.69    185804.85   -49.751508    23.291193 
155048000    265.64917    187.67205    300.70245   -185790.32    185869.42   -113.03041    23.283884 
155052000     286.9135    504.27938    422.10689   -185832.75    185886.56    82.172487    23.281874 
155056000    300.57393    426.62562    308.73446   -185883.33    185934.18    117.89117    23.281208 
155060000     299.4873    402.09395    364.90661   -185926.87     185968.7    37.187346    23.288109 
155064000    288.44893     563.2799    199.43698   -185964.23    186029.17    363.84292     23.28901 
155068000    281.93083    242.15458    332.33434   -185982.39    186048.74   -90.179756    23.294462 
155072000    308.19511    426.27722    261.99169   -186017.58    186062.24    164.28552    23.294457 
155076000    277.33658    352.24667    351.77884   -186034.13    186106.29   0.46783021    23.303432 
155080000    270.28468    319.83981    393.87086   -186064.97    186138.55   -74.031053    23.301591 
155084000    257.80249    352.51151    253.03774   -186100.56    186183.32    99.473774    23.299539 
155088000    296.49075    297.97266     264.5823   -186139.83    186197.01     33.39036    23.305728 
155092000    274.25828    504.01077    312.92365   -186160.32     186225.7    191.08713    23.308466 
155096000    256.92378    308.24925    329.03447   -186189.04    186252.08   -20.785226    23.307855 
155100000    294.11289    525.74301    360.63938   -186236.14    186296.94    165.10363    23.305383 
155104000    292.28115    425.78047    255.07435   -186292.97    186344.22    170.70611    23.307745 
155108000    333.28981    419.12632    297.01979   -186354.51     186388.4    122.10653    23.307301 
155112000    290.05185     456.4362    258.93382   -186375.89     186452.6    197.50238    23.303478 
155116000    244.98911    476.76546    451.27242   -186415.95    186486.82    25.493039    23.303238 
155120000    255.19253    259.06619     167.6648   -186429.85    186517.27    91.401382    23.309262 
155124000    253.59815    381.17482    247.40862   -186496.61    186565.46     133.7662    23.310998 
155128000    283.40149    534.26568    336.49222      -186562    186628.77    197.77346    23.306443 
155132000     245.7965    343.32842    344.14569   -186593.59    186691.53  -0.81727755     23.30379 
155136000    262.14417    211.58928    235.62192   -186633.92    186725.78   -24.032636    23.303572 
155140000    279.26086     371.7746    381.63781   -186709.23    186771.26   -9.8632127    23.302263 
155144000    299.07502    251.62334    410.52691   -186759.92    186798.12   -158.90357    23.295015 
155148000     268.7161    184.14412    249.30478   -186777.51    186860.66   -65.160666    23.290792 
155152000    289.25704    372.68354     450.9443   -186835.09    186895.82   -78.260758    23.293077 
155156000    292.56945    454.38119    295.23186   -186922.97    186966.02    159.14933    23.297097 
155160000    311.32168    458.51056    377.94344    -186989.1    187024.89    80.567117    23.297716 
155164000    273.98819    236.40521    337.48549   -187025.87    187084.88   -101.08029     23.29698 
155168000     291.6739    239.41443    177.01592   -187063.26    187103.13    62.398515    23.302268 
155172000       281.54    321.34692    316.11258   -187095.27    187155.26    5.2343378    23.305605 
155176000    278.32615    388.75004    290.64955   -187119.71     187185.8    98.100485    23.304792 
155180000    275.22599    267.65041    271.32945   -187159.43    187234.06   -3.6790476    23.303121 
155184000    258.32678    342.26332    374.10717   -187197.31    187268.57   -31.843847    23.294569 
155188000    267.04103    357.17454    190.58768   -187222.81    187281.41    166.58685    23.291532 
155192000    268.28646     208.1862    297.34086   -187252.54    187319.35   -89.154668    23.292948 
155196000    268.80102    420.74973    225.93783   -187289.63    187361.92     194.8119    23.295926 
155200000    248.68214    339.03854     361.0741   -187317.17    187388.11   -22.035557    23.298832 
155204000    278.61589    394.70006     341.6435   -187382.91    187446.25    53.056551    23.293572 
155208000    266.63503    380.55067    237.76291   -187438.34    187500.17    142.78777    23.292565 
155212000    241.89699    291.98133    291.47749   -187467.18    187551.17    0.5038383    23.294863 
155216000    260.65461    488.71055    256.17341   -187527.46    187595.18    232.53714    23.297828 
155220000    257.13561    138.33307    478.44687    -187573.1    187645.72   -340.11379    23.293219 
155224000    271.43081    352.29662    223.40534    -187633.8    187709.94    128.89128    23.287202 
155228000    320.74793    350.93282    251.99259      -187704     187736.8    98.940229    23.295085 
155232000    296.03889    236.92721    294.20617   -187753.83    187818.71   -57.278957    23.297492 
155236000    286.02305    276.08236    350.95644   -187789.26    187849.47   -74.874078    23.298316 
155240000     277.7026    434.40432    352.29698   -187833.04    187904.62    82.107335    23.292106 
155244000    289.40989    191.93407     208.4125   -187881.89    187936.43   -16.478432    23.284486 
155248000    304.54452    346.17035      405.197   -187910.57    187940.74   -59.026644    23.283921 
155252000     302.2619    318.17658    301.66334   -187968.25    188000.57    16.513237     23.28441 
155256000    304.57219    334.11492    458.18907   -187994.18    188039.27   -124.07416    23.281516 
155260000    254.79435    358.93943    243.96812   -188016.46    188084.17    114.97131    23.285812 
155264000    280.63976    446.99221    417.78582    -188077.1    188143.21    29.206397    23.286988 
155268000    277.69648    232.72616    433.54473   -188143.37    188204.62   -200.81857    23.277186 
155272000    271.08748    300.59636    229.76079   -188178.86    188250.84    70.835569    23.280487 
155276000     249.7727    368.38951    205.13826   -188220.39    188301.68    163.25126    23.283731 
155280000    290.17821    450.09202    233.88494   -188250.17    188305.58    216.20709     23.28239 
155284000    265.18527    179.92266    474.75753   -188289.98    188355.71   -294.83487    23.292748 
155288000    262.42658    287.19919     290.6993   -188305.15    188377.08   -3.5001168    23.299683 
155292000    256.69712    239.99564    236.62367   -188300.67    188394.62    3.3719633    23.302455 
155296000    268.91472    236.84565    292.55811   -188315.85     188398.2   -55.712453    23.307068 
155300000    292.99071    400.25819    327.22432   -188352.49    188408.59    73.033874    23.303523 
155304000    260.39038    412.56728    382.14651   -188384.91    188470.09    30.420773    23.302446 
155308000    274.67326    335.77125    170.60596   -188445.66    188522.15    165.16528    23.298096 
155312000    287.54387    389.81951    368.36202   -188496.02    188570.26    21.457493    23.299561 
155316000    288.71222    385.93655    220.71902   -188539.78    188611.06    165.21753    23.301798 
155320000    272.40233    385.41538    297.40275   -188602.35    188682.83    88.012633    23.303535 
155324000    298.09348    511.13149    286.77847   -188675.09    188736.74    224.35301    23.307558 
155328000    293.68597    336.36991    311.51484   -188712.24    188766.96    24.855067    23.310951 
155332000    286.15638    405.98636     264.7472   -188728.36    188800.69    141.23915    23.321771 
155336000    292.57106    454.54755    322.98112   -188759.61     188819.6    131.56643    23.325547 
155340000    300.21353    184.62683    389.51364   -188782.22    188836.98   -204.88682    23.327904 
155344000    285.72763    238.31929    274.14001   -188835.18    188892.13   -35.820711    23.325231 
155348000    304.49585    469.44596    382.67702   -188840.21    188888.46    86.768935    23.322631 
155352000    271.62406    335.40691    286.40174   -188862.07    188943.49    49.005168    23.324399 
155356000    307.24621    419.51212     311.9581    -188930.4    188983.31    107.55402    23.321751 
155360000    306.40577    401.91866    404.83603   -188973.02    189025.97   -2.9173662    23.320001 
155364000     274.3216    354.52594    376.21238   -188983.18    189053.38   -21.686439    23.326873 
155368000    297.73372    398.16355     238.6728   -189021.76    189086.73    159.49075    23.331844 
155372000    284.04217    398.44907    206.48511   -189062.73    189125.13    191.96396    23.330384 
155376000    289.74721    292.78361    364.86189   -189102.35    189146.38   -72.078278     23.32627 
155380000    295.93184    224.12425    350.69406   -189136.77       189184   -126.56982     23.32821 
155384000    280.86143    361.48318    263.17003   -189154.91    189226.41    98.313147    23.324451 
155388000    287.97371    303.96215    320.24124   -189181.61    189237.57   -16.279085    23.319625 
155392000    249.00198    287.96384    233.43495   -189196.02    189289.98     54.52889    23.317434 
155396000    304.70186    249.04123    547.70398   -189247.59    189285.39   -298.66274    23.318131 
155400000    284.97414     285.1329    341.92093   -189294.25    189345.26   -56.788032    23.317615 
155404000    277.17492    205.94014    240.16717   -189352.96    189404.37    -34.22703    23.314909 
155408000    258.86862    227.33739    456.22046    -189398.2    189454.45   -228.88307    23.318872 
155412000    296.47326     260.5339    276.61315   -189471.55    189502.05   -16.079248    23.317814 
155416000     278.1838    290.10948    290.47761   -189463.92    189535.05  -0.36813481    23.318858 
155420000    280.46995    326.75605    206.12732   -189514.19    189565.02    120.62872    23.317628 
155424000    291.85777    228.92832    252.28772   -189522.64    189596.72   -23.359404    23.316297 
155428000    261.84577    549.41704     205.3233   -189585.94    189654.11    344.09374    23.318363 
155432000    294.53336    367.89586    281.13853   -189600.48    189656.27    86.757326    23.315326 
155436000     280.2656    316.83615    340.58243   -189653.61    189711.01    -23.74628     23.31797 
155440000    277.00065    349.44862    261.19532    -189690.4     189766.6    88.253297    23.310591 
155444000    274.04893    330.72097    439.36048   -189760.78    189826.96   -108.63951     23.30628 
155448000     294.1951    520.04222    384.48652   -189784.77    189826.88     135.5557    23.312402 
155452000    295.66277    278.98086    409.51266   -189823.06    189863.28    -130.5318    23.308483 
155456000    298.61042    290.83001    363.68378   -189852.73    189921.07   -72.853773    23.312183 
155460000    280.88574    361.35117    388.87329   -189885.73    189952.91   -27.522125    23.313274 
155464000    276.06466    450.99072    291.06024    -189908.9    189984.46    159.93048    23.311822 
155468000    257.45092    400.96274    234.17661   -189944.97    190037.39    166.78613    23.311411 
155472000    281.95393      249.456    303.77906   -190029.55    190093.62   -54.323053    23.313121 
155476000    286.41393    383.28637    195.59094   -190076.67     190154.1    187.69544    23.317024 
155480000    279.61067     325.8751    523.51496    -190115.2    190175.35   -197.63986    23.317501 
155484000    282.80444    435.99135    333.71367    -190169.3    190226.35    102.27768    23.321347 
155488000    259.71316    436.07383    505.53411   -190200.66     190259.8   -69.460278    23.320942 
155492000    277.83564    363.44143    239.87726   -190228.59    190293.98    123.56417    23.317738 
155496000     272.3008    344.90905    421.17108   -190293.44    190343.64   -76.262027    23.322772 
155500000    311.06065    304.81156     260.7537   -190364.57     190408.4    44.057861    23.328993 
155504000    290.61769    307.56319    334.46215   -190407.68    190470.87   -26.898958    23.332527 
155508000     298.8575    346.47733    404.19065   -190466.46    190505.36   -57.713318    23.338401 
155512000    251.03645    191.05358     206.7782   -190489.63    190564.32   -15.724624    23.329882 
155516000    299.39743    474.20031     434.3169   -190553.01     190597.8    39.883414    23.329749 
155520000    269.38741    337.76833    152.10554   -190605.55    190662.79    185.66279    23.329781 
155524000    247.37478    318.83696    398.25065   -190642.04    190729.35   -79.413692    23.332668 
155528000    269.70808      457.752    232.40436   -190725.35    190804.55    225.34763    23.329794 
155532000    289.47199    434.54046    372.88158   -190747.13    190805.16    61.658871    23.331205 
155536000    268.27257    267.32428    296.83634   -190767.63    190837.37   -29.512054    23.329144 
155540000    294.49156    348.91192    376.30376   -190812.94    190869.29   -27.391838     23.31948 
155544000    280.26021    532.65588    368.16969   -190866.94    190923.84    164.48619    23.322692 
155548000    261.83784    350.48688    334.85272   -190921.99    190986.52    15.634157    23.318653 
155552000    270.86847    382.10712    245.55873   -190974.78    191044.85     136.5484    23.311467 
155556000    292.88574    631.00171    250.19265   -191038.61     191088.4    380.80906    23.308667 
155560000    283.87244    271.42651    312.60378   -191074.65    191136.04   -41.177263    23.310725 
155564000    275.70685    390.19131     259.3601   -191130.41    191194.67     130.8312    23.306125 
155568000    266.63941    319.75106    227.73927   -191139.81     191226.4    92.011795    23.300284 
155572000    310.76095    447.16427    276.07377   -191204.45    191238.34    171.09051    23.300299 
155576000    290.11611    258.28747    340.85008   -191233.86    191287.22   -82.562603    23.298532 
155580000    255.88482    253.84632    234.61428   -191258.98    191338.47    19.232039    23.303818 
155584000    262.30255      342.504    334.86019   -191302.29    191389.69    7.6438145    23.301931 
155588000     289.1868     375.2837    365.24979   -191349.12    191418.44    10.033918    23.303534 
155592000    292.21307    207.51034    340.92053    -191372.5    191439.92   -133.41019    23.296121 
155596000    303.15661     324.3204    285.11684    -191406.2     191453.8    39.203561    23.299149 
155600000     283.9372    236.40823    338.12829   -191381.01    191444.02   -101.72006    23.296711 
155604000    274.63763    377.56502    407.63313    -191417.1    191481.64   -30.068104    23.295874 
155608000    308.27952     390.3041      353.367   -191454.35    191499.41    36.937097    23.286209 
155612000    320.11503    446.44903    362.25338   -191501.58    191547.26    84.195645    23.282836 
155616000    271.83231    347.63373    257.83232   -191538.96    191618.34    89.801402     23.27462 
155620000    306.20277    522.70018    539.80291   -191581.94    191610.62   -17.102727    23.269587 
155624000    261.54121    200.19153    250.92524   -191610.63    191683.01   -50.733715    23.267844 
155628000    297.63509    297.73933    285.30517   -191703.27    191762.78    12.434156    23.264201 
155632000    258.23082    262.38842    210.20499    -191744.9    191795.38    52.183437    23.266162 
155636000    287.31652    316.68871    368.17317   -191807.73    191856.77    -51.48446    23.266158 
155640000    305.00869    397.66237    290.52534    -191854.8    191912.45    107.13703    23.266293 
155644000    288.83951    369.08663    383.28376   -191880.42    191934.25    -14.19713    23.258323 
155648000    273.88445     493.9929    329.16563   -191924.84    191981.13    164.82727    23.260938 
155652000    296.27611    322.06779    354.60297    -191999.1    192037.26   -32.535181    23.262408 
155656000    319.44833      393.291    383.58575   -192036.89    192077.83    9.7052527    23.262887 
155660000    333.83822     470.6958    421.51874   -192079.54    192103.83    49.177061    23.267839 
155664000    296.61346    435.23229    416.41357   -192114.04    192156.48    18.818723    23.272696 
155668000    270.90214    352.38907    347.34486   -192115.98    192184.02    5.0442067    23.270325 
155672000    282.55873    431.34201    371.28531   -192154.62    192210.73    60.056701     23.26852 
155676000    292.77965    412.79569    289.79531   -192194.27    192246.57    123.00038    23.269444 
155680000    274.66181    400.91927    103.15533    -192258.9    192314.02    297.76394    23.271067 
155684000     256.1603    277.23471    208.55181   -192285.77    192364.03    68.682899    23.268884 
155688000     292.1509    244.83359    212.29497   -192312.65    192378.87    32.538629    23.269935 
155692000    262.41473    323.52578    250.57795   -192357.63    192418.14    72.947834    23.273548 
155696000    268.85132    261.57474     299.0999    -192396.2    192453.11   -37.525158    23.266357 
155700000    252.70636    327.52625    182.85752   -192420.71    192494.63    144.66873    23.264312 
155704000    309.47157     344.4724    335.44472   -192469.25    192523.79    9.0276821    23.266387 
155708000    271.71021    470.38158    422.67139   -192497.62     192561.3    47.710189    23.269667 
155712000     261.4791    413.76692    220.16174   -192531.84    192603.41    193.60518    23.273795 
155716000    278.96197    252.84386    333.38902   -192563.06    192630.54   -80.545163    23.267764 
155720000     248.1665    175.93548    224.87588   -192621.23    192703.35   -48.940402    23.274675 
155724000    264.47481    347.07147    354.61581   -192659.26    192738.55   -7.5443311    23.275511 
155728000     299.7015     260.0561    355.51202   -192718.62    192779.45   -95.455923     23.27872 
155732000    277.43157    363.06812    457.96447   -192791.51    192860.26   -94.896346    23.268044 
155736000      242.063     356.3875    336.13096   -192821.84    192895.82    20.256546    23.266021 
155740000    260.71919    415.05001    329.21245   -192852.99    192927.51    85.837562    23.265428 
155744000     312.5212    334.43584    330.06373   -192881.41    192934.16    4.3721109    23.263024 
155748000    279.57684     381.1059     404.9195   -192917.48    192981.75   -23.813606    23.257324 
155752000    283.78667    312.38961    279.91245   -192959.93    193006.88    32.477161    23.262063 
155756000    268.08922    383.23465    309.28228    -192950.3    193029.52    73.952376    23.259975 
155760000    317.64398    342.97392    354.81837   -193026.84    193061.75   -11.844449    23.266466 
155764000    279.27954    369.30096    259.66467   -193058.65    193126.94     109.6363    23.270618 
155768000    278.16021    229.04383    158.60936   -193101.32    193184.22    70.434474    23.271517 
155772000    245.45995    220.45443    341.27884    -193134.5    193214.95   -120.82441    23.262212 
155776000     278.3246    278.54301    406.55755   -193206.42    193265.85   -128.01455    23.257169 
155780000    282.83601    268.57114    291.94643   -193249.11    193297.12   -23.375289    23.258765 
155784000    283.16602    415.74956     490.9332   -193293.63    193363.54    -75.18364    23.261403 
155788000    259.87055    238.03711    397.83888   -193320.32    193402.68   -159.80176    23.255491 
155792000    307.38367     580.9506    412.05407   -193384.77    193442.78    168.89653    23.264579 
155796000    300.48688    337.01647    253.65257   -193401.75    193458.93    83.363902    23.265636 
155800000    250.27002    235.43992    208.32556   -193419.47     193498.2    27.114358    23.268989 
155804000    269.89827    272.22809    275.49464   -193465.56    193550.47   -3.2665462    23.268906 
155808000      260.091    311.06301    323.16256    -193532.6    193612.73   -12.099556    23.273438 
155812000    284.34356    325.76054    353.62955    -193548.3    193627.11   -27.869009    23.269662 
155816000    299.98526    278.84904    322.17529   -193618.46    193665.39   -43.326247     23.26448 
155820000    285.78139     401.0751    379.46952   -193641.25    193708.24    21.605573    23.261787 
155824000    306.26797    499.59653    519.44314   -193677.57    193736.29   -19.846604    23.263418 
155828000    274.69903    405.16547    295.22118   -193688.61    193758.69    109.94429    23.264576 
155832000    300.09688    326.83112    232.33607   -193758.69    193800.84    94.495052    23.266177 
155836000    260.61076    346.65327    292.24419   -193782.18     193854.2    54.409071     23.26372 
155840000    284.00472    311.29424    312.16328   -193818.73    193878.11  -0.86904042     23.26004 
155844000    284.41721     535.0243    258.22801   -193815.84    193897.03    276.79629    23.260145 
155848000    270.42902    317.53632    150.57838   -193857.49    193931.86    166.95794    23.257831 
155852000    284.53548    309.58509    314.38895   -193900.18    193974.06    -4.803859    23.261144 
155856000    306.69149    531.50079    119.00307   -193960.23    194014.14    412.49772    23.264123 
155860000    263.26001    230.69187    273.51865   -193972.61    194043.59   -42.826781    23.265925 
155864000    266.41299    338.47736    264.34755   -194016.06    194081.09    74.129807    23.272986 
155868000    265.87891    279.70959    386.31285   -194034.82    194105.77   -106.60325    23.273731 
155872000    300.60998    366.47125    327.46899   -194068.22    194125.65    39.002255    23.281609 
155876000    259.56702    313.06412     145.3189   -194087.44    194164.53    167.74522    23.280798 
155880000    321.69587    594.81879    332.78783   -194121.39    194178.82    262.03096    23.277307 
155884000    262.75236    519.94392    353.35312   -194148.02    194214.21     166.5908    23.277136 
155888000    279.59116    325.74275    371.96507   -194251.91    194293.54   -46.222322    23.280524 
155892000    339.42412    486.50886    212.95954   -194301.58    194311.92    273.54932    23.280095 
155896000    291.71246    297.40236    287.77529   -194318.75    194352.12    9.6270692    23.281083 
155900000    278.70843    449.78431    216.93823   -194346.75       194413    232.84607    23.281236 
155904000    262.79731    267.91473    276.22292   -194372.67    194451.48   -8.3081959    23.284106 
155908000    322.85821    274.87313    353.98031   -194399.39    194451.05   -79.107185    23.283683 
155912000    304.33688    231.44055    273.69758   -194443.03    194497.49    -42.25703    23.287572 
155916000    268.82452    173.12038    319.71061   -194469.65    194542.25   -146.59023    23.292174 
155920000     293.2138    443.84485    335.89994   -194498.27    194557.24    107.94492    23.294366 
155924000    263.92878     278.2127    400.70097   -194542.12    194613.67   -122.48827    23.292376 
155928000    290.02183    355.28786     221.7618   -194598.16    194671.93    133.52607    23.295953 
155932000    264.44774     309.9022    205.54279    -194633.3    194713.79    104.35941    23.299955 
155936000    297.24661    330.45595    282.39899   -194657.74    194724.98    48.056954    23.298021 
155940000    315.12133    401.28016     540.5165   -194699.14    194744.11   -139.23634    23.292472 
155944000    287.55947    291.32297    175.81221   -194722.92    194790.92    115.51076    23.300826 
155948000    268.65666    272.08805    335.84052   -194787.69    194853.13   -63.752471    23.309922 
155952000      302.172    331.19992    383.65292   -194809.94    194873.34      -52.453    23.307997 
155956000    294.82954      253.574    548.85802   -194814.09    194870.85   -295.28403    23.306731 
155960000    280.46598    286.55064    547.42448   -194834.95    194884.59   -260.87385    23.302166 
155964000    290.89382    343.12122    405.38885   -194870.35    194941.56   -62.267629     23.30529 
155968000    272.55609    451.13439    488.47455   -194914.16    194991.75    -37.34016    23.297131 
155972000    271.88339    408.09406     380.6766   -194922.54       194993    27.417462    23.295845 
155976000    254.33637    465.90634    281.46446   -194969.54     195045.8    184.44188    23.292699 
155980000    286.56388    435.11633    440.39604   -195032.08    195089.32    -5.279706    23.293652 
155984000    330.64909     371.4231    301.85469   -195118.25    195151.56    69.568406     23.28956 
155988000    299.43281    232.74113    304.48444   -195137.24     195187.2   -71.743318    23.292396 
155992000    294.38897    306.45328    651.25312    -195151.3    195201.08   -344.79983    23.290666 
155996000    279.17388    382.80501    258.39211    -195197.2    195240.98    124.41289    23.291219 
156000000    247.70104    220.70009    281.25007   -195249.16    195329.55   -60.549974    23.288807 
156004000    277.46148    421.60989    408.08397   -195296.04    195345.73    13.525925    23.289633 
156008000    266.68902    451.59241     352.5795   -195324.34    195390.59     99.01291     23.28693 
156012000    301.75809    378.75561    155.20905   -195355.39    195408.73    223.54656    23.285495 
156016000    279.76746    218.56192    257.33362   -195364.24    195442.16   -38.771704     23.28181 
156020000    274.90005    325.43006    214.78984   -195397.75    195477.15    110.64021    23.288632 
156024000    289.58525    402.55451    387.73059   -195390.18    195459.82    14.823927    23.284026 
156028000    273.18856    421.82398    384.30404   -195420.93    195508.34    37.519947    23.279717 
156032000    280.91014    415.10388     347.1741      -195455    195531.11    67.929785    23.277066 
156036000    261.02421    263.50912    342.84913   -195513.67    195577.74   -79.340009    23.280792 
156040000    300.33273    233.80096    310.34405   -195562.51     195625.8   -76.543086    23.282422 
156044000    259.94178    380.81634     393.4347    -195607.6     195673.3   -12.618362    23.280143 
156048000    258.52327    259.17594    320.69423   -195614.11    195680.58   -61.518287    23.275125 
156052000    291.54785    276.87448    447.97168   -195617.71    195699.08    -171.0972    23.267848 
156056000    275.64815    403.42735    308.32626   -195693.43    195753.66    95.101091    23.275821 
156060000    263.99228    257.89214    349.06788   -195736.09    195820.17   -91.175734    23.278255 
156064000    253.10189    470.26366    313.81803   -195764.42    195855.65    156.44563    23.279566 
156068000    271.40128    309.13274    311.66562   -195791.85    195874.48   -2.5328856    23.276446 
156072000    273.16506    306.52953    373.91417   -195844.91     195930.7   -67.384643    23.271664 
156076000    285.98735    401.32285    272.94696   -195898.67    195955.62    128.37589    23.274076 
156080000    259.30408    328.46563    277.30362   -195941.84     196014.8    51.162013    23.276329 
156084000    287.28151    560.58314    374.61691   -196009.55    196062.97    185.96623    23.275346 
156088000     273.7201    294.62732    264.54416   -196071.91    196142.75    30.083158    23.275777 
156092000    271.73136    337.17408    325.75365   -196092.83    196163.36    11.420435    23.280521 
156096000    288.23495    281.92612    347.40037   -196128.07     196203.4   -65.474259    23.283607 
156100000    280.97725    600.48901    335.02832   -196146.52    196206.78    265.46069     23.28756 
156104000    263.74173    190.15357    352.20571   -196157.16    196226.64   -162.05213    23.286088 
156108000    286.51341    428.41242    264.16381   -196197.28    196262.53    164.24861    23.279223 
156112000    314.47185    251.72428    562.94845   -196265.43    196312.21   -311.22417    23.275314 
156116000    294.33443    662.29343    341.91487   -196309.27    196374.37    320.37857    23.281029 
156120000    268.43192    312.75662    332.81501   -196373.99    196440.69   -20.058391    23.278426 
156124000    288.65085    344.18636    250.02364   -196420.35    196478.12    94.162713    23.272946 
156128000    300.49788     396.6043    300.60178   -196475.11     196513.2    96.002519     23.27434 
156132000    264.69675    342.45466    396.41416   -196498.94    196576.44   -53.959504     23.27541 
156136000    288.00233    211.84368    290.21942   -196554.13    196609.27    -78.37574     23.27439 
156140000     297.0391    429.80788    410.00474   -196588.13     196645.7    19.803137     23.27378 
156144000    289.78345    252.76562    484.86651   -196631.63    196693.22   -232.10089    23.268537 
156148000    284.96146     458.3457    319.81229   -196700.27    196766.11    138.53341    23.273049 
156152000    274.56901    496.74327    334.97528   -196766.27     196834.3    161.76798    23.270293 
156156000    287.24613    436.65527    362.56827   -196780.21    196843.33    74.087004    23.271608 
156160000    282.87115    270.07659    443.62913   -196797.14    196874.28   -173.55254    23.275348 
156164000    288.72923    468.09457    338.77587   -196812.13     196868.5     129.3187    23.276663 
156168000    239.47909    246.68115     364.5844   -196830.18    196915.69   -117.90325    23.274246 
156172000    308.64755    515.18565    357.66281   -196913.81    196974.17    157.52284    23.282714 
156176000    281.25439    394.49173    159.57195   -196979.83    197033.58    234.91978    23.288792 
156180000    290.45519    252.14384    435.78681   -197026.36    197089.41   -183.64297    23.293377 
156184000    276.10295    353.32305    260.19292   -197038.02    197131.56    93.130138    23.305865 
156188000    260.64012    259.78028    399.15696   -197096.95    197174.73   -139.37669    23.308874 
156192000    271.12374     257.0592    337.32006   -197131.75    197201.01   -80.260866    23.306374 
156196000    264.82869    416.81896     237.5576   -197172.15    197249.84    179.26136    23.306217 
156200000     296.3661    514.34548    344.76046   -197198.67     197260.4    169.58502    23.309455 
156204000     277.8149    295.91834    279.96169   -197235.07     197307.3    15.956652    23.316988 
156208000     310.3778    442.21764    341.19019   -197255.22    197311.41    101.02745    23.321434 
156212000    278.45033    261.27044    388.04256   -197301.36     197349.8   -126.77212    23.324084 
156216000     267.8126    330.17983    281.36472   -197352.59    197434.92    48.815102    23.318369 
156220000    254.57097    362.58091    374.40388   -197389.46    197473.21   -11.822974    23.324152 
156224000     266.6822    220.93297    489.72866   -197447.66    197517.28   -268.79569    23.325298 
156228000    282.46779    289.37904    262.34957   -197505.82    197558.36    27.029467    23.333374 
156232000     288.7263    226.43537    266.12934   -197536.16    197594.21   -39.693972    23.335593 
156236000     294.4728    439.44662    385.96917   -197580.07    197633.17    53.477446    23.333989 
156240000    323.63324    302.67325    529.47763   -197628.89     197673.6   -226.80437     23.33529 
156244000    257.81366    418.52147     312.8395   -197651.58    197732.58    105.68197    23.332847 
156248000    285.80063    295.18741      377.196   -197726.97    197765.82   -82.008589    23.332508 
156252000    297.87713     270.9945    276.61012   -197778.01    197826.22   -5.6156207    23.330723 
156256000    282.69259    370.21291    248.19308   -197786.69    197841.61    122.01983    23.333961 
156260000    271.08285    264.17079     227.8111   -197781.28     197856.9     36.35969    23.332266 
156264000    273.13255    465.11941    293.99669   -197844.73    197908.25    171.12272    23.338562 
156268000    280.98391    312.30528    256.06484   -197886.75    197959.88    56.240441     23.34179 
156272000    275.20795    406.85874    212.33804   -197898.64    197975.27     194.5207    23.349724 
156276000    259.01409    342.30246    164.33687   -197953.51    198037.04    177.96559    23.354117 
156280000    281.65415    358.74227    218.47234   -197990.42     198066.3    140.26993    23.352449 
156284000    276.17166    306.45443    373.22759   -198008.81    198085.47   -66.773168    23.357828 
156288000    260.63702    214.08064    273.32675   -198040.56    198120.85   -59.246108    23.351126 
156292000    265.64077    309.06167    292.81772   -198060.47    198133.22    16.243946    23.351577 
156296000    272.23703    391.19379    400.79558   -198139.53    198200.75   -9.6017916    23.359756 
156300000    268.82688     165.2011    389.04846   -198182.36    198259.27   -223.84735    23.357242 
156304000    285.31503    435.49269    316.55845   -198225.82    198289.84    118.93425    23.360014 
156308000    254.37928    352.51762    219.06696   -198233.58    198311.26    133.45066    23.366464 
156312000    273.54242    459.65274    431.24424   -198278.44    198361.03    28.408504    23.368658 
156316000    260.73628    148.57287    289.59545   -198338.94    198419.64   -141.02258      23.3727 
156320000    278.74585    336.14799    162.77406   -198406.47    198473.14    173.37392    23.368636 
156324000    288.49262    350.20512    536.26252   -198418.06    198495.62    -186.0574    23.363798 
156328000    253.12758    327.32922     246.7837   -198482.34    198555.01    80.545527      23.3636 
156332000    276.84293    306.49412    262.04194   -198521.36    198598.35    44.452184    23.366258 
156336000    262.99776    256.16344     259.7131    -198608.1    198668.27   -3.5496621    23.369911 
156340000    282.29161    436.10843    318.73772   -198635.71    198701.56    117.37071    23.373338 
156344000    284.07244    168.65554     386.5579   -198658.77     198718.9   -217.90236    23.373714 
156348000    322.65916    538.50442    392.59669   -198729.18    198785.14    145.90773    23.376213 
156352000    283.14399    288.65734    292.35445   -198784.88     198842.6   -3.6971163    23.375935 
156356000    273.44007    545.61401    248.82998   -198787.82    198835.16    296.78403    23.376736 
156360000     299.5754    344.88264    359.64808   -198825.46    198902.87   -14.765441    23.368832 
156364000    287.98348    336.26436    284.35194   -198879.85    198933.19    51.912412    23.371311 
156368000    292.71488    232.10863    286.21155   -198919.93    198938.54   -54.102922     23.36092 
156372000    272.92391     450.1569    263.93439   -198978.61    199024.72    186.22251    23.362335 
156376000    290.38575    585.53286    362.62436   -199019.93    199089.25    222.90849    23.369191 
156380000    270.19641    400.59584     264.7914   -199056.42    199129.92    135.80445    23.371381 
156384000    293.31673    463.08347    311.50901   -199108.16     199148.5    151.57445    23.374485 
156388000    270.69429    145.59627    240.75799   -199118.05    199199.79   -95.161723    23.376568 
156392000    279.58832    416.42116    355.70882   -199149.06    199215.75    60.712342    23.375483 
156396000     252.7761    207.35158    198.09581   -199180.85     199272.4    9.2557698    23.382935 
156400000    280.69924    301.85461    318.95688    -199241.3    199312.21   -17.102271    23.378386 
156404000    305.57929     554.6947    346.80397   -199272.08    199341.31    207.89073    23.382142 
156408000    322.27226    452.34324    416.00192   -199293.28    199333.84    36.341327    23.381631 
156412000    282.96408     311.9917     355.5673   -199351.87    199393.31   -43.575593    23.384654 
156416000    257.59661     352.6268     164.7026   -199420.79    199500.19     187.9242    23.382303 
156420000    288.75024    436.22359    464.55284   -199501.64    199570.45    -28.32925    23.382859 
156424000    243.27171    161.45201    326.52463   -199528.37    199618.23   -165.07262    23.385112 
156428000    295.38843    301.42324    325.19752   -199564.21    199613.92   -23.774277    23.386716 
156432000    292.62442    278.06603    366.25844   -199608.07    199666.79   -88.192409    23.382402 
156436000    270.86158    398.85013    342.69732   -199638.79    199706.46     56.15281    23.383286 
156440000    277.97821    382.03366    265.73625   -199675.35    199765.82    116.29741     23.38781 
156444000    267.47152    321.22669    405.14155   -199716.49    199779.25   -83.914865      23.3903 
156448000    268.74476    490.51093     196.5228   -199754.02    199812.26    293.98812    23.389089 
156452000    255.30335    212.52986    269.90065    -199745.4    199816.51   -57.370787    23.388867 
156456000    268.23304    269.19659     256.3381   -199801.99    199858.27     12.85849    23.395648 
156460000    321.54768    501.06833    329.58657   -199847.47    199885.65    171.48176    23.399087 
156464000    293.32776    300.43707    385.34977   -199839.92    199912.83   -84.912699      23.3977 
156468000    291.73465    288.42521    407.66651   -199905.11    199961.98   -119.24131    23.399988 
156472000    277.40834    278.97158    232.93043   -199947.38     200000.1    46.041149    23.396651 
156476000    287.39814    435.39324    235.49088   -199980.28     200039.6    199.90235    23.397093 
156480000    259.23913    354.94521    278.06392   -199999.02    200069.06    76.881296    23.395914 
156484000    329.62643    367.13101    290.19645   -200077.44    200109.33    76.934553    23.394071 
156488000    306.75825    505.62286    386.38214   -200121.25    200175.95    119.24072    23.394267 
156492000    283.43222    348.13249    220.67003   -200147.92    200205.86    127.46246    23.389927 
156496000    270.12607    461.70213    348.53909   -200147.98    200223.44    113.16303    23.400572 
156500000     293.7844    308.58777    321.77934   -200171.57    200222.72   -13.191578    23.400286 
156504000    281.87731    308.92259    238.25583    -200180.1    200233.31    70.666759    23.401539 
156508000    283.74478    395.99786    377.38267   -200207.42    200271.93    18.615187    23.405332 
156512000    273.74366    427.99078    163.49869    -200269.2    200333.19     264.4921    23.405404 
156516000    273.64101    349.50124    278.34003   -200291.26    200361.58    71.161212    23.405048 
156520000    277.25193    264.62973    627.59014   -200319.17    200389.33   -362.96041     23.40676 
156524000    288.83656     335.5815    459.44114   -200371.44    200446.46   -123.85964    23.405825 
156528000     268.0315    314.64032    195.40544    -200408.6    200479.61    119.23488     23.40678 
156532000    289.09387    298.91744     282.9669   -200443.36    200511.92    15.950542    23.403968 
156536000    284.80444    412.43585    440.89105    -200471.6    200538.57   -28.455201    23.395925 
156540000    299.09243    448.76837    299.32356   -200473.62    200524.53    149.44482     23.38984 
156544000    268.53991    313.77219    398.36343    -200487.9    200565.31   -84.591239    23.389752 
156548000    301.69405    325.88414    315.12167   -200537.16    200601.85    10.762473    23.384546 
156552000    277.94019     323.1429    233.20793   -200554.93    200631.72    89.934973    23.378965 
156556000     292.0018    441.76491     229.2538   -200563.69    200614.46    212.51111    23.378476 
156560000    284.99001     295.7139     261.1557   -200602.19    200661.07    34.558202    23.375647 
156564000    273.04612    480.98068    369.81649   -200643.54    200710.53    111.16419    23.370476 
156568000    283.42722    381.32746    313.99796   -200661.37    200733.81    67.329503     23.37129 
156572000    275.79539    219.85632     180.9072   -200713.58     200769.5    38.949123    23.378472 
156576000    301.27773    211.51521    349.39143   -200737.62    200779.65   -137.87622    23.377308 
156580000    277.70099    147.08542    289.22877   -200768.94    200838.31   -142.14335    23.375139 
156584000    330.60887     357.8753    429.89869   -200835.68    200872.21   -72.023396    23.370293 
156588000     296.2762    379.67242    303.98402   -200887.83    200948.33    75.688406     23.37791 
156592000    269.48732    344.18094     331.4953    -200903.2    200985.58    12.685643    23.378332 
156596000    298.24617    242.45389    304.69186   -200940.33    200989.98   -62.237964    23.376127 
156600000     308.6768    421.38455    445.67296   -200975.85       201030   -24.288413    23.376619 
156604000    280.49325    411.68979     177.9666   -201000.26    201065.16    233.72319     23.37693 
156608000     263.3296    514.58418    374.29474   -201045.82    201124.74    140.28944    23.378898 
156612000    291.08456    483.40002    365.82136   -201097.36    201162.23    117.57866    23.382511 
156616000    311.71306    166.35854    362.36151   -201142.58    201188.28   -196.00297    23.377855 
156620000    308.43775    706.60978     362.0658   -201156.61    201214.96    344.54398    23.383669 
156624000    280.00986    358.37727    179.07161   -201181.02    201253.52    179.30566    23.386734 
156628000    269.39594    270.83872    270.45664   -201170.75    201266.66   0.38208652    23.383443 
156632000    285.13268    506.56507    370.68928   -201251.73    201304.09    135.87579    23.387932 
156636000    289.94611    468.15146    358.53054   -201300.51    201367.22    109.62092    23.384441 
156640000    263.85702     435.7622    158.36778   -201337.19    201417.67    277.39442    23.383416 
156644000    284.75402    404.62566    230.98809   -201370.17    201439.87    173.63757    23.384483 
156648000    274.25804    321.13483    369.67411   -201418.36     201491.8   -48.539279    23.382505 
156652000    307.23527    306.86953    446.56475   -201499.11    201560.88   -139.69522    23.377184 
156656000    285.62638    348.60386    463.20172   -201538.33    201602.13   -114.59785    23.377599 
156660000    272.09528    250.07918    336.72333    -201543.2    201623.74   -86.644151    23.373264 
156664000    295.45751    406.19651    397.25242   -201597.44    201671.42    8.9440876    23.373376 
156668000    274.25557    436.40588    253.75837   -201620.67    201698.68    182.64751    23.375703 
156672000     278.9157     263.3249    179.57867   -201647.63    201702.12    83.746229    23.370424 
156676000    281.06228    265.49067    361.58674   -201671.06    201735.65   -96.096068    23.374665 
156680000    273.18153    337.00907    340.29899   -201696.86    201755.91   -3.2899191     23.37715 
156684000    286.41812    405.69528    352.43484    -201756.7    201823.37    53.260435     23.37867 
156688000    277.46832    412.57032    275.53669   -201797.84    201854.42    137.03362    23.379819 
156692000    284.20636    279.50043    424.96126   -201833.63    201887.11   -145.46083    23.374967 
156696000    279.64743    553.52578     313.8416   -201862.57     201937.9    239.68417    23.373399 
156700000     282.2258    352.52984    268.63414   -201905.29    201969.78    83.895704     23.37373 
156704000    276.37755    322.93777    424.58995   -201956.11    202005.97   -101.65218    23.376952 
156708000    279.81216    247.53128    269.79751   -201963.64    202019.21   -22.266234    23.378786 
156712000    304.87848    505.08813    287.08756    -201990.4    202038.49    218.00057    23.374318 
156716000    276.54971    299.79678    350.23296   -202048.79    202117.35   -50.436185    23.374343 
156720000    282.95046    394.86274     328.0721   -202094.65     202158.5    66.790647    23.377004 
156724000    282.45036    401.41205    257.76617   -202169.33    202235.74    143.64588    23.377903 
156728000    295.68801    443.38944    356.72238   -202209.72    202282.84    86.667068     23.37539 
156732000    321.57001    443.02038    264.86458   -202306.68    202345.54     178.1558    23.372312 
156736000    284.08969    255.72588    370.31203   -202360.35    202422.28   -114.58615    23.369724 
156740000    287.61308    377.55045    424.55837   -202385.31    202446.81   -47.007921    23.364167 
156744000    301.97174    222.38301    380.07172   -202410.44     202471.4   -157.68872    23.359733 
156748000    283.90935    386.57517    457.97478   -202452.47    202504.49   -71.399606    23.358838 
156752000    274.62883     347.8245    313.54938   -202486.04    202564.97    34.275122    23.363854 
156756000    282.43403    347.74309    314.70571   -202527.35    202581.35    33.037378    23.361199 
156760000     273.6112    512.52793    214.99959   -202579.44    202647.89    297.52834    23.368569 
156764000    251.28989    309.14989    246.76989    -202593.7    202680.41    62.380001    23.368564 
156768000    279.17017    394.24347    285.59939   -202643.99    202709.33    108.64409    23.368895 
156772000    298.45483    342.38698    347.20055   -202678.62    202737.22   -4.8135704    23.373004 
156776000    295.99477    495.20076    287.85162   -202710.49     202760.2    207.34914    23.372461 
156780000    305.86234    216.26796    390.10471    -202728.8    202774.96   -173.83675     23.36999 
156784000    272.27888    381.99228    383.74953   -202742.39     202812.6    -1.757249    23.373551 
156788000    295.43486    326.42933    273.38098   -202768.94    202836.78    53.048346    23.373421 
156792000    304.98349    290.67373    389.06963   -202839.99    202889.34   -98.395897    23.377526 
156796000    276.49021    180.61011    347.69074   -202883.04     202949.8   -167.08064     23.37664 
156800000    269.09627    315.98063    347.50168   -202911.64    202984.71   -31.521053    23.379251 
156804000    268.17624    276.34248    231.69577   -202954.65    203031.72    44.646711    23.378839 
156808000    290.89794    311.33177    282.14199   -203002.93    203078.99    29.189784    23.379352 
156812000    290.37637    478.97492    403.59918   -203034.93    203102.07    75.375742    23.382324 
156816000    244.57987    339.59642     235.9243   -203075.39    203166.72    103.67212    23.384173 
156820000    267.60115    345.58323    287.40481   -203111.14    203206.17    58.178419    23.383453 
156824000    241.50624    316.64147    181.70739   -203134.78    203239.48    134.93408    23.380973 
156828000    287.83235    316.67844    381.50549   -203185.93    203249.04   -64.827052    23.375036 
156832000    275.65389    341.47779    340.78157   -203218.43    203280.48   0.69621827    23.374186 
156836000    256.61663    275.17701    341.92637    -203268.1    203333.01   -66.749361    23.373741 
156840000    286.27515    515.89297    353.54264   -203315.08    203377.81    162.35033    23.373613 
156844000    261.52013    351.86661    325.94181   -203341.01    203413.08      25.9248    23.375801 
156848000     275.2481    360.92445    335.14432   -203366.47    203427.08    25.780131    23.383643 
156852000    255.80223    244.82214    145.91322      -203422    203516.07    98.908922    23.385257 
156856000    287.13823    546.67219    340.53159   -203469.37    203525.09     206.1406    23.387503 
156860000    261.58082    229.49961    348.28753    -203450.4     203540.2   -118.78793    23.383622 
156864000    274.48374    428.66981    285.88916   -203497.89    203579.69    142.78066    23.386953 
156868000    253.72027    220.03896     379.6634   -203516.34    203590.18   -159.62444    23.394253 
156872000    284.51759    388.45237    416.06802   -203572.39    203640.61   -27.615657    23.399819 
156876000    276.49363     476.6616    180.43312   -203597.78    203665.35    296.22848     23.39695 
156880000    275.40566    366.06727    260.76934   -203612.12    203692.11    105.29793    23.402503 
156884000    256.89942    367.98358    370.81344   -203663.37    203755.22   -2.8298651    23.404928 
156888000     292.1048    410.24391    478.92321   -203710.43    203763.54   -68.679294    23.408101 
156892000    268.73987     308.1812    411.22008   -203727.45    203811.96   -103.03888    23.410056 
156896000    257.56717    308.51513    271.58587   -203800.64    203878.58    36.929261    23.409064 
156900000    317.17603    363.74913     493.1038   -203858.02    203910.58   -129.35466    23.407839 
156904000    296.11379    345.25936    347.26454   -203901.91    203969.23   -2.0051798    23.409347 
156908000    273.60242    362.00826    362.81631   -203950.54    204021.16  -0.80804951    23.413239 
156912000    257.15031    458.99617    256.00734      -203990    204087.48    202.98883    23.414907 
156916000    284.54344    521.04153    298.16834   -204069.02    204145.46    222.87319    23.413143 
156920000    264.17321     348.7066     267.4292   -204092.02    204195.07    81.277395    23.411725 
156924000    289.06672    417.45955    284.02493   -204129.76    204200.35    133.43462    23.413629 
156928000     297.1271    801.43819    190.70573   -204160.62     204241.9    610.73246    23.417291 
156932000    275.75776    299.03299    283.83608   -204209.34    204280.59    15.196916     23.41799 
156936000    284.00215    574.35098    424.66225   -204217.53    204304.15    149.68874    23.419123 
156940000    269.11092    421.80207    310.09922   -204247.18    204344.94    111.70285    23.422598 
156944000    263.55315    406.47411    394.45506   -204263.37    204335.85    12.019044    23.425639 
156948000    263.76387    305.30286    340.99289   -204307.39    204385.22   -35.690033    23.432398 
156952000    264.06164    304.44729    163.32721   -204352.12    204433.68    141.12008    23.437969 
156956000    326.48047    519.34808    265.47355   -204454.31    204493.84    253.87454     23.44217 
156960000    261.07675    228.67617    333.49578   -204459.65    204532.21   -104.81962    23.438273 
156964000    283.49058    249.67715    405.30709   -204484.38    204544.04   -155.62994     23.43472 
156968000    293.68274    293.15306    408.73627   -204547.98    204584.24   -115.58321    23.431088 
156972000    302.88902    287.62573    396.39788   -204600.38     204641.1   -108.77215    23.435877 
156976000    288.87059    267.14641    495.29013   -204627.69    204705.39   -228.14372    23.434361 
156980000    293.00129    370.76687    514.54448   -204657.49    204723.21   -143.77761    23.430299 
156984000     285.6524     316.0721    246.51065   -204720.38    204799.36    69.561442    23.429215 
156988000    305.40678    539.23187    349.08152   -204825.74    204877.41    190.15035    23.430357 
156992000    274.56861    473.65257    346.13049   -204873.13    204936.89    127.52208    23.434362 
156996000     286.6284    365.97472    329.02242   -204932.44    204984.47    36.952299    23.428449 
157000000    264.83852    293.17878    199.89797   -204956.39    205040.53    93.280807      23.4256 
157004000    281.26551    430.72206     155.5835    -204989.9    205065.98    275.13856    23.418727 
157008000    276.51746    267.16782    336.26516   -205038.04    205097.33   -69.097337    23.412008 
157012000    264.37435    288.54025    327.62175    -205092.7    205172.11   -39.081498    23.412819 
157016000    275.21891    277.75365    342.69401   -205162.55    205222.17   -64.940359    23.413345 
157020000     256.4751    215.81758    217.97585   -205203.54    205273.22   -2.1582743    23.414032 
157024000    294.83584    237.24522    237.89819   -205272.34    205310.17  -0.65296867    23.414874 
157028000    264.14875    243.36835    305.37259   -205319.41    205378.85   -62.004239    23.413348 
157032000    256.84588    417.53822    170.49248   -205335.02    205418.28    247.04574    23.412172 
157036000    272.57208    308.57582    451.73468   -205401.18    205464.74   -143.15886    23.408494 
157040000     271.9584    164.23369    285.32221   -205438.87    205497.77   -121.08853     23.40586 
157044000    257.07613    220.47296    292.98964   -205492.11    205571.96   -72.516686    23.405085 
157048000    286.90331    429.23548    309.13881   -205526.22    205587.42    120.09666    23.403214 
157052000    324.92987     369.9207    340.06253   -205578.93    205620.95    29.858164    23.410899 
157056000    273.27313    282.54923    164.84991   -205616.42     205682.7    117.69932    23.410457 
157060000    281.83562    222.58864    323.75262   -205685.59    205748.77   -101.16398    23.410012 
157064000    332.86548    468.29804    422.12017   -205783.48    205822.92    46.177874    23.413037 
157068000    283.19497    479.09506    320.96072   -205801.14    205862.21    158.13433    23.411281 
157072000     275.0539    266.76986    337.37261   -205821.89     205900.2   -70.602752    23.422539 
157076000    274.88728    446.67862    332.27388   -205909.43    205972.42    114.40474    23.427318 
157080000    259.41965    222.33942    305.78664   -205993.13    206057.75   -83.447227    23.419094 
157084000    266.43011    493.05525    266.72804    -205981.6    206070.44     226.3272    23.421602 
157088000    286.43454    388.67677    322.85783   -206029.83    206100.27    65.818939    23.425465 
157092000    301.25368    252.76137    493.57588   -206054.32    206097.19    -240.8145    23.420344 
157096000    288.35707    335.23907    216.78126   -206087.16    206146.21    118.45781    23.420321 
157100000     292.5901    380.48188    446.21594   -206154.05    206211.04   -65.734066     23.42198 
157104000    280.20696     217.3787    251.08425   -206189.52    206261.89    -33.70555    23.421628 
157108000    267.93136    256.85791    404.54549   -206247.62    206312.21   -147.68758    23.418796 
157112000    240.79332    248.39256    347.23567    -206288.8    206375.54   -98.843112    23.427631 
157116000    286.37364     585.8454    265.36414   -206330.34     206392.4    320.48126    23.429302 
157120000    265.71522    206.30064     204.2425   -206374.58    206436.56    2.0581381    23.425508 
157124000    292.15357    289.67884     195.1463   -206391.94    206459.36     94.53254     23.42218 
157128000    318.21068    449.09988    329.85464   -206406.86    206475.07    119.24524    23.420191 
157132000    315.87824    357.70661    373.93059   -206433.34    206477.21   -16.223975     23.41848 
157136000    302.27609    432.97192    526.10718   -206476.61    206548.05   -93.135258    23.414944 
157140000     266.8518    448.32218    363.99641   -206516.48    206607.62    84.325775    23.420076 
157144000     282.2012     247.1124    301.80128   -206572.68       206640   -54.688879     23.42562 
157148000    304.60309    261.61022     321.4399   -206595.71    206659.04   -59.829681    23.420435 
157152000     277.0713    369.76881    359.52563   -206636.91    206700.52    10.243185    23.426219 
157156000    295.91456    430.94839    321.87435   -206637.05    206677.05    109.07403    23.414189 
157160000    282.03334     258.0247     300.5068   -206642.72    206714.25   -42.482103    23.413731 
157164000    279.16511     331.1015    267.82744   -206687.88     206753.1     63.27406    23.415218 
157168000    261.50274    429.18012    383.06332   -206714.91    206787.55      46.1168     23.41754 
157172000    283.88144    330.73556    199.72733   -206765.63    206843.82    131.00823    23.416972 
157176000    274.68124    322.91041    164.67841   -206803.07    206866.31    158.23199    23.415352 
157180000    283.71033    226.26611     257.2184   -206808.33    206872.37     -30.9523    23.417679 
157184000    279.74661    378.95051    313.39071   -206865.55    206939.62    65.559804    23.416254 
157188000    268.69236    246.49313    314.02045   -206924.91    207001.89   -67.527322    23.419158 
157192000    278.77793     349.0387    324.20085   -206949.29    207013.44    24.837849    23.421439 
157196000     296.1461    265.34777    351.97562   -206961.72    207020.16   -86.627856    23.425901 
157200000    275.88253    304.69716    206.93151   -206989.27    207060.88     97.76565    23.423267 
157204000    297.56116    331.13747    429.48463   -207042.91    207086.68   -98.347156    23.429727 
157208000    278.66707    374.32062    213.47505   -207095.53    207148.14    160.84557    23.428189 
157212000    293.30087    227.92781    374.91283   -207129.94    207188.14   -146.98502    23.422634 
157216000    286.46375    374.29972     254.1387   -207179.07    207225.67    120.16102    23.421975 
157220000    317.20699    287.85173    191.67119   -207212.69    207261.96    96.180546     23.42287 
157224000    298.41965    428.52544    460.09241   -207274.43    207324.27   -31.566966    23.418747 
157228000    266.06186    347.23475    311.70494   -207286.55    207346.07    35.529813    23.421659 
157232000      276.143    323.77548    402.46341   -207360.01    207429.91   -78.687928    23.422876 
157236000    278.58847    306.47424     307.9871   -207406.18    207482.74   -1.5128521    23.423477 
157240000    290.26393    402.85867    253.68175   -207447.54    207505.44    149.17692    23.427918 
157244000    294.96794    358.14691    272.60818   -207482.06    207548.77    85.538731    23.423939 
157248000    304.95703    395.50105    473.13593    -207534.2    207584.55   -77.634879    23.424265 
157252000     278.0776      346.505    256.91531    -207579.1    207640.17    89.589682    23.424732 
157256000    299.87706    284.35015    422.30643   -207640.47    207697.16   -137.95628    23.419372 
157260000    285.34829    297.49015    291.19006    -207682.6    207743.42    6.3000897    23.417992 
157264000    269.83807    242.02383    248.34047   -207702.22    207770.71   -6.3166442     23.41549 
157268000    284.31922    273.68509    348.66522   -207738.25    207794.07   -74.980132    23.413214 
157272000    253.41729    202.22059    317.01721   -207761.12    207840.24   -114.79662    23.413394 
157276000    249.58971    321.43604    339.15172   -207778.96    207881.71   -17.715682    23.410226 
157280000    292.65353    328.75688    372.46861   -207828.74    207887.98   -43.711731    23.414759 
157284000    301.32926    213.01549    266.66854   -207884.82    207947.13   -53.653054    23.414056 
157288000     292.1485    274.95094    308.61488   -207898.36    207954.21   -33.663944    23.409507 
157292000    286.07234    330.29384    344.50842   -207901.22    207965.61   -14.214583    23.404977 
157296000    256.29555    300.49014    290.46815   -207892.62    207970.95    10.021986    23.401711 
157300000    277.35596    357.02284    298.67393   -207903.08    207973.47    58.348906    23.398219 
157304000    287.86027    377.46802     235.6263    -207966.3    208034.22    141.84172    23.400098 
157308000    295.87485     311.9118    351.55399   -207995.18    208044.89   -39.642186    23.400495 
157312000    269.31904    245.22817    351.62513   -208021.65    208100.99   -106.39696     23.39705 
157316000     293.8408    383.78156    300.91354   -208036.81    208099.37    82.868013    23.390953 
157320000    305.17971    528.51669    393.13538   -208079.09    208158.43    135.38131    23.393201 
157324000    303.87979    233.26701     305.0225   -208120.65    208167.34   -71.755484    23.398292 
157328000    301.79722    303.20049    319.06413   -208150.53    208209.44   -15.863643    23.396728 
157332000    271.80114    256.81166    331.75118    -208178.1    208236.79   -74.939529    23.398858 
157336000     238.9323    176.33516    152.38337   -208184.86    208284.77    23.951792    23.400185 
157340000    274.57249     281.5481      300.086   -208218.57    208306.49   -18.537895    23.395299 
157344000    280.69181    356.83955    257.72908   -208263.27    208319.17    99.110468    23.391977 
157348000    303.60052    562.61955    386.91164   -208339.97    208373.94     175.7079    23.390987 
157352000     291.9048    336.73001    400.89033   -208394.47    208443.75   -64.160324    23.384218 
157356000    311.35143    261.80207    314.29055   -208445.47    208489.21   -52.488483    23.381738 
157360000    269.73318    328.41788    186.04134   -208472.12    208549.93    142.37654    23.378754 
157364000    285.45628    351.70337     248.5038   -208540.05    208606.56    103.19958    23.379575 
157368000    297.10259    540.51991    325.77701   -208559.03    208623.61     214.7429    23.379737 
157372000    283.11384    374.15709    155.85617   -208607.73    208688.76    218.30092    23.375441 
157376000    287.32413    408.69503    359.55346   -208674.25    208739.91    49.141571    23.368787 
157380000    289.96776    481.37595    321.47573   -208714.95    208785.14    159.90022    23.368401 
157384000    301.59331    398.43262    294.12189   -208757.01    208813.13    104.31074    23.370218 
157388000    272.47179    269.91424    410.18837   -208796.47    208854.27   -140.27414    23.365463 
157392000     266.7405    361.17372     279.0068   -208848.35     208901.9    82.166929    23.364314 
157396000    274.49476    264.19214    277.32709   -208859.23    208943.29   -13.134949    23.365984 
157400000    302.09677    276.63925    311.09202   -208905.56    208958.85   -34.452762    23.368582 
157404000    281.90644       205.59    200.74821    -208932.1     209007.4    4.8417902    23.370194 
157408000    293.57898    420.83755    301.41774   -208981.44    209044.25     119.4198    23.365143 
157412000      265.878    273.75026    379.05418   -209008.42    209082.61   -105.30393    23.367424 
157416000    295.31317     401.9055    319.44833   -209058.52    209118.04    82.457167    23.363524 
157420000    275.14803    386.54601    257.75954   -209103.86    209166.06    128.78647    23.361741 
157424000    306.60409    378.89981     289.9453   -209175.85    209222.27    88.954512    23.366342 
157428000    254.25343     432.3745    385.77886   -209193.54    209253.87    46.595644    23.362313 
157432000    255.87092     279.0599    221.57978   -209231.41    209310.56    57.480121    23.360654 
157436000    273.41084    219.49413    399.32069   -209272.87    209347.75   -179.82655    23.354366 
157440000    269.95337    272.65533    230.15982   -209308.47    209383.73    42.495509    23.355234 
157444000    291.31798    373.37321    355.17776   -209362.22    209430.06    18.195447    23.353441 
157448000    277.34928    424.54001    269.24942   -209394.15    209464.84    155.29059     23.35483 
157452000    281.04164    595.32164    280.76441   -209446.34    209519.15    314.55723    23.353602 
157456000    287.91465    305.78665    544.43606   -209465.11    209545.09   -238.64942    23.353646 
157460000    255.54153    305.07207    469.17518    -209500.4    209588.84   -164.10311     23.35344 
157464000    262.69814    314.57288      478.778   -209536.08    209632.72   -164.20512    23.349547 
157468000    255.52224    360.48451    305.39888   -209572.18    209659.89    55.085631    23.351958 
157472000     307.2403    442.45752    337.39687   -209601.64    209674.88    105.06065    23.349717 
157476000     283.5965    449.91059    327.56602   -209647.29    209692.17    122.34457    23.357565 
157480000    263.38518    346.43893    506.97749   -209680.16    209760.38   -160.53856    23.361457 
157484000    276.84355    432.41166    253.07555   -209717.08    209788.94    179.33611    23.359989 
157488000    270.67446    373.93564    326.52567   -209755.92    209834.66    47.409971    23.353924 
157492000    260.92682    376.31005    210.29407   -209814.56    209897.86    166.01598    23.349291 
157496000    293.76097    315.85519    281.47759      -209855     209905.6    34.377603    23.353777 
157500000    300.06461    304.06028    337.26794   -209876.33    209928.51   -33.207667    23.358123 
157504000    321.36832    378.96597    303.04745   -209892.61    209933.57    75.918525    23.355244 
157508000    279.55131    267.36463    282.33171   -209930.68    210001.29   -14.967082    23.356493 
157512000    266.19801    397.99574    334.25982   -209966.57    210033.79     63.73592    23.362176 
157516000    298.14246    399.72214    366.91817    -210042.1    210101.86    32.803965    23.362709 
157520000    297.15906    334.71245    195.27317   -210083.85    210130.79    139.43928    23.361207 
157524000    299.01173    227.92772    279.72934   -210108.72    210149.59   -51.801619    23.366104 
157528000     307.9723    386.34532    236.83569   -210161.16       210209    149.50963    23.368511 
157532000    297.97895    322.52767    405.77462   -210193.87    210247.94   -83.246951     23.36961 
157536000     278.2917    281.68437     309.8993   -210220.12    210276.48    -28.21493    23.371207 
157540000    291.17032    340.82595    357.83314   -210286.12    210336.66   -17.007185     23.37152 
157544000     250.0531    195.71547    422.62139    -210315.2    210406.67   -226.90591    23.364927 
157548000    277.80013    368.11535    374.33737    -210347.7    210433.96   -6.2220188    23.361954 
157552000    255.20204    417.51098    234.08895   -210352.78    210434.78    183.42203    23.354132 
157556000    293.41044    472.80862    348.45829   -210402.16    210459.13    124.35033     23.34993 
157560000    297.85726    507.18535    260.60623   -210432.86    210512.42    246.57911    23.345508 
157564000    292.95406    360.17505    262.11538   -210466.51    210522.97    98.059669    23.342932 
157568000    293.74027    347.77409    354.22451   -210502.99    210563.61   -6.4504219    23.346016 
157572000    307.08176    423.76182    476.52051    -210519.7    210584.92   -52.758682    23.342009 
157576000    291.42877    542.24937    394.47454   -210574.34     210624.8    147.77483      23.3482 
157580000    279.30755    228.00803    380.54659   -210608.16    210671.66   -152.53857    23.353352 
157584000    326.43144    449.41951     199.9603      -210696    210738.64    249.45921    23.362511 
157588000    273.95682    342.55458    264.00932   -210732.92    210801.77    78.545258    23.363978 
157592000    282.70809    445.81027    266.64913   -210752.53     210812.9    179.16114    23.366179 
157596000    264.21094    425.07104    256.32004   -210786.21    210861.31      168.751    23.363586 
157600000    272.29276    185.29005    250.26756   -210786.42    210870.71   -64.977512     23.36231 
157604000    307.92395    339.56256    300.32122   -210857.48    210922.95     39.24134    23.358227 
157608000    276.40636    264.30095    281.91982   -210930.09    210987.61   -17.618869    23.357217 
157612000    295.11607    315.78034    260.50635   -210981.27     211039.4    55.273991    23.352569 
157616000     262.3566    290.87495    140.58921   -211005.61    211072.28    150.28575    23.353461 
157620000    310.55973    633.97045    443.09993   -211042.81    211078.48    190.87052    23.344887 
157624000    264.09684     286.8793    220.97789   -211093.68    211160.22    65.901413    23.352952 
157628000    292.35764    370.00309    322.66732   -211125.22    211201.53    47.335769    23.349956 
157632000    292.38495    271.29747    215.39505   -211191.26    211254.94    55.902422    23.346325 
157636000    297.60265    319.68755    294.03141   -211220.02    211276.66    25.656135    23.341829 
157640000    272.12713    199.59961    446.60306   -211254.62    211312.72   -247.00345    23.339962 
157644000    320.61944    394.74993    426.78526   -211319.36    211368.31   -32.035329    23.338104 
157648000    258.67858    335.46311    236.96091   -211367.94    211434.09      98.5022    23.335206 
157652000    317.67439    340.32723    427.97312   -211415.31    211451.37   -87.645891    23.332541 
157656000    292.21734    427.68821    429.71802      -211437    211481.17   -2.0298047    23.337536 
157660000    311.78657    444.34686    363.93124   -211495.39    211535.84    80.415624    23.337713 
157664000    276.24981    295.89846    230.82623   -211537.01    211600.12    65.072231    23.341776 
157668000    256.42539    237.79772     414.6018   -211577.95    211634.68   -176.80408    23.344148 
157672000      295.724    197.94256    412.31924   -211630.13    211696.23   -214.37668    23.339473 
157676000    289.39032    289.82972    154.72978   -211710.01    211756.27    135.09994    23.342681 
157680000    278.75426     286.3319    308.02991   -211763.14    211823.84   -21.698014    23.342257 
157684000    253.60094    224.89743    326.91096   -211779.51    211866.82   -102.01353    23.339359 
157688000    289.02302    415.86059     398.9548   -211817.82    211882.32    16.905786     23.34411 
157692000     283.4165    428.71438    490.51548   -211842.03     211911.1   -61.801092    23.343571 
157696000    308.48914    310.24996    392.63975   -211900.24    211962.58   -82.389788    23.342023 
157700000    254.18533    275.38729     299.8192   -211927.65    212015.97   -24.431905    23.340345 
157704000    278.72907    278.52661    367.60227    -212007.5    212046.01   -89.075651    23.338055 
157708000      291.157    320.83039    293.21472   -212040.78     212102.6    27.615669     23.34264 
157712000    272.18574    319.12834    337.08148   -212111.79    212175.78   -17.953137    23.343521 
157716000    282.66014    358.50136    368.37168   -212153.64    212212.03   -9.8703263    23.336509 
157720000    316.51494    303.78325    284.89733   -212166.73    212225.25    18.885918    23.340313 
157724000    274.34336    371.05009    308.06302   -212199.78    212268.27    62.987077    23.338821 
157728000    245.36572    288.26568    227.41046   -212226.02    212307.48    60.855225    23.340002 
157732000    271.82472    395.23603    322.51753   -212280.73       212345    72.718494    23.341152 
157736000    291.10585    259.36932    483.90753   -212307.81    212363.88   -224.53821     23.34152 
157740000    299.76108    351.18964      268.539   -212387.08     212441.8    82.650644    23.343956 
157744000    253.73492     282.9862    234.34779    -212428.4    212500.16    48.638412    23.346985 
157748000    291.28527    425.63221    223.37446   -212458.62    212521.65    202.25775    23.338467 
157752000     291.2289    384.14356    295.90408      -212506    212572.68     88.23948    23.340591 
157756000    263.62251    284.70663    238.60219   -212511.82    212579.55    46.104438    23.336327 
157760000    269.26195    460.22592    337.21799   -212572.64    212626.66    123.00793    23.340558 
157764000     268.4987    272.60325    434.21521   -212575.68    212645.77   -161.61195    23.333402 
157768000    303.87977    407.88848    617.50452   -212613.87    212670.72   -209.61603    23.334242 
157772000    265.07116    293.02392    270.38913   -212654.71    212714.87    22.634793    23.331294 
157776000    280.65326    355.82497    504.89352   -212690.63    212757.65   -149.06856    23.328982 
157780000    262.31842    259.73074    320.49459   -212745.55    212810.44   -60.763849    23.330593 
157784000    292.63689    512.91175    443.88127   -212772.47    212835.13    69.030479    23.327894 
157788000    280.38013    420.81793    276.82905   -212819.25    212872.38    143.98888    23.329022 
157792000    301.20566    470.50219    278.35228   -212889.21    212943.49    192.14991    23.331376 
157796000    287.17523    326.76654    240.41528   -212910.44    212978.52     86.35125    23.326885 
157800000    265.94237     357.6436    174.09721   -212951.78    213025.88    183.54639    23.329084 
157804000    270.84256    297.19795    379.05154    -212998.1    213062.14   -81.853588    23.328502 
157808000    318.70031    392.73251    291.00165   -213060.61    213091.43    101.73086    23.329064 
157812000    284.51183    398.00511    268.55342   -213086.08       213156    129.45169    23.326888 
157816000    300.65032    313.64424    283.93415   -213097.12     213167.8     29.71009     23.32718 
157820000    300.38779    616.39859    346.00251   -213137.22    213199.36    270.39609    23.332683 
157824000    276.28612    181.61061    482.05149   -213137.06    213198.44   -300.44088    23.325026 
157828000    261.22352    227.59651    179.91795   -213150.23    213230.42    47.678555    23.327381 
157832000    258.85748    355.50524    427.19271   -213177.81    213243.93   -71.687475    23.329178 
157836000    281.74896    274.93144    208.27132   -213245.07    213321.79    66.660123    23.332525 
157840000    283.58955    476.76523    458.11382   -213315.72    213376.98    18.651413    23.337045 
157844000    259.79178    372.80063    336.76839    -213353.6    213448.43    36.032244    23.343109 
157848000    307.23127    343.13318    425.42966   -213422.95    213477.78   -82.296484    23.344904 
157852000    259.79401    384.93522    430.82694   -213447.77    213535.71   -45.891717    23.344838 
157856000    288.62373    324.75931    427.24501   -213514.39    213589.01    -102.4857    23.341895 
157860000    271.84046    318.38988    229.67556   -213578.39    213650.33    88.714323    23.337894 
157864000    300.66331    443.61375    369.48148   -213594.44    213652.67    74.132266    23.337785 
157868000    275.43528    440.81937    358.43623   -213609.13    213685.08    82.383148    23.336659 
157872000    269.26791    357.49811    308.69463   -213651.41    213732.69    48.803481    23.335085 
157876000    269.94004    327.66626    253.57289   -213713.73    213789.98    74.093368    23.333135 
157880000    284.74984    355.71955    176.68735   -213769.71    213836.04     179.0322    23.333229 
157884000    273.91028    248.49833    180.20405   -213832.06     213905.8    68.294284    23.336919 
157888000    290.52443    264.72813    435.22299   -213884.17    213947.64   -170.49486    23.337133 
157892000    263.73283    317.88529    339.51571   -213915.57    213997.72   -21.630421    23.334734 
157896000    266.32495    482.40991    315.89156   -213962.71    214045.02    166.51835    23.337877 
157900000    294.22032    403.42615    279.24715   -214031.39    214105.76      124.179    23.336843 
157904000    248.50616    443.23908    278.59106    -214039.3    214129.11    164.64802    23.341897 
157908000    299.59156    312.60628    381.55938   -214097.18    214147.45   -68.953101    23.344136 
157912000    294.27893    384.68933    360.79723   -214147.87    214193.16    23.892095    23.343998 
157916000    278.50737    334.87002    323.39205   -214182.94    214240.36     11.47796    23.340215 
157920000    284.08034    391.43917    335.45854   -214217.07    214263.14    55.980633    23.338637 
157924000    293.58055      343.072    309.80208   -214235.59    214282.83    33.269926    23.341357 
157928000    256.26349    310.35811    358.02168   -214210.03    214293.13   -47.663577    23.336663 
157932000    296.22166    319.98812    257.20742   -214262.36    214304.87    62.780698    23.338441 
157936000    311.78486    418.40144    311.59778    -214344.4     214365.2    106.80366    23.344753 
157940000      279.959    250.46764    394.04944    -214364.8    214422.66    -143.5818    23.344905 
157944000    305.22949    332.83682    341.85435   -214410.13    214461.16   -9.0175306    23.337165 
157948000    298.76852    368.01661    183.23804   -214459.19    214519.11    184.77856    23.341102 
157952000     280.4037    255.97158    316.69452   -214501.24    214575.06   -60.722943    23.334807 
157956000    238.62599    392.12734    357.10113   -214534.11    214614.72    35.026208     23.32953 
157960000    297.77679    377.60025    386.62809   -214575.82       214647   -9.0278411    23.335573 
157964000    281.78524    566.05675    288.77181   -214611.98    214688.19    277.28494    23.340627 
157968000    261.40825    369.03122     186.3503   -214638.84    214721.57    182.68092    23.341238 
157972000    329.79822    505.44536    199.80207   -214734.94    214779.32    305.64329    23.336602 
157976000    251.06418    262.28889    191.99189   -214762.69    214843.67    70.296999    23.342408 
157980000    290.52003    526.57501    342.95984   -214801.07    214862.01    183.61517    23.342903 
157984000    262.49113    370.19094     346.0571   -214818.18    214895.56    24.133838    23.342405 
157988000    280.53782    229.06758    515.64513   -214860.42     214919.3   -286.57755    23.339242 
157992000    283.57593    234.79149    327.70443    -214875.1    214943.17   -92.912941    23.343314 
157996000    279.63421    223.80106    393.28919   -214929.15    214995.32   -169.48814    23.339475 
158000000    272.78076    260.52767    330.42395   -214979.77    215045.58   -69.896279     23.33265 
158004000    277.73954    299.19557    327.79876   -215008.93    215075.87   -28.603194    23.335236 
158008000    279.75269    371.43815    455.39427   -215040.65    215085.35    -83.95612    23.337546 
158012000    299.26579    379.53427    318.13268   -215071.78    215120.12    61.401591    23.340106 
158016000    282.64803    372.71776    201.40972   -215095.81    215176.58    171.30804    23.337813 
158020000    296.70834    505.70514    248.45247   -215135.37     215180.9    257.25268     23.33583 
158024000    280.25223    271.29247    393.04495   -215157.16    215230.82   -121.75247    23.332877 
158028000     292.0451    319.56319    322.56733   -215183.38    215236.85   -3.0041342    23.335627 
158032000    275.54797    292.41596    365.11261    -215187.4    215259.74   -72.696653     23.33663 
158036000    285.96016    417.43592     279.0166   -215227.01    215302.27    138.41932    23.340127 
158040000    267.80338    402.50094    276.23478    -215268.7    215348.47    126.26616    23.337163 
158044000    268.66192     385.4937    334.50415   -215355.58    215430.82    50.989553    23.342317 
158048000    279.06575    526.52251    373.79477   -215370.94    215451.57    152.72774    23.344611 
158052000    294.46567    281.91986    522.30048   -215406.22    215476.44   -240.38062    23.344361 
158056000    283.02406    531.84735    247.58567   -215461.16    215519.35    284.26168    23.345381 
158060000    272.93175    349.52932    293.10434   -215497.91    215565.27    56.424972    23.347658 
158064000    269.64526    334.57655    351.14149   -215549.51    215618.84   -16.564934    23.350901 
158068000    301.24547    453.41961    349.58822   -215591.12    215647.97    103.83139    23.349635 
158072000    255.11395    364.75867    501.91498   -215623.85    215706.49   -137.15632    23.348678 
158076000    263.74054    175.67016     188.3645   -215662.07    215740.82   -12.694344    23.351965 
158080000    287.58179    362.35931    320.35622   -215691.56    215764.35    42.003097    23.351105 
158084000    275.12065    439.58357    235.90625   -215729.55    215806.26    203.67732     23.34867 
158088000    264.64217    330.78233    452.90443   -215760.51    215835.57   -122.12209    23.356184 
158092000    284.60788    416.78834    286.51218      -215801    215868.32    130.27616    23.359941 
158096000    257.06402    461.70726    331.29541   -215830.13    215905.31    130.41185    23.355944 
158100000    291.27882    261.37367    354.55053   -215887.21    215951.13    -93.17686     23.34801 
158104000    291.65045    319.04658    311.06182    -215950.2    216019.61    7.9847598    23.348078 
158108000    310.02518    339.07933     450.8022   -216009.83    216048.19   -111.72287    23.343948 
158112000    266.47608    279.68001    241.51632   -216027.19    216107.03    38.163691    23.333539 
158116000    265.66502    321.61059    421.66495   -216083.48    216155.73   -100.05436    23.330142 
158120000    282.26134    352.17198    284.72938   -216088.86    216157.07      67.4426    23.332258 
158124000    267.35348    664.26664    209.04814    -216124.8    216216.18     455.2185    23.331617 
158128000    263.21113    329.85929    282.16816   -216157.08    216234.16    47.691131    23.333422 
158132000    295.88884    388.89792    287.17397   -216208.31    216270.66    101.72395    23.330958 
158136000    270.17005    260.67169    472.82359   -216250.72    216329.28    -212.1519     23.32533 
158140000    272.09272    469.19392    412.93267   -216304.05    216384.14    56.261254    23.321623 
158144000    280.96621    284.86561    287.97486   -216371.99    216435.51   -3.1092532    23.320764 
158148000     277.7472    202.39976    232.32431   -216375.08     216458.2   -29.924542    23.325478 
158152000    285.72688    314.98705    422.49918   -216423.58    216495.69   -107.51213    23.323037 
158156000    274.43315    393.33801    283.37106    -216434.5    216505.63    109.96695    23.322094 
158160000    320.05362    595.72529    516.17339   -216476.68     216525.1    79.551894    23.326313 
158164000    291.72869    380.15207    223.00281   -216542.89    216613.06    157.14926    23.328827 
158168000    310.60577    534.94553    386.90883   -216615.03    216669.04    148.03671    23.333705 
158172000    292.57319    255.78888    329.50368    -216626.5    216700.23   -73.714801    23.331746 
158176000    280.93166    389.58088    344.51088   -216638.91    216721.11    45.069995    23.328131 
158180000    296.51449    310.62984    323.09278   -216705.78    216750.99   -12.462942    23.338356 
158184000    285.02334    247.86437    135.83986   -216731.61    216783.47    112.02451      23.3441 
158188000    285.82367    280.61077    217.58774   -216754.01    216838.41    63.023032    23.344674 
158192000    256.14725    343.56066    243.83438   -216765.73     216858.6    99.726285    23.340345 
158196000    287.81767    282.18833    428.19846   -216810.52    216890.49   -146.01013    23.337994 
158200000    269.27477    333.76149     270.7503   -216870.56    216939.71    63.011191    23.338564 
158204000     301.7023    245.32939    256.07106   -216868.02    216938.88   -10.741671    23.340177 
158208000    287.35202     305.6717    271.28341   -216910.95    216962.66    34.388287    23.347039 
158212000    290.61436    429.35038    362.18101      -216948    217002.72    67.169373    23.355866 
158216000    273.04808    419.83442    296.52181   -216988.61    217055.75    123.31261    23.359652 
158220000    267.99585    314.13718    306.75874   -217026.88    217102.45    7.3784362    23.359118 
158224000    277.78781     369.9738    298.42126   -217063.15     217141.7    71.552541    23.361058 
158228000    284.46338    356.01782    253.72173   -217089.22     217157.2    102.29609    23.363502 
158232000    265.18506    366.84577    423.25219   -217106.44    217164.01   -56.406425    23.363328 
158236000    261.33887    277.71571    374.41749   -217113.42    217202.34   -96.701781    23.357449 
158240000    274.38445    213.40206    219.64595   -217131.21    217214.85   -6.2438891    23.358364 
158244000    257.33237    271.09955    440.17367   -217162.05    217218.82   -169.07411    23.357224 
158248000    280.98118    346.41469     228.8431   -217179.23    217243.43    117.57158    23.353957 
158252000    290.39377    320.00603    369.18496    -217194.7    217243.75   -49.178926    23.357256 
158256000    297.55306    248.71501    507.98563   -217212.03    217271.65   -259.27062    23.356259 
158260000    270.73598    336.66965    243.49869   -217227.82    217303.92    93.170964    23.354622 
158264000    287.65964    391.72649    425.21214   -217271.04     217328.8   -33.485645    23.352798 
158268000    264.82727    424.65523    277.42857   -217293.48    217379.03    147.22666    23.354939 
158272000    259.13618    218.45947    205.45142   -217330.81     217405.9    13.008049    23.349018 
158276000    310.33831    362.00448    401.05468    -217386.1    217447.74   -39.050202    23.347879 
158280000    279.44515    310.72837    280.06541   -217429.05    217471.01     30.66296    23.343334 
158284000    276.66323    291.38828    285.96512   -217453.76    217528.86    5.4231572    23.340125 
158288000    282.58586    423.85598    204.62511   -217493.68    217568.01    219.23087    23.337565 
158292000    278.70215    365.59722      416.796   -217551.33    217622.39   -51.198775    23.332202 
158296000    277.32999     299.5476    253.63766    -217575.5    217642.06    45.909944    23.339885 
158300000    294.68634    344.30297    258.80319   -217606.99    217670.58    85.499775    23.342289 
158304000    293.32407    442.07373    289.44828   -217676.45    217725.33    152.62545    23.341421 
158308000     274.8497    290.07137     438.0725   -217676.24    217751.55   -148.00113    23.337899 
158312000    283.21169    450.93548    262.37277   -217706.52    217778.37    188.56271    23.340342 
158316000    268.19349    379.41468    329.38975   -217680.46       217765    50.024928    23.352222 
158320000    274.75209    294.20456    316.16737   -217723.76    217805.78   -21.962805    23.354086 
158324000    306.65716    235.13906    349.53582   -217783.62    217829.06   -114.39676    23.351526 
158328000    276.43558    398.11853    321.20706   -217824.98    217903.23    76.911467    23.351637 
158332000    274.21528    379.48727     498.4773   -217880.61    217954.08   -118.99003    23.355576 
158336000    304.70644    516.95112    309.51635   -217939.04    217988.15    207.43476    23.359357 
158340000    275.62847    298.12863    327.72762   -217960.57    218043.59   -29.598986     23.35538 
158344000     281.9615    310.32988    291.42913    -217988.1    218061.93    18.900758    23.354375 
158348000    270.51053     420.2641    256.99545   -218014.52    218078.97    163.26865    23.357532 
158352000    315.98736    332.77542    367.27836   -218068.03    218122.61   -34.502942    23.360516 
158356000    277.24986    294.93179    267.96671   -218056.47    218120.83    26.965076    23.360253 
158360000    274.61006    323.86445    368.25379   -218056.43    218137.77   -44.389337    23.359511 
158364000    266.51962      443.146    241.31055   -218085.62     218161.4    201.83546    23.358398 
158368000     289.7124    287.09983    497.98016   -218119.73    218178.29   -210.88033    23.360728 
158372000    284.29785    291.19271    380.15931   -218150.83    218232.64   -88.966598    23.359433 
158376000    266.81574    299.76318    303.27011   -218190.23    218250.49   -3.5069233    23.363535 
158380000    264.01493    202.46113    294.07765   -218210.23    218304.01   -91.616522    23.368076 
158384000    295.78993     180.2484    309.11628   -218282.14    218340.53   -128.86788    23.372026 
158388000    275.05957    197.42405    421.34042   -218321.79    218404.97   -223.91637    23.366412 
158392000    259.27002    353.27662    237.49378   -218403.59    218488.89    115.78283    23.364702 
158396000     295.9324    326.67736    292.46572   -218450.51    218510.75    34.211641    23.363408 
158400000    266.06653    254.65101    302.65839   -218475.61    218558.46   -48.007386    23.362233 
158404000    272.87891    349.56952    426.03425   -218508.43    218588.21    -76.46473    23.360424 
158408000    263.35803    369.00302    232.61491   -218567.04    218664.28    136.38811    23.363172 
158412000    262.37781    351.71445    281.80466   -218610.83    218704.66    69.909788    23.361695 
158416000    289.45476    437.09123    368.17068   -218677.92    218749.67    68.920553    23.364704 
158420000    282.99965    466.04431    324.42453   -218714.44    218789.68    141.61978    23.362253 
158424000    261.26833    313.74042    245.82319    -218763.1     218823.6     67.91723    23.356594 
158428000    266.07571    334.04483    439.14193   -218817.26    218880.82    -105.0971    23.355909 
158432000    319.12704    541.17957    287.66025   -218853.95    218903.71    253.51932    23.356644 
158436000    301.81127    298.10556    270.47574   -218892.06    218950.31    27.629819    23.353797 
158440000    274.59981    336.81074    281.49604   -218939.37     219011.6    55.314701    23.349574 
158444000    290.26942    238.11088     293.6075   -218984.84    219048.74    -55.49662     23.35475 
158448000    263.53864     362.6662    316.96852   -219009.23     219088.4    45.697687    23.353001 
158452000    303.72372    359.60147    358.22549   -219043.26    219110.31    1.3759787    23.343191 
158456000    320.77134    472.86802    289.53085   -219117.83    219157.63    183.33717    23.344943 
158460000    310.64243    501.48496    350.81616   -219135.58    219190.11    150.66879    23.346071 
158464000    296.55381    464.21019    428.22636   -219192.21    219241.21    35.983827     23.34989 
158468000    274.98693    232.08601    246.45405   -219234.49    219296.13   -14.368034     23.34553 
158472000    290.57023    309.12958    402.40083   -219249.62     219319.1   -93.271259    23.349779 
158476000    299.39018    338.81527    288.05384   -219298.39    219351.17    50.761427    23.350564 
158480000     314.7355    438.09503    303.75171   -219337.38    219395.15    134.34332    23.348175 
158484000    283.71569    325.26998    385.49367   -219371.35    219436.62    -60.22369    23.344955 
158488000    288.96197    372.03068    384.78516   -219407.64    219454.16    -12.75448    23.340053 
158492000    288.12319    197.31743    455.90184   -219427.31    219493.97    -258.5844    23.341174 
158496000    275.80687    332.13867    291.16406   -219481.91    219539.94    40.974614    23.341447 
158500000    291.73641    346.49459    361.54076   -219502.92    219569.83    -15.04617    23.342037 
158504000    287.61402    343.36935    306.28692   -219551.94    219607.33    37.082432    23.341735 
158508000    259.22815     431.2003    173.52128   -219570.29    219646.08    257.67903    23.343604 
158512000    285.20312     402.7355    421.48101   -219567.51    219638.04   -18.745518    23.346294 
158516000    314.75772    429.58964     312.3032    -219602.4    219652.52    117.28645    23.347759 
158520000    283.09886    367.65549    375.46026   -219640.29    219699.35   -7.8047705    23.349134 
158524000    290.85559     292.1541      331.601    -219682.4    219754.76   -39.446906    23.352084 
158528000    293.21824    274.18644    438.88766   -219743.49    219798.69   -164.70122    23.349041 
158532000    290.47509    242.20953    175.75729   -219800.73     219850.6    66.452244    23.356567 
158536000    278.11659    313.09999    216.15174   -219831.28    219900.92    96.948245    23.359379 
158540000    283.00848    299.99167    521.45091   -219898.14    219960.56   -221.45924    23.361033 
158544000    261.99188    344.99044    190.88215   -219948.65    220029.26    154.10829    23.358557 
158548000    293.60874    246.10295    417.92188   -219991.19    220050.51   -171.81893    23.359635 
158552000    283.98957     338.3685    217.61966    -219994.8    220064.71    120.74884    23.359561 
158556000    261.77253    216.84617    321.79047   -220027.96    220107.19    -104.9443     23.36251 
158560000    292.42923    142.25147    447.33402   -220082.76    220150.05   -305.08254    23.367302 
158564000    270.38304    311.75492    406.09484    -220110.2    220180.11   -94.339917    23.368468 
158568000    278.17923    458.76252    313.28484   -220146.64    220204.71    145.47768    23.376097 
158572000    292.81836    242.65252    244.65918    -220203.3     220257.9    -2.006666    23.378917 
158576000    317.80727    374.66072    593.12032   -220238.59    220273.51    -218.4596    23.373975 
158580000    305.99602    387.85629    250.82783   -220266.04    220316.15    137.02847    23.375949 
158584000    288.27336    321.76127    284.20539   -220261.15     220335.5    37.555881     23.36637 
158588000    289.13089    340.67489    159.18088   -220289.77     220361.6      181.494    23.364586 
158592000    277.91291    505.15581    253.55412   -220334.58    220407.46    251.60168    23.366961 
158596000    268.25489    428.00873    347.17969   -220373.98    220450.32    80.829039     23.36979 
158600000    271.91833    477.89681    455.23376   -220434.83    220507.96    22.663046    23.369599 
158604000    277.91204    261.37649    228.66529    -220484.1     220548.1      32.7112    23.372949 
158608000    261.69132    258.23321    226.68169   -220509.74    220594.77    31.551521    23.375032 
158612000    271.23558    378.19176    347.86099   -220575.74    220646.74    30.330768    23.375177 
158616000    282.14716    238.37621    224.59909   -220602.28    220683.35    13.777123     23.37288 
158620000    278.58483    436.38578    197.14115   -220624.98    220705.05    239.24463    23.373576 
158624000    306.29124    365.37608    303.68059   -220711.42    220771.34     61.69549    23.383106 
158628000    307.49142    583.74039    368.95405    -220758.7    220828.03    214.78634    23.379537 
158632000     250.1332    287.21595     403.6083   -220814.96    220905.03   -116.39235    23.375506 
158636000    298.91033    404.17307    506.38878   -220901.89    220956.66   -102.21572    23.374313 
158640000     275.0683    352.97212     356.2879   -220949.54    221026.07     -3.31578    23.377138 
158644000    259.79112     361.9251    410.31951   -220974.71    221048.48   -48.394419    23.378786 
158648000    306.40137    393.04907    327.16283   -221025.55    221071.93    65.886242    23.385129 
158652000    295.53926    338.41329    211.94025   -221085.85    221141.42    126.47304    23.381707 
158656000    304.44239    487.53573    370.36506   -221089.25    221160.32    117.17067    23.379476 
158660000    263.93425    275.57263    545.84908   -221106.84    221191.68   -270.27645    23.376399 
158664000    275.40292    408.10478    381.20223   -221155.58     221238.1    26.902548    23.379972 
158668000    267.91685     472.0106    263.56161   -221222.09    221288.74    208.44899    23.381085 
158672000    283.44144    437.63119    318.01959   -221254.13    221331.99     119.6116    23.381035 
158676000    325.01216    398.98411    449.71695   -221313.23    221360.86   -50.732839    23.382238 
158680000    286.68453    299.90005    240.37798   -221297.36    221359.38    59.522079    23.376354 
158684000    269.80092    457.62558    343.87074   -221317.35    221402.38    113.75484    23.372021 
158688000    291.87153    242.71587    266.16654    -221398.7    221463.66   -23.450672    23.374072 
158692000      256.626    345.31394    320.33766    -221397.3    221461.88     24.97628    23.369433 
158696000    303.06193    351.62336    453.08158   -221408.38    221471.45   -101.45822     23.36207 
158700000    290.26711    232.96058    494.48678   -221418.32    221485.43    -261.5262    23.363105 
158704000    294.09621    511.64217    455.70144   -221458.75    221530.74    55.940729    23.362172 
158708000    292.36485    318.10788    406.49639   -221473.74    221525.75   -88.388507    23.359475 
158712000    270.65255    227.09772    231.01541   -221504.89    221586.96   -3.9176888    23.356353 
158716000    251.01254    284.43003    364.29704   -221532.18    221621.11   -79.867008    23.357218 
158720000    268.92222    350.67023    317.19119   -221578.74    221654.74    33.479036    23.357478 
158724000    284.05988    424.55576     281.7446   -221592.51    221665.72    142.81116    23.358669 
158728000    293.14449    431.80962    364.72195   -221641.97    221701.95    67.087674    23.362864 
158732000    310.19595    380.57959    285.36799   -221695.38    221740.02      95.2116    23.365048 
158736000    283.83975    462.04926    389.72943   -221751.41    221812.73    72.319828    23.365734 
158740000    283.15475    297.49187    260.92557   -221796.32    221850.42    36.566306    23.368001 
158744000    282.47876    339.48033    435.84257   -221846.46    221909.03   -96.362243    23.371172 
158748000    298.89868    445.20456    294.95228   -221890.42    221962.24    150.25227     23.36652 
158752000     316.0296    354.46324    305.40505   -221930.78    221976.57    49.058182    23.363408 
158756000    322.38712    318.36976    442.17781   -221965.42    222023.78   -123.80805    23.366594 
158760000     288.6833    327.60261    357.43486   -221989.08    222056.27   -29.832247    23.368505 
158764000    281.37643    415.40072    227.85074   -222030.83    222097.29    187.54998    23.367566 
158768000    282.50751    229.99909    417.67191   -222075.62    222149.77   -187.67281    23.369609 
158772000    313.49742    508.15529    438.58541   -222158.36    222198.39    69.569871    23.371911 
158776000    269.90255    324.38239    219.67766   -222181.36    222249.87    104.70474    23.374821 
158780000    269.85992    259.85401    258.97046   -222199.53    222283.52   0.88355336    23.368707 
158784000    307.41602    283.13203    317.78902   -222246.49    222300.98   -34.656988     23.36439 
158788000    321.78281    467.31094    480.88717   -222279.45    222334.88    -13.57623    23.359869 
158792000    273.61161    202.39919    281.36865    -222300.9    222373.53   -78.969463    23.353459 
158796000    306.07597    472.50073    242.54145   -222357.07    222399.79    229.95927     23.35465 
158800000    258.37624    377.20117    471.04731   -222374.66    222445.21   -93.846136     23.35719 
158804000     271.4676     325.7512    186.68277   -222429.88    222482.43    139.06843    23.358493 
158808000    286.35433    422.86935    155.60255   -222460.29    222533.42     267.2668    23.359177 
158812000    250.21449    461.43291    411.85942   -222453.77    222549.91    49.573491    23.356727 
158816000    276.89966    350.27842     281.4115   -222553.82    222625.53    68.866918    23.355427 
158820000    296.99588     393.8533    335.97516   -222596.76    222653.96    57.878138    23.359397 
158824000    248.59989    268.07809    275.51139   -222643.72    222722.13   -7.4332993    23.362576 
158828000    258.16029    267.15374    562.64137   -222699.65     222770.1   -295.48763    23.362001 
158832000    293.13151    279.12456    188.46796   -222754.92    222823.82    90.656601    23.358669 
158836000    306.82496    477.91474     346.4031   -222776.19    222820.21    131.51164    23.353861 
158840000    273.13152    345.90019    356.99138   -222805.53    222882.76   -11.091185    23.347766 
158844000    273.71724    229.39139    233.12608   -222841.29    222925.17   -3.7346877    23.353933 
158848000    269.59834    317.87458    250.53724   -222873.47     222948.8    67.337336    23.355555 
158852000    260.86148    235.43035    289.69686   -222897.48    222967.01   -54.266506    23.360395 
158856000    256.78015    349.58939    374.74124   -222951.31    223011.93   -25.151845    23.358922 
158860000     305.0088    361.69025    196.12152   -222994.42    223043.83    165.56874    23.354149 
158864000    313.99016    671.35027    272.90231   -223052.43     223112.7    398.44797    23.360783 
158868000    279.95707    429.88149    299.83913   -223072.48    223150.28    130.04236    23.362843 
158872000    292.68993    354.33378    196.01676   -223137.33    223191.61    158.31702    23.364891 
158876000    284.74718     357.7412    205.87955   -223159.13    223235.82    151.86165    23.366374 
158880000    289.25411    452.96866    504.17154   -223214.67    223281.04   -51.202875    23.368019 
158884000    271.55426    327.56182    402.81555   -223233.54    223321.37   -75.253727    23.365705 
158888000    306.14661    332.02316    414.54873   -223289.44    223343.24    -82.52557    23.364857 
158892000    287.25815    306.82029    352.45796    -223321.1    223404.09   -45.637669    23.361611 
158896000    257.10388    221.04634    196.12395   -223382.31    223451.37    24.922392    23.362661 
158900000    281.30411    374.70866    339.96477   -223445.09    223510.09    34.743886    23.359033 
158904000    286.56489     374.9987    351.25906   -223510.12    223582.66    23.739635     23.35472 
158908000    260.52914    322.54581    365.82146   -223550.85    223626.87   -43.275654    23.353955 
158912000    308.86824    580.88991    220.42645   -223591.59    223645.18    360.46346     23.35636 
158916000     272.9792     303.1727    293.90401   -223652.25    223727.23    9.2686887    23.356759 
158920000    266.91668    198.20082    364.61918   -223679.59    223771.14   -166.41836    23.356104 
158924000    268.99195    312.14359    485.07974   -223693.96    223783.18   -172.93615    23.354724 
158928000    264.63899    356.94413    380.50672   -223730.97    223826.55   -23.562594    23.354193 
158932000    298.39451     401.4337    458.41431   -223761.88    223823.84   -56.980608    23.351302 
158936000    275.96229    436.77338    283.83516   -223794.56    223876.73    152.93822    23.352212 
158940000    268.53395    179.92923    286.89624   -223851.24    223889.32   -106.96701    23.349661 
158944000    271.66919    287.67961    195.91458   -223869.34    223944.65    91.765035    23.344149 
158948000    292.63341    426.01382    258.26385   -223932.41    224009.05    167.74997    23.344907 
158952000    282.09128    254.95828    320.50421   -223977.78    224044.73   -65.545931    23.341725 
158956000    273.38671    228.41622    274.82599   -224012.05    224083.77   -46.409769    23.340057 
158960000    259.37789    445.79565    183.41723   -224054.71    224126.14    262.37843    23.338458 
158964000    300.71402    198.93084    273.97504    -224106.2    224163.01   -75.044204    23.336836 
158968000    281.16021    325.75644    229.09584   -224137.84    224201.69    96.660594    23.336001 
158972000    266.75286    363.07835    269.15368   -224188.57     224276.9    93.924669    23.332275 
158976000    278.74928     239.5271    178.91313   -224218.03    224289.74    60.613962     23.33539 
158980000    294.51217    429.64918    214.35411   -224253.09     224312.5    215.29507    23.335715 
158984000    259.68554    168.19705    248.23097   -224284.66     224357.7   -80.033919    23.335523 
158988000    271.57547    303.95779    360.00483   -224340.81    224408.24   -56.047033    23.338436 
158992000    283.05138    285.11006    406.73819   -224382.28    224440.88   -121.62813    23.336885 
158996000    274.91866    292.20047    226.60072   -224448.48    224520.73    65.599752    23.338172 
159000000    287.07032    333.17889     519.4842   -224522.74     224590.8    -186.3053     23.33602 
159004000    309.76496    354.40953    296.79815   -224593.92    224634.71    57.611375    23.337651 
159008000    282.43653    346.94725    315.48573   -224636.92    224705.74    31.461525    23.338205 
159012000    275.77302    323.39596    276.18862   -224672.69    224745.56    47.207346    23.339337 
159016000    286.35054    443.58597    180.52216   -224699.15    224777.45    263.06381    23.333769 
159020000    293.17614    193.87529    242.91985   -224719.05     224764.6   -49.044562    23.332668 
159024000     276.7593    483.81139    351.54299   -224782.04     224849.3    132.26839    23.334994 
159028000    313.45273    414.16225     563.7982   -224849.83    224902.37   -149.63595    23.329641 
159032000    305.02726    377.17916    390.82536   -224894.23    224944.68   -13.646205    23.331036 
159036000    285.77658    392.23808    266.88208   -224937.78    225004.59      125.356    23.322399 
159040000    295.01455    430.88912    343.61844   -224999.57    225061.47    87.270679    23.328553 
159044000    319.98021      511.984    212.23355    -225021.9    225079.45    299.75045    23.327834 
159048000     255.6537    247.49651    326.50158   -225081.08    225158.03   -79.005067    23.327299 
159052000    303.25733    381.35759    265.12708   -225113.77     225149.6    116.23052    23.328441 
159056000    332.76804    503.62837    369.22155    -225138.1    225187.61    134.40682    23.323993 
159060000    288.17137    294.31855    288.69276   -225153.04    225215.94    5.6257903     23.32461 
159064000    283.55149    379.86869    461.44208   -225170.29    225253.24   -81.573381    23.328339 
159068000     312.9203    480.91963    208.40061   -225229.53    225298.03    272.51902    23.332031 
159072000    264.92525     356.1566     193.5433   -225273.87    225352.39     162.6133    23.329303 
159076000    270.31686    299.93581    291.84827    -225304.1    225377.12    8.0875407    23.334339 
159080000    270.84958    500.51466    378.22089   -225343.14    225421.59    122.29378    23.330223 
159084000    286.48727    364.76275    262.68316   -225414.34    225478.69    102.07959    23.328523 
159088000     295.5796    349.75847    458.79439   -225446.64    225514.85   -109.03593    23.332134 
159092000    288.89795    347.06174    209.89003   -225447.34     225510.3    137.17171    23.333375 
159096000    291.29828    243.20882    215.21531   -225455.11    225512.24    27.993509    23.332342 
159100000    275.80196    293.51823    315.43285    -225472.4    225562.47   -21.914616    23.334569 
159104000    305.07049    295.26147     459.9897   -225543.93    225599.66   -164.72823    23.336124 
159108000    282.97853    379.25089    305.93412   -225560.67    225630.45    73.316765    23.334544 
159112000    283.08577    368.37367    234.17717   -225598.38    225681.42    134.19649    23.335562 
159116000    285.18054    341.38731    339.75472   -225665.58    225738.51    1.6325961    23.333866 
159120000     273.5904    416.44098    265.36922   -225684.02    225766.67    151.07176    23.331379 
159124000    274.66681    398.81773    346.90678   -225710.09    225784.45    51.910948    23.331586 
159128000    272.11441     444.0418    263.48758   -225721.32    225811.07    180.55421    23.324971 
159132000    263.49989    269.92524    253.64693   -225767.77    225838.16    16.278312    23.319058 
159136000    306.50466    416.54846    481.26988   -225827.67    225886.13   -64.721422    23.316671 
159140000    261.45112    341.73804    272.95591   -225872.54    225949.26    68.782132     23.31589 
159144000    327.68425    415.04403     449.4309   -225891.65    225932.42   -34.386864    23.316903 
159148000    270.93559    334.29268     255.6612   -225910.67    225987.77    78.631471    23.310182 
159152000    304.76701     480.1748    342.32249   -225946.29    225998.35    137.85231    23.308088 
159156000    266.60627    304.85411    319.95895   -225969.79    226038.73   -15.104845    23.306847 
159160000    311.63779    374.34588    386.82753   -226009.37    226069.37    -12.48165    23.308475 
159164000    275.77722    304.24274    297.77727    -226028.3    226112.32    6.4654645    23.312861 
159168000    266.90527    420.18219     382.5285   -226068.93    226147.81    37.653691    23.312544 
159172000    280.25589    383.10595    150.97729   -226115.31    226208.15    232.12866     23.31534 
159176000    298.16405    593.25047     290.5925   -226198.97    226248.56    302.65797    23.309304 
159180000    268.82307    359.39168    204.81379   -226264.06     226328.5    154.57789    23.314577 
159184000    279.49997    217.08936    312.42371   -226313.02    226387.59   -95.334357    23.315917 
159188000    293.57532    335.15614     423.4312   -226370.55    226433.39   -88.275058    23.318062 
159192000    295.94784    251.76048    402.09337   -226404.13    226471.85   -150.33289     23.31656 
159196000    291.08203     241.1815    396.52852   -226458.07    226536.12   -155.34702    23.319525 
159200000    256.10048    243.21911    300.93768   -226473.63    226551.19   -57.718569    23.323599 
159204000     253.6721    337.59171     260.2628   -226500.91     226577.8    77.328913    23.327433 
159208000    276.72424    298.43317    523.54175   -226528.99    226621.31   -225.10858    23.331288 
159212000    275.06684    459.04881    188.98936   -226557.43    226651.59    270.05945    23.336336 
159216000    298.52678    270.08905     367.6315   -226599.01    226675.63   -97.542446    23.335733 
159220000    267.30924    373.23236    410.05256   -226629.22    226715.16   -36.820203    23.333532 
159224000    274.92602    223.34637    266.80126   -226680.93    226749.05   -43.454891     23.33718 
159228000    257.38141    333.13896    440.89869   -226674.21     226767.6   -107.75974    23.343002 
159232000    262.26686    204.16856    367.95558   -226695.39    226761.89   -163.78702    23.337935 
159236000     270.1645    368.51297    410.65443   -226731.35    226799.58   -42.141454    23.337869 
159240000    311.94953    254.92477    403.15046   -226765.58    226838.34   -148.22569    23.328052 
159244000    276.30899    316.99797    254.14283   -226846.22    226933.02    62.855142    23.331774 
159248000    275.18939    344.78971    271.01153   -226911.95    226987.78    73.778181    23.334477 
159252000    277.90029     362.9901    179.73147   -226953.68    227023.34    183.25863    23.335972 
159256000    290.66478    452.75132    265.78324   -226996.55    227063.47    186.96808    23.332697 
159260000    274.14025    452.18422     222.9999   -227023.73    227108.99    229.18433    23.340346 
159264000    279.19736    203.78891    269.21483   -227056.13    227124.82   -65.425917    23.339695 
159268000    273.65019    433.11097    228.11467   -227079.43    227152.93    204.99631    23.340387 
159272000    283.01205    206.64125    359.64093   -227096.92    227175.61   -152.99968    23.336382 
159276000    287.80995    379.96485    358.76946   -227145.59    227229.06    21.195387    23.334376 
159280000     285.4014    308.43019    420.83137   -227186.83    227258.79   -112.40117    23.335361 
159284000    276.40411     435.0093    376.20063   -227212.56    227281.17    58.808669    23.338668 
159288000      300.935    452.30909    453.85622   -227243.13    227304.64   -1.5471269    23.336744 
159292000    264.73551     491.0253    324.91306   -227270.28    227357.82    166.11224    23.329198 
159296000    253.44599    423.56317    188.93293   -227303.59     227382.2    234.63025    23.338975 
159300000    267.99487    334.99963    310.06414   -227358.53    227422.86    24.935485    23.338063 
159304000     281.1285    345.23268    351.28338   -227350.74    227430.77   -6.0506928     23.33803 
159308000    295.09741      223.819    243.16053   -227408.63     227461.8   -19.341528    23.337148 
159312000    300.24067    421.41375    556.37581   -227446.23    227499.65   -134.96206    23.338671 
159316000    326.07578    429.69045    298.18824   -227451.63    227497.58    131.50221    23.339644 
159320000    272.47728    230.84227    356.40926   -227468.07    227537.53   -125.56699    23.338652 
159324000    285.31417    300.97094    283.26441    -227508.7    227583.37     17.70653    23.334185 
159328000    305.88922    371.62021    341.66424    -227581.5     227648.2    29.955967    23.333621 
159332000    292.41131    308.35926    252.64852   -227624.43    227682.42    55.710738    23.331982 
159336000    326.65759    532.75882    159.94469   -227657.39    227712.72    372.81413     23.33329 
159340000    281.23071    370.78776    171.04007   -227703.54    227802.28    199.74769    23.335427 
159344000    303.53745    360.09736    490.97508   -227800.99    227859.32   -130.87773    23.327942 
159348000    306.81818    329.48352    308.63868   -227832.72    227883.77    20.844849    23.324356 
159352000    308.27931    279.36279    270.16568   -227849.36    227897.67    9.1971082    23.317911 
159356000    277.77807     438.9711    236.83296   -227881.85    227958.79    202.13814    23.320731 
159360000    281.13941    318.47586    352.87678   -227914.52    227995.87   -34.400915    23.322268 
159364000    276.40359     273.8814    334.03494   -227995.41    228061.96   -60.153546    23.321983 
159368000     289.7902    367.49595    347.46876   -228060.57    228137.43    20.027189    23.326882 
159372000    292.87742    291.67807    342.26638   -228085.71    228171.18   -50.588311    23.324368 
159376000    276.05171    269.61694    413.49697   -228126.66    228198.07   -143.88003    23.328421 
159380000    252.78511    211.08231    483.09949   -228182.11    228247.05   -272.01717    23.322569 
159384000    272.90371    347.12491    242.01826   -228218.61    228288.88    105.10665    23.323506 
159388000    269.39955    289.53765    281.16738   -228273.41    228340.16    8.3702664    23.322371 
159392000    318.47095    421.31064    476.51545   -228333.17    228397.84   -55.204809    23.323529 
159396000    309.92696     344.2272    464.87416   -228357.89    228426.41   -120.64696    23.325171 
159400000    315.20588    344.34358    360.41812   -228414.06    228453.06   -16.074546    23.327183 
159404000    307.45538    460.82204    347.87304   -228413.79    228480.83      112.949    23.328345 
159408000    276.98564     435.3049    419.41442   -228426.59    228512.61     15.89048    23.326312 
159412000    262.23614    524.58031    322.42518   -228458.53    228547.81    202.15513    23.331081 
159416000    306.15657     397.6573    201.16854   -228517.07    228573.02    196.48876    23.330278 
159420000    266.92032    459.94478    364.46225   -228542.87    228635.05    95.482537    23.331944 
159424000    297.00087    425.97525    270.48733   -228612.18    228670.75    155.48791    23.337022 
159428000    293.30762    629.57852    451.56451    -228667.1    228741.76      178.014    23.337309 
159432000     285.6661    204.14462    269.97231   -228723.23    228803.14   -65.827695    23.334729 
159436000    311.83168    460.12074    402.83539   -228796.08    228861.23    57.285348    23.335025 
159440000    290.60725    391.77936    392.30489   -228846.98    228913.77  -0.52553062    23.336304 
159444000    280.21829    254.01393    220.92156   -228906.29    228966.19    33.092371    23.339617 
159448000     315.6545    287.43419    251.23877   -228961.82    229014.03    36.195414    23.338722 
159452000    272.66109    263.89948      300.644   -228995.68    229063.77   -36.744522    23.331938 
159456000    237.62281    298.37804    344.48672    -229025.3    229116.14   -46.108684    23.334014 
159460000     287.9649     204.8602    234.60197    -229070.9    229153.01   -29.741768    23.332983 
159464000    281.36292    552.47249    328.30441   -229102.89    229171.73    224.16808    23.339335 
159468000    279.03422    445.13678    386.14642      -229109    229172.25    58.990359     23.34198 
159472000    264.94074    427.55382    383.08648   -229122.42    229223.22    44.467345    23.336752 
159476000    269.60954    262.08891    315.70694    -229154.2       229244   -53.618026      23.3399 
159480000    276.32101    242.12857    374.92129   -229165.24    229243.32   -132.79271    23.335281 
159484000    269.07521    320.03036    213.76982   -229207.88    229265.86    106.26054    23.329135 
159488000    281.97457    204.36957    400.57408   -229278.37    229339.82   -196.20451    23.330532 
159492000    277.73658    357.24361     320.8309   -229328.53    229399.86    36.412701    23.325199 
159496000    297.77687    273.62164    155.91976   -229370.23     229427.4    117.70188    23.322178 
159500000    271.15297    324.31775    263.25906   -229392.48    229476.52    61.058687    23.321724 
159504000    288.26584    257.27604    536.02603   -229409.33    229467.88   -278.74999    23.318823 
159508000    285.30285     451.6996    358.19617   -229418.66    229491.19    93.503437     23.31474 
159512000      277.396    509.75685     412.4651   -229467.63    229537.36    97.291749    23.318236 
159516000    270.28056    249.13435    419.54964   -229498.33    229578.04   -170.41529    23.323194 
159520000    295.82698    417.53552    417.58506   -229549.49    229602.82 -0.049546255    23.318956 
159524000    258.32924    272.54974    251.35283   -229587.68     229667.6    21.196914    23.315895 
159528000    290.31357    539.72724    364.41594   -229652.11    229708.36     175.3113    23.318913 
159532000    292.36341    396.50835    305.64512   -229697.68    229773.17    90.863235    23.319797 
159536000    292.23769    345.52389    379.63959   -229762.05    229826.15   -34.115699    23.325494 
159540000    287.89169    272.92515     316.5593   -229802.58    229875.14   -43.634144    23.324438 
159544000     310.0387     458.3878     203.9314    -229852.4    229907.36     254.4564    23.325899 
159548000    296.33956    342.22206    241.05189   -229889.35    229947.98    101.17017    23.327273 
159552000    285.33847    338.07579     277.6916   -229935.21    230009.61    60.384184     23.33159 
159556000    282.01856    390.53416    373.55527   -229983.25    230066.48      16.9789     23.32604 
159560000    279.69111    385.26879    271.46437    -230051.4    230136.31    113.80442    23.331692 
159564000    270.24924    295.49304    495.33829   -230075.08    230165.63   -199.84525    23.337783 
159568000    283.71097    271.61362    300.82847      -230128    230200.43   -29.214845     23.33805 
159572000    285.46839     507.2715    304.80846   -230141.99    230218.55    202.46305    23.334067 
159576000    275.42507    219.53975    298.95227    -230188.8    230275.05   -79.412513    23.332174 
159580000    284.09792    595.02342    300.00609   -230245.41    230309.06    295.01733    23.329876 
159584000    294.30996    296.18106    232.25674   -230272.34    230333.61    63.924325    23.334203 
159588000    281.66851    258.91967    339.72291   -230274.19     230339.6   -80.803232    23.338073 
159592000    280.10279    271.41667    275.89152   -230337.03    230408.75   -4.4748402    23.333407 
159596000    291.95724     236.0991    353.15512   -230376.98    230444.67   -117.05603    23.328801 
159600000    305.52529     382.0722    356.01579    -230432.6    230484.56    26.056415    23.329982 
159604000    294.60604    358.84523    440.29566    -230512.3    230577.59   -81.450429    23.328183 
159608000     268.9496    390.55201    350.91446   -230564.83    230646.65    39.637551    23.331379 
159612000    273.45288    356.19029    304.94256   -230605.74     230690.3    51.247729    23.327575 
159616000    287.14257     354.0985    215.80096      -230633    230711.83    138.29754    23.326882 
159620000     327.1959    240.58603    458.18255   -230683.92    230730.69   -217.59652    23.324733 
159624000    283.57987    439.90232    439.59813   -230691.96    230750.25   0.30419557     23.32105 
159628000    251.70065    305.64231    452.18268   -230734.33    230829.57   -146.54038    23.316768 
159632000    276.27966    311.11528    254.16366   -230759.29    230841.64    56.951613    23.319604 
159636000    272.72901    359.94134    347.33715   -230763.94    230840.16     12.60419    23.319306 
159640000    293.28423    295.92042    285.23725   -230836.47    230882.07    10.683164    23.325561 
159644000    257.98794    275.53661    312.40636   -230863.79    230934.85   -36.869756    23.320208 
159648000    269.23665    287.58143    395.35211    -230879.3    230965.32   -107.77068    23.321448 
159652000    295.52149    304.85243     329.9794    -230959.2    231025.84    -25.12697    23.318688 
159656000    287.59321    229.31591    179.55454   -231013.68    231079.88    49.761375     23.31976 
159660000    300.37573    335.79036    343.90018    -231053.8    231102.32   -8.1098198    23.323345 
159664000    273.70479    237.21453    274.34952   -231090.13    231165.54   -37.134992    23.320753 
159668000    283.56399    452.87634    344.91504   -231143.45    231211.01     107.9613    23.318988 
159672000    251.57374    412.78345    181.57935   -231153.53    231248.46     231.2041    23.322661 
159676000    300.35829    333.14787    341.99186    -231194.7    231244.15    -8.843991    23.319459 
159680000    300.93739    279.49401    294.27599   -231228.21    231291.93   -14.781975    23.326267 
159684000    263.07662    215.68802    399.35104   -231256.13    231351.95   -183.66302    23.324573 
159688000    283.09944    314.31155    255.40613   -231323.18    231402.57    58.905419    23.325583 
159692000    256.17986    321.95284     323.6393   -231332.75    231426.87   -1.6864653    23.328764 
159696000    270.65345    301.10029    453.34737   -231408.51    231488.55   -152.24708    23.332368 
159700000    272.07751    473.97243    471.47829   -231433.76    231517.47    2.4941486    23.330911 
159704000    291.01424    396.94269    212.93993   -231457.08    231536.19    184.00276    23.334472 
159708000    289.35446    296.39814    308.50729   -231482.36    231542.46   -12.109153    23.333944 
159712000     293.0735    230.44615    417.03228    -231497.7    231564.51   -186.58613    23.331381 
159716000    293.69809    439.31123    256.86055   -231550.51    231621.55    182.45068     23.33477 
159720000    294.42714     337.7673    151.56448   -231615.92    231687.12    186.20283    23.340761 
159724000    270.84789     274.9478    347.43747   -231646.18    231740.38   -72.489667    23.340618 
159728000      270.357    180.22615    489.26445   -231683.44    231762.95    -309.0383    23.334122 
159732000    289.89118    394.08238    295.79429   -231717.47    231787.86     98.28809    23.330715 
159736000    276.09636    184.54821    224.95464   -231741.75    231808.94   -40.406423     23.33307 
159740000    322.20405    529.34127    151.50681   -231807.61    231870.43    377.83446    23.329278 
159744000    276.67607    327.19771    261.55263   -231829.15    231898.59    65.645081    23.323921 
159748000    292.84182    393.70209    248.94316    -231854.4    231912.02    144.75893     23.32672 
159752000    288.55745    597.63004    331.50489   -231867.66    231964.48    266.12514    23.327649 
159756000    251.72163    323.79845    295.34517   -231931.44     232022.2    28.453281    23.335717 
159760000    279.93277    209.28325    390.78994   -231964.93    232039.23   -181.50668    23.330287 
159764000    279.76361     316.7471    552.40484   -232004.03    232073.25   -235.65774    23.327733 
159768000    285.39207    302.90016     491.7244   -232050.52     232123.4   -188.82424    23.326126 
159772000    286.35307    321.26822    270.82781   -232093.38    232156.73    50.440414    23.319085 
159776000    287.79447    344.61205    363.30454   -232159.78    232243.66   -18.692485    23.318452 
159780000    305.66257    445.99964    295.11162   -232171.21    232233.59    150.88803    23.316938 
159784000    286.40988    522.45121    353.86384   -232158.12    232250.25    168.58737    23.319052 
159788000    279.71426    358.92255    228.44672   -232194.89    232272.72    130.47583    23.318913 
159792000    301.26948    295.65873    510.86053   -232291.98    232348.05    -215.2018     23.31723 
159796000    266.99524    239.95613    261.12584   -232316.22    232388.42   -21.169714    23.317291 
159800000    296.89383    427.07118    509.66291   -232349.17    232426.51   -82.591733    23.313738 
159804000    281.12388    387.15282    315.57462   -232390.97    232450.52    71.578196    23.316384 
159808000    272.80615    237.89545    317.26092   -232404.67     232501.8   -79.365474    23.317776 
159812000    302.62146    640.00605    259.37502   -232458.39    232519.37    380.63103    23.317416 
159816000    280.51164    257.57302    345.39927   -232478.18    232561.25   -87.826249    23.317007 
159820000    282.46123    365.96823    354.39867   -232517.43    232582.01    11.569564     23.32212 
159824000    316.47934     307.8285    316.63431   -232566.46    232607.32   -8.8058065    23.325429 
159828000    268.14447    251.80791    279.21618   -232604.39    232681.72   -27.408267    23.324714 
159832000     284.4146    330.19183     347.4706    -232636.3    232710.52    -17.27877    23.322487 
159836000    281.15555    509.40186    317.04175   -232671.48    232757.59    192.36011    23.320649 
159840000    292.89541    275.99737    385.39342   -232700.11    232770.84   -109.39605    23.323917 
159844000     323.3353    298.72509    233.54553   -232790.63    232828.04    65.179559     23.31824 
159848000    306.18452    430.10445    452.88382   -232839.41    232905.53   -22.779373      23.3118 
159852000    305.94178    314.14929     508.6184   -232892.03    232953.59    -194.4691    23.315805 
159856000      265.041    268.11676    238.52091   -232893.32    232983.86    29.595848    23.317317 
159860000    313.19221    453.36844    402.00204   -232955.75    232998.34    51.366393    23.320783 
159864000    295.01719    551.90477    269.98444   -232979.83    233038.47    281.92033    23.321517 
159868000    283.11216     238.8729    281.15363   -233025.86     233074.2   -42.280726    23.324141 
159872000    282.64547    453.52722    390.15875   -233059.31    233138.85    63.368469    23.319395 
159876000    288.12519    302.32262    250.82738   -233103.45       233164    51.495238    23.321338 
159880000    298.16992     510.6612    711.01709    -233128.8    233185.35   -200.35589    23.318075 
159884000    286.71033     368.5179    191.49537   -233147.43    233230.26    177.02253     23.31374 
159888000    296.53084    349.79179    340.69961   -233203.89    233250.27     9.092183    23.314954 
159892000    285.60474    368.57376    224.25795   -233247.12    233320.91     144.3158    23.319238 
159896000    301.24827    427.09155    430.27408   -233309.64    233362.69   -3.1825324    23.322997 
159900000    301.39028    348.09349    356.53412   -233349.82    233407.16   -8.4406323    23.326712 
159904000    303.78277    320.34658    295.20109   -233381.78    233442.87    25.145492    23.330927 
159908000    274.53381    335.22389    389.44317   -233417.42    233499.73   -54.219278    23.330772 
159912000     297.7942    313.30425    227.18351   -233454.94    233527.38    86.120742    23.331272 
159916000     265.0533    316.55209    190.68114   -233503.08    233593.62    125.87095     23.32416 
159920000    255.19683    375.42588    289.65605   -233525.87    233619.43    85.769829    23.326827 
159924000    246.87186     318.8248    378.92541      -233568    233665.97    -60.10061     23.32461 
159928000    267.72678    269.24398    228.63738   -233591.69     233664.4    40.606604    23.326889 
159932000    280.71613    437.79168    324.37863   -233631.21    233706.36    113.41305    23.323784 
159936000    290.91851    237.51896    369.14406   -233678.65    233732.21    -131.6251    23.322727 
159940000    279.85363    370.24444    220.76527   -233690.26    233765.44    149.47917      23.3162 
159944000    296.73664    344.20613    373.73664   -233727.44    233807.54   -29.530505    23.310992 
159948000    299.70458    610.80003    309.65454   -233760.65    233839.48    301.14549     23.30777 
159952000    261.01138    215.87718     207.0178   -233808.22    233885.63    8.8593752    23.304629 
159956000    275.31638    543.11975    423.89725   -233850.59    233926.89    119.22249    23.306169 
159960000    267.14759    518.28877     445.9774   -233876.86    233946.17    72.311366    23.305294 
159964000    314.94245    356.93445    380.07495   -233910.74    233960.15     -23.1405    23.302326 
159968000    294.58054    380.57868    230.99126   -233942.69    234009.08    149.58741    23.306515 
159972000    267.10664    378.92123    342.69174   -233971.69    234048.63    36.229497     23.30471 
159976000    285.30452    216.93145    326.96619   -234019.53    234089.19   -110.03474    23.304008 
159980000    301.01109    348.94132    380.03099   -234061.16    234118.86   -31.089663    23.308501 
159984000    281.25955    349.69906    445.42921   -234059.89    234167.25   -95.730152    23.308717 
159988000    281.00835    339.80646    279.72651    -234121.2    234204.95     60.07995    23.309433 
159992000    286.80102    382.39164     334.6094   -234180.13    234269.64    47.782238      23.3052 
159996000    283.79065    331.01584    203.75106   -234291.29    234354.81    127.26478    23.304461 
160000000    260.55596    253.39501    252.55818   -234312.93    234405.86   0.83682586    23.306683 
160004000     284.9725    478.85234    430.11565   -234370.51    234441.39    48.736689    23.310504 
160008000    304.42552    326.84653    219.59264   -234413.54    234469.99    107.25389    23.310206 
160012000     274.2237    388.51887    243.71384    -234447.6    234520.35    144.80503    23.315273 
160016000    293.47926    476.82698    270.51554   -234494.98    234562.93    206.31144    23.322861 
160020000    276.36032    320.78782    332.44362   -234547.63    234610.58   -11.655799    23.317273 
160024000    274.27175    297.74493    371.65717   -234580.13    234662.22   -73.912235    23.314905 
160028000      295.382    461.89328    353.46075   -234580.12    234647.48    108.43253    23.317228 
160032000    301.20854    436.04445    226.59185   -234612.45    234684.39     209.4526    23.315079 
160036000    277.83982    165.26485    215.49609   -234635.88    234713.68   -50.231237     23.31347 
160040000    284.21858    337.45741     452.4544   -234675.41    234735.91     -114.997    23.307948 
160044000    279.59279    285.88209    513.89184   -234711.61    234787.62   -228.00975    23.311408 
160048000    315.99301    367.48827    374.81241   -234757.94    234810.39   -7.3241374     23.30441 
160052000    317.51533    371.60089    438.06357   -234789.85    234857.09    -66.46268    23.302722 
160056000    289.94655    375.65654    288.98184   -234831.09    234910.27    86.674698    23.298599 
160060000    265.39072    237.70342    361.86829   -234873.79    234962.11   -124.16487    23.300045 
160064000    263.66127     379.9094    188.87377   -234911.91    235002.77    191.03563    23.302368 
160068000    253.73895    268.03254    257.69824   -234925.84    235019.91      10.3343    23.306729 
160072000    287.70537    309.47262    296.43765   -234981.87    235056.21    13.034973    23.302762 
160076000    288.77787    304.91201    618.67363   -235004.28    235073.45   -313.76162    23.305109 
160080000     303.3941    521.23278    256.77455   -235074.39    235133.56    264.45823    23.302924 
160084000    309.69553    275.61614    304.98501   -235118.84    235171.76   -29.368868    23.299537 
160088000    275.26182    465.83482    284.89654   -235210.99    235282.43    180.93828    23.302619 
160092000    293.52499    361.59155    270.43665   -235273.86    235341.09    91.154896    23.302245 
160096000    269.36948    376.38043    243.40488   -235258.85       235341    132.97555    23.306995 
160100000    260.33516    270.46777    375.57387   -235288.29    235381.15    -105.1061    23.306876 
160104000    304.77699    272.93612    453.46059   -235349.23    235407.43   -180.52447    23.307247 
160108000    278.63826    383.08196    219.67371   -235400.72    235467.51    163.40826    23.306543 
160112000    253.58563    360.46014    219.93142   -235402.41    235485.99    140.52872    23.304201 
160116000    275.55902    230.58411    331.68137   -235435.62    235507.14   -101.09726    23.304767 
160120000    278.69705    245.43858    300.48955   -235467.36    235516.99   -55.050967    23.300667 
160124000    271.94603    233.73021    295.79797   -235499.92    235578.16   -62.067757    23.303862 
160128000    304.72275    389.61392    426.56836    -235571.1    235635.21   -36.954442    23.304506 
160132000    283.32707     263.1873    287.30059   -235605.11    235682.38   -24.113283    23.308764 
160136000    317.20605     243.8948    345.10969    -235628.1    235685.18   -101.21489    23.309526 
160140000    283.00275    496.21947    365.40818    -235673.4     235746.5    130.81129     23.30689 
160144000    270.28008     414.4782    331.47204   -235681.25     235757.5     83.00616    23.310965 
160148000    267.04682    386.74405    277.54664   -235726.39    235802.01    109.19741     23.31597 
160152000    266.09162    362.03678    322.58543   -235748.38    235822.85    39.451347    23.315619 
160156000    292.36561    367.85283    320.60918   -235812.34    235836.99    47.243645    23.315504 
160160000    300.84168    303.13678    419.12121   -235838.57    235893.73   -115.98443    23.313269 
160164000    275.11309    303.06359    446.74528    -235873.5    235944.89   -143.68169     23.30954 
160168000    282.05152    258.91119    369.84323   -235885.56    235958.82   -110.93204    23.307051 
160172000    284.38187    304.53544    258.91502   -235932.75    235992.15    45.620418    23.305818 
160176000    281.48111     575.6818    166.18896   -235946.29    236010.46    409.49284    23.309018 
160180000    309.66558    498.09612    384.11434   -235966.85     236024.5    113.98178    23.306992 
160184000    303.12279    228.21786    318.85574   -236001.91    236070.72   -90.637879    23.306978 
160188000    284.25499     233.1876    380.73183   -236015.85    236094.89   -147.54423    23.311829 
160192000    251.55178    389.22993     306.5137   -236051.13     236150.8    82.716231    23.311515 
160196000    285.28784     289.3926    365.53126   -236097.75    236182.39   -76.138662    23.307128 
160200000    272.33055    233.27324    278.96426   -236127.54    236211.02   -45.691029    23.301472 
160204000    263.19274    217.01978    387.14315   -236159.65    236258.71   -170.12337    23.301053 
160208000    281.40613    236.33901    352.98815   -236227.19    236326.58   -116.64913    23.301293 
160212000    231.27065    367.89562     152.8427   -236274.95    236398.71    215.05292    23.301615 
160216000    234.94657    330.75111    185.47722   -236319.68    236422.99    145.27389    23.307983 
160220000    273.52399    193.87627    158.61087   -236369.44    236443.66    35.265398    23.304084 
160224000    277.80122    333.81725    365.29232   -236385.52    236473.75   -31.475073    23.300254 
160228000    269.54113    343.16056    338.21681   -236430.03    236505.16     4.943748    23.301241 
160232000    252.64846    277.72114    310.81927   -236459.55    236564.65    -33.09813    23.301578 
160236000    272.61355    167.48095    244.87828   -236528.31     236622.4   -77.397331    23.301368 
160240000    278.35309    260.31448    300.48842   -236586.18    236658.15   -40.173948    23.305102 
160244000    258.51366    337.66676     302.6302   -236601.85    236696.36    35.036555    23.303681 
160248000    259.26305    206.32629    380.97622   -236623.17    236713.16   -174.64993    23.300821 
160252000    293.57538    339.95363    337.00956   -236679.04    236741.75    2.9440749    23.297315 
160256000    264.42759    513.54181    211.30319   -236712.67    236796.44    302.23861    23.303814 
160260000    284.91578     388.8591    220.94214   -236772.19    236824.51    167.91697    23.301729 
160264000    271.18938     354.4917    355.75799   -236794.08    236863.07    -1.266286     23.30087 
160268000    266.50203    326.85652    542.09041    -236836.1    236925.32   -215.23389    23.301183 
160272000    272.87168    413.61868    306.69885   -236925.36    236996.48    106.91983    23.302416 
160276000    277.11198    254.20063    220.49449    -236943.6    237015.85    33.706147    23.301146 
160280000    301.90447    403.45045    356.69138   -236979.86    237037.15    46.759071    23.304246 
160284000    314.55516     373.5274    262.55902   -237011.21    237065.47    110.96838    23.305717 
160288000    292.37028    434.51838    369.31813   -237054.15     237106.5    65.200246    23.303809 
160292000    289.14769    226.58688    387.32977   -237086.85    237142.15   -160.74289    23.296838 
160296000    289.45584    314.50661    416.27695   -237127.75    237202.77   -101.77033    23.292665 
160300000    265.86852    271.48889    374.68365   -237156.74    237243.87   -103.19476    23.297727 
160304000    269.73644    302.54601    389.74807   -237170.88    237240.26   -87.202068    23.298342 
160308000    279.50247    287.59728    403.72894   -237195.89     237272.7   -116.13166    23.291733 
160312000    269.96051     328.1597    314.22318   -237222.01    237299.09    13.936522     23.28981 
160316000    241.33684    411.32423    212.99005   -237275.58    237369.35    198.33419    23.293726 
160320000    297.76179    324.98306    353.79752   -237329.23    237397.11   -28.814457    23.287647 
160324000      314.406    325.20119    412.64235   -237414.62    237474.87   -87.441155    23.284393 
160328000    289.92777    290.69665    216.68969   -237477.36    237551.95    74.006967    23.285794 
160332000    273.85259    398.85066    457.34186   -237467.71    237552.52   -58.491193     23.28948 
160336000     293.0033    308.29895    465.26326   -237544.87    237601.56   -156.96431    23.291266 
160340000    285.11667    393.04437      245.261   -237578.88    237666.46    147.78336    23.289034 
160344000    252.72885    417.49436    295.79568   -237605.31    237698.61    121.69868    23.293501 
160348000    252.57283    398.69641    433.16959   -237630.46    237740.35   -34.473186    23.296576 
160352000    267.06662    429.74741    359.55652   -237645.35    237733.01    70.190891    23.296604 
160356000    257.14027    340.24632     203.8289   -237674.99    237762.45    136.41742    23.303467 
160360000    270.70014    313.73709    289.85998   -237700.84    237792.26    23.877107    23.307044 
160364000    288.53227    418.93577    278.62551   -237742.18    237822.76    140.31026    23.304592 
160368000    315.72085    376.92576    276.27439    -237797.4    237856.05    100.65137    23.306333 
160372000    281.26208    327.76454    181.01465   -237827.44    237908.34    146.74989    23.309976 
160376000    279.46831    407.37396    434.53861   -237852.24    237914.42   -27.164648     23.30236 
160380000    274.23497    295.50113    182.62459   -237896.75    237977.63    112.87653    23.302796 
160384000    292.51364    325.13861    387.52972   -237944.33    238008.26   -62.391107    23.303635 
160388000    299.28456    218.74665    343.84008   -237973.73    238056.36   -125.09344    23.298054 
160392000    278.43973     323.6156    240.68834   -238020.18    238080.87    82.927257    23.301242 
160396000    281.53757    308.73798    245.07174   -238035.15    238088.95    63.666234    23.300139 
160400000    284.32853     391.8514    326.75507   -238077.21    238141.08    65.096325    23.302368 
160404000    324.73768    453.50079    335.80033   -238128.48    238173.44    117.70045    23.300967 
160408000    267.43629    419.95439    439.32984      -238139    238220.44   -19.375447      23.3045 
160412000    270.83466    294.11988    177.07826   -238171.83    238261.57    117.04162    23.305906 
160416000    289.46404    358.65204    267.09358   -238199.16    238281.08    91.558459    23.305056 
160420000    296.27857    341.75485    428.07555    -238267.2    238317.21     -86.3207    23.307146 
160424000    285.37736    415.49837    266.71891   -238321.05    238379.85    148.77946    23.311733 
160428000    266.58772    249.32688    173.60466   -238362.66    238448.83     75.72222    23.313281 
160432000     239.6933    205.91243     347.2932   -238349.04    238439.98   -141.38077    23.311857 
160436000    299.32346    377.39478    449.67908   -238400.29    238486.33   -72.284304    23.311567 
160440000    263.68857    505.08441    312.79712   -238419.96    238518.14    192.28728    23.308305 
160444000    306.72321    271.46849    338.15212   -238490.74    238550.32   -66.683627    23.309847 
160448000    307.82099     202.8279    510.00362   -238523.54    238572.87   -307.17572    23.305725 
160452000    300.75727    283.01083    310.25194   -238564.14    238630.13   -27.241114    23.302983 
160456000    282.92539    392.30591    312.75395   -238596.42    238649.62    79.551969    23.307308 
160460000    281.29205    335.58835    321.70826   -238659.52    238730.94    13.880086    23.302284 
160464000    284.87458    351.79305    489.66443   -238672.42    238745.87   -137.87138    23.304537 
160468000    267.92637    302.64138    232.86001   -238703.95    238769.65    69.781371    23.307571 
160472000     291.5443    395.85553    272.39557   -238731.42    238791.14    123.45995    23.314623 
160476000    278.86891    322.35666    286.13849   -238786.39    238838.96    36.218175    23.314546 
160480000    279.71878    263.46911    222.28621   -238834.95     238907.3    41.182899    23.313287 
160484000    294.80932    260.23574    440.87472   -238896.78    238950.86   -180.63899    23.312862 
160488000    284.12842    311.84939    308.12882   -238936.13    238997.35    3.7205744     23.31799 
160492000    280.32946    222.07263    371.01712   -238974.18    239068.15    -148.9445    23.311252 
160496000    269.00165    366.69625    498.80986   -239009.32     239091.4   -132.11361    23.306609 
160500000    269.87447    343.66571    344.70113   -239066.59    239147.84   -1.0354156    23.305708 
160504000    292.55162    335.40521    354.32208   -239123.06    239198.65   -18.916873    23.302745 
160508000     255.0102    317.25748    168.05908   -239179.19    239267.72    149.19839    23.301531 
160512000    287.35906    422.11355    381.77425   -239228.18       239310    40.339303    23.301812 
160516000    286.49377    238.79455     236.6699   -239253.43    239342.73    2.1246449    23.309461 
160520000    301.44331    360.29108    375.04545   -239315.99    239364.33   -14.754362    23.311599 
160524000    266.67236    176.49747    242.43454   -239338.03    239407.07   -65.937068    23.310144 
160528000    286.90489    152.82172     260.2229   -239398.82    239472.73   -107.40118    23.307731 
160532000    294.47885    221.74674    279.23527   -239435.61    239512.16   -57.488533    23.314156 
160536000    292.60368    482.87264    252.76696   -239499.27    239560.96    230.10568    23.310564 
160540000    292.58946    368.64514    278.33013   -239529.16    239581.44    90.315015    23.309744 
160544000    292.21235    302.93058    179.78974   -239565.31    239633.74    123.14084    23.308746 
160548000    275.01581    543.98479     187.7266   -239608.77    239687.22    356.25819    23.309647 
160552000    286.65189    364.31133    285.89713   -239629.58    239703.54    78.414201    23.314557 
160556000    321.23801    233.21007    501.34921   -239699.38    239749.79   -268.13914    23.307064 
160560000    315.80715    595.10711    415.66528   -239757.69    239794.62    179.44183    23.301117 
160564000     253.6334    383.30607    295.32677   -239774.02    239849.59    87.979298    23.298149 
160568000    253.41983    429.17332     151.2509    -239793.8    239880.23    277.92242     23.30234 
160572000     275.8922    267.36315    289.54004   -239851.62    239928.76   -22.176884    23.301581 
160576000    251.42768    193.68103      182.444    -239882.5    239957.25    11.237024    23.307138 
160580000    279.33043    415.57006    325.96218   -239942.44    240040.15    89.607876    23.303886 
160584000    259.88001    656.63865    278.56774   -239969.93     240068.8    378.07092    23.308645 
160588000    218.76849    286.56174    291.07385    -239991.9    240112.82   -4.5121067    23.310133 
160592000    253.15865    303.21775    623.56361   -240043.18    240135.64   -320.34586    23.305601 
160596000     255.2054    408.83886    217.67386   -240067.32     240161.2    191.16499    23.310603 
160600000    285.65709    400.99907     482.3346    -240119.8    240196.63   -81.335531    23.314618 
160604000    269.04861    195.86653    303.65788   -240163.76    240251.09   -107.79135    23.316729 
160608000    302.55236    336.81995    329.19325   -240249.13     240311.2    7.6266976    23.318282 
160612000    268.35748    297.05338    244.68447   -240290.15    240374.55    52.368913    23.323484 
160616000    268.51179    208.31056     295.1489   -240288.31    240368.55    -86.83834    23.327891 
160620000    282.98627    298.47722    241.39448   -240326.74    240397.19    57.082737    23.330767 
160624000    267.60511    341.28647    315.69972   -240375.31    240447.21    25.586755    23.331183 
160628000    284.67098    344.67878      462.389    -240431.2    240503.96   -117.71022    23.328358 
160632000     276.3756     291.9627    226.46789   -240463.08    240549.28    65.494813    23.328093 
160636000    286.75599    416.36564    296.70198   -240480.09    240544.04    119.66366    23.331295 
160640000    270.82898    402.26719    248.08498   -240468.34    240559.14    154.18222    23.334106 
160644000     286.1359    263.81802    317.83057    -240485.2    240573.73   -54.012548    23.331804 
160648000    265.81576    326.26551    348.90399   -240540.76    240624.17   -22.638483    23.336745 
160652000    274.46972    458.69085    405.13291   -240568.41    240626.88    53.557941    23.336107 
160656000    283.37828    392.80497    351.14134   -240624.68    240672.73    41.663631    23.337245 
160660000    274.23002    187.29237    257.50388   -240663.75    240740.72   -70.211519    23.339639 
160664000    285.46064    471.17796    174.01307   -240719.67    240783.13    297.16489    23.341188 
160668000    283.84212    227.33203    297.12906   -240740.71    240813.82   -69.797033    23.341777 
160672000    285.38758    467.83072    294.18959   -240798.77    240858.86    173.64113     23.34636 
160676000    283.38662    624.81415     181.4324   -240826.55    240890.06    443.38175     23.34826 
160680000    272.47092    464.97883    276.90265   -240850.02    240917.14    188.07618    23.344533 
160684000    298.60962    367.13771    284.33882   -240877.02    240934.29    82.798889    23.344932 
160688000    320.73914    518.83244    357.75154   -240914.14    240928.24     161.0809    23.342566 
160692000    268.84418    309.83554    327.72615   -240900.49    240976.11   -17.890612    23.342307 
160696000    259.96705    312.70044    253.70463   -240920.41    241003.36    58.995806    23.344495 
160700000    284.23608    495.93157    351.94129   -240978.69    241034.82    143.99028    23.349657 
160704000    285.20853     660.5125    356.98498   -241002.79    241082.35    303.52752     23.35477 
160708000    301.53934    331.39472    213.22607   -241081.64    241137.83    118.16864    23.348061 
160712000    281.15151    370.37555    293.89179   -241146.45    241215.59    76.483759    23.344644 
160716000    296.84061    475.39595    154.63505   -241154.77    241220.54     320.7609    23.342744 
160720000    302.07778    427.08855    313.28888   -241189.13    241251.73    113.79966    23.345237 
160724000    290.43169    356.49524    373.49487   -241218.39    241288.46   -16.999627    23.341099 
160728000    264.41041    365.95643    466.13398   -241268.53    241324.38   -100.17755    23.337508 
160732000    280.75727    346.97002     464.3419   -241287.33    241363.09   -117.37188    23.335285 
160736000    307.10662    534.97164    350.16131   -241351.11    241396.98    184.81033    23.337688 
160740000    289.89357    533.95376    268.11685   -241378.98    241446.81    265.83691    23.339204 
160744000    265.06403    319.73593    183.44141   -241433.88    241514.91    136.29452    23.336356 
160748000    247.58063    296.03872    309.46257   -241440.94    241534.05   -13.423849    23.337203 
160752000     252.6135    447.98083    302.91637   -241514.15    241603.16    145.06447    23.337176 
160756000    256.63373    264.80493    146.98675   -241550.72    241638.87    117.81817    23.337689 
160760000    272.69636    349.05772    249.03823   -241642.14    241703.31     100.0195    23.335122 
160764000    281.26295    390.54891    241.86954   -241677.08    241757.51    148.67936    23.332113 
160768000    304.03693    445.75415    337.23361   -241699.79    241766.17    108.52054    23.332761 
160772000    274.15279    180.29446    426.57538   -241682.02     241763.6   -246.28091    23.329555 
160776000    284.11877    189.13336    231.52459   -241744.33    241825.04   -42.391233    23.331722 
160780000    249.29171    205.12116    335.09243   -241758.11    241855.79   -129.97128    23.325404 
160784000    283.54458    356.06535    222.42215   -241796.44    241854.53     133.6432    23.328021 
160788000    298.80112    555.56952    275.71651   -241831.49    241887.78    279.85301    23.333178 
160792000     268.9394    459.23832    182.30057   -241844.95    241925.95    276.93775    23.330591 
160796000    285.94484    219.59533    379.80447   -241907.89    241973.71   -160.20913    23.330279 
160800000    278.37986    180.85718    349.61421   -241953.95    242024.54   -168.75703    23.325959 
160804000    269.08704    315.79288    288.08408   -242005.29    242069.54    27.708799    23.328081 
160808000    294.21852    430.21916    345.70829   -242045.25       242104     84.51087    23.319726 
160812000    280.51778    501.70084    385.05806   -242097.28    242174.86    116.64277    23.314495 
160816000    278.97157    330.86257    252.10894   -242138.97    242220.51    78.753628    23.313029 
160820000    295.05894    372.45122    263.19502   -242167.31    242234.53     109.2562    23.311833 
160824000    280.11205    250.19709    334.99945   -242196.89     242272.9   -84.802364    23.309915 
160828000    277.65408    178.32693    282.54398   -242239.09    242304.49   -104.21705    23.312331 
160832000    286.17811    500.73569    344.12018   -242282.13    242350.29    156.61551    23.316583 
160836000    291.33724    276.66678    335.06646    -242315.6    242393.57   -58.399681    23.318085 
160840000    252.89532    300.47261    335.96756   -242365.03     242444.4   -35.494949    23.316288 
160844000    274.76415     373.9862    265.22211   -242437.91    242521.66    108.76408     23.31424 
160848000    268.60408    412.53092    399.66723   -242482.17    242561.37    12.863692    23.317018 
160852000    283.77854    351.39935    298.72728   -242544.52     242605.5    52.672065    23.320889 
160856000    275.55303    423.88397    324.08015   -242580.17    242658.36    99.803817     23.31497 
160860000    290.08238    285.31895    447.26552   -242582.52    242661.07   -161.94657    23.317264 
160864000    285.86994    397.33671    342.16964   -242655.41    242715.12    55.167069    23.321073 
160868000     307.1542    236.49571    307.10581   -242723.58    242778.37   -70.610092    23.317073 
160872000    274.02091    309.16068    341.07471   -242752.58    242847.11   -31.914031    23.317359 
160876000    291.49245    407.71454    288.17584   -242816.58    242872.88     119.5387    23.320192 
160880000    271.50528    575.92612    352.34001   -242855.99    242932.74     223.5861    23.322227 
160884000    275.57941    424.35992    398.63164   -242870.96    242941.38    25.728285    23.323053 
160888000    283.55267    479.73023    299.88683   -242920.16    242989.44     179.8434    23.324524 
160892000    283.59723    293.56279     305.3821   -242925.63    243004.89   -11.819313    23.326395 
160896000    269.67383    371.90774    362.17717   -242942.41    243027.45    9.7305749    23.331803 
160900000    286.35303    316.66393    538.60812   -243004.29    243066.45   -221.94419    23.332614 
160904000    260.02174    237.67696    252.06765   -243046.46    243133.32   -14.390686    23.332565 
160908000    281.85172    285.11047     496.9524   -243132.76    243210.32   -211.84193    23.332524 
160912000    287.47543    248.03493    400.67531   -243190.06    243252.22   -152.64038     23.32881 
160916000    304.63791    354.04252    280.87206   -243226.26    243283.99    73.170465    23.323507 
160920000    272.72909    262.23006    415.80775   -243243.04    243318.72   -153.57769    23.324395 
160924000    270.42777    258.23036    239.86124   -243241.09    243339.44    18.369121    23.324277 
160928000    269.68942    472.40599    323.19573   -243291.97    243383.04    149.21027    23.329139 
160932000    274.31198     293.0149      305.485   -243352.17    243420.86     -12.4701    23.330185 
160936000    259.77022    341.45105     389.7796   -243390.05    243485.51   -48.328549    23.333241 
160940000    273.20588    286.35388    307.99604    -243439.9    243532.91   -21.642164    23.340078 
160944000    260.35672    442.10331    182.86094    -243484.5     243569.8    259.24237    23.341752 
160948000    266.26819    387.54309    287.83496   -243518.91    243607.09    99.708131    23.341408 
160952000    285.66433    314.63999    435.60464   -243551.56    243628.25   -120.96464    23.335083 
160956000    277.70284    319.83504    185.47771   -243606.45    243686.67    134.35734    23.329625 
160960000    248.47925    506.01822    236.92432   -243642.67    243753.16    269.09389    23.334499 
160964000    294.98105    317.82583    536.77511   -243664.95    243750.71   -218.94929     23.33593 
160968000    301.75333      317.275    323.63981    -243726.6    243778.95   -6.3648057    23.331399 
160972000     316.2881    483.40665    249.99125   -243781.33    243841.54     233.4154    23.337622 
160976000    279.76622    342.92352    343.78545   -243823.89    243898.89   -0.8619339    23.333072 
160980000    270.62529    293.93224    302.25431   -243869.51    243960.47   -8.3220714    23.331529 
160984000    301.08442    455.01399    259.27639   -243972.83    244021.18     195.7376    23.332099 
160988000    284.19743    249.12372    235.36456   -243974.57    244057.61    13.759163    23.336197 
160992000    278.46864    554.09913    186.68595   -244008.34    244096.66    367.41318    23.332702 
160996000    289.90027    439.72914    347.71171   -244037.43     244109.8    92.017431    23.331446 
161000000    302.69227    446.10575    353.94814   -244084.79    244152.32    92.157607    23.335411 
161004000    302.31995    320.07666    368.22726   -244140.79    244214.93   -48.150602    23.337176 
161008000    246.72724    378.21611    324.29028   -244160.74    244265.15    53.925831    23.342506 
161012000    287.01638    312.40059    273.97127   -244210.27    244276.32     38.42932    23.341047 
161016000    287.75174    312.84164    441.20732      -244251    244315.88   -128.36568    23.344603 
161020000    256.90188    281.92891    423.15431   -244244.48    244337.77    -141.2254    23.339256 
161024000    292.53183     183.6839    279.64929   -244321.18    244374.13   -95.965382    23.334998 
161028000    263.86088    465.59713    336.56146   -244386.65     244473.8    129.03568    23.332954 
161032000    273.76957    397.92986    234.86902   -244418.16    244503.48    163.06084    23.330383 
161036000    282.19388    397.50061    535.33769   -244458.09    244547.76   -137.83708    23.330382 
161040000     289.3497    318.33559    376.37308    -244499.1    244579.05   -58.037492    23.331197 
161044000    288.57763    415.22586    348.76446   -244518.91     244581.5    66.461398    23.336788 
161048000    294.82199    195.89643    407.97053   -244561.29    244632.98    -212.0741    23.333306 
161052000    300.69214    337.72983     451.6784   -244630.51    244696.67   -113.94857    23.328623 
161056000    287.42931    258.96673    297.80931   -244693.51    244747.96   -38.842582    23.325636 
161060000    286.34892    421.91208    167.02443   -244745.27    244816.84    254.88764    23.327131 
161064000    301.97115    219.16962    251.18892   -244771.93    244829.29   -32.019302    23.327897 
161068000    326.16789    350.98911    500.11368   -244854.73    244905.54   -149.12456    23.332336 
161072000    316.48054    318.94029    342.39497   -244878.21     244930.9    -23.45468    23.334839 
161076000    299.46723    457.85134    598.03686   -244924.63    244996.34   -140.18553    23.332256 
161080000    283.49393    287.50258    387.00068   -244930.66    245009.72   -99.498093    23.331078 
161084000    263.49865    365.10547    120.18857   -244941.68    245044.88     244.9169    23.330871 
161088000    275.17868    185.86347    295.45564   -244967.53    245062.42   -109.59217    23.331066 
161092000    282.59944    398.19405    182.25782   -245014.71    245080.97    215.93623    23.332398 
161096000    264.70111    240.30453    219.26189   -245050.64    245146.18    21.042646    23.337367 
161100000    261.63053    313.33363    292.58937   -245101.29    245187.04    20.744264    23.340235 
161104000    307.24675    453.03681     447.0233   -245151.13    245211.81    6.0135077    23.341377 
161108000    293.83432    327.86693    228.65852   -245187.08    245250.13     99.20841    23.348095 
161112000    300.67657    183.15956    407.03149   -245241.08    245302.77   -223.87193    23.346692 
161116000    297.67301    336.59028    188.14433    -245317.8    245366.43    148.44595    23.348485 
161120000    260.09113    255.36148    269.22286   -245325.25     245424.7   -13.861386    23.347419 
161124000    264.38995    250.28376    297.58083   -245310.62    245399.14    -47.29707    23.352784 
161128000    267.25804    279.14611    247.00526   -245321.93     245409.6    32.140845    23.355987 
161132000    275.36552    537.07206    231.07291   -245361.89    245432.37    305.99915    23.357277 
161136000    268.28773     225.9756    220.15145   -245394.06    245470.79    5.8241483    23.359793 
161140000    272.99863    464.38279    161.17308   -245428.56    245504.13    303.20971    23.363379 
161144000    288.62773    492.32992    332.01697   -245467.25    245552.74    160.31295    23.366504 
161148000    281.45665    482.35773    173.02442   -245526.32     245604.2     309.3333    23.369889 
161152000    294.51259    340.97185    376.60827   -245593.23    245651.89   -35.636429    23.368516 
161156000    283.29882    480.01789    513.99251   -245640.64    245696.83   -33.974622    23.369266 
161160000    266.16342    320.96654    255.83424   -245662.26    245758.53    65.132308    23.363054 
161164000    250.71825    392.77154    291.46584   -245689.21    245778.18     101.3057    23.361209 
161168000    283.06397    440.63977    466.54211   -245746.31    245803.11   -25.902343    23.358898 
161172000    303.47951     320.0573    308.19644   -245801.64    245857.55    11.860865    23.363282 
161176000    311.20236     302.4286    529.83296   -245860.03    245913.46   -227.40436     23.36452 
161180000    301.60192    275.64168    386.50119   -245904.61    245960.65   -110.85951    23.368507 
161184000    231.23075    358.21909    449.19277   -245922.24    246022.29   -90.973681    23.366443 
161188000    270.16627    214.11884    300.38164   -245959.13    246035.78   -86.262799    23.362828 
161192000     284.8524    342.35311    397.65243      -246022    246094.93   -55.299314    23.366733 
161196000    274.84905    501.89683     276.9947   -246091.31    246179.17    224.90213    23.364025 
161200000    283.33508    207.71376    233.92444   -246107.42    246203.44   -26.210681    23.361767 
161204000    294.69169      480.221    384.87515   -246169.21    246230.61    95.345854    23.361794 
161208000    278.76751    382.19905    380.04217   -246178.37    246242.71    2.1568794    23.362726 
161212000    278.59744    495.40209    343.21267      -246201    246290.67    152.18942    23.363639 
161216000     284.8114    371.70319     303.5258    -246262.9    246327.74    68.177396    23.365267 
161220000    302.12101    425.59065    232.94194   -246291.56    246346.14    192.64871    23.363287 
161224000    287.78004    393.06155    274.89977   -246280.48    246356.97    118.16178    23.362672 
161228000    276.88197    285.88673    215.02673   -246328.04    246388.64    70.859997    23.364296 
161232000    286.08169    293.05742     483.0538   -246357.88    246414.39   -189.99638    23.360902 
161236000    274.71001     280.6682    389.77387   -246353.56    246437.13   -109.10568    23.356852 
161240000    303.37443    298.49698    391.92897   -246440.64    246505.06   -93.431991    23.355638 
161244000     298.8706    342.32011    274.48578   -246462.16    246526.12    67.834332    23.355671 
161248000    284.73794    331.33409    216.33568   -246514.51    246596.01    114.99842    23.354228 
161252000    306.06719    448.14701     399.4654   -246568.19    246629.15    48.681603    23.353117 
161256000    277.21061    243.63702    295.15185   -246615.37    246696.86   -51.514827     23.35371 
161260000    313.47839    590.75651    451.41503   -246668.33    246719.21    139.34148    23.353456 
161264000    277.81482    326.58907    301.95902   -246703.32    246781.97    24.630052    23.351102 
161268000    281.24708    494.56745    400.24075   -246753.27    246834.09    94.326705    23.354663 
161272000    306.25863    424.35309    334.51167   -246816.41    246870.63    89.841419    23.353265 
161276000    286.32583    384.45768    378.27903    -246844.4    246910.96    6.1786589    23.358256 
161280000    304.24684    285.25918    495.74225   -246867.97    246919.58   -210.48307    23.359044 
161284000    322.39568    328.34642    319.51978   -246922.28     246972.3    8.8266427     23.35902 
161288000    266.30638     289.7704    246.20805      -246984    247078.63    43.562351    23.357153 
161292000    285.87021    470.44492    271.84494   -247017.71    247111.11    198.59997    23.355477 
161296000     271.1626    406.17307    179.14069   -247036.53     247112.8    227.03238    23.358268 
161300000    263.56139    493.30842    441.13895    -247077.4    247159.51    52.169469     23.35465 
161304000    261.52136    402.50923    244.03029   -247092.28    247190.38    158.47894    23.353205 
161308000    276.59232    278.20629    321.51273   -247143.08    247221.94   -43.306443    23.352065 
161312000     268.9629    418.55115     372.7626   -247160.75    247251.37    45.788549    23.348603 
161316000    272.82824    346.55185    284.54848   -247213.84    247279.87    62.003363    23.349704 
161320000    285.40396    465.91513    252.91458   -247248.99    247321.29    213.00055    23.348876 
161324000    278.25566    380.68062    458.77024   -247300.45    247361.63   -78.089619     23.34842 
161328000    273.60023    295.84956    346.54494    -247340.7    247405.07   -50.695371    23.348877 
161332000    310.51173     315.6195    435.25019   -247384.28    247448.33   -119.63069    23.347967 
161336000    312.56978    399.87367    449.97954   -247431.51    247478.61   -50.105869    23.347668 
161340000    302.69446    305.34673    394.33551      -247440    247521.91   -88.988784    23.343809 
161344000    311.73776     360.9422    374.86559   -247504.84    247563.77   -13.923393    23.339607 
161348000    271.68158    320.26876    425.32577   -247527.87    247609.49   -105.05701    23.341421 
161352000    277.42797    197.01947    248.17673   -247565.07    247625.46   -51.157265    23.343502 
161356000    320.75906    475.15289    475.49806   -247588.43    247637.49   -0.3451694    23.347304 
161360000    282.43047    261.78083    247.66421   -247612.75     247693.8     14.11662    23.347793 
161364000    244.75929    305.92052    286.17733   -247649.46    247764.12    19.743188    23.346988 
161368000    245.80241    279.43562    305.87697   -247666.62    247755.79   -26.441353    23.347211 
161372000    289.50053    263.12842    334.68787    -247721.7     247794.8   -71.559449    23.346666 
161376000    285.67932    393.81372    255.84817   -247770.04    247833.09    137.96555    23.351104 
161380000    278.45372    283.04694      445.172      -247793    247859.58   -162.12505    23.353318 
161384000     276.0793    332.26893    398.07057   -247822.78    247904.08   -65.801642    23.352636 
161388000    265.22366    367.27186    318.20121   -247871.32    247945.16    49.070652    23.356246 
161392000     304.8499    436.64767    216.69373   -247916.68    247980.46    219.95394    23.356498 
161396000    299.41844    470.20099    477.70395   -247966.54    248020.74   -7.5029576    23.351831 
161400000    284.32003    238.74067    370.26169    -248029.6    248094.17   -131.52102    23.348339 
161404000    260.17506    394.57302     224.5648   -248027.78    248130.06    170.00822    23.342972 
161408000    275.17589    441.78188    231.09905   -248080.33    248169.96    210.68283    23.343333 
161412000    297.41424    433.25147    420.02299   -248152.21    248208.17    13.228478    23.336475 
161416000    281.01462    378.42629     394.9505   -248204.49    248272.26   -16.524217    23.344199 
161420000     272.8459    279.27496    288.69376   -248211.12    248305.88   -9.4188012    23.344021 
161424000    288.29451    303.41233    268.85346   -248281.63    248359.61    34.558871    23.346121 
161428000    262.94404    407.51914    290.68961   -248338.11    248433.17    116.82952    23.345862 
161432000    297.27961     263.2329     208.9878   -248410.52    248478.19    54.245098    23.345654 
161436000    298.49721    279.32508    441.07872   -248463.51     248525.7   -161.75363    23.345355 
161440000    293.61293    359.13326     329.3999   -248520.17    248601.74     29.73336    23.345797 
161444000    274.74859    328.48872    361.76191    -248599.1    248660.72   -33.273189    23.347197 
161448000    273.36143    280.77441     451.2514    -248639.8    248713.42   -170.47699    23.345828 
161452000    320.63748    409.68986    321.94546   -248702.12    248759.51    87.744393    23.343993 
161456000    296.11562    326.60461    540.95731   -248778.71    248830.06    -214.3527     23.34325 
161460000    245.76492    324.30673    333.57555   -248784.22     248866.1   -9.2688227    23.344886 
161464000    257.92515    356.89509     325.9301   -248816.38    248879.46    30.964996    23.343294 
161468000    284.94282    300.08091    345.17641   -248855.98    248925.59   -45.095495    23.347095 
161472000    276.27385    452.93805    359.85672   -248874.56    248925.92    93.081329    23.344524 
161476000    281.09683    479.75085    341.36692   -248914.41    248992.52    138.38393    23.348062 
161480000    272.87983     415.2775    312.17375   -248972.17    249058.67    103.10376    23.345643 
161484000    299.81208    343.18783    339.16705   -249038.82    249097.82    4.0207798    23.342419 
161488000    296.96583    342.87392     431.9045   -249077.01    249124.55   -89.030582    23.342547 
161492000    274.15814    244.23831    250.57432   -249103.97    249199.99   -6.3360079    23.343203 
161496000    274.20989    429.51316    268.02455   -249165.33    249254.65    161.48861     23.34328 
161500000    279.15945    259.29413    269.33093    -249220.5    249303.36   -10.036799    23.341486 
161504000     264.3056    304.29466    277.66405   -249268.37    249362.02    26.630611    23.347067 
161508000    264.72537    249.56936    212.84253      -249282    249383.06     36.72683     23.34344 
161512000    297.63737    215.17509    398.62407   -249355.69    249413.27   -183.44899     23.33936 
161516000    282.81098    285.08772    204.54713   -249412.18    249476.76    80.540593    23.337995 
161520000    303.98999    215.29845    234.58439   -249453.24    249507.85   -19.285933    23.338071 
161524000    296.66516    481.15347    380.31105    -249464.5    249534.71    100.84242    23.338699 
161528000    277.02399    334.44696    450.64286   -249494.43    249564.19    -116.1959    23.343314 
161532000    290.06477    328.58508      323.918   -249515.15    249587.99    4.6670848    23.339835 
161536000    267.67486    277.65933    340.34189   -249549.45    249620.62   -62.682562     23.33995 
161540000    288.42836    488.33171    370.11544    -249604.7    249687.05    118.21626    23.335963 
161544000    281.48385    370.45112    370.82384   -249663.32    249739.76  -0.37271573    23.338824 
161548000    268.01216    352.90631    333.07968   -249700.89    249795.19    19.826623    23.338503 
161552000     279.7211    421.86493     391.4843   -249760.33    249847.66    30.380629    23.344426 
161556000    259.22815    404.00727    362.44272   -249757.81    249860.18    41.564546    23.342996 
161560000    270.85925    283.22192    361.36099   -249834.28    249915.08   -78.139065    23.340512 
161564000    267.86885    338.16008    314.43225   -249886.42    249961.99    23.727835    23.339523 
161568000     275.4703    402.26719    286.46048   -249933.85    250006.86    115.80671    23.340554 
161572000    270.94726    273.74328    310.72277   -249992.27    250078.46   -36.979483    23.335813 
161576000    287.04705    425.07811    266.24626   -250050.26    250129.96    158.83185     23.33427 
161580000    303.71789    354.75338    286.89786   -250106.84    250173.15    67.855527     23.33333 
161584000    262.30036    457.00946    369.49239   -250141.21    250212.91    87.517067    23.336233 
161588000    274.78901    223.18856    382.78576   -250211.64    250278.19    -159.5972    23.339427 
161592000    264.16764    257.51636    287.94117    -250234.1    250310.68   -30.424817    23.339957 
161596000    329.02651    365.77937    295.01803   -250287.74    250327.01     70.76134    23.338947 
161600000    309.36634    574.07513    413.02325   -250315.08    250370.89    161.05189    23.346864 
161604000    274.39443     321.1288    327.67384   -250312.51    250400.03   -6.5450438    23.352489 
161608000    273.59695    281.24366    473.12228   -250334.68    250424.56   -191.87862    23.352758 
161612000    277.07874    256.37079    283.97926   -250352.36    250425.64   -27.608475    23.349884 
161616000    303.87406    488.35265    394.25582   -250371.49    250444.63    94.096829    23.347207 
161620000    269.99242    426.63806    285.79104   -250393.93    250499.39    140.84702    23.353378 
161624000    283.10743    404.22772     272.2121    -250432.2    250514.43    132.01563    23.350401 
161628000    256.34043    431.18469    350.57765    -250460.6    250564.49    80.607041    23.347474 
161632000    287.94825     374.0369    245.32981   -250532.13    250610.84    128.70709    23.342932 
161636000    296.19649    456.22688    275.57665   -250565.86    250647.73    180.65024    23.345461 
161640000    306.56926    417.78025    366.74879   -250605.69    250670.04    51.031466    23.346019 
161644000    279.13683     283.0657    224.44198   -250654.42    250730.08    58.623711    23.353209 
161648000    248.18814    218.77319    289.27788   -250686.52    250776.79   -70.504687    23.353303 
161652000    292.31228    326.66138     285.5637    -250756.1    250833.36     41.09768    23.355463 
161656000    249.61843    307.81857     348.7999   -250798.21    250896.88   -40.981331    23.358047 
161660000    297.71838    429.85694      302.083   -250848.91    250932.65    127.77394    23.360037 
161664000    255.40264    308.44248    382.52553   -250868.58    250962.86   -74.083047    23.361015 
161668000    286.02806    356.03486    186.64984   -250924.74    251018.73    169.38501    23.361219 
161672000    292.75642    305.15924    406.21275   -250990.13    251062.99   -101.05351    23.356647 
161676000    277.32479    236.26881    259.00493   -251029.75    251112.96   -22.736128    23.359744 
161680000    274.52518    276.68868    285.21031   -251038.05    251129.88   -8.5216269    23.360856 
161684000    300.52144    183.20037    300.75326   -251062.92    251150.04    -117.5529    23.358881 
161688000    303.43471    439.53474    498.15241   -251129.98    251186.49   -58.617666    23.352303 
161692000    294.57464    394.37759    271.09055   -251157.35    251234.95    123.28704    23.357167 
161696000    302.76259    338.97896    322.10379   -251206.13    251262.84    16.875174    23.347044 
161700000    296.38569    529.14207    349.03006   -251234.01     251296.2    180.11201    23.349503 
161704000     319.9794    300.88959    354.75886   -251277.45    251336.48   -53.869264    23.351663 
161708000    297.34349    301.00298    212.81842   -251310.68    251371.65    88.184561    23.349406 
161712000    290.62125    255.28162    239.36471   -251330.88    251403.97    15.916912    23.354563 
161716000    278.62357    272.41837     341.0687   -251342.72    251436.24   -68.650332    23.351235 
161720000    292.54806    410.36396    290.09283    -251429.9    251484.58    120.27113    23.352451 
161724000    287.69173    306.90153    300.47287   -251491.09     251560.1    6.4286539    23.353892 
161728000    299.02362    293.53639    434.75322   -251539.07       251604   -141.21683    23.348514 
161732000    281.33036    320.87778    169.21298   -251578.87    251667.03     151.6648    23.346883 
161736000    294.30454    370.19653    297.70042    -251620.5    251693.42    72.496115      23.3476 
161740000    276.36086    284.34374    437.62307   -251654.64    251738.26   -153.27932    23.356271 
161744000    295.64109    420.69602    401.95488   -251695.57    251760.09    18.741141    23.355763 
161748000    253.75948    314.81339     378.8856   -251713.45    251821.34   -64.072219    23.357397 
161752000    276.18259    297.12032     181.8033   -251752.39    251841.71    115.31702    23.355051 
161756000    277.98644    360.13507    302.38314   -251800.65     251879.5    57.751932    23.354612 
161760000    302.10262    319.30435    360.68206   -251846.84    251905.28   -41.377714    23.356255 
161764000    267.47576    457.28269    248.76816   -251887.76    251984.05    208.51453    23.356037 
161768000    311.97198    348.93561    687.94217   -251914.47     251978.9   -339.00656    23.355742 
161772000    287.40881    337.73016    317.51725   -251947.81    252018.62    20.212901    23.362705 
161776000    267.71026     435.4762    290.09169   -251973.92    252049.09    145.38451    23.363321 
161780000    262.47367    289.75907    267.41831    -251998.7     252082.6    22.340758    23.370166 
161784000    279.52524    230.79435    252.58558   -252031.14    252114.44   -21.791223    23.366699 
161788000    292.61772    413.05748    459.89706   -252061.07    252134.81   -46.839581    23.364696 
161792000    286.55732    371.55236    643.42028      -252077    252149.18   -271.86791    23.362761 
161796000    270.83024    316.07622    315.27954   -252096.97    252195.29   0.79668113    23.360463 
161800000    282.55314    341.39294    449.11372   -252172.59    252242.21   -107.72078    23.355995 
161804000    284.75448    310.72936    328.20371   -252239.04    252310.02   -17.474354    23.349668 
161808000     268.6779    238.42044    335.03464   -252278.05    252358.01   -96.614206    23.350662 
161812000    310.20525    312.69569    351.34282   -252329.22    252389.03    -38.64712    23.356547 
161816000    293.15525    358.36421    217.81244   -252383.83    252430.12    140.55177     23.35501 
161820000     263.6447    449.38558    287.07278   -252375.55    252473.92    162.31279    23.356748 
161824000     270.5632    251.43231     275.0492   -252429.41    252515.37   -23.616891    23.352286 
161828000     288.0787    445.78936     310.5165   -252464.99    252555.36    135.27286    23.349753 
161832000    284.77839    384.87892     307.4548    -252506.7    252590.77    77.424116    23.346791 
161836000     283.0769    331.89114    333.40242   -252545.76    252620.36   -1.5112764    23.348655 
161840000    316.53383    332.74527    292.69598   -252608.42    252656.83    40.049286     23.34677 
161844000    279.04737    231.09863    206.79795   -252633.67     252721.5    24.300676     23.34483 
161848000    294.94674    302.13605    397.33792   -252680.63    252752.52   -95.201875    23.345232 
161852000     304.6689    321.17325    356.55387   -252711.87    252773.45   -35.380618    23.345842 
161856000    280.79993    349.60304    259.35701   -252758.94    252839.79    90.246028    23.350069 
161860000    245.21328    263.37047     127.7452   -252778.61    252872.09    135.62527    23.351968 
161864000     293.6164    457.67582    259.80857   -252840.55    252909.82    197.86725    23.355488 
161868000    272.02903    213.98651     411.5155   -252857.16    252934.52   -197.52899    23.360894 
161872000    292.14902    442.78721    527.46165   -252907.42    252981.54    -84.67444     23.36639 
161876000    290.86014    356.64073    496.77626   -252970.29    253048.44   -140.13553    23.362465 
161880000    279.48075    268.73024     285.3241   -253013.74     253101.9   -16.593858    23.359865 
161884000    251.36995    380.83582    409.32311   -253082.93    253189.83   -28.487288    23.359757 
161888000    312.69888     349.5357     426.8562   -253129.42    253194.18   -77.320493    23.357409 
161892000    281.09579    400.78998    361.91194   -253188.66    253256.49    38.878038    23.355497 
161896000    314.29949     302.9242    454.27933   -253208.12    253262.24   -151.35512    23.351079 
161900000    292.61799     208.3635    463.25497   -253243.66    253308.23   -254.89147    23.349532 
161904000     280.2161     245.8212    331.40613   -253304.55    253388.62   -85.584923    23.351944 
161908000    280.99984    353.83793    174.18488   -253339.71    253421.49    179.65305    23.353655 
161912000     263.2321    355.99263    224.86223   -253391.27    253483.21     131.1304    23.351794 
161916000    306.12839    271.79355    349.52502   -253438.07    253493.43    -77.73147    23.347731 
161920000    289.51709    429.01384    354.98725   -253462.12    253546.51    74.026595       23.348 
161924000    280.67764    345.65495    519.25016   -253489.68     253576.2   -173.59521    23.350237 
161928000    289.26303     399.5763    255.54878   -253533.54     253604.8    144.02752    23.353477 
161932000    295.03385    347.48971    320.97189   -253550.07    253636.52    26.517819    23.349758 
161936000    270.21531     283.2107    325.87228   -253564.98    253643.78   -42.661585    23.349449 
161940000    297.55528    229.72983     456.5314   -253602.85    253665.77   -226.80157    23.345371 
161944000    292.33887    400.40838    381.42433   -253635.73    253694.54    18.984049    23.341609 
161948000     287.6262    358.55646    354.73732   -253670.93    253737.57    3.8191317    23.347839 
161952000    303.19892    321.08775     378.8657   -253722.68    253786.84   -57.777943    23.348875 
161956000    265.71374    254.27918    266.94301   -253735.62    253839.54   -12.663836    23.348789 
161960000    282.40029    536.33604    194.09927   -253774.22    253853.69    342.23676    23.349756 
161964000     269.5487    286.34211    193.00178   -253790.95    253874.66    93.340336     23.34031 
161968000    273.62165    505.26533    358.00578   -253846.76    253928.55    147.25955    23.342837 
161972000    262.19791    343.40999    164.48197   -253873.86    253959.98    178.92803    23.341909 
161976000    281.13165    464.77538    306.32581   -253915.59    254004.08    158.44957    23.349164 
161980000    261.09395    352.57435    442.89409   -253942.91    254034.93   -90.319747    23.347781 
161984000    293.73713    362.33582    457.30325   -254001.32    254078.76   -94.967428    23.350538 
161988000     274.1297    324.88001    138.25852   -254045.82    254115.65    186.62149    23.354709 
161992000    286.18774    327.37023     255.1038   -254055.06    254128.71    72.266432     23.35428 
161996000    288.75103    413.29471    265.61565   -254105.35    254176.81    147.67906    23.351168 
162000000    276.80017    447.95071    378.86393   -254138.31    254213.47    69.086781    23.356061 
162004000    274.38522    494.18207    159.93325   -254140.74     254227.8    334.24882    23.358454 
162008000    253.12328    273.92274    296.28129    -254167.1    254247.47   -22.358545    23.360452 
162012000    290.16887    226.40464    214.90964   -254202.59    254273.41    11.494997    23.363011 
162016000    270.02464    435.49014    207.53084   -254237.51    254330.49     227.9593    23.367659 
162020000    267.36319    424.47729    210.40602   -254277.21    254370.81    214.07127    23.366566 
162024000     263.6334    305.59095    256.33316   -254350.85    254443.46    49.257786    23.369731 
162028000     291.1093    323.79747    355.83006   -254408.46    254477.98   -32.032586    23.370048 
162032000     317.7585    336.84087    265.53359   -254466.16    254509.48     71.30728    23.369226 
162036000    264.76622    274.69635    319.72098   -254495.54    254583.79   -45.024631    23.367247 
162040000    259.65352    361.60456    260.21387   -254539.96    254619.87    101.39069     23.36647 
162044000    288.92967    215.49433    356.42232   -254595.88    254668.37   -140.92799    23.371924 
162048000    270.15788    272.93222    303.92232   -254639.41    254731.08   -30.990104    23.374512 
162052000    274.98799    273.17542    436.12476   -254679.92    254757.56   -162.94934    23.371586 
162056000    265.19237    258.02461    301.20862   -254726.35     254815.6   -43.184007    23.367606 
162060000    275.82021    413.47175     219.0091   -254774.59    254867.15    194.46266    23.375606 
162064000    335.43976     277.5462    448.65856   -254840.11    254874.53   -171.11236    23.378089 
162068000    274.30554    383.24795    298.23401    -254842.1    254927.59    85.013937    23.379348 
162072000    300.80807    355.20817    422.61538   -254851.45     254924.3   -67.407208    23.378897 
162076000    278.99843    353.67927    416.10253   -254895.52    254988.29   -62.423256    23.379548 
162080000    280.01776    301.55298    294.69477   -254939.14    255028.27    6.8582094    23.375525 
162084000    294.71267    393.82228    300.99692   -255019.18    255088.66    92.825363    23.375844 
162088000    292.48146    460.53598    418.84533   -255055.61     255132.5    41.690648    23.372222 
162092000    264.71598    301.81294    258.22253   -255083.39    255173.19    43.590413     23.37572 
162096000    275.77047    406.13727    373.27602      -255119    255205.13    32.861255    23.375925 
162100000    284.57728    553.86449    249.67936   -255155.76    255229.41    304.18513    23.370473 
162104000    293.66366    253.24725     449.2027   -255176.18    255241.64   -195.95545    23.367588 
162108000    269.26141    349.97653    327.55028   -255191.36       255270    22.426244    23.365461 
162112000     287.3772    413.05402    262.37424   -255194.18    255284.43    150.67978    23.362444 
162116000    277.52172    357.14079    251.03404   -255227.52    255300.46    106.10675    23.361927 
162120000    272.76309    297.53732    230.72935   -255265.87    255356.23    66.807969    23.363013 
162124000    272.39534    334.60176    524.92404   -255289.89    255385.55   -190.32228    23.363125 
162128000    291.09103    388.65372    241.70842   -255364.06    255448.74     146.9453    23.365649 
162132000    286.17409    317.81695    279.54068   -255384.79     255458.6    38.276262    23.360403 
162136000    292.36713    314.07555    383.18118   -255418.36    255497.79   -69.105628    23.360044 
162140000     295.3896    446.61583    433.00732   -255467.75    255532.34    13.608515    23.361144 
162144000    287.25427    379.42055    334.88758   -255499.14    255568.37    44.532967    23.357691 
162148000    280.59053    352.35172    349.23409   -255525.98    255602.41    3.1176312    23.352375 
162152000    264.21191    284.53154    304.32523   -255564.59    255635.85    -19.79369    23.353551 
162156000    282.90594    247.43689    266.96932   -255596.79    255685.86   -19.532429    23.353768 
162160000    298.31682    328.77014    325.08266   -255644.26    255719.03    3.6874727    23.358903 
162164000    300.27083    311.49828    251.93255   -255708.74    255757.86    59.565732    23.360952 
162168000    285.10834    218.31469    308.43931   -255744.56       255813   -90.124624    23.362623 
162172000    276.98725    309.21587    328.85994   -255802.38    255868.15   -19.644068    23.363848 
162176000    285.35258    185.62255     300.3319    -255792.8    255880.32   -114.70936    23.365966 
162180000    264.26789    276.82109    319.78819   -255822.78    255912.29   -42.967103    23.366413 
162184000    286.66002    282.86592    480.72186   -255857.73    255951.29   -197.85593    23.361739 
162188000    298.71132     302.6484    429.81358   -255872.05    255947.96   -127.16517    23.357524 
162192000    316.91948     284.6622    311.99742   -255944.58       256004   -27.335214    23.357954 
162196000    289.51596    531.39395    199.88326   -255992.12    256053.99    331.51069    23.357882 
162200000    254.89599    224.71951    324.04022   -256022.43     256108.5   -99.320711    23.355351 
162204000    286.99149    172.18783    305.18602   -256076.57    256145.52   -132.99819    23.355791 
162208000    291.70508    368.05169    354.27906   -256114.31    256193.74    13.772629    23.359503 
162212000     279.7034    377.75604    256.96749   -256148.12    256223.47    120.78855    23.359211 
162216000    278.47465    328.13541    489.90417   -256205.36     256278.6   -161.76876    23.363107 
162220000    284.61813    527.26862     610.8134   -256287.85    256355.01   -83.544775    23.364099 
162224000    282.80562     356.0584    444.76638   -256288.71    256370.78    -88.70798    23.361445 
162228000    295.86435    415.91806    387.64281   -256343.26    256427.06    28.275258    23.356982 
162232000    272.67914    408.64404    298.73213   -256362.75    256452.47    109.91192    23.356456 
162236000    279.99761      273.427    242.11529   -256432.77     256497.4    31.311711    23.357535 
162240000    279.72276    419.08493    237.33896   -256513.28    256581.92    181.74597    23.358423 
162244000    282.94478    388.25206     233.8804   -256535.29    256605.25    154.37166    23.357744 
162248000    288.75285    467.87496    295.80038   -256583.18    256663.18    172.07458    23.361648 
162252000    312.68741    570.65463    356.60889   -256623.26    256689.93    214.04574    23.357146 
162256000    302.15245    473.47527     257.6948   -256678.76    256731.29    215.78047    23.355522 
162260000    258.20307    328.70742    177.01039   -256701.45    256798.26    151.69703    23.358459 
162264000    280.56929    452.21143    215.28018   -256730.68    256809.26    236.93125    23.362354 
162268000    267.61185     343.6756    399.75607    -256811.3    256908.28   -56.080468    23.360579 
162272000    264.09858    412.74405    434.31666   -256857.18    256936.82   -21.572607    23.356568 
162276000    239.46146    235.07088     541.6993    -256877.7    256978.17   -306.62842    23.358181 
162280000    298.21466    290.94884    275.03372   -256953.41    257027.45    15.915121    23.356248 
162284000    309.77866    463.40722    511.82215    -256967.2    257028.38   -48.414937    23.350853 
162288000    271.69185    395.69492    258.15946   -256979.09    257062.58    137.53546    23.351662 
162292000    288.51113    233.14779    274.23819   -256990.11    257089.44   -41.090395    23.347881 
162296000    292.34997    471.94355    247.80472   -257055.65    257128.06    224.13883    23.352411 
162300000    246.43303    314.97453    392.08868   -257048.35     257150.5   -77.114151     23.35498 
162304000     263.9015    243.19787     503.4751    -257104.3    257184.53   -260.27724    23.354597 
162308000    265.15029    287.49661    304.46053   -257168.77    257242.95   -16.963919     23.35408 
162312000    302.93333      310.788    398.40282   -257196.71    257257.03   -87.614815    23.351863 
162316000    314.52746    397.37725    303.45185   -257247.48    257318.87    93.925397    23.351318 
162320000    271.76413    343.25529    331.35857   -257273.83    257354.76    11.896719    23.346467 
162324000    267.84957    299.98401    390.95114   -257302.49    257373.67   -90.967125    23.342448 
162328000    296.73603    271.78502    394.88285   -257370.25    257438.96   -123.09783    23.344406 
162332000    297.65003     419.4559    334.80831   -257403.18    257470.95    84.647587    23.345384 
162336000    294.79981    340.83684    353.41126   -257430.79    257508.95   -12.574423    23.345474 
162340000     251.4279    270.77611    200.14538      -257485    257588.19    70.630728    23.343115 
162344000    292.12293    369.00028    354.84295   -257530.29    257611.86    14.157329    23.337026 
162348000    282.81137     331.3998    368.68491   -257580.06    257665.08   -37.285111    23.339922 
162352000    264.15506    422.92537    361.81806   -257632.68     257717.7    61.107305     23.34305 
162356000    263.86608    242.44527    572.77565   -257690.02    257777.34   -330.33038    23.339816 
162360000    266.90468    430.97454    456.03667    -257696.4    257785.82   -25.062129    23.334457 
162364000    275.67465    284.21282    217.21138   -257722.15    257808.89    67.001443    23.328154 
162368000    270.43214    467.62862    319.50533   -257781.69    257860.88    148.12329    23.330471 
162372000    289.06162    275.13654    325.41473   -257839.47     257893.4   -50.278195    23.328474 
162376000    288.78985    275.67087    370.44381   -257860.21    257945.09   -94.772939    23.329822 
162380000    291.09682    376.58872    514.45483   -257898.76     257984.6   -137.86611    23.326999 
162384000    281.49007    287.87677    461.01046   -257933.53    258026.65   -173.13369    23.323815 
162388000    299.08823    514.74659    428.57445   -257980.21    258045.19    86.172148    23.326612 
162392000    286.31284     280.5005    462.49828   -258039.95    258099.29   -181.99779    23.328307 
162396000    263.18912    326.60229    283.77187   -258059.26    258152.01    42.830415    23.327061 
162400000    295.77218     425.7768    243.78459   -258135.27    258201.65    181.99221    23.327562 
162404000     302.6315    436.98435    529.99224    -258196.9    258249.32   -93.007894    23.323388 
162408000    266.13247    305.96871    367.71328   -258210.85    258311.94   -61.744567    23.320657 
162412000    317.08987    366.49611    373.12645   -258298.61    258346.22   -6.6303459    23.323791 
162416000    285.77742    268.68706    389.97578   -258350.47    258411.74   -121.28871    23.325601 
162420000    268.99051    335.34841    424.21218   -258386.16    258470.25   -88.863768    23.325469 
162424000    272.06995    356.95366    275.08313   -258443.87    258527.74    81.870531    23.329785 
162428000     267.3278    288.52291    416.69169   -258482.92    258559.03   -128.16878    23.327257 
162432000     293.5074    406.52707    292.38399   -258498.31    258548.73    114.14308    23.329722 
162436000     246.6494    259.59726      305.864   -258529.52    258623.77    -46.26674    23.326008 
162440000    302.89257    373.60136    286.63567   -258602.93    258670.04    86.965686    23.329915 
162444000    324.81614    454.45205    613.24543   -258626.98    258680.93   -158.79338    23.327587 
162448000     291.4454     387.4354    367.06492   -258634.04    258704.38    20.370482    23.328792 
162452000    278.75512    342.99439    470.90651   -258686.37    258763.49   -127.91213    23.326447 
162456000    298.98468    322.56811    484.61391   -258713.26    258774.18    -162.0458    23.328682 
162460000    303.40745    224.86465    444.68553    -258763.2    258821.76   -219.82088    23.331284 
162464000    269.36189    362.74486    164.31784   -258794.01    258857.54    198.42702    23.333302 
162468000    309.68357    352.44791    372.75871   -258788.14    258856.57   -20.310803     23.32914 
162472000     301.2436    369.40626    349.65028   -258841.27    258913.85    19.755974    23.329226 
162476000    256.62044     319.4442    170.67648      -258875    258954.53    148.76772     23.32915 
162480000    275.11514    480.55086    343.21772   -258911.69    258990.87    137.33313     23.32629 
162484000    272.63646    427.69662    421.71086   -258933.35    259013.52    5.9857583    23.327392 
162488000    283.11547    514.54757    333.63244    -258991.4    259065.72    180.91513    23.326328 
162492000    283.46006     347.3034    290.51998   -259010.06    259085.63     56.78342    23.329064 
162496000    292.19314    470.51814    293.33196   -259032.81    259128.08    177.18618    23.332273 
162500000    259.29055    420.94879    219.05768   -259046.38    259132.58    201.89111    23.331994 
162504000    265.97633    274.63913    316.00623   -259076.77    259177.24   -41.367095    23.331742 
162508000    247.72299    234.56715    353.04814    -259143.5    259237.47   -118.48099    23.329759 
162512000     280.7246    382.31998    252.64905   -259199.43    259295.14    129.67093    23.329699 
162516000    329.09509      290.402     319.2479   -259232.25    259299.62     -28.8459     23.32703 
162520000    252.99802    350.24236    311.39418   -259269.92    259367.19    38.848181    23.324183 
162524000    272.98925    401.78925    208.25635   -259327.64    259407.06     193.5329    23.326991 
162528000    281.68329    243.48596    441.65131   -259385.06       259451   -198.16535    23.324781 
162532000    274.45442    375.22224    246.43845   -259388.68    259475.22    128.78379    23.324587 
162536000    302.29909    359.68729    444.62585    -259431.7    259515.65   -84.938564    23.318164 
162540000     261.4622    242.16591    288.67423    -259484.8    259578.82   -46.508318    23.318001 
162544000    279.17931    228.75295    343.43957   -259540.34    259630.13   -114.68662    23.318599 
162548000    269.71895    334.76599    290.40012   -259587.75     259669.4    44.365867    23.313935 
162552000     281.6345    184.59677     295.3163   -259615.21    259694.64   -110.71953    23.316276 
162556000    266.15973    439.77965    195.65667   -259662.74    259757.27    244.12299    23.317747 
162560000    291.21812    333.65138    271.25725    -259698.7    259786.72     62.39413    23.315545 
162564000    282.82582    188.15892    176.06741   -259721.11    259809.69    12.091504    23.314538 
162568000    266.03905    305.84321    318.65448   -259719.26       259821   -12.811261    23.314693 
162572000     273.7075    349.34825    206.81648   -259754.01    259831.93    142.53177    23.315656 
162576000    279.26427    322.96768    364.83083   -259794.76    259889.55    -41.86315    23.313575 
162580000    290.14559    294.46291       288.22   -259820.74    259903.05    6.2429008    23.316501 
162584000    317.14984      488.482    260.46965   -259908.63    259952.05    228.01235     23.32031 
162588000     289.9551    327.23438    462.53701   -259933.37    260017.93   -135.30262    23.318276 
162592000     246.8338    379.37263    338.15575   -259985.28    260084.45    41.216881    23.311665 
162596000     280.4632    224.19971    483.17631   -260033.73    260117.57    -258.9766    23.316487 
162600000    279.44678    321.86014    262.33413   -260036.64    260142.15    59.526011    23.315723 
162604000    281.20187    357.16092    210.37227   -260070.51    260151.88    146.78866    23.316153 
162608000    242.43475    302.04793    172.65025   -260088.96     260198.3    129.39769    23.313061 
162612000    318.44523     481.0614    521.17461   -260186.81    260243.04   -40.113205    23.312775 
162616000    318.22121    524.95375    329.39283   -260245.81    260301.94    195.56092    23.314679 
162620000    267.53665    308.15099    317.58327   -260283.71    260385.13   -9.4322737    23.308914 
162624000    279.15542    354.85895    449.19641   -260316.89    260406.37   -94.337465     23.30438 
162628000    276.62004    414.60529    399.73329   -260371.16    260452.56    14.872004    23.307532 
162632000    303.28876    372.17445      381.534   -260439.53    260517.54   -9.3595517    23.306019 
162636000    270.50783    249.37864    394.99873   -260442.76    260528.03   -145.62009    23.310092 
162640000    292.62883    401.68179     493.0367   -260460.87    260530.56   -91.354909    23.313168 
162644000    301.80596    434.49108    591.56867    -260519.3     260574.7   -157.07759     23.31459 
162648000      294.847    334.15437    310.44408   -260556.69    260635.87    23.710283    23.312229 
162652000    286.11651    554.05463    265.30868   -260587.24    260651.33    288.74596    23.313872 
162656000    274.81688    427.43334    219.47022    -260609.4    260701.44    207.96312    23.314209 
162660000    245.00625    377.95944    264.43064   -260650.22     260750.4     113.5288    23.315621 
162664000    266.40466    341.69298    162.82233   -260700.42    260788.04    178.87065    23.313974 
162668000    289.24839    363.57749    345.97765   -260796.34    260843.51    17.599833    23.312771 
162672000    277.10138    377.53979     171.4213   -260818.26    260887.67    206.11849    23.312388 
162676000    303.85044    252.77747    478.32296   -260835.43    260908.33   -225.54549    23.318487 
162680000    274.62347    223.72084    409.79881   -260846.12    260920.54   -186.07797    23.321047 
162684000    273.12419    327.99395    385.16769   -260897.01    260976.81   -57.173739    23.321015 
162688000    291.67279    441.04109    304.86207   -260935.67    260999.32    136.17902     23.32533 
162692000    301.00335    414.54791    314.82655      -260967    261022.99    99.721364    23.325935 
162696000     305.8128    207.11588    391.26859   -261025.97    261105.38   -184.15271    23.325798 
162700000    266.05139    619.02729    192.62205   -261068.89    261158.01    426.40524     23.32269 
162704000    301.40917    475.83395    327.06955   -261120.46    261182.01     148.7644     23.32128 
162708000    271.17997    511.49842    254.49687   -261143.37    261215.58    257.00154    23.321006 
162712000    296.17603    316.76646    307.63806   -261157.84    261226.12    9.1284007    23.321279 
162716000     268.8844     148.2443    314.74658   -261193.55    261286.49   -166.50228    23.317063 
162720000     257.5273    284.47648    170.49095   -261240.36    261326.91    113.98553    23.319791 
162724000    309.42468    212.44801    292.96543   -261285.57    261345.56   -80.517423    23.315164 
162728000    281.95377    423.80745    422.84295   -261318.23    261406.34   0.96450021    23.317182 
162732000    264.34678     351.0721    209.43797    -261373.4     261437.8    141.63414    23.319305 
162736000    287.20366    520.88624    356.87718   -261406.85    261487.14    164.00906    23.322653 
162740000    258.86664     276.4306    258.23129   -261448.93    261547.61     18.19931    23.319145 
162744000    285.53686    327.49533    201.79983   -261494.77    261599.25     125.6955    23.317954 
162748000    271.36868    324.92941    276.19701   -261566.19    261647.93    48.732397    23.317438 
162752000    305.69099    258.40889    400.77814   -261602.83    261685.19   -142.36924    23.315862 
162756000    270.40212    354.10556    303.33973   -261652.94    261747.57    50.765824    23.310854 
162760000    277.97514     381.7238    266.86406   -261695.09    261773.26    114.85974    23.308905 
162764000    271.95341    374.00554    367.42962   -261719.63    261821.84    6.5759249     23.30961 
162768000     240.5731    305.87016    305.59834   -261796.77    261887.84   0.27181829    23.308196 
162772000    298.37057    113.67406    479.47654   -261834.86    261903.46   -365.80248    23.308559 
162776000    268.73832    217.38019     389.1105   -261853.52    261944.68   -171.73031    23.307695 
162780000    282.47776    285.78876    311.39724   -261887.14    261966.18   -25.608478    23.307224 
162784000    300.82465     518.3481    370.54816   -261933.58       262005    147.79994    23.307865 
162788000     327.3918    349.26666    416.06983   -262001.58    262036.59   -66.803174    23.308511 
162792000    275.05703    306.90712    227.60874   -262017.93    262101.93    79.298385    23.308951 
162796000    305.45294    413.66455    287.26508   -262047.17    262089.24    126.39948    23.314974 
162800000    303.19606     293.9951    285.53481   -262069.34    262125.27    8.4602868    23.314538 
162804000    270.24898    190.21803    149.54722   -262097.19    262184.85    40.670809    23.316217 
162808000    295.39933    400.15767    341.13817   -262159.78     262212.1    59.019498     23.31485 
162812000    258.33093    302.27429     410.9009   -262201.15    262292.24   -108.62661    23.314361 
162816000    287.60841    288.81861    222.34078    -262262.4    262319.85    66.477831    23.312683 
162820000     300.5069    449.54924    478.62729   -262310.64    262359.01   -29.078056    23.310378 
162824000    312.13528    302.26658    306.91663    -262344.3    262413.58   -4.6500529    23.311065 
162828000    313.40444    528.48324    362.84165   -262380.51    262451.38    165.64159     23.31503 
162832000    291.16595    283.69057     335.5068   -262458.05    262522.88   -51.816225    23.318568 
162836000    274.32239    548.76272    319.86917   -262491.93    262562.77    228.89355    23.315774 
162840000    276.65516    264.63386    163.70066   -262510.42     262595.6     100.9332    23.320215 
162844000     300.6073    298.05306    357.03125   -262540.79    262605.75    -58.97819    23.319115 
162848000    281.89583    194.94529    216.63337   -262547.92    262637.22   -21.688074    23.318832 
162852000    287.23001    506.95709     463.6086   -262588.37    262654.91     43.34849    23.317524 
162856000    274.59956    388.19645    380.11325   -262671.51    262756.92    8.0832016    23.318355 
162860000    287.69333    209.69282     464.9462   -262738.06    262824.75   -255.25338    23.318585 
162864000    308.27112    364.17474    379.96178   -262785.21    262849.17   -15.787046    23.318098 
162868000    287.13306    606.87976    287.83594   -262825.73    262906.78    319.04382    23.317357 
162872000    268.43755     190.6977    556.83378   -262820.94    262922.54   -366.13608    23.316766 
162876000    275.89953    267.74431    285.16834   -262847.23    262929.35   -17.424026    23.316005 
162880000    283.52122    371.33983     231.9079   -262881.02    262960.34    139.43192    23.316788 
162884000    255.93376    235.94688    210.95247    -262894.5     262988.5    24.994411    23.314234 
162888000     269.0314    157.30857    381.37492    -262943.8    263045.83   -224.06635    23.315026 
162892000    264.83033    389.16798    223.09795    -263013.7    263109.87    166.07003    23.311135 
162896000    267.42036    433.02918    250.68535    -263045.5    263130.38    182.34383    23.313397 
162900000    269.93484    262.47715    299.98654   -263095.38    263181.74   -37.509391    23.314547 
162904000    313.13307    339.09245    286.40882   -263184.79    263233.23    52.683633    23.314897 
162908000    319.60157    479.46123    441.22816   -263208.49    263278.33     38.23307     23.31641 
162912000    292.05926    546.88492    185.45317   -263240.03    263305.31    361.43175    23.317928 
162916000    258.97215    438.86841    430.03999   -263249.85    263337.23    8.8284201    23.318273 
162920000    278.44845     240.5802    410.11693   -263287.23    263379.73   -169.53673     23.31266 
162924000    289.02988    179.11493     390.5313   -263324.75    263405.47   -211.41636    23.314209 
162928000    259.58177    210.60397    285.46544   -263373.51    263466.17   -74.861469    23.315957 
162932000    276.61144    223.41843    237.89676   -263372.94    263458.94   -14.478335    23.317102 
162936000    259.56675    245.39603    239.30684   -263424.15    263527.74    6.0891887    23.317106 
162940000    277.06043    293.77514    341.91661   -263463.21     263537.3   -48.141465    23.320718 
162944000    287.05049    242.10794    292.22763   -263507.05    263579.28   -50.119687    23.317691 
162948000    279.84112    518.28601    379.24981   -263532.29    263604.48    139.03621    23.315003 
162952000    264.82451    331.89275    242.11089   -263575.27    263653.67    89.781858    23.316189 
162956000    260.74355    349.89736    269.53201    -263636.7    263733.89    80.365356    23.315093 
162960000    293.57398    422.24381    247.03457    -263685.1    263753.45    175.20924    23.314839 
162964000    270.50465    546.02017    244.52579   -263712.33    263792.33    301.49439    23.310548 
162968000    284.97734    276.45475    249.84173   -263750.04    263829.17    26.613014    23.311092 
162972000    264.86923    344.27681    278.37638   -263800.52     263904.5    65.900432    23.311237 
162976000    269.68897    258.58029     280.0327   -263821.74    263907.52   -21.452413    23.313465 
162980000    278.91579    414.57425    333.69553   -263877.13    263935.63    80.878719    23.316223 
162984000    291.58172    359.35456    328.33086   -263896.98    263973.78    31.023702    23.319277 
162988000    298.81191    269.49353    388.76579   -263951.72     264036.7   -119.27225    23.314805 
162992000    263.96262    197.74811    401.88636   -263984.88    264073.79   -204.13825    23.309754 
162996000    273.78398     281.6245    271.11745    -264030.5    264124.47    10.507045    23.312873 
163000000    270.41881    338.73063    281.88808   -264068.26    264142.03    56.842551    23.312232 
163004000    279.83032    255.04954    275.03336    -264085.5    264151.91   -19.983818     23.31335 
163008000    280.23944    356.48898    389.49032   -264123.95    264199.13   -33.001335    23.309956 
163012000    282.28346    312.22967    163.58637   -264160.22    264244.27     148.6433    23.311045 
163016000    284.57846    250.36459    234.74107   -264224.13    264297.68    15.623521    23.314152 
163020000    267.58384    259.96917    260.18147   -264244.93    264350.14  -0.21229723    23.307092 
163024000     264.5506    363.60172    330.89162    -264300.5    264379.75    32.710101     23.30971 
163028000    248.10616    246.34114    281.79139   -264329.58    264427.09   -35.450256    23.312217 
163032000    305.19629    250.07594    296.77543   -264380.63    264446.53   -46.699494    23.313196 
163036000    271.30911    372.72186    299.35204   -264399.46    264492.09    73.369814    23.308589 
163040000    275.93197    313.71238    421.71382   -264421.84    264512.34   -108.00144    23.304216 
163044000    297.00842     339.1972    293.16356   -264433.14    264521.08    46.033636    23.305466 
163048000    287.41254    441.41609    329.92253   -264494.01    264576.87    111.49356    23.301725 
163052000    281.00394    238.55504    396.83933   -264531.24    264609.15    -158.2843    23.306912 
163056000    251.44771    422.54949    270.51479   -264551.99    264644.23     152.0347     23.30339 
163060000    302.76122    473.48557    500.55781   -264607.04    264673.35   -27.072242    23.299816 
163064000    310.71746    329.04877     253.8688   -264585.75    264661.02    75.179971     23.29409 
163068000    288.08466    432.72713    321.50567   -264628.78    264690.68    111.22146     23.29314 
163072000    290.22026    284.09868    320.08224   -264656.08    264746.18   -35.983563    23.299215 
163076000    288.84578    351.82971    483.01487   -264699.56     264782.1   -131.18516    23.295426 
163080000    280.69776    318.85388    353.09586   -264698.35    264799.31    -34.24198       23.291 
163084000    294.03033    296.80909    303.44187   -264772.82     264837.9   -6.6327789    23.293177 
163088000    296.33267    515.99783    371.86331   -264791.65    264873.72    144.13452    23.293216 
163092000     278.1964    370.81368    415.44981   -264844.07    264925.02   -44.636131    23.285769 
163096000    289.23621    294.77451    190.70096   -264897.47    264963.24    104.07355    23.285787 
163100000    310.30366    278.05793    608.48357   -264940.61    265006.67   -330.42564    23.282224 
163104000     269.9955     388.4392    338.08784   -264972.54    265051.25    50.351364    23.284406 
163108000    306.76024    471.32776    271.76525   -265036.93    265091.17    199.56251    23.284754 
163112000    265.17367    282.17471    230.68401   -265076.21    265162.04    51.490699    23.290254 
163116000    316.98369    409.10002    446.26938   -265119.09    265186.25    -37.16936    23.291473 
163120000    285.61495    293.98043    531.04182   -265136.18    265214.64   -237.06139      23.2907 
163124000    292.56122    353.66002    423.69816   -265189.09    265256.25   -70.038136    23.291883 
163128000    284.06185    422.06815    294.60558   -265190.72    265272.68    127.46258    23.292452 
163132000    279.31849    378.23138    197.71462   -265223.88    265296.38    180.51676    23.286495 
163136000    275.73427     376.0678    280.71307   -265277.77    265368.85    95.354732    23.289315 
163140000    304.25931    257.45118    367.15707   -265330.05    265412.46   -109.70589    23.290768 
163144000    292.31257    285.36564    346.23229   -265349.59    265424.13   -60.866645    23.294407 
163148000    288.66544     213.5807    216.03045   -265391.81    265466.72   -2.4497467    23.292558 
163152000    282.81592    201.25372    429.85386   -265448.18    265521.27   -228.60014    23.292164 
163156000    295.89053    364.59067    251.69346    -265473.1    265544.43    112.89721    23.298659 
163160000    299.44965    391.85017    262.01068   -265541.68    265596.16    129.83949    23.298505 
163164000     277.0931    337.02411    336.29335   -265583.75    265657.87   0.73076925    23.298749 
163168000     295.1197    297.82198    338.96023   -265656.37    265732.17   -41.138249    23.300996 
163172000    258.16683    282.15433     321.4488      -265658    265759.01   -39.294472    23.298584 
163176000     298.8367    253.81106    433.12967   -265711.25    265771.99   -179.31861    23.299791 
163180000    312.67121    511.06979    570.11669   -265754.16    265808.98   -59.046894      23.3009 
163184000     274.9359    240.47879    429.92796   -265801.92    265889.85   -189.44916    23.298455 
163188000    280.31556    267.63004    373.61627   -265851.96    265933.38   -105.98623    23.296899 
163192000    270.75594    306.50893    299.61623   -265889.87    265962.34    6.8926963    23.295279 
163196000    286.27555    436.26732    240.39077   -265907.75    265997.41    195.87655    23.299381 
163200000    283.30827    355.44527     415.1087   -265935.34    266026.12    -59.66343    23.303905 
163204000     307.3173    295.38484    345.32024   -265977.24    266058.39   -49.935401    23.305287 
163208000    281.35996    223.84661    466.67677   -266023.52    266104.29   -242.83016    23.303181 
163212000    274.13444    202.13547    310.47028   -266079.54    266171.88   -108.33481    23.303772 
163216000    270.23192     297.0624    335.27085   -266109.62    266220.19   -38.208447    23.303843 
163220000    297.15634    326.85651    424.10407   -266159.35    266237.93   -97.247559    23.306285 
163224000     279.5664    231.55013    307.70338   -266227.81    266306.94    -76.15325    23.308332 
163228000    308.85942    545.89751    473.70184    -266262.4    266322.11    72.195665    23.306888 
163232000    285.22506    264.38761    329.73787   -266281.88    266366.51   -65.350253    23.304112 
163236000     272.6697    398.20791    321.52922    -266303.9    266387.59    76.678695    23.307265 
163240000    279.75176    289.88412    315.06973   -266344.93    266426.39    -25.18561    23.307806 
163244000    250.97181    376.57991     249.7229      -266366     266461.3    126.85701    23.307589 
163248000    282.65936     330.9341    395.49411   -266380.47    266463.25   -64.560014    23.312923 
163252000    291.63406    437.74823    149.14549   -266414.74    266506.38    288.60274    23.315833 
163256000    285.78361    272.33773    385.18906   -266469.18    266535.37   -112.85133    23.313746 
163260000    305.68208     355.2565    498.00673   -266509.39       266578   -142.75023    23.312812 
163264000    289.40787    439.44985    392.51842   -266548.47     266621.8     46.93143    23.314823 
163268000    269.96861    248.90007    291.05039   -266586.07    266695.83    -42.15032     23.31766 
163272000     297.5649    271.74208    286.26099   -266622.62    266710.49   -14.518913    23.316482 
163276000    321.65371     532.5738    681.17399   -266686.81    266739.86   -148.60019    23.313411 
163280000    274.61269    393.06971    287.51177   -266707.95    266792.08    105.55794    23.312174 
163284000    271.55503    271.16674    262.42907   -266721.58    266796.63    8.7376752    23.307334 
163288000     271.7246    305.04255    464.79773   -266724.18    266819.97   -159.75518    23.306106 
163292000    289.23245    468.11787    255.97556   -266794.69    266872.01     212.1423    23.307627 
163296000    249.13458    268.44631    217.98295   -266807.05    266899.35    50.463358    23.310335 
163300000    290.77096     338.1436    330.02821   -266829.88    266900.66    8.1153948     23.30931 
163304000    273.83112    363.54436    283.42267   -266862.12    266932.61    80.121691    23.309494 
163308000    250.36057    192.50517    352.96453   -266880.96    266987.66   -160.45935    23.308204 
163312000     276.7071    372.81645    383.19366   -266925.13    267007.27   -10.377211    23.308292 
163316000    277.65703    125.18258    214.20076      -266948    267036.14   -89.018179    23.307449 
163320000    285.54899    264.66817    327.21699   -267023.06    267090.56   -62.548812    23.311022 
163324000    297.37897    470.95037    345.26528   -267033.34    267108.28    125.68509    23.313571 
163328000    273.99625    467.17441    268.75632   -267088.97    267172.73    198.41809       23.316 
163332000    292.19207    427.78485    206.90173    -267140.4    267204.92    220.88312     23.31799 
163336000    265.04166    268.58281    270.82097   -267189.02    267273.17   -2.2381555    23.317622 
163340000     281.3853    330.51641    379.08948   -267189.83    267274.99   -48.573067    23.315884 
163344000    280.01519    214.95829    258.88835   -267253.58    267331.68   -43.930061    23.318305 
163348000    292.96288     428.5115    214.62196   -267301.99     267372.8    213.88954    23.317841 
163352000    313.17239    259.88028    227.59959    -267347.1    267412.87    32.280692    23.317697 
163356000    264.09979    213.05882    223.80738   -267359.45     267450.5   -10.748565    23.316595 
163360000    280.75868    210.49498    329.80418   -267422.38    267507.04    -119.3092    23.317678 
163364000    288.26982    349.63862    280.17471   -267514.67    267568.56    69.463909    23.321039 
163368000     282.1113    249.95592    257.13505   -267559.42    267648.25   -7.1791234    23.320446 
163372000    269.30459    333.26796    265.20059      -267582    267668.06    68.067369    23.322251 
163376000    271.73012    374.25566    314.16157   -267589.41    267678.16    60.094091     23.32088 
163380000    316.37433     333.8185    320.43116   -267590.25    267661.63    13.387333    23.320994 
163384000    301.74365    367.20663    302.50967   -267625.27    267679.92    64.696955    23.318455 
163388000    263.82781    513.15998    280.50554   -267646.21    267740.82    232.65444    23.312662 
163392000    261.57956    307.75612    257.20698   -267676.68    267770.26    50.549135    23.312669 
163396000     299.3343    319.77086    302.66424   -267762.97    267813.71    17.106612    23.313387 
163400000    286.98219    407.62458    267.12745    -267807.7    267875.87    140.49713    23.314077 
163404000    318.67604    407.59445    338.05259   -267878.43    267924.71     69.54186    23.314918 
163408000    294.50596    452.62358    358.85611   -267916.43    267988.21    93.767469    23.312566 
163412000    320.39279    519.45461    301.76843   -268001.38    268052.68    217.68617    23.318206 
163416000    292.26804    511.68647    227.43824   -268040.05    268101.94    284.24823    23.318625 
163420000    297.45358    362.63741    433.34629   -268070.36    268135.18   -70.708876    23.319282 
163424000    277.21441    349.41668    290.97671      -268108     268195.4     58.43997    23.320138 
163428000     279.8891    335.73227    331.35684   -268157.95    268249.15    4.3754364    23.320087 
163432000    308.11523    434.57921    533.18422   -268221.92    268290.86   -98.605005    23.321159 
163436000    289.25069    180.20668    330.01627   -268277.03    268356.75   -149.80959    23.327287 
163440000    259.89401    337.79842    275.03382   -268344.09    268441.25    62.764598    23.325346 
163444000    278.24268    453.26151    346.21269   -268395.18    268477.07    107.04882    23.324597 
163448000    302.81994    474.95861    393.34418    -268450.8    268526.37    81.614426    23.319612 
163452000    282.87121    226.33947    306.73149   -268495.99    268566.73    -80.39202    23.316841 
163456000    286.75789     363.8062    388.81559   -268528.47    268613.45   -25.009389     23.31548 
163460000    291.86542    392.29688    308.19544   -268601.25    268658.29    84.101448    23.319807 
163464000    276.77191    335.87373      356.365   -268640.32    268701.48   -20.491266     23.31802 
163468000    291.80848    385.08271    253.46529   -268657.08    268740.85    131.61743    23.322125 
163472000    291.32927    231.71988    155.15293   -268698.32    268768.72    76.566949    23.318215 
163476000    279.69999    381.81429    215.55636   -268766.64    268833.08    166.25792    23.318547 
163480000    289.75232    252.64351    328.78642   -268774.34    268831.71   -76.142906    23.316746 
163484000    285.38049    532.18808    164.32279    -268794.7    268876.37    367.86529    23.322696 
163488000    282.17351    313.60681    329.90719   -268802.33    268880.86   -16.300382    23.320359 
163492000    285.32183    341.28994    359.01915   -268849.11    268922.75   -17.729211    23.314649 
163496000    289.13138    388.64794    313.32913   -268874.09    268950.36    75.318817    23.317541 
163500000     312.2359    410.01556    407.17155   -268896.51    268960.82    2.8440016    23.314641 
163504000    276.52554    350.72599    323.04598   -268943.64    269035.86    27.680003    23.314947 
163508000    308.54455    290.82171     342.7926   -269009.26    269077.38   -51.970889    23.314365 
163512000    257.33851    249.74118    379.42514   -269060.82    269146.13   -129.68396    23.309786 
163516000     272.4994    297.95487    370.20964   -269089.95     269184.2   -72.254763    23.312459 
163520000    264.72402    358.95879    318.00628   -269115.56    269211.31    40.952517    23.313043 
163524000     305.6804     343.5876     334.8341   -269154.14    269223.17    8.7535054    23.311841 
163528000     295.3612    265.99374    354.03445   -269194.05    269277.51   -88.040712    23.314042 
163532000    298.36529    377.47568    355.87809   -269251.43       269312    21.597586    23.312344 
163536000    327.02592    402.03132    262.88233    -269285.5    269339.61    139.14899    23.312238 
163540000    301.50609    308.80963    283.65697   -269343.96    269409.36    25.152659    23.315809 
163544000    279.95928    182.51854    280.26039   -269386.12    269477.24   -97.741841    23.312644 
163548000    285.97842    295.87209    340.32466   -269456.47    269521.32   -44.452567    23.308519 
163552000    289.73335    332.82887    161.16017   -269509.29    269591.49     171.6687    23.307871 
163556000     257.4823    364.27925     305.3226   -269556.65     269644.7    58.956649    23.308308 
163560000    279.54182    415.86194    234.36225   -269596.63    269673.92     181.4997    23.308419 
163564000    299.51207    301.40726    573.64249   -269624.94    269699.13   -272.23523    23.310289 
163568000     287.2234     220.3873    389.35036   -269662.24     269746.2   -168.96306     23.30914 
163572000     274.7386    557.97739    305.62003   -269729.72    269785.98    252.35736    23.313098 
163576000     298.6521    430.06656     291.6009   -269771.23    269834.81    138.46565    23.311802 
163580000    274.05672    391.04245    314.06384   -269804.08    269879.04    76.978611     23.30562 
163584000    288.33958    313.23876    202.01206   -269848.11    269928.66    111.22671    23.310628 
163588000    276.71465    300.30821     398.4113    -269909.5    270000.82    -98.10309     23.30755 
163592000     276.3171    290.57167    457.48419   -269933.04    270044.63   -166.91253    23.305223 
163596000    284.05431    301.98887    417.39774   -270013.05    270099.61   -115.40886    23.303201 
163600000      274.214    278.06467    303.49166   -270047.59    270130.66   -25.426988    23.306345 
163604000    306.81897    337.12663    236.90402   -270104.48    270167.07    100.22261    23.309141 
163608000    262.88258    295.07529    224.50474   -270153.39    270236.68    70.570553    23.310901 
163612000    295.98411    167.60302     677.3622    -270198.1     270269.3   -509.75918    23.307334 
163616000    290.43421    489.63807    334.66872   -270242.86    270310.32    154.96935    23.307607 
163620000    288.56619    450.27123    313.52841   -270279.08    270346.69    136.74283    23.306143 
163624000    279.87328    254.88853    320.66732      -270321    270385.01   -65.778788    23.308425 
163628000    310.90773    386.01277     355.3567   -270382.53    270445.14    30.656078    23.310282 
163632000    289.34768     266.4578    213.89771   -270439.19    270497.93    52.560091    23.307128 
163636000    307.16788    393.39197    347.05441   -270487.16    270558.18    46.337562    23.310197 
163640000    294.77041    265.45133    344.54196   -270490.87    270581.85   -79.090632    23.311433 
163644000    292.55161    269.34479     315.2771   -270538.31    270616.12   -45.932317    23.312733 
163648000    303.80867    403.13276    254.98056   -270580.88    270660.36    148.15221    23.311732 
163652000    287.78685    362.30388    210.02239   -270642.61    270709.19    152.28148    23.311059 
163656000     261.6929    253.84325    241.13852   -270644.88    270724.75    12.704732    23.310267 
163660000    286.28002    422.10157    259.19283   -270686.56     270778.6    162.90874     23.31062 
163664000    269.97724    446.26007    341.31618   -270731.08    270819.62    104.94389    23.313695 
163668000    259.76474     239.2942    284.39528   -270721.34    270824.38    -45.10108    23.316967 
163672000    274.80766    333.39641    388.33142   -270779.87    270857.77   -54.935013    23.316095 
163676000    266.16661    300.04175    343.62058   -270785.33    270897.48   -43.578837    23.310754 
163680000    269.84091    318.02584    241.99659   -270842.94    270932.06    76.029247    23.306646 
163684000    294.98575     280.5367      326.276   -270918.58    270974.98   -45.739294     23.30917 
163688000    259.53809    386.33761    327.71851   -270958.83    271071.05    58.619107    23.305071 
163692000    269.43556     343.0451     361.9949   -270985.92    271077.36   -18.949797    23.299666 
163696000    292.80644    437.98181     359.4072   -270999.55    271077.62    78.574609     23.29936 
163700000    283.84083    244.11529    401.94756   -271060.65    271143.83   -157.83228    23.299968 
163704000    272.14298    361.78191    330.46248   -271091.02    271180.04    31.319431     23.30026 
163708000    271.03502    254.29636    355.00794   -271132.73    271232.06   -100.71158    23.297082 
163712000    287.49171    667.38957    239.15699   -271202.66    271281.89    428.23258    23.300268 
163716000    254.66102     496.0176    262.80357   -271248.12    271356.84    233.21403    23.303625 
163720000    276.16836    298.99268    233.22196   -271300.93    271390.22    65.770725    23.311183 
163724000    238.29545    304.00984     278.8771   -271370.34    271488.31    25.132736    23.310439 
163728000    276.19667    378.88491    238.75013   -271392.01    271478.77    140.13478    23.305719 
163732000    290.08577    335.77818    323.03646   -271420.43    271517.24     12.74172    23.307875 
163736000    286.82689    403.57172    296.27779   -271483.41    271570.13    107.29393    23.309555 
163740000     307.4975    352.62662    408.47659   -271545.96    271620.56   -55.849978     23.31193 
163744000    297.48685     397.6243    379.77952   -271566.28    271662.23    17.844777     23.30698 
163748000    279.60156    292.76525    425.77648   -271657.64     271735.7   -133.01123    23.306204 
163752000    310.35094    381.58643    340.29408   -271738.17    271801.72    41.292351    23.303925 
163756000    275.64747    465.86485    432.58907   -271764.12    271855.83    33.275775    23.304653 
163760000    266.58193    428.24663    279.19432   -271806.14    271898.06     149.0523    23.304896 
163764000    275.80339    462.01898    378.45762   -271852.29    271935.13    83.561363      23.3055 
163768000    281.68505    331.35314    377.18296    -271894.3     271987.2   -45.829825    23.302756 
163772000    286.47042    212.93593     354.0189   -271978.04    272067.72   -141.08296    23.300435 
163776000     329.7419    477.57514    382.20145   -272004.82    272063.37    95.373686    23.304177 
163780000    287.03591    293.83502    305.59257    -272062.4    272150.82   -11.757556    23.301634 
163784000     270.9551    272.47258    256.15098   -272117.31    272204.61    16.321598    23.303662 
163788000    286.60929     251.8258    496.52367   -272143.81    272219.44   -244.69787    23.301378 
163792000    291.01833    230.49531    219.23042   -272147.17    272215.96    11.264893    23.300428 
163796000    308.14304    241.18921    358.25396   -272160.02    272226.61   -117.06476    23.300491 
163800000    279.82532    407.51541    244.09882   -272194.18    272271.65    163.41659    23.298543 
163804000    298.88832    322.95072    267.79557   -272263.75    272337.98    55.155156     23.30133 
163808000    291.54131    523.24157    223.15817   -272293.11    272372.56    300.08341    23.302829 
163812000    270.59099    185.98346    212.12051   -272329.09    272407.19   -26.137059    23.300312 
163816000    305.61166    304.75571    487.49932   -272384.36    272456.97   -182.74361     23.29649 
163820000    277.75739    439.03076    544.11842   -272431.89    272498.75   -105.08767    23.297521 
163824000    284.74363    367.16668    367.95476   -272478.12    272552.05  -0.78807198     23.30528 
163828000    298.00532    346.74638    441.19514   -272508.71    272585.44   -94.448754    23.304752 
163832000    309.59013    386.28401    275.87569   -272574.07     272635.1    110.40832    23.304414 
163836000    275.15645    357.80047    328.35227   -272605.95    272686.91    29.448202    23.309757 
163840000    295.68358    392.52406    427.64891   -272610.18    272683.23    -35.12485    23.314919 
163844000    284.00852    402.73571    265.94918   -272629.18    272703.64    136.78652    23.311048 
163848000    265.26711     227.0955    274.18002    -272668.2    272754.38    -47.08452    23.312727 
163852000    283.17499    353.87871    329.78807   -272711.91    272782.26    24.090647    23.317746 
163856000     304.1547    453.64098    464.01769   -272729.45    272802.43    -10.37671    23.314857 
163860000     293.9208    263.38397    241.75928   -272762.46    272838.54    21.624691    23.318621 
163864000    271.72152    366.99071    443.94814    -272788.2    272878.96   -76.957429    23.315221 
163868000    277.97152    204.10472    265.09658    -272862.7    272930.02   -60.991862    23.316602 
163872000    313.25238    382.37194    252.62972   -272903.28    272978.18    129.74222    23.318698 
163876000    268.02091    319.06499    228.83928   -272964.09    273055.88    90.225713     23.31832 
163880000    285.19012    300.29823    261.68591   -273013.16    273113.72    38.612325    23.321155 
163884000    321.86788    334.17067    323.93022   -273104.95    273150.48    10.240448    23.318382 
163888000    267.45202    354.34526    432.40541   -273125.65    273201.61   -78.060149    23.318306 
163892000    313.73154    203.00783     413.6692   -273193.95    273262.78   -210.66137    23.317585 
163896000    302.02068    420.67174    251.92789   -273259.81    273309.91    168.74384    23.317257 
163900000    294.45412    292.98096    369.08663   -273284.96    273352.67   -76.105661    23.318331 
163904000    280.69823    187.89716     336.1569   -273324.82    273400.96   -148.25974    23.320173 
163908000    257.21152     341.8097    204.28065   -273353.42    273443.71    137.52905    23.318232 
163912000    305.14772    202.92014    271.15819   -273371.19     273448.1   -68.238052    23.318507 
163916000    304.70459      330.579     393.3768   -273447.44    273506.05   -62.797802    23.321235 
163920000    306.65289    293.39396    546.30005   -273499.82    273572.53   -252.90609    23.319469 
163924000    314.79145    430.90017    428.48721   -273576.05    273611.09    2.4129551    23.316351 
163928000    278.08589    239.59274    243.45139   -273576.84    273666.59   -3.8586459     23.31915 
163932000    259.13146    376.33638     263.8598    -273605.8    273701.97    112.47658    23.316298 
163936000    276.15744     288.4874    415.17445    -273667.7    273733.98   -126.68706    23.317336 
163940000     255.2297    306.21481    242.38212   -273663.66    273776.63    63.832688    23.317443 
163944000    283.64681     419.1241    285.64175   -273714.61    273802.91    133.48236    23.319722 
163948000    322.10307    510.85016    638.16166   -273752.12    273828.75    -127.3115    23.322537 
163952000    298.74087    321.44836    428.32326   -273768.21    273839.66   -106.87491    23.322195 
163956000    284.30006    353.44825    393.00289   -273842.86     273923.7   -39.554643    23.319612 
163960000     289.1382    522.97886    498.26048   -273906.44    273977.01    24.718382    23.320199 
163964000    294.03447    220.03371    488.20321   -273950.43    274026.58    -268.1695    23.319759 
163968000     296.4029    401.14508    340.61976   -274012.16    274071.45    60.525311    23.318945 
163972000    266.28236    277.82131    613.92893   -274024.03    274119.67   -336.10762    23.323974 
163976000     257.7105    260.59262    255.76969    -274062.5    274170.54    4.8229301    23.321825 
163980000    285.91313     340.9927    454.14527   -274114.97    274205.28   -113.15257    23.322993 
163984000    280.96897    342.66079    314.13342   -274171.71    274256.19    28.527374    23.321109 
163988000     282.7471     472.8242    242.17939   -274204.48    274275.12    230.64481     23.32448 
163992000    304.60412     381.2539    355.18113   -274231.66    274295.62    26.072763    23.322767 
163996000    303.23894    410.05285    290.28682   -274279.57    274356.55    119.76603    23.326461 
164000000    312.39277    284.02827    409.32454   -274334.35    274412.74   -125.29627    23.326676 
164004000    284.29133    192.64835    445.74346   -274346.17       274433   -253.09511    23.326074 
164008000    300.14383    374.46597    377.72633   -274416.68    274486.52   -3.2603523    23.322922 
164012000    289.10345    313.40947    391.26667   -274464.55    274537.57   -77.857198    23.325878 
164016000    287.56653     393.2202    352.98987   -274481.34    274564.74    40.230327    23.325861 
164020000    281.89719      470.586    320.65641    -274530.6    274609.67    149.92959    23.322633 
164024000    268.47685    246.83316    235.18198   -274558.79    274635.19    11.651177    23.321232 
164028000    263.34174    394.45497    453.55754   -274615.11    274717.67   -59.102571    23.319665 
164032000     288.2258    502.00677     352.5839    -274696.6    274775.14    149.42286    23.319347 
164036000    323.00878    359.64734     307.8586   -274718.16    274788.24    51.788738      23.3173 
164040000    262.39014    303.69308    272.52288   -274720.45    274820.35    31.170195    23.317724 
164044000    278.79055    347.37673    289.28255   -274769.74    274854.08    58.094183    23.316238 
164048000    264.50962    265.54225    351.70644    -274789.4    274882.61   -86.164184       23.316 
164052000    292.17462     406.3292    592.61079      -274884    274957.64   -186.28158    23.314546 
164056000    277.88075     385.9088    392.38224   -274930.69    275000.96   -6.4734378    23.310645 
164060000    294.53916    339.00072    251.32224   -274975.17    275053.74    87.678479     23.31102 
164064000    294.76335    320.84766    390.97555   -274993.96    275060.34   -70.127887    23.310107 
164068000    284.89189    257.10497    184.99955   -275035.53    275129.21    72.105427    23.311488 
164072000    316.65976    358.23311    427.46669   -275084.56    275154.46   -69.233579    23.309663 
164076000    303.46498    417.17272    349.06799   -275114.08    275175.29     68.10473    23.306789 
164080000    297.43952    373.82776    434.98517   -275161.51    275246.72   -61.157412    23.309158 
164084000      297.211    432.94352    272.55587   -275198.66    275285.28    160.38765    23.309229 
164088000    283.31157    444.12343    316.22273   -275261.08    275342.68    127.90071    23.308977 
164092000     271.7495     351.6613    230.79832    -275333.1    275424.67    120.86298     23.30903 
164096000    260.38101    472.68324      294.916   -275368.94    275457.72    177.76724    23.303952 
164100000     287.4711    311.59856    364.62823    -275408.7    275471.68   -53.029677    23.299609 
164104000    275.36791    232.71975    329.99713   -275392.15    275484.82    -97.27738    23.296439 
164108000    262.66248    376.46462     334.5837    -275433.2    275541.19    41.880919    23.298772 
164112000    283.03566    208.82794    249.49664   -275486.49    275570.04   -40.668708    23.297867 
164116000    291.02116     259.5805    460.04715    -275527.6    275611.39   -200.46665    23.291718 
164120000    268.89477    229.96187    275.88007    -275563.2    275640.88   -45.918208    23.290982 
164124000    304.59159    348.96664    453.13785    -275610.7    275693.21   -104.17121    23.286492 
164128000    267.06865    488.76992    287.97499    -275636.3     275739.2    200.79494    23.282671 
164132000     270.2434     219.3159    269.29082   -275724.86     275794.7   -49.974917    23.282434 
164136000    277.26211    344.41881    316.92724   -275736.94    275826.46    27.491577    23.282524 
164140000    264.17266    201.25236    324.24636    -275802.5    275881.13     -122.994    23.279182 
164144000    254.66024    294.83884    308.40263   -275822.47    275919.21   -13.563786    23.276545 
164148000    283.99747    393.81071    276.17869   -275887.17    275955.51    117.63202    23.274556 
164152000    310.54493    264.14512     252.3286   -275907.55    275965.11    11.816525    23.270368 
164156000    270.78193    346.81156    308.10553   -275906.59    275994.63    38.706029    23.276832 
164160000    276.58464    377.55092     462.6163   -275949.48    276023.12   -85.065385    23.275859 
164164000     278.5183     320.1898    147.09139   -275997.38    276078.51    173.09841    23.278362 
164168000    290.72125    394.40451    217.43742   -276075.38    276150.41    176.96709    23.279636 
164172000    294.51012    359.55027    429.35153   -276100.72     276158.3   -69.801259    23.278679 
164176000    299.62809    412.05451     228.2199   -276147.91    276203.27    183.83461    23.281656 
164180000     291.3696    412.55102    358.94395   -276202.13    276277.81    53.607073    23.280451 
164184000    273.42948    408.82351    376.34239   -276240.12    276317.74    32.481122    23.278549 
164188000    278.19304    363.39302    320.19435    -276255.7    276352.56    43.198673    23.280581 
164192000    278.77531    345.91423    368.61138   -276288.53    276383.37   -22.697153    23.276159 
164196000    268.86588    419.60531    459.49985   -276338.27    276432.69   -39.894543     23.27768 
164200000    300.48001    479.93413    289.65074   -276417.19    276478.61    190.28339    23.276511 
164204000    305.09914    314.09831    181.60499   -276478.61    276557.39    132.49332    23.273647 
164208000    270.38104    305.94229    293.78872   -276533.77    276629.68    12.153568    23.272888 
164212000    288.23028    354.34835    186.77307   -276599.81     276654.9    167.57528    23.272901 
164216000    248.82868    265.42879    316.49637   -276578.71     276667.9    -51.06758    23.275433 
164220000    261.06101    383.53937    238.59007   -276573.97    276688.03    144.94929    23.275995 
164224000    300.74299    403.79053    299.76824   -276619.87    276694.83     104.0223    23.278395 
164228000    266.26145    364.81777    211.70045   -276644.12    276728.64    153.11732    23.279065 
164232000     297.6906    378.59804    449.17649   -276685.33    276754.48   -70.578451    23.277234 
164236000    278.53124    279.47905    363.62352   -276715.58     276784.7   -84.144475    23.278439 
164240000      297.157    319.75109    306.89726   -276753.61    276822.91    12.853825    23.283147 
164244000    278.33957    351.55534     368.6193      -276768     276860.2   -17.063963     23.28651 
164248000    291.99763    327.35049    395.85865   -276829.07    276908.94   -68.508159     23.28871 
164252000    307.04734    590.74993    310.26153   -276890.46    276948.55     280.4884    23.291014 
164256000     277.7005    318.58434    491.24059   -276911.64    276996.59   -172.65625    23.288392 
164260000    290.07253     389.2734    418.97021   -276948.85    277032.78   -29.696808    23.283237 
164264000    292.38481      262.552    474.21237   -276995.96    277079.02   -211.66036     23.28329 
164268000    289.15225    510.22431    261.80815   -277060.89    277137.27    248.41616    23.280269 
164272000     295.2747    294.98233    252.47299   -277098.37    277171.68    42.509333    23.280495 
164276000    278.94585    362.37688     238.1894   -277154.25    277239.83    124.18749    23.281304 
164280000    286.46726    256.55268    454.65814   -277201.46     277270.2   -198.10546    23.279879 
164284000    303.80684    393.13517    307.32946   -277242.06    277315.01    85.805703    23.284736 
164288000     273.0389     274.0533    249.42584   -277273.77    277344.42    24.627462    23.285707 
164292000    304.11147    537.76618     224.3159   -277314.74    277383.58    313.45028    23.288456 
164296000     307.3851    436.03039    432.59353   -277323.06    277397.99     3.436862    23.291157 
164300000    305.46551    488.54243     261.9371   -277362.92    277415.84    226.60532    23.288884 
164304000    277.09709    564.24782    332.69503   -277364.56    277436.46    231.55279    23.292535 
164308000    279.49109    380.26285    266.59916   -277381.96    277482.35    113.66369    23.293039 
164312000    285.99436    317.39831    323.96363    -277431.1    277514.05   -6.5653241    23.290084 
164316000    298.61257    538.83667    282.44052   -277504.44    277557.53    256.39615    23.294536 
164320000     285.4496     269.2341    329.33424   -277554.32    277617.77   -60.100141    23.288286 
164324000    274.69965    262.04602    314.05998   -277577.73    277650.71   -52.013964    23.287741 
164328000    306.83054    313.84836    278.95431      -277642    277698.85    34.894057    23.282715 
164332000    275.38523    230.77031    397.37688   -277667.98    277742.72   -166.60657    23.284246 
164336000    279.29692    377.02486    467.51419   -277698.67    277771.76   -90.489329    23.288223 
164340000    278.67741    304.04789    270.95618    -277721.1     277797.1    33.091709    23.288176 
164344000    312.29405    345.37745    700.84573   -277726.89    277788.15   -355.46829    23.285521 
164348000    285.34986    314.96773    299.39787   -277758.53    277839.59    15.569864    23.280269 
164352000    320.96841     417.2869    465.16043   -277819.38    277897.71   -47.873531    23.276452 
164356000    296.68326    357.85675    185.14122      -277889    277964.79    172.71553     23.27903 
164360000    292.99607     319.8483    357.69113   -277927.73    277986.28   -37.842838    23.275808 
164364000    290.67275    379.91475    388.66992   -277966.85    278027.13   -8.7551722    23.280541 
164368000    270.32851    340.87767    556.14407   -277994.22    278064.13   -215.26641    23.280423 
164372000    275.01777    387.71957    366.72614    -278022.5    278089.13    20.993431    23.275566 
164376000    277.34778    240.61209    301.56748   -278041.15    278114.78   -60.955388    23.272546 
164380000    267.88912    351.23495    368.32091   -278042.55     278129.7   -17.085955    23.271633 
164384000    310.06771    417.59287    245.78948   -278089.38    278149.58    171.80339    23.269686 
164388000    293.35372    411.37589    248.20279   -278122.64    278205.01     163.1731    23.269706 
164392000    296.74424    376.88992    269.68758   -278159.26    278226.58    107.20235    23.269674 
164396000    268.50213    340.49487    333.87966   -278238.73    278323.31    6.6152087    23.268506 
164400000    294.38602    491.56707    297.21561    -278323.9    278393.67    194.35146    23.262218 
164404000    278.69705    246.27925    335.32051   -278357.46    278452.16   -89.041266    23.261976 
164408000    297.93719    305.38108    471.65702   -278404.81    278470.66   -166.27594    23.256954 
164412000    283.00546    357.71561    405.74428   -278421.35    278508.66    -48.02867     23.25627 
164416000     264.0632    414.10476    392.01878   -278433.71    278539.53    22.085973    23.259767 
164420000    293.57324    288.82838    403.37828   -278496.73    278560.29    -114.5499    23.262199 
164424000    305.75481    553.91798    307.05066   -278564.88    278623.99    246.86732    23.262323 
164428000    304.78968    353.16027    359.15165   -278582.61     278673.8   -5.9913799    23.267295 
164432000     263.9386    224.80177    274.46295   -278620.88    278714.67   -49.661175    23.262736 
164436000    266.77654    355.27365    378.13006    -278674.3    278769.09   -22.856409    23.263901 
164440000    267.66005    329.98769    258.19869   -278697.61    278792.69    71.789002    23.266185 
164444000     259.3641    136.40812    271.50137   -278716.97    278822.42   -135.09325    23.264499 
164448000     286.5673    430.89165     429.2956   -278767.33    278858.35    1.5960438    23.269148 
164452000    266.03029    398.59525    258.84141   -278828.64    278916.44    139.75384    23.267772 
164456000    269.94427    395.41934    237.63755   -278830.99    278932.21    157.78179    23.261966 
164460000    261.73982    136.78559    308.15902   -278871.59    278967.52   -171.37343    23.261506 
164464000    274.95576    287.23455    286.59094    -278935.7    279022.24   0.64361891    23.266681 
164468000    262.50751    313.58791    280.08313    -278984.4    279084.47    33.504778    23.263931 
164472000    279.08796    373.54048    441.47876   -279038.75    279128.25   -67.938276    23.264424 
164476000    279.76114    280.29416    153.62311    -279098.3    279170.26    126.67105    23.265406 
164480000    308.56712    314.34121    193.98305   -279171.12    279237.93    120.35816    23.267742 
164484000    256.85667    334.51801    183.33668   -279218.37    279287.48    151.18133    23.264751 
164488000    276.01676    358.65962     363.3425   -279250.85    279345.33   -4.6828746    23.259687 
164492000    298.09951    277.92115    418.44026   -279331.37     279389.6    -140.5191    23.258992 
164496000    291.12516    230.36562    551.76414   -279360.36     279427.7   -321.39853    23.261202 
164500000    298.13356    551.21348    213.49582   -279402.96    279467.14    337.71766    23.260093 
164504000    251.08435     204.7732    221.85419   -279395.76     279511.2   -17.080995    23.258342 
164508000    249.70803    350.57899    227.55044   -279453.47    279547.98    123.02855    23.265068 
164512000    283.74596    402.42222    312.87157   -279513.83    279582.29    89.550643    23.264819 
164516000    271.29644    381.54557    404.40387   -279557.39    279639.04   -22.858296    23.265354 
164520000    313.61297    357.39073    356.31891    -279584.2    279662.22    1.0718207    23.260002 
164524000     274.9614    443.39245    397.98507    -279616.1    279704.96    45.407378    23.258874 
164528000    285.56127    333.27243    299.61367   -279635.18    279719.11    33.658757    23.258103 
164532000    292.62101    264.74493    292.28747   -279689.27    279776.42   -27.542542    23.253547 
164536000    281.38817      258.636    323.57695   -279732.26    279817.39   -64.940947    23.249264 
164540000    279.44924    275.55413    291.38994   -279776.07    279850.55   -15.835812    23.247464 
164544000    287.01086     311.9167    238.86164   -279817.25    279901.14    73.055061    23.250145 
164548000    291.47312     430.0851    294.89698   -279863.63    279942.38    135.18812    23.249598 
164552000    279.59008    207.00244    343.81715    -279903.4    279995.33   -136.81471    23.251544 
164556000    272.95087     398.9888    342.93578   -279954.43    280044.44    56.053026    23.254432 
164560000     301.2391    425.51024    565.91761   -279992.17    280067.89   -140.40737    23.255868 
164564000    303.89673    440.77542    444.04741   -280052.83    280110.42   -3.2719834     23.25413 
164568000    276.13108    257.44612    268.94536   -280052.34    280150.88    -11.49924    23.257846 
164572000     289.9505    280.71483    470.56677   -280105.86       280182   -189.85194     23.25512 
164576000    261.31544    317.52976    307.32056   -280125.17    280229.62    10.209207    23.251513 
164580000    288.51715    585.43455    289.92243    -280175.2     280239.8    295.51212    23.253972 
164584000    289.11552    346.64884    388.65365   -280215.46    280290.97   -42.004808    23.248005 
164588000     289.5643    331.53722    277.73945   -280234.46     280301.1    53.797777    23.247554 
164592000    281.06164    350.86271     303.2737   -280256.41    280350.18     47.58901    23.246779 
164596000    270.70742    332.21356    427.83016   -280262.87    280351.93   -95.616596    23.249866 
164600000    270.43732    350.80062    139.45166   -280288.13    280393.94    211.34896    23.252859 
164604000    258.68118    449.57603    151.26256      -280309    280419.93    298.31347    23.253089 
164608000    343.83243    324.79671    282.27224   -280377.25    280438.02    42.524467    23.255155 
164612000    282.67267    392.92341     332.6715   -280403.46    280481.57    60.251916    23.257124 
164616000    307.00158     341.3364    290.84658   -280463.59    280514.37    50.489819    23.257583 
164620000    296.55127    472.66842    417.06264   -280480.37    280537.71    55.605785    23.259097 
164624000    299.87969    293.09223    333.96235   -280515.82    280591.06   -40.870114    23.261446 
164628000    293.51138    259.93477    430.77328   -280571.26     280636.2   -170.83851    23.261694 
164632000    283.03819     305.2919    268.63721   -280627.98    280709.72    36.654688    23.262414 
164636000    309.40642    279.29637    306.69058   -280664.61    280732.42   -27.394213    23.263024 
164640000    281.40205    278.36684    228.10802   -280713.49    280804.39    50.258824    23.267797 
164644000    274.26976    308.46459    181.13446   -280728.48    280824.03    127.33014    23.268325 
164648000    276.75201    244.07746     224.4065    -280744.8    280830.38    19.670954    23.271028 
164652000     276.6554    261.03373     226.7231   -280772.48    280866.31    34.310634     23.26841 
164656000    274.90087    360.93971    347.66938   -280787.89    280881.23    13.270324    23.265539 
164660000    295.02604    213.03458    461.86638   -280829.37    280912.28    -248.8318    23.265505 
164664000    306.82756    297.26295    520.61799   -280846.41    280928.14   -223.35504    23.265875 
164668000    266.02492    275.12017    234.57536   -280875.69     280969.2    40.544807    23.263192 
164672000    248.89066    409.83988    357.76347   -280882.48    281002.06    52.076415    23.268536 
164676000    254.40821    378.84212    272.27536   -280921.06    281014.15    106.56676    23.268853 
164680000    299.73077    270.52698    597.05336   -280976.92    281050.05   -326.52638    23.268349 
164684000    281.94284     191.4909    324.38484   -281031.45    281120.62   -132.89394    23.268108 
164688000    290.80364    341.67402    351.23379   -281076.99    281154.69   -9.5597621    23.264217 
164692000    265.73456    298.26965    181.49824   -281122.34    281211.36    116.77141    23.265116 
164696000    302.57792    358.84709    276.47199   -281200.59    281273.14    82.375104    23.269046 
164700000    291.80633    369.92677    258.89485   -281249.51    281331.72    111.03192    23.272874 
164704000    321.59194    330.32782    370.11641    -281351.8     281401.7   -39.788592     23.27488 
164708000    274.95822    330.31095    214.91856   -281352.25    281448.75    115.39238    23.275013 
164712000    269.48375    350.28497    311.66949    -281407.7    281489.92    38.615481    23.273049 
164716000    299.15995    336.77988    447.36442   -281454.49    281517.71   -110.58454    23.270829 
164720000    269.78033    288.57456    338.25548   -281475.19    281573.06   -49.680916    23.271008 
164724000    298.98339    397.68321     432.6874   -281511.98    281592.31   -35.004198    23.269251 
164728000    291.24111    352.71041    273.54619   -281554.21    281632.04    79.164224    23.270417 
164732000     286.3556    456.61556    420.34156    -281570.4    281642.58    36.274008    23.271889 
164736000    262.78148    635.92143    592.30607   -281572.83    281685.73    43.615353    23.280518 
164740000    302.29922    607.93902     551.7539   -281642.58    281727.56    56.185122    23.281967 
164744000    282.40389    386.09283    238.65465    -281681.7    281765.17    147.43819    23.280269 
164748000    307.07158    239.28988     329.4859   -281698.26    281771.48   -90.196027    23.279177 
164752000    299.40408    484.88346    470.74627    -281731.3       281802    14.137192    23.279969 
164756000    290.87687    397.88029    320.14311   -281768.14    281838.87    77.737172      23.2755 
164760000     292.8984    237.01697    367.02686   -281825.72    281890.74   -130.00989    23.276208 
164764000    276.52736    354.94083    368.14489   -281874.03    281931.28   -13.204067    23.277051 
164768000    301.70113    222.14605    303.31924   -281915.45    281978.45   -81.173189     23.27848 
164772000    306.99269    530.68608    392.72225   -281937.34    282005.81    137.96383    23.281728 
164776000    295.10743    280.45126    301.80098   -281954.17    282013.85    -21.34972    23.279326 
164780000    262.41855     247.5502    327.00283   -281997.44     282076.5   -79.452632    23.275214 
164784000    260.00865    342.88122    314.42681   -282032.19    282121.59    28.454413    23.277035 
164788000    287.03874    587.17316    268.39373   -282075.86    282160.17    318.77942    23.274296 
164792000    315.77853    410.03741      436.239   -282155.99    282216.81   -26.201592    23.274521 
164796000     301.4086    285.71532    373.51891   -282205.44    282283.48   -87.803586    23.275307 
164800000    298.01725    609.18092    287.57566   -282266.22    282337.41    321.60526    23.279907 
164804000    280.39161    297.37942    265.28292   -282266.86    282348.11    32.096507    23.282856 
164808000     280.0358    430.76214    299.55843   -282288.51    282367.96    131.20371     23.28638 
164812000       267.38    233.24251    186.47097   -282329.99    282411.28    46.771538    23.279381 
164816000     280.2103     325.6699    286.47325   -282373.14    282450.99    39.196647    23.281773 
164820000    303.09534    366.46682     371.5199   -282445.33    282527.87   -5.0530858    23.281262 
164824000    308.56977    487.71115    307.73839   -282497.94    282570.62    179.97276    23.278199 
164828000    291.63663    325.04342    285.73589   -282505.86     282596.5    39.307537    23.276233 
164832000    303.80865    344.62263     404.8304   -282555.61     282608.9   -60.207762    23.275493 
164836000    294.37334    510.84968    385.15658   -282603.05    282672.79     125.6931    23.273119 
164840000    286.54415    310.56611    470.27956   -282620.38    282709.52   -159.71345    23.270886 
164844000    288.18467    354.22892     269.0728   -282651.48    282737.12    85.156122    23.271237 
164848000    266.85024    408.66662    325.58745   -282692.99    282790.44    83.079165    23.272927 
164852000    252.49877    387.80153    401.39108   -282721.95    282838.43   -13.589549    23.272812 
164856000     273.3594    277.13767    374.34401   -282764.39    282850.96   -97.206342    23.270833 
164860000    253.59692    440.84826    240.07804   -282835.03    282931.02    200.77022     23.26834 
164864000    287.77204    321.18817    307.25725    -282873.7    282951.26     13.93092    23.265891 
164868000    287.18148    321.43175     344.2363   -282937.88    282995.27   -22.804554    23.267395 
164872000    304.29076    570.70832    515.83557   -283017.02    283062.45    54.872746    23.270746 
164876000    307.44621    433.77682    234.19551      -283038    283112.55    199.58131     23.27264 
164880000    300.45862    354.47509    425.41971   -283090.51    283144.13   -70.944618    23.274677 
164884000    336.60992     344.0975    467.43835   -283133.83    283179.63   -123.34084    23.273228 
164888000    270.42426    407.55504    258.66424   -283149.39    283237.77     148.8908    23.281078 
164892000    289.57025     445.8336    418.72318   -283170.08     283252.1    27.110419    23.280093 
164896000    278.77302    260.17473    271.95153   -283200.83    283277.55   -11.776799    23.281639 
164900000    278.64104    352.76926    178.54319   -283184.66    283279.31    174.22607     23.28133 
164904000    317.57214    379.65434    373.66541   -283237.06    283308.32    5.9889298    23.275813 
164908000    282.57817    237.88779    175.24314      -283251    283344.05    62.644642    23.279848 
164912000     281.2929    483.18869    192.78599   -283290.17    283375.63    290.40271    23.277713 
164916000    277.52565    377.25346      365.335    -283329.9    283410.05     11.91846    23.277939 
164920000    276.64188    492.37251    334.37599   -283351.72    283437.77    157.99653    23.278716 
164924000    280.35133    364.12486    330.15791   -283374.81    283470.37    33.966944    23.277621 
164928000    275.84839    364.58054    308.91645   -283404.56    283503.18     55.66409    23.276247 
164932000    276.97859    220.10677    459.73571   -283465.49    283550.09   -239.62894    23.274097 
164936000    247.77102    211.87049     191.5055   -283518.86    283608.52    20.364991    23.272114 
164940000    280.85599    339.64013    402.29693   -283520.31    283597.02   -62.656798    23.273291 
164944000    269.34571    247.27045    283.64876   -283529.56    283633.21   -36.378306    23.276015 
164948000    310.63781    337.43702    292.73884   -283570.18    283628.67    44.698179    23.274527 
164952000    318.69207    515.30095    583.43307   -283596.29     283655.8   -68.132118    23.270497 
164956000    290.66515    303.63897    182.42813   -283638.64    283699.38    121.21084    23.272387 
164960000    264.91348    295.27251    336.32696   -283690.71    283787.48   -41.054454    23.275098 
164964000    260.98933    241.86673    335.49097   -283715.88    283813.17   -93.624242    23.268536 
164968000    285.19923    259.77618    307.83847   -283755.05    283848.26    -48.06229    23.269797 
164972000    295.70495    337.29246    504.75497   -283802.77    283848.89   -167.46252    23.270268 
164976000    280.51302    326.16612    441.81251   -283835.43    283912.45   -115.64639    23.269893 
164980000    278.00587    478.05784    326.25216   -283905.76    283989.37    151.80568    23.274742 
164984000     286.2172    374.49744    448.49587   -283979.31       284077   -73.998439    23.271679 
164988000     261.2857    268.86567    324.50986   -284018.57    284110.74   -55.644182    23.272118 
164992000    271.63202    288.49029    466.20462   -284067.37    284143.58   -177.71433    23.273036 
164996000    264.61934    321.91332    248.47524    -284126.5    284214.59     73.43808    23.273318 
165000000    295.92351    266.42698    483.09243   -284180.67    284259.35   -216.66545    23.274747 
165004000    284.94652    411.13619    413.69467   -284222.51     284311.1   -2.5584785    23.271558 
165008000    280.69685    174.03723    479.49352   -284242.04    284325.08   -305.45629    23.269734 
165012000    270.02405    479.39711     229.3397   -284288.69    284372.38    250.05741     23.26891 
165016000    273.98423    412.52562    205.44659   -284339.95    284424.49    207.07904    23.271588 
165020000    240.80049    253.36198    371.20584    -284373.7    284493.74   -117.84386    23.269724 
165024000    287.38264    406.44147    240.58019   -284453.65    284543.67    165.86128    23.271096 
165028000    289.10706    529.10913    227.57055   -284511.05    284582.61    301.53859    23.269462 
165032000    302.19848    502.89746    243.36742   -284552.35    284632.61    259.53004    23.273896 
165036000    265.82815    412.47026    399.66456   -284590.82    284698.43    12.805703    23.274273 
165040000    270.54854     294.2169    219.81794   -284632.25    284730.49    74.398962     23.27864 
165044000    297.10337    406.21771    241.91287   -284695.42    284772.15    164.30485    23.277879 
165048000    291.69003    553.57368     273.9059    -284762.8    284827.77    279.66778    23.276581 
165052000    302.78838    386.49324     408.4887   -284796.69    284875.06    -21.99546    23.276848 
165056000    267.68345    362.58172    408.99356    -284842.8    284914.88   -46.411839    23.275789 
165060000    282.84372    475.93982     237.6487    -284842.7    284928.72    238.29112    23.273914 
165064000    284.47658    287.70913    474.31476   -284874.86    284955.71   -186.60563    23.276239 
165068000    271.98532    276.18116    251.59916   -284917.77    285008.19    24.582008    23.275757 
165072000    302.46804    251.71634    371.15776   -284990.05    285066.96   -119.44142    23.280071 
165076000    265.65024    366.77848    314.60683   -285039.81    285137.77    52.171652    23.281986 
165080000    292.45006    446.58076    245.42011   -285109.55    285189.67    201.16065    23.288544 
165084000    272.69396    271.33467    166.88473   -285138.56    285223.32    104.44994    23.285785 
165088000    289.63805    428.67476    289.66449   -285180.53    285258.46    139.01027    23.288891 
165092000    274.66327       363.52    369.37517    -285217.5    285302.97   -5.8551757    23.289754 
165096000    287.42964    256.76435    201.05213   -285260.15    285348.07    55.712219    23.287707 
165100000    287.78113     379.6415    415.91436   -285304.17    285376.37    -36.27286     23.28811 
165104000    285.75053    373.80333    326.94003   -285355.84    285430.89    46.863296    23.288757 
165108000     297.2495    467.83016    256.29797   -285377.63    285467.31    211.53218    23.287881 
165112000    276.50627    268.73167    259.12055   -285405.75    285499.92    9.6111219    23.288417 
165116000    294.49519    443.00964    267.02647   -285436.62    285517.22    175.98317    23.288188 
165120000    311.38337    350.45388    556.61782   -285489.32     285585.1   -206.16394    23.287924 
165124000    292.51862    458.47256    299.45528   -285524.85    285597.12    159.01729    23.283899 
165128000    250.28162    183.17411    262.55518   -285542.68       285642   -79.381077    23.277963 
165132000    271.45345    335.56028    321.94589   -285607.21    285693.47     13.61439    23.277177 
165136000    293.79754    395.27133    322.83373   -285678.85     285741.9    72.437598    23.275636 
165140000    276.33669     320.5238    411.28436    -285717.5    285798.85   -90.760555    23.276675 
165144000    293.87445    269.65799    327.77954    -285752.8    285829.63   -58.121545    23.277088 
165148000     277.3566    321.83424    408.50027   -285797.83    285876.39   -86.666034    23.275312 
165152000    296.10022    459.46707    395.04672   -285828.09    285916.35     64.42035    23.277178 
165156000    278.24843     265.6948    166.85537   -285870.02     285951.1    98.839424    23.279455 
165160000    279.54588    442.10375    220.06989   -285887.79    285981.63    222.03386    23.278418 
165164000    270.03215    378.85255      350.776   -285952.99    286049.77     28.07655    23.282454 
165168000     272.3534    375.18509    320.77684   -285973.55    286079.32     54.40825    23.280956 
165172000    268.64339    320.05013    269.87947   -285990.09    286070.32    50.170657    23.284254 
165176000    282.55788    380.79657    332.82632   -286044.61    286121.14    47.970249    23.285996 
165180000    276.63773    381.72338    300.36835   -286090.88    286196.56    81.355026    23.287412 
165184000    268.88001    393.90152    266.75832   -286156.37    286253.77    127.14321    23.289004 
165188000     265.0284    485.93852    322.02708   -286188.17    286301.27    163.91144    23.287355 
165192000    312.31059    399.85404    240.53917   -286265.72    286349.76    159.31487    23.283122 
165196000    267.97167    357.66596     192.9605   -286318.47    286412.75    164.70546    23.279541 
165200000    265.92378    212.20217     270.3446   -286305.96    286391.83   -58.142426    23.280563 
165204000    311.64489    565.55129    386.91725   -286363.18    286433.36    178.63404    23.275933 
165208000    294.32713    423.76733    429.93066   -286427.02    286497.51   -6.1633312    23.274035 
165212000     285.9829    276.06425    258.46249   -286489.62    286570.93    17.601763    23.274628 
165216000    287.79173    331.66186    249.81089   -286517.38    286598.45    81.850975    23.277167 
165220000    302.61692    275.24534    347.22229   -286541.89    286616.51   -71.976955    23.274484 
165224000    302.18336    446.01963    367.05125   -286576.74    286658.38    78.968377    23.272201 
165228000    278.28557    280.89491    265.30915    -286616.2       286700    15.585762    23.273503 
165232000    286.96709    261.77518    264.23067    -286670.9    286757.09   -2.4554977    23.271109 
165236000    285.12071    397.40796     343.9538   -286688.81    286769.53    53.454168    23.269785 
165240000    280.71186    279.02203    322.09522   -286710.23    286801.98   -43.073191     23.26532 
165244000    297.03894    301.59374    271.78292   -286773.12    286852.02    29.810822    23.264757 
165248000    273.80458     468.9714    266.44986   -286799.71    286884.64    202.52154    23.265057 
165252000     246.2256    266.60783    262.18809   -286810.94    286910.43    4.4197462     23.26525 
165256000    297.93683    440.93977    435.84317   -286852.31    286926.06    5.0966068      23.2679 
165260000    279.08892    309.64064    326.74457   -286874.72     286979.5   -17.103931    23.268734 
165264000    258.98706    433.49841    216.84262   -286917.55     287005.2    216.65578    23.268928 
165268000    247.47608     342.5121    278.10282   -286942.24    287053.69    64.409275    23.271257 
165272000    304.08055    474.40163    284.23818   -287013.74    287085.45    190.16345    23.278377 
165276000    277.55819    121.27146    385.86502   -287023.07    287123.15   -264.59357    23.276781 
165280000    314.76909    277.48541    221.74617   -287079.01    287137.52    55.739243    23.278433 
165284000    292.50164    417.04152    249.70862   -287109.22    287191.76     167.3329    23.277443 
165288000    294.04541    329.58219    215.89788   -287177.61    287243.61    113.68431    23.276755 
165292000     307.6693    366.30455    299.65431   -287182.04    287248.96    66.650243    23.282444 
165296000    296.49895      263.387    354.03839   -287225.52    287302.87   -90.651389    23.288344 
165300000    283.09599    308.14826    215.40149   -287225.25    287329.73    92.746764    23.292253 
165304000    302.61327    436.20669    467.46305   -287291.75    287352.83   -31.256359    23.292534 
165308000    293.04933    344.89982    222.61951    -287313.7    287411.65    122.28031    23.293249 
165312000    273.50181    579.41658    281.45914   -287386.19    287475.82    297.95744    23.294203 
165316000    289.96267    347.08116    301.04592   -287431.65    287515.73    46.035241    23.294204 
165320000    285.93879    262.14775    288.31961    -287454.1    287537.71    -26.17186     23.29601 
165324000    291.71914    305.15477    215.63252   -287526.55    287601.31    89.522247    23.295494 
165328000    255.95196    237.02024    313.82197   -287557.88    287659.17   -76.801728    23.292571 
165332000    296.16742    505.68747    329.08721   -287611.58    287681.62    176.60026    23.291143 
165336000    270.10674     328.9603    378.93846   -287594.81    287668.04   -49.978152    23.290174 
165340000    269.68207     267.9915     275.2109   -287614.55    287708.23   -7.2193985    23.287404 
165344000    264.76119    417.94741     285.0682   -287656.24    287762.86    132.87921    23.289597 
165348000    249.18989    280.64456    337.68543   -287696.14    287810.51   -57.040868    23.287768 
165352000    307.71105    495.02842    361.77956   -287743.34    287821.92    133.24887    23.284262 
165356000    283.68042    350.87577    474.29731   -287764.14    287852.91   -123.42154    23.283346 
165360000    276.65127    401.69737    449.57845   -287788.57    287876.45   -47.881084    23.286208 
165364000    260.72921    230.75049    377.95376   -287837.23    287942.03   -147.20327    23.285184 
165368000     281.3082    377.53606    422.23005   -287880.54    287939.82   -44.693984    23.280543 
165372000    252.63671    361.32118    372.27149   -287916.79    288044.57   -10.950315    23.292952 
165376000    284.72775    335.30445    257.56678   -287994.34     288084.7    77.737671      23.2949 
165380000    308.90615    524.91913     347.1547   -288088.36    288152.53    177.76443    23.295185 
165384000    279.49214    284.92829      356.883   -288126.81    288210.35   -71.954715    23.293657 
165388000    265.34591     290.8763    245.90084   -288169.88    288248.13    44.975452    23.299526 
165392000    256.65077    283.33053    357.56722   -288190.69    288299.65   -74.236691    23.298713 
165396000    282.53195    329.32748    318.47003   -288248.34    288349.35    10.857444    23.301477 
165400000    256.15083    469.74175    228.57596   -288303.71    288405.98    241.16579    23.299183 
165404000    248.48121    210.79542    544.77656   -288367.88    288472.17   -333.98115     23.29742 
165408000    273.20625    268.44334     300.9657   -288425.12    288510.53   -32.522353    23.296984 
165412000    279.04741    333.14431    336.17111   -288467.36    288555.99   -3.0268055    23.299176 
165416000    264.15039    354.75954    287.98308   -288480.72     288569.5    66.776464    23.300606 
165420000    279.02892    441.62074    355.23545   -288527.34    288613.26    86.385289    23.299153 
165424000    308.41756    577.17296    343.66725   -288551.35    288632.64    233.50571    23.303885 
165428000    314.44502    336.98949    363.99783   -288592.99    288668.69   -27.008334    23.306964 
165432000    272.70408    319.52375     309.2651   -288590.66    288679.52    10.258648     23.30915 
165436000    256.64382    162.61278    162.91626   -288646.56    288749.89  -0.30348378    23.310614 
165440000    317.50136    311.08838    316.97068   -288704.55    288774.53   -5.8823007    23.310484 
165444000    263.64796    405.63783    262.06785   -288700.66     288788.3    143.56998    23.311706 
165448000     270.8539    234.42622    241.75369   -288730.47    288808.78   -7.3274723    23.319132 
165452000    280.08401    219.75779    300.98408   -288777.96    288860.07   -81.226285    23.317835 
165456000    268.83097     377.4502    427.41024   -288824.03    288893.32   -49.960042    23.317175 
165460000    284.92511    317.74241    291.88822    -288854.6    288938.41    25.854193    23.321331 
165464000      292.478    313.75586    511.95076   -288925.67    288987.44   -198.19491    23.319835 
165468000    267.04552    386.77739    214.84533   -288946.22    289040.77    171.93206    23.325236 
165472000    278.14963    311.83312    295.06516   -288988.18    289083.73    16.767963    23.323876 
165476000    271.78401    273.66565    392.66207   -289033.31     289126.9   -118.99642    23.326942 
165480000    266.60165    299.68021    353.29417   -289090.01    289180.18   -53.613966    23.329486 
165484000    284.76092     281.9882    288.44631   -289111.34    289193.37   -6.4581099    23.326556 
165488000    303.49245    413.60677    292.83481   -289140.78     289207.7    120.77196    23.328135 
165492000    260.34657    334.39676    318.15094   -289156.42     289264.8    16.245824    23.325553 
165496000    283.96478    581.47022    263.98231   -289207.64    289290.72    317.48791    23.322639 
165500000    246.87234    272.68735    208.98322   -289214.05    289317.84    63.704128    23.322549 
165504000     285.3117    366.20193     159.0041   -289253.51    289355.89    207.19783    23.319176 
165508000    264.40357    408.54469    307.12608   -289275.51    289363.63    101.41862    23.323445 
165512000    276.07575    333.35539     309.6947   -289320.85    289387.83    23.660691    23.323268 
165516000    313.91483     408.4846    422.41151   -289374.83    289427.44   -13.926914    23.322746 
165520000    309.84868      262.829    423.74145    -289396.5    289463.01   -160.91245    23.318697 
165524000    288.86198    266.64241    289.37563   -289465.44    289531.95    -22.73322    23.317846 
165528000    308.81369    465.91397     436.4236   -289481.09    289561.28    29.490377     23.31691 
165532000    295.58245     366.0091     288.1516   -289504.35    289585.41    77.857509    23.320096 
165536000    271.03278    378.08866    392.93795   -289544.45    289637.52   -14.849294    23.318753 
165540000    267.34922    392.06307      355.035   -289575.27    289680.59    37.028065    23.320804 
165544000    314.28591    523.49806    327.88578   -289620.66    289683.33    195.61228    23.317332 
165548000    270.03858    240.28363    212.77281   -289661.26    289742.66    27.510824    23.321831 
165552000    284.36318    249.09136    232.04933   -289663.46    289764.69    17.042035    23.320801 
165556000    289.99652    377.75887    504.58063   -289707.98    289795.12   -126.82176    23.320439 
165560000    252.69556    332.64499    266.74432    -289727.5    289831.45    65.900671    23.321441 
165564000    299.77447    356.83398    301.56836   -289805.83    289883.03    55.265617    23.323972 
165568000     278.4025    229.51128    388.72297   -289827.77    289913.86   -159.21169    23.323762 
165572000    302.85031    447.79161    362.55022   -289867.43    289951.63    85.241388    23.325101 
165576000    274.83281    304.10159    371.12456   -289895.34    289990.75   -67.022977    23.325579 
165580000    268.72359    252.99528    323.89741   -289934.47    290028.92   -70.902134    23.324222 
165584000    295.72143    599.34139     492.2015   -289995.04     290062.8    107.13989    23.325332 
165588000    289.47498    352.59246    303.91948   -290021.55    290117.09    48.672981    23.323743 
165592000    315.51319    387.28589    266.65083   -290072.89    290143.66    120.63507    23.326221 
165596000    304.02157    316.87416    292.08021    -290107.9    290180.23    24.793955    23.320325 
165600000    287.84674    252.49193    286.94876    -290143.1    290218.66   -34.456829    23.318271 
165604000    284.70678    336.74355      413.784   -290174.35    290256.41   -77.040455    23.317671 
165608000    280.41002    528.04958    221.40228   -290240.64    290307.28     306.6473    23.315495 
165612000    305.64398    279.51062    399.24981   -290253.02    290332.29   -119.73919    23.311517 
165616000    302.81735     450.5777    438.07099   -290286.18    290353.64    12.506717    23.308955 
165620000    283.09284    404.71848    231.56911   -290311.76    290405.41    173.14937    23.311412 
165624000    265.50718    279.50013    273.21252   -290309.09    290406.41     6.287603    23.311941 
165628000    263.71877    309.29709    279.77159   -290347.83    290440.54    29.525502    23.308174 
165632000    275.90387    434.29895    492.59101   -290390.52    290469.71   -58.292066    23.309561 
165636000    246.72741    376.54359    288.39982   -290413.64    290528.47    88.143767    23.309073 
165640000    294.32896    512.67696    371.70461   -290478.19       290574    140.97235    23.309154 
165644000      255.523    302.01443    428.11082   -290516.74    290624.16   -126.09639    23.308421 
165648000    267.71315    285.98808    297.46959   -290548.25    290652.09   -11.481515     23.30863 
165652000    287.59605    261.87155    221.65835   -290622.14     290699.8    40.213196     23.31072 
165656000    268.16598     285.1441    330.52885   -290654.33    290777.39   -45.384746    23.313026 
165660000     258.5888     300.8404    349.27284   -290726.57    290833.09   -48.432439    23.315532 
165664000    251.43568    407.25471    350.63584   -290790.83    290881.56    56.618878     23.31369 
165668000    270.13575    562.19975    326.59666   -290832.24    290919.29    235.60309    23.316745 
165672000    278.12677    475.07903    285.57619   -290881.32    290970.69    189.50284    23.314215 
165676000    260.67599    328.73399    443.07158   -290916.47    291024.76    -114.3376    23.315181 
165680000    286.66999    369.37387    279.74189   -290944.09    291021.57    89.631978    23.316941 
165684000     270.9227    330.27433    258.76631   -290992.19    291073.34    71.508029    23.316105 
165688000    263.25788    337.47358    236.62849   -290995.74    291089.78    100.84509    23.320971 
165692000    273.13065    332.64335    399.68089   -291023.93    291121.58   -67.037535    23.321286 
165696000    278.91119    242.39555    237.94267    -291068.2    291168.44    4.4528866    23.321438 
165700000    266.38493    225.03379    355.45666   -291106.39    291210.68   -130.42287     23.31976 
165704000    266.07858    357.44352    282.23014   -291173.74    291267.35    75.213381    23.324125 
165708000    254.17991    472.42941    319.25983   -291186.95    291285.65    153.16958    23.320112 
165712000     267.1671    361.45942    183.86346   -291225.14     291320.7    177.59595    23.324994 
165716000    283.58281     362.7804    500.18577    -291283.1    291393.36   -137.40538    23.324303 
165720000    297.88999    427.92141    498.94467   -291312.78    291405.42   -71.023266    23.326196 
165724000    268.37167    352.15733    307.67028   -291329.38    291443.14    44.487043    23.325519 
165728000    270.92132    372.64518    351.34023   -291352.18    291454.86    21.304949    23.325055 
165732000    263.40777    407.01186    475.66989   -291388.29    291505.22   -68.658031    23.323785 
165736000    301.36563    296.29608    351.36208   -291426.26    291515.29   -55.066002    23.325531 
165740000    260.77249    214.44638    361.14893   -291449.65    291544.91   -146.70255    23.325898 
165744000    278.23558     326.3381    302.93139   -291511.26    291599.96    23.406716    23.326708 
165748000    276.09673    369.92712    297.47964   -291566.97     291652.6     72.44748     23.33112 
165752000    292.75424    400.50782    347.53473   -291624.45    291709.38    52.973096    23.328914 
165756000    286.96602    345.21515    252.65075   -291691.38    291772.15    92.564403    23.331537 
165760000    284.22128    464.25479    298.34388   -291747.38     291820.9     165.9109    23.332504 
165764000    322.05457     576.0677     330.9376   -291795.41    291865.01    245.13011    23.331411 
165768000    272.69362    435.04852    218.88002    -291826.7    291914.56     216.1685    23.332985 
165772000    298.59835    243.30924    278.06635      -291864    291934.04   -34.757107    23.336757 
165776000     300.9494      430.773    419.74499   -291913.93    291996.34    11.028013    23.339669 
165780000    281.09328    423.25218     470.0058    -291927.8     292023.2   -46.753628    23.339971 
165784000    310.51725    430.07532    245.07927   -291993.92    292062.39    184.99604    23.340357 
165788000    287.36323    498.52527    297.45737    -292021.8    292084.43     201.0679    23.344424 
165792000    270.07566    447.72001    387.79279   -292048.43    292142.58    59.927216      23.3514 
165796000    299.47689    261.96803    470.53493   -292094.31    292164.91    -208.5669    23.354982 
165800000    284.70083    339.69042    385.92332   -292141.04    292223.02   -46.232897    23.352701 
165804000    277.77957    322.59859    310.49869   -292182.54    292269.26      12.0999    23.351378 
165808000    271.12378    243.13706    338.15905   -292221.52     292305.9    -95.02199    23.353109 
165812000    288.99807    397.89168    275.27512   -292265.11    292332.61    122.61656    23.355743 
165816000    255.47377    288.15607    240.15317   -292289.35    292388.56    48.002898    23.352977 
165820000    263.64022    339.40222    261.51398   -292340.07    292419.12    77.888233    23.354082 
165824000    295.47389    336.58312    465.56083   -292383.03    292468.52    -128.9777    23.355489 
165828000    289.62478    331.06519    308.83966   -292440.75    292529.48    22.225528    23.359097 
165832000    277.42358    241.74901    213.46659   -292505.48     292601.4    28.282425    23.361848 
165836000    275.52842    345.88454    243.33649   -292542.94    292644.66    102.54805    23.357841 
165840000     328.8437    367.28796    521.01058   -292619.09    292677.43   -153.72262    23.356494 
165844000    286.77033    326.32633    443.87928   -292636.58    292714.59   -117.55295     23.35705 
165848000    257.45657    370.85652    356.76254   -292660.75    292764.62    14.093981     23.35494 
165852000    286.54196    327.73723     215.7719   -292709.25    292788.81    111.96533    23.360097 
165856000    269.91572    348.32088    193.11871   -292737.22    292838.89    155.20217    23.362378 
165860000     288.9943    418.73277    355.96421   -292778.12    292857.85    62.768564    23.364737 
165864000    267.05115    315.97907    239.51985    -292776.9    292889.05     76.45922    23.362625 
165868000    287.43422    232.06417    276.65914   -292807.32     292864.5    -44.59497    23.365437 
165872000    270.29472    328.47276    241.28454   -292859.39    292953.48    87.188221    23.366065 
165876000    280.28764     199.7665    311.34158   -292886.85    292968.13   -111.57509    23.364791 
165880000    301.54583    396.48998    313.88974   -292910.29    292999.88    82.600237    23.365861 
165884000    269.08589    283.35088    399.41762   -292948.58    293024.52   -116.06673    23.368586 
165888000    266.59186    379.30389     368.9225   -292954.37    293040.42    10.381384    23.368701 
165892000    291.53441    256.36018    408.62813   -292972.11    293066.57   -152.26795    23.367666 
165896000    258.62156    319.20921    480.21524   -293011.71    293119.35   -161.00603    23.371576 
165900000    277.61857    409.31735    332.69171   -293104.44    293186.57    76.625638    23.371199 
165904000    275.45688    316.93893    261.40774   -293144.53    293238.35    55.531196    23.376569 
165908000    262.52795     264.3948    359.87899   -293182.51    293291.38   -95.484192     23.37493 
165912000    271.25721    423.86123     346.6596   -293250.98    293325.03    77.201627    23.378141 
165916000    245.42264    232.64357    301.70327   -293298.55    293411.46   -69.059707    23.375963 
165920000    277.78771    248.09874    400.10432   -293357.86    293442.04   -152.00557    23.381563 
165924000    280.55935    385.00834    211.65454    -293371.7    293471.85     173.3538    23.379849 
165928000    273.76485    222.78165    229.72178    -293395.8     293478.8   -6.9401323    23.383931 
165932000     293.1954    504.09247    407.80609   -293442.74    293523.85    96.286384    23.389096 
165936000    285.85486    266.13971    267.20848   -293495.98    293576.14   -1.0687747    23.390816 
165940000     269.6999     204.7193    152.46627   -293525.39    293618.77    52.253025    23.391037 
165944000    272.29313    274.82341    284.08216   -293554.06    293616.24   -9.2587527    23.390566 
165948000    283.35828    235.75333      175.324   -293603.77    293688.88    60.429334    23.387436 
165952000    289.73212    343.01904    316.02148   -293662.97     293746.4    26.997557    23.382249 
165956000    264.33747    407.44674    292.66428   -293688.46    293777.36    114.78246    23.383251 
165960000    323.55986    298.34767    422.31872   -293723.98    293791.47   -123.97105    23.381794 
165964000    282.64711     418.8687    191.04552   -293734.82    293828.77    227.82319    23.386145 
165968000    262.82986    315.98686    242.50867   -293771.16    293869.63    73.478196    23.385464 
165972000    300.22565    368.36542    439.33846   -293841.71     293917.5    -70.97304    23.386751 
165976000    275.15664    269.70588    295.95114   -293876.81    293948.48    -26.24526    23.385081 
165980000    287.50519    359.57584     180.0438   -293909.43    293994.51    179.53204    23.383114 
165984000    267.17693    165.08614    338.21655   -293936.93    294031.86   -173.13041    23.384607 
165988000    318.06847     308.2878     406.7341   -294011.03    294077.23   -98.446299    23.385765 
165992000    307.02419    295.69929     449.8175   -294063.04    294135.58   -154.11821    23.391507 
165996000    305.68483    383.84608    384.25187   -294123.31    294181.54  -0.40579106     23.39306 
166000000    319.61504    515.48926    281.08722   -294159.25    294220.57    234.40204    23.396519 
166004000    251.08373    395.45165    252.28104   -294172.65    294268.68    143.17061    23.397969 
166008000      275.866     474.0926    365.44558   -294230.68    294305.16    108.64702    23.398327 
166012000    286.27205    436.70736    272.95427   -294306.81    294397.89     163.7531      23.3988 
166016000    288.81482    330.09029    406.39241   -294343.25    294434.99   -76.302116    23.397132 
166020000    260.21853    231.84943    388.93403   -294415.53    294508.61    -157.0846     23.39707 
166024000    285.84377    286.68649    474.80587   -294473.04    294549.41   -188.11938    23.396006 
166028000    323.78208    330.14793    223.97582   -294532.37    294595.22    106.17212    23.396524 
166032000    276.09353    211.63157    223.05664   -294545.22    294619.34   -11.425064    23.400142 
166036000     311.3877    306.87854    300.93553   -294617.45    294686.54    5.9430038      23.3981 
166040000     294.1056    404.92612    483.22304   -294621.31    294703.92   -78.296925    23.398297 
166044000    257.72079    244.80915    271.58103   -294681.59    294772.68   -26.771875    23.398413 
166048000    280.43851     416.1338    218.32184   -294727.26    294813.89    197.81196    23.398398 
166052000     273.3428    369.31989    290.32528    -294774.4     294871.6    78.994605    23.402497 
166056000    254.77568     354.9088     295.2321   -294795.91    294911.35    59.676696    23.400515 
166060000    283.81572    301.25926    203.73017    -294867.2    294960.85    97.529094    23.402129 
166064000      291.593    347.95804     297.8398   -294899.57    294983.51    50.118239    23.403211 
166068000    259.62733    316.84004     294.7754   -294913.18     295034.9    22.064632    23.403846 
166072000    253.39408    256.70224     298.8779   -294988.91     295086.2   -42.175662    23.404382 
166076000     297.7204     355.0808    549.22855    -295057.8    295122.64   -194.14775    23.405665 
166080000    277.21983    234.73698    227.61386   -295085.52    295165.06    7.1231177    23.401164 
166084000    302.35798    399.72655    270.86455   -295138.44    295224.84      128.862    23.402051 
166088000    301.14082    339.20039    294.28049   -295170.86     295258.2    44.919905      23.3966 
166092000     256.5184    226.92799      292.558   -295178.19    295261.89   -65.630002     23.39938 
166096000    276.39285    409.90262    264.49338   -295209.55    295296.34    145.40923    23.400799 
166100000    273.24937    316.78885    208.27246   -295263.19    295337.22    108.51639    23.401201 
166104000     305.3974    341.93426    238.42214   -295307.44    295359.82    103.51212    23.397836 
166108000    302.11283     578.1821    226.78556   -295346.38    295411.95    351.39654     23.39493 
166112000    272.52652    279.64532    242.77622   -295386.94    295463.52      36.8691    23.390144 
166116000    251.08209    361.23006    254.75005   -295394.74    295491.54    106.48001    23.386541 
166120000    257.08706     467.4179    360.32879   -295422.42     295528.2    107.08911    23.386493 
166124000    298.97996    519.02859    434.06464   -295453.19    295533.91    84.963958    23.387572 
166128000    254.69832    350.64238    305.36286   -295495.22    295587.54    45.279519    23.384132 
166132000     286.3539    263.79884    372.41542   -295541.13    295634.14   -108.61659    23.383135 
166136000    285.74219    370.81346    292.81391   -295597.76    295677.86    77.999543    23.384282 
166140000    298.51208    401.41877    284.43171   -295610.35    295681.01    116.98706    23.385779 
166144000    296.36505    236.64174    285.52639    -295636.9    295714.58   -48.884649    23.382885 
166148000    318.50804    350.04205    428.44831   -295690.32    295736.53   -78.406261    23.380927 
166152000     277.0137    461.50672     242.1443   -295743.84     295837.2    219.36242    23.381396 
166156000    292.61555    337.85243    376.34956    -295776.3    295867.18   -38.497134    23.379797 
166160000    294.81875    385.41438    169.46781   -295832.48     295904.1    215.94657    23.380145 
166164000    306.95313    324.71176     362.9257   -295878.47    295944.54   -38.213938    23.381609 
166168000    286.86823    377.03416    258.25247   -295902.13    295984.57     118.7817    23.384276 
166172000    295.02445    522.27921    259.98723   -295914.12    295992.25    262.29198    23.385416 
166176000    281.86792    398.71807    215.98409   -295942.73    296034.83    182.73399    23.380445 
166180000    285.93361    445.84485    318.15142   -295948.84    296034.99    127.69343    23.380078 
166184000    309.91383    463.58267    281.27569   -295999.69    296064.29    182.30698    23.383546 
166188000    265.22997    242.99184    266.04181   -296012.81    296113.23   -23.049966    23.385167 
166192000    260.58024    317.33914    227.20307   -296046.26    296147.34    90.136067    23.385145 
166196000    269.64672     231.6892    341.93403   -296077.39    296175.38   -110.24483    23.388792 
166200000    289.88821    261.61387    302.83091   -296172.93    296268.97   -41.217037    23.387641 
166204000    278.79322    512.84879    235.63215    -296210.5    296297.24    277.21663    23.390389 
166208000     315.5027    398.95789    334.84043   -296232.35     296304.7    64.117469    23.395142 
166212000    298.85799    355.29892    468.84159   -296305.81     296389.1   -113.54267    23.395344 
166216000    284.48255     246.1774     291.7518   -296337.38    296413.95   -45.574405    23.393977 
166220000    303.64079    285.96505    339.05796    -296361.6    296433.83   -53.092906    23.393161 
166224000    281.72981    378.54896    357.74347    -296387.5    296478.15    20.805487    23.395383 
166228000    302.97168    385.88879    302.90682   -296450.55    296520.55    82.981962    23.395096 
166232000    281.97341    342.73437    381.12036   -296488.61    296569.19   -38.385992    23.392417 
166236000     286.4696    303.27906    335.83913   -296550.46    296622.69   -32.560074    23.388568 
166240000    269.75196    276.39415    302.80302   -296554.64    296651.43    -26.40887    23.391381 
166244000    312.61822    501.54217    264.94713      -296598    296663.48    236.59504     23.38947 
166248000    285.11451    522.17291    154.34432   -296616.66    296701.98     367.8286    23.389564 
166252000    317.94156    284.90479     421.3233   -296699.37    296762.15   -136.41851    23.386513 
166256000    290.39643    451.84343    261.60765   -296727.97    296813.31    190.23579    23.386479 
166260000     273.1675    349.60291    391.98145   -296759.42    296844.48    -42.37854     23.38759 
166264000    320.76391    374.73286    523.36919   -296812.07    296867.09   -148.63633    23.387997 
166268000    304.28012    197.95242    263.14966   -296853.45    296939.59   -65.197241    23.385617 
166272000    304.19166    547.92522    324.20725   -296922.98    296974.84    223.71797    23.386737 
166276000     297.2678    266.83466    384.32003   -296962.28    297022.14   -117.48538    23.387655 
166280000    296.42425    374.07713    263.10746   -296989.35    297070.74    110.96967    23.385815 
166284000    295.41585    260.14379    357.83512   -297020.63    297101.86   -97.691332    23.386188 
166288000    261.55801    246.42558    249.50029   -297041.99    297133.04   -3.0747041    23.387732 
166292000     281.3443    387.97272     365.1322   -297098.12    297171.29    22.840518    23.390088 
166296000     278.7505    367.45956    283.20415   -297142.98    297243.66    84.255406    23.387528 
166300000     326.2837    309.61436    324.04736   -297214.47    297273.89   -14.432999    23.386409 
166304000    265.14323    260.00792    296.87211   -297202.56    297294.12   -36.864184    23.387726 
166308000    270.41334    382.75857    299.68884   -297265.42    297361.43    83.069735    23.394149 
166312000    288.29359    427.31838    215.76973   -297320.82    297408.22    211.54865     23.39667 
166316000    263.77876     384.1797      350.395   -297349.23    297452.37    33.784704    23.396563 
166320000    303.54826    324.06873    376.59204   -297397.17    297480.55   -52.523303    23.398192 
166324000    261.36742    201.08359    264.47301   -297413.11    297517.19   -63.389417    23.393912 
166328000    280.75631    362.04972    191.82605   -297466.61     297566.3    170.22367    23.395376 
166332000    272.05549    285.27276    396.13804   -297504.53    297602.44   -110.86528      23.3953 
166336000    264.43712    267.26129    392.52269   -297535.22    297646.54    -125.2614    23.393885 
166340000    257.71585    327.25185    301.40308   -297536.93    297639.94    25.848766    23.391043 
166344000    284.63793    491.05802     307.9097   -297587.05    297670.89    183.14833    23.389206 
166348000    279.49519    357.64805    254.34045   -297626.35    297711.01    103.30759    23.387988 
166352000    282.95263    290.77285    261.47583    -297633.8    297725.22    29.297016    23.388307 
166356000    287.87139    366.16579    262.04369   -297688.57     297778.7     104.1221    23.387749 
166360000     271.5823    343.65977    326.69091   -297727.05    297833.84    16.968864    23.384836 
166364000    267.84503    330.03459    382.99329   -297780.73    297854.44   -52.958707    23.388775 
166368000    278.43149    412.40129    354.24646   -297807.04    297890.63     58.15483    23.390033 
166372000     333.8782    348.92093    227.20081   -297846.74    297908.05    121.72013    23.386863 
166376000    268.89754     443.3916    285.88906   -297885.71    297978.83    157.50254     23.38732 
166380000    280.35278    404.45075    281.77454   -297936.14    298016.37    122.67622    23.389189 
166384000    265.95693    215.03992    394.49114   -297970.36     298061.2   -179.45122    23.388417 
166388000    279.05023    405.22867    386.16052   -297984.18    298084.89    19.068156    23.391361 
166392000    278.40689    465.25241     429.1177   -298014.17    298106.49    36.134708    23.393208 
166396000    263.98314    247.39027    235.44662   -298029.12    298130.67    11.943648    23.394597 
166400000    296.65406    399.73582    320.09924   -298082.96    298161.18    79.636577    23.398857 
166404000    288.39183    420.79302    367.92164   -298130.94    298204.81    52.871383    23.401071 
166408000    257.06845    307.19631    218.76522   -298152.65    298249.67    88.431092    23.396246 
166412000    285.74545     389.3901     289.1167   -298192.55    298291.02     100.2734    23.396721 
166416000     256.4653    397.25291     328.3023   -298225.68     298331.7     68.95061    23.396516 
166420000     262.5034    455.79731    354.91462   -298278.29    298370.25    100.88269    23.394908 
166424000    300.03051    509.86581    354.95617   -298317.39    298394.49    154.90965    23.393872 
166428000     301.8807    421.26313    273.45193   -298392.32    298456.74     147.8112    23.394827 
166432000    284.08047    352.02547    289.23273   -298419.56    298509.02    62.792739    23.397983 
166436000    296.22643    389.58249    328.46143    -298409.2    298494.45    61.121059    23.399579 
166440000    271.20091     333.4782    203.34897   -298438.99    298530.48    130.12924    23.404036 
166444000    274.77503    334.65917    190.49082   -298458.26    298543.64    144.16835    23.404896 
166448000    289.30883    339.18351    289.00096    -298492.3    298577.14     50.18255    23.398933 
166452000    303.87504    593.21831    567.35681   -298532.26    298590.81    25.861501    23.399512 
166456000    291.68185    273.27957    331.51107   -298529.41    298611.03     -58.2315    23.400046 
166460000    290.58784    343.88833    411.94893   -298580.58     298655.2   -68.060594    23.398048 
166464000    280.47915    275.17186    418.55648   -298619.94    298708.37   -143.38462    23.395014 
166468000    275.26937    301.20435    280.13796   -298644.19    298732.81    21.066391    23.390702 
166472000    289.47959    478.40437    320.58977   -298711.41    298795.34     157.8146    23.396894 
166476000    300.32892    409.48356    510.15331   -298759.21    298847.84   -100.66975    23.400411 
166480000    283.94312    480.59848    407.28566   -298813.06    298897.55    73.312822    23.395246 
166484000    279.07026    262.13239    230.70757   -298843.49    298915.77    31.424818    23.392103 
166488000    314.53847    428.74015    400.95132   -298866.56    298936.37    27.788832    23.391167 
166492000    271.53081    299.16124    325.21359   -298894.98    298990.65    -26.05235    23.390526 
166496000    321.60994    297.05866    327.17064   -298947.01    299011.28   -30.111986    23.392768 
166500000    280.22774    521.48093    434.05762   -298986.85     299057.9    87.423315      23.3963 
166504000    305.51512    389.83858    491.68297   -299013.79    299083.01   -101.84439     23.39781 
166508000    264.15539    336.06784    302.47028   -299042.78    299157.82    33.597564    23.398225 
166512000    292.40778    365.77638    355.94119   -299087.44    299165.21    9.8351896    23.396173 
166516000    313.34487    413.23999    238.01617   -299138.17    299187.68    175.22382    23.395703 
166520000    302.61559    373.44846    439.71656    -299146.9    299214.44   -66.268105    23.395238 
166524000    253.48897    326.51169    270.61991   -299136.62    299252.19    55.891778    23.398041 
166528000    294.91806    279.76664    222.85368   -299202.37    299283.99     56.91296    23.399834 
166532000    276.53101    271.55623     247.3758   -299232.11    299323.78    24.180434    23.404679 
166536000    272.04929    743.75296    400.59163   -299249.05    299332.01    343.16133    23.408862 
166540000    276.64104    397.17387    169.06833   -299305.72    299385.24    228.10555    23.412035 
166544000    277.08809    431.74702    260.00214   -299345.85    299406.49    171.74488    23.414732 
166548000    292.04658    290.62235    122.49513   -299387.92    299472.92    168.12722     23.41456 
166552000    284.76587    379.14766    256.31348   -299408.16    299502.82    122.83418    23.414462 
166556000    302.38487    332.46846    475.11583   -299443.92    299527.55   -142.64737     23.41744 
166560000    302.27342    248.51508      324.127   -299478.01    299538.07   -75.611921    23.419879 
166564000    253.17695    342.59342    346.60763   -299468.42    299569.76   -4.0142103    23.418722 
166568000      271.257    234.30142     597.9314   -299509.82    299611.53   -363.62998    23.420977 
166572000    266.35531    165.04365    292.90758   -299512.53     299623.2   -127.86394    23.415836 
166576000    280.99219    281.72117    572.66294   -299544.69    299619.09   -290.94177    23.416933 
166580000    289.77312    309.40553    208.94555   -299567.53     299654.8    100.45998    23.413901 
166584000    278.79963    277.29733    290.25589   -299620.67    299704.65   -12.958561    23.415663 
166588000    303.95116    301.24944    372.81533   -299681.57    299750.57   -71.565884    23.413462 
166592000    264.27098    327.02764    473.10103   -299725.91    299813.09    -146.0734    23.414705 
166596000    263.99811    398.09385    214.51047   -299760.69    299863.06    183.58337    23.412326 
166600000    261.94879    397.20193    323.36363   -299790.11    299879.69    73.838296    23.413729 
166604000    290.45817    296.44447     349.0793   -299832.84    299930.56   -52.634829     23.41311 
166608000    258.90023    254.26192    355.20779   -299874.94    299983.06   -100.94588    23.414042 
166612000    246.27176     287.7994    207.58855   -299927.01    300035.04    80.210858    23.412813 
166616000    253.34778    266.93591    293.33499   -299962.71    300077.47   -26.399082    23.411955 
166620000    275.15367    351.49852     383.8367   -299992.67    300066.35   -32.338187    23.411526 
166624000    300.08318    264.68443    350.15533   -300024.14    300099.71   -85.470891    23.413109 
166628000    326.80995    398.99133    450.73175   -300050.78    300102.52   -51.740417    23.415384 
166632000    319.87915    486.82856    360.46224    -300073.8    300128.61    126.36632    23.413624 
166636000    292.55332    414.29156    383.02618   -300081.11    300158.67    31.265377    23.413601 
166640000    299.04735    255.07695    259.73524   -300117.51    300194.74   -4.6582888    23.414239 
166644000     285.5026    324.75207    389.20939   -300157.46    300240.99   -64.457315     23.41536 
166648000    270.16067    291.75645    236.38866   -300177.15    300274.57    55.367791    23.416244 
166652000    258.29597    322.75586    336.27872   -300205.68    300311.58   -13.522856    23.414078 
166656000    277.22845    276.06904    381.45763   -300251.65    300353.41    -105.3886    23.416699 
166660000    292.41451    308.38543     281.5119   -300324.49    300397.72    26.873522    23.416415 
166664000    280.81172    469.06319    235.92298   -300388.46    300486.67    233.14021    23.414085 
166668000    286.24327    398.68019    362.88617    -300422.4     300523.1    35.794014    23.416834 
166672000    287.65058    211.23185    265.49974    -300484.7    300571.15   -54.267885    23.418161 
166676000    265.27148    235.80333    270.35185   -300502.13    300603.37   -34.548522    23.414353 
166680000    270.45961    358.51189    315.12672   -300532.48    300637.46    43.385164    23.413188 
166684000    302.63523    545.92438    542.32955   -300579.42    300643.41    3.5948324    23.415694 
166688000     292.8359    245.51495    275.63105   -300591.57       300682   -30.116104    23.413966 
166692000    271.55818    316.69262    415.91415    -300620.5    300707.91   -99.221532    23.410852 
166696000    279.75742    569.05528    326.60086   -300684.79    300746.89    242.45443    23.406853 
166700000    272.94928    291.86069    434.20578   -300691.43    300771.38   -142.34509    23.405218 
166704000    263.37603    273.27604    287.25527   -300685.73    300793.83   -13.979231    23.402392 
166708000    270.48343    323.44051    284.56669   -300727.77    300815.54    38.873821    23.399074 
166712000    281.46101    289.72472    283.76892   -300787.36     300878.3    5.9557976    23.405002 
166716000     310.0877    357.28881    438.20747   -300863.45    300916.18   -80.918659    23.408077 
166720000    283.78848    355.19038    373.05394   -300890.81    300957.73   -17.863564    23.411435 
166724000    307.76797    458.40995    227.16038   -300913.32    300987.63    231.24957    23.411659 
166728000    307.11487    561.30812    509.30471   -300950.11    301015.24    52.003409    23.411695 
166732000    278.99353    236.35282     301.0556   -301005.45    301071.72   -64.702776    23.407676 
166736000    290.66437    406.52926    177.00664   -301041.24    301123.57    229.52262    23.411943 
166740000     273.8866    359.62122    213.09838   -301071.63    301185.08    146.52284    23.410286 
166744000    285.92938     302.3535    297.04908    -301113.4    301197.38     5.304423    23.410185 
166748000    300.52487    206.60355    218.37672   -301174.88    301261.28   -11.773169     23.40993 
166752000    286.50659    395.32388    355.75267   -301209.79    301305.81    39.571213    23.410964 
166756000    277.82035    202.45561     302.0022   -301264.12    301322.39   -99.546597    23.413173 
166760000    295.92992    383.32501    294.32064   -301294.85    301364.61    89.004366    23.413964 
166764000    288.44582    311.63551     360.9318   -301343.75    301407.33   -49.296293    23.415718 
166768000    285.96283    311.74445    372.31408   -301386.59    301451.16    -60.56963    23.414339 
166772000    314.96041     360.4869    388.85311   -301397.31    301448.23   -28.366211    23.412627 
166776000    324.21261    279.93976    341.03287   -301445.26    301494.99   -61.093107    23.409698 
166780000    284.46454    322.40541     304.6561   -301494.87     301578.3    17.749306    23.406214 
166784000    275.05519    352.77132    253.18634   -301546.08    301618.98    99.584976    23.408513 
166788000    271.67578     308.6014    386.97789   -301579.75     301673.1   -78.376489    23.409339 
166792000    292.44233    329.29608    233.31075    -301645.2     301721.4    95.985332    23.407903 
166796000    311.68394    465.39226     202.9056   -301671.17    301752.93    262.48666    23.406862 
166800000    318.96508    514.68218    424.60813   -301751.32     301808.5     90.07405    23.405325 
166804000    287.75916    488.57397    214.32144   -301769.16    301862.35    274.25253    23.407099 
166808000    275.23874    243.49192     362.4002   -301810.87    301891.11   -118.90828     23.41027 
166812000     290.6422    314.23971    331.90046   -301861.09    301945.72   -17.660751    23.410491 
166816000    297.27583    417.24936    325.81937   -301929.46    301998.53    91.429989    23.408628 
166820000    281.32497    429.75346    478.71812   -301963.44    302042.92   -48.964659    23.411066 
166824000    282.76343    242.56761    316.01836   -302006.55    302092.99   -73.450753    23.412439 
166828000    272.75752    288.27065    214.84336   -302056.64    302129.66    73.427282    23.412913 
166832000    296.31577    522.79124    227.92274   -302096.34    302167.64    294.86851    23.409365 
166836000    272.90022    179.32635    137.67369    -302120.3    302219.73    41.652659    23.407102 
166840000    272.09314    162.67464    412.13969   -302182.78    302261.53   -249.46506    23.411616 
166844000    280.30951    250.39301    257.06211   -302213.03    302312.26   -6.6691048    23.414443 
166848000    275.32556    206.89609      230.354   -302249.84     302346.4   -23.457905     23.41433 
166852000    284.15478     359.1821    242.63956   -302276.94    302350.82    116.54254    23.411059 
166856000    286.18272    178.34427    347.94833   -302300.45     302392.1   -169.60406    23.407481 
166860000    302.09592    410.85035    265.08613    -302352.5    302420.03    145.76422     23.40682 
166864000    275.23134     211.7878    453.26551    -302368.5    302461.95   -241.47771    23.408479 
166868000    295.21949    373.23109     377.1178   -302452.02    302532.27   -3.8867113     23.40613 
166872000     299.1871    560.07229     396.1611   -302524.53    302600.82    163.91119    23.404297 
166876000    277.87977    317.03247    166.77709   -302558.13    302671.65    150.25538    23.402525 
166880000    277.54694    261.19471    335.75714   -302604.56    302703.57   -74.562427    23.397708 
166884000    293.99902    470.30842    349.18854   -302636.73    302731.79    121.11988    23.403734 
166888000    263.73881    301.52282    182.89152   -302676.55    302785.08     118.6313    23.402863 
166892000    280.77104    323.51597    315.87474    -302718.5    302818.25    7.6412384    23.401075 
166896000     298.9467    427.21618    378.96631    -302768.1    302841.25    48.249869    23.399903 
166900000    284.40839     388.5906    604.85603   -302771.84    302865.48   -216.26543    23.403746 
166904000     278.6759    300.03086      440.421   -302809.02    302904.56   -140.39014     23.39979 
166908000    281.38675    220.10551    182.85935   -302845.64    302927.58    37.246154     23.40288 
166912000    306.20106    265.10346    383.39303   -302903.12    302967.57   -118.28958    23.401612 
166916000     262.3769    434.84749    250.08666   -302929.67    303025.29    184.76083    23.405769 
166920000    269.44441    209.22817     193.9182   -302965.41    303073.25    15.309968    23.406797 
166924000    304.14843    443.67132    377.53549    -303013.3    303103.32    66.135831    23.409762 
166928000    265.67658    444.14269    408.78277   -303037.88    303140.38    35.359917      23.4133 
166932000     288.5842    311.58529    299.06395   -303067.61    303140.27    12.521335    23.411596 
166936000    264.83537    193.54167     333.2087   -303070.29       303174   -139.66703    23.414779 
166940000    271.51295    186.93077    388.09128   -303090.18    303188.82   -201.16051    23.412542 
166944000    294.94944    499.28608    365.84046    -303139.5    303230.24    133.44563    23.410298 
166948000    283.53201    405.45096    374.30953   -303193.72    303277.15    31.141436    23.413122 
166952000    285.94987    374.15874    193.97667   -303249.47    303357.01    180.18207    23.415251 
166956000     290.7064    427.96832    617.21301   -303287.63    303402.12   -189.24468    23.415211 
166960000    259.37966    431.95799    309.82704   -303343.51    303438.01    122.13094     23.41334 
166964000    317.51618    511.04674    457.78081   -303391.96    303467.79    53.265931    23.410996 
166968000    255.29262    372.90124    217.27226   -303403.56    303511.63    155.62898    23.408741 
166972000    289.27118      526.021     411.5792   -303439.26    303523.78     114.4418    23.405277 
166976000    285.26181    398.90242    313.99799   -303483.18    303578.57    84.904434     23.40977 
166980000    251.92959    221.57124    316.93741    -303485.9    303602.42   -95.366171    23.403882 
166984000    282.32941    303.13369    258.50884   -303522.29    303602.99    44.624853    23.405778 
166988000    273.75729    349.51656    228.43961   -303547.36    303647.11    121.07695    23.405289 
166992000    275.20646    586.05928    195.84425   -303564.54    303680.32    390.21503    23.408912 
166996000    298.86707    500.93461    288.61385   -303619.49    303705.24    212.32076    23.409524 
167000000    294.25373    478.79583    302.42845   -303645.09    303724.13    176.36738     23.40791 
167004000    260.32912    333.50513     217.4605   -303681.69    303801.47    116.04463    23.407731 
167008000    253.35146    415.75386    226.86618   -303720.39    303813.74    188.88768    23.408972 
167012000    281.27305    358.92651    511.25901   -303742.16    303835.52   -152.33249    23.405893 
167016000    297.07366    408.26204    317.42449   -303805.42    303885.79    90.837546    23.407423 
167020000    300.91863    332.17075    488.77361   -303867.73    303943.43   -156.60286    23.403053 
167024000    277.97397    502.61171    285.54458   -303928.78    304018.71    217.06712    23.400658 
167028000    289.86091    364.59017    321.05005   -303975.29    304065.42    43.540116    23.399783 
167032000    280.09551    269.74328    426.04319   -304035.77    304110.16    -156.2999    23.401103 
167036000    264.88678    315.80318    323.47981   -304072.87    304150.07   -7.6766268    23.397611 
167040000    307.12066    649.39193    338.23939   -304073.43    304145.53    311.15254     23.40101 
167044000    287.17854    284.55445    215.02444   -304093.45    304182.44     69.53001     23.39961 
167048000    266.08421    574.42971     190.2149   -304129.85    304224.47     384.2148    23.402064 
167052000    285.91281    494.57938    340.21292   -304180.61    304268.47    154.36646    23.399102 
167056000    296.78426    294.50512    476.39606    -304227.4    304314.77   -181.89094    23.403071 
167060000    288.81165     297.4247    492.13399   -304239.12    304338.09   -194.70929     23.40213 
167064000    321.60855    625.35667    511.93897   -304332.45    304403.97     113.4177    23.400684 
167068000     283.4263      242.167    310.39135   -304355.17    304438.21   -68.224348    23.401569 
167072000    277.56291    409.87803    379.45622   -304418.45    304513.58    30.421801    23.400876 
167076000     293.0615    258.03391    316.33037    -304490.7    304566.94   -58.296461    23.399021 
167080000    280.52251    414.04814    367.76433   -304526.73    304613.96    46.283801    23.401904 
167084000    241.82789    210.20052    158.58354   -304538.56    304654.22    51.616984    23.401993 
167088000    273.68283    241.48213    378.00049   -304584.85    304689.47   -136.51837    23.399221 
167092000    249.06746    246.06096    436.65738   -304605.99    304722.56   -190.59643    23.400752 
167096000    259.85715    278.73666    278.92459   -304650.23    304757.45  -0.18792946    23.396149 
167100000    274.78541    265.96288     298.0807   -304668.61    304772.74   -32.117822    23.396095 
167104000    255.28845    260.63615    313.26354   -304707.02    304811.88   -52.627386    23.397599 
167108000    277.29946    353.56352    408.93001   -304725.89    304816.65   -55.366483    23.394514 
167112000    303.41101    437.37153    384.80414    -304782.7    304851.95    52.567388     23.39606 
167116000    260.69418    335.23101    287.22998   -304820.31    304919.51    48.001035    23.396544 
167120000    261.63065    340.75478    318.93411   -304866.66    304962.94    21.820667     23.39506 
167124000    254.68974    302.36746    215.88234   -304896.42    304994.77    86.485127     23.39881 
167128000    295.27742    460.74073    276.14264    -304942.7    305011.35    184.59809    23.396646 
167132000    288.96064    342.16106    200.23502   -304967.28    305068.23    141.92604    23.398821 
167136000    299.06097    341.46229    387.67139   -305000.02     305082.2   -46.209095    23.399202 
167140000    247.76738    308.44596    273.77347   -305028.95    305124.95    34.672489    23.398071 
167144000    275.36373     446.7085     306.2155    -305077.2    305154.53    140.49299    23.396085 
167148000    274.95162    355.80811    357.11136   -305083.19    305179.66   -1.3032453    23.394484 
167152000    271.37815    339.50278    348.41196   -305108.26     305198.4   -8.9091861    23.394286 
167156000    303.17977     542.3404    328.52091   -305144.24    305218.53     213.8195    23.398146 
167160000    292.32547    510.95951    346.14554   -305188.38    305273.34    164.81397    23.395865 
167164000    269.15659    442.24767     440.4024   -305216.46    305317.04    1.8452647    23.393956 
167168000      268.954    321.93917    324.51526   -305268.02    305355.25    -2.576088    23.392145 
167172000    286.03565    310.22019    213.88566   -305300.33    305378.13    96.334533    23.390613 
167176000    259.49781    297.28416    343.92731   -305343.73    305441.26   -46.643151    23.389448 
167180000    289.29176     432.0929    202.39254   -305389.81    305462.61    229.70037     23.39138 
167184000    281.52883    252.72155    304.74101   -305403.44    305491.16    -52.01946    23.387569 
167188000    300.86105     275.1254     322.6353   -305452.88    305528.06   -47.509904    23.392443 
167192000    289.05002    330.01077    250.97494   -305489.19    305588.45    79.035833    23.393152 
167196000    286.20103    262.44915    365.88704   -305549.69    305629.98    -103.4379    23.394903 
167200000    271.60526    366.72121    294.37616   -305609.25    305689.42    72.345052    23.397123 
167204000    280.98613    383.93916    351.42384   -305655.17    305747.73    32.515323     23.39717 
167208000    286.00085    243.95589    273.48045   -305686.64    305770.93   -29.524561    23.396261 
167212000     279.7248    276.95635    356.69133   -305726.78    305806.45   -79.734984     23.39613 
167216000    263.78693    448.68063    278.28934   -305770.36    305864.24    170.39129    23.395884 
167220000    301.97435    419.16484    200.71637   -305841.52    305916.92    218.44847    23.398814 
167224000    255.54202    264.39308    280.97406   -305858.94    305967.77    -16.58098    23.398776 
167228000    269.38357    247.58967    257.58733   -305895.72    305990.66   -9.9976581    23.398014 
167232000    290.44965    420.21243    264.43266   -305937.09    306009.01    155.77978    23.397391 
167236000    263.64506    459.97121     335.6195   -305956.72     306065.1     124.3517    23.401996 
167240000    284.06662    202.44045    282.06589   -305991.45    306086.53   -79.625438     23.39595 
167244000    274.59076    282.35101    266.18002   -306004.32    306095.64    16.170991    23.396231 
167248000    297.70707    488.58282     361.4894   -306037.37    306112.47    127.09342     23.39366 
167252000    254.39062    243.73249    268.47307   -306057.89    306165.24    -24.74058    23.391212 
167256000    287.48231    284.35081    441.38657   -306099.22    306188.32   -157.03576     23.39017 
167260000    284.10221    458.12434    448.61735    -306123.5    306207.28    9.5069883    23.388911 
167264000    260.52598    200.58369    205.45587   -306170.87    306272.52   -4.8721851    23.386558 
167268000    313.19663     307.8459    323.28526   -306226.25    306295.78   -15.439358    23.386075 
167272000     292.6281    219.06659     405.4211   -306282.58    306359.74   -186.35451    23.382688 
167276000    275.88285    255.01071    319.42741   -306340.23    306426.08   -64.416701    23.385181 
167280000    319.89001    466.09259    191.88984   -306396.85    306458.17    274.20275    23.385396 
167284000    314.37229    617.43186     368.9154   -306439.73    306515.39    248.51646    23.386025 
167288000    258.91044    427.93707    302.32435   -306478.89    306581.25    125.61271    23.381954 
167292000    292.97464    275.81832    226.97629   -306516.32    306583.04    48.842031     23.37645 
167296000    258.01712    436.84665    285.01417   -306529.91    306625.12    151.83248    23.379208 
167300000    273.21289    483.74258    433.19456   -306567.12    306641.91    50.548022    23.378191 
167304000    281.13948    278.92012    420.61936   -306583.48    306676.71   -141.69925    23.377753 
167308000    280.90174    299.85605    267.77084   -306630.89    306703.78    32.085204    23.376022 
167312000    269.78184    360.01272    356.29809   -306660.51    306736.07    3.7146335    23.377326 
167316000    276.52099    266.78809    201.65309   -306705.61    306796.57    65.135005    23.380636 
167320000    317.42015     725.3445    183.88862    -306788.1    306850.08    541.45587     23.38489 
167324000    296.97825    264.54081    298.91022   -306833.69    306892.52   -34.369409    23.384001 
167328000    307.25795     268.9983    427.86143   -306878.14    306944.74   -158.86313    23.382825 
167332000     289.2754     366.3024    471.28995   -306876.22    306974.56   -104.98755    23.384177 
167336000     282.2091    266.45768    305.75128   -306888.93    306971.18   -39.293603    23.385754 
167340000    280.30081    330.31431    322.57094   -306901.97    306981.44    7.7433673    23.387203 
167344000    291.02399    246.44448     203.3534   -306946.96    307034.91    43.091077    23.386814 
167348000    284.63972    266.00561     342.6452   -307024.05    307112.35    -76.63959    23.387139 
167352000    268.53055    340.14446    321.33749   -307040.44    307130.93    18.806975    23.392898 
167356000    283.06645    301.23066     409.6711   -307088.85    307173.88   -108.44044    23.392507 
167360000    306.19721    524.48397    335.12807   -307129.52    307203.06     189.3559    23.392295 
167364000     267.2701    281.82069    430.16368   -307156.49    307251.07   -148.34299    23.393274 
167368000    277.15199    337.67111    394.26919   -307206.74    307290.02   -56.598086    23.389486 
167372000    273.60508    771.57016    432.40826   -307247.26    307353.13     339.1619    23.390386 
167376000    284.37914    211.39499    338.03514    -307288.7    307397.21   -126.64015    23.386436 
167380000    275.20995    153.22957    386.56998   -307326.18    307415.94   -233.34041    23.387295 
167384000    292.26563    317.76719    251.40732   -307348.49    307444.94     66.35987    23.387835 
167388000    258.14328    458.06855    311.98441   -307402.34    307511.11    146.08415    23.386916 
167392000    262.31874    449.16934    257.91559    -307467.7    307578.33    191.25375    23.386248 
167396000    319.51333     506.8973    294.90993   -307523.68    307584.87    211.98737    23.384654 
167400000    296.21133    284.89702    372.38382   -307560.83    307637.01   -87.486796    23.379703 
167404000    292.69218    329.87592      259.078   -307601.16    307690.94    70.797922    23.378975 
167408000    268.90478       376.89    339.38849    -307624.5    307724.08    37.501502    23.383357 
167412000     264.2413    456.90655    275.80832   -307659.48    307768.13    181.09822    23.384527 
167416000     265.1323    381.88992    160.40512   -307720.74    307821.16    221.48481    23.384516 
167420000    319.38767    512.29712    279.66779   -307797.95    307834.38    232.62932    23.385577 
167424000    319.05682    391.27291    323.33549   -307825.68    307885.22    67.937418    23.377938 
167428000    265.52941    396.60121    336.93919   -307818.16    307915.27    59.662016     23.38259 
167432000    307.33874    264.27221    366.43755   -307870.95     307943.3   -102.16534    23.376327 
167436000    296.46516    302.64033    267.15188   -307894.65    307984.75    35.488449    23.375115 
167440000    259.86001    255.12357    287.82696   -307923.71     308027.3    -32.70339    23.376423 
167444000    269.29862      492.131    188.60966   -307978.05    308074.01    303.52134    23.373246 
167448000    262.37411    335.30577    325.37452   -308039.14    308126.24    9.9312462    23.371168 
167452000    285.59699    293.46801    305.86316   -308105.11    308157.08   -12.395156    23.370265 
167456000    310.67651    403.27556    432.61921   -308117.21    308190.47   -29.343649    23.371637 
167460000    259.16726    278.42029    269.94107   -308157.84    308247.64    8.4792245    23.367652 
167464000    234.09488    203.51543    174.00862   -308197.59    308302.74    29.506816    23.371468 
167468000      277.418    349.79647    326.27103   -308249.99    308337.79     23.52544    23.372809 
167472000    263.14587    358.47897    232.35587   -308269.94    308379.85     126.1231    23.371027 
167476000    289.25623     544.0076    278.26518   -308341.25    308424.86    265.74242     23.36945 
167480000    280.80205    229.00327    508.59038    -308391.1    308484.45   -279.58711    23.367293 
167484000    258.21925       283.69    440.13416   -308424.72    308539.96   -156.44416    23.365416 
167488000    283.19145    355.26127    446.82862   -308486.09     308570.8   -91.567347    23.363204 
167492000    293.52786    213.24455    380.36604   -308508.21     308583.8    -167.1215    23.367919 
167496000     270.5015    335.24606    305.38023   -308521.97    308605.21    29.865827    23.365618 
167500000    250.03631    253.92956    312.48393   -308557.42     308650.8   -58.554367    23.361973 
167504000    254.12147    300.00632    396.27271   -308576.88    308677.82   -96.266393    23.362491 
167508000    263.17241    403.36443    531.15861   -308631.03     308740.5   -127.79418    23.360381 
167512000    298.02148    359.09529    328.50482   -308703.08    308777.97    30.590471    23.358641 
167516000    281.09567    304.64703    379.26693   -308718.14    308816.81   -74.619901    23.356048 
167520000    244.88759    400.87678    270.20721   -308764.33    308866.18    130.66957    23.354001 
167524000    265.41744    505.87732    188.65364   -308813.79    308926.02    317.22368    23.354892 
167528000     265.5026    306.99898    327.55313   -308875.55    308973.12   -20.554153    23.353825 
167532000    286.87808     407.3459    268.83794   -308921.47    309000.68    138.50796    23.355987 
167536000    270.78291    223.06182     509.9012   -308947.16    309043.85   -286.83938     23.35297 
167540000    270.27039    430.24501    215.26575   -308978.06    309080.16    214.97925    23.352403 
167544000    282.96213    452.41767    333.68811   -309024.63    309113.95    118.72955    23.352181 
167548000    313.48363    317.25012     266.9042   -309122.93    309180.52     50.34592    23.350693 
167552000     308.2218    359.46705    285.89843   -309153.42    309238.78    73.568619    23.349925 
167556000    288.33065    304.05669    248.88875    -309176.6    309272.44    55.167941    23.355693 
167560000    314.53046    475.31882    228.02575   -309216.54       309292    247.29308    23.355599 
167564000    293.41793     371.8616    294.47183   -309229.73    309321.57    77.389776    23.355467 
167568000    278.88383    374.66545    357.47906   -309250.61    309360.26    17.186399    23.356559 
167572000    260.87859    152.71279    300.66455   -309296.04    309401.81   -147.95176    23.354463 
167576000    291.45286    357.12486    349.48645   -309371.07    309464.14    7.6384053     23.35411 
167580000    268.01039    381.15131    252.76968   -309442.81    309531.86    128.38163    23.352179 
167584000    257.91315    421.37315    414.91579   -309436.44    309550.54    6.4573596     23.35183 
167588000    302.29167    492.82321    397.74378   -309521.35     309592.3    95.079424    23.350735 
167592000    285.16715    296.32072    285.44156   -309582.72    309669.35    10.879157    23.351148 
167596000    285.43813    584.92581    274.58333   -309637.62    309724.58    310.34248    23.348758 
167600000    265.52581    349.81763    203.06852   -309681.16    309761.42    146.74911    23.348584 
167604000    289.91312    336.56956     428.8348   -309717.21    309805.94   -92.265238    23.349682 
167608000    262.01079    210.23716    217.81235   -309789.91    309883.84   -7.5751902    23.345519 
167612000    248.60715    321.52809    437.11209    -309827.7    309929.95     -115.584     23.35055 
167616000    288.76149    367.42119    341.84575   -309861.03    309948.23    25.575443    23.353479 
167620000    265.32064    311.57319    380.98581   -309924.13    310021.66   -69.412619    23.352638 
167624000     278.1285     272.5722     428.6856   -309960.11    310052.68    -156.1134    23.351019 
167628000    297.70158    338.60768    461.56421   -309997.12    310084.25   -122.95653     23.35114 
167632000    318.31055    481.24109     358.4634   -310072.82    310131.91    122.77769    23.348448 
167636000    270.07776    325.11198    300.38443   -310080.67    310186.23     24.72755    23.351373 
167640000    275.36522    448.53066    330.80048   -310146.45    310233.89    117.73018    23.351171 
167644000    285.27499    288.97712    345.09698   -310215.03    310308.71   -56.119852    23.352024 
167648000    281.19937    287.92002     392.9515    -310293.8     310377.9   -105.03148    23.351397 
167652000    288.96151    388.46087    251.93058   -310314.93    310403.67    136.53029    23.349033 
167656000    307.77401    422.20691     301.7766   -310374.33    310451.92    120.43031    23.348161 
167660000    286.16393    298.71587    221.12534   -310422.58    310517.24    77.590522    23.349286 
167664000    294.69726     223.5108    223.71602   -310450.31     310529.4  -0.20521527    23.346122 
167668000    273.61859     320.3325    292.84984   -310468.74    310562.17    27.482663    23.345769 
167672000    288.01603    403.28892    258.46986   -310506.66    310600.74    144.81906    23.342869 
167676000    278.58703    337.64818     409.4482   -310543.57    310632.51   -71.800026     23.34343 
167680000     277.1457    429.97862    337.32642    -310586.1    310669.27    92.652204    23.344765 
167684000     300.4876    276.62808    283.43711   -310636.44    310722.89   -6.8090302    23.344655 
167688000    281.66272    356.68678    346.69769   -310660.98    310763.24    9.9890898    23.347377 
167692000    274.37895    426.09188    326.33777   -310682.31    310783.48    99.754111    23.345501 
167696000    280.25513    351.60747    434.64719   -310700.92    310792.62   -83.039722    23.341991 
167700000    274.47348    334.18108    244.25404    -310759.9    310846.14    89.927045    23.341285 
167704000    303.14233    564.10206    251.95471   -310825.11    310907.19    312.14736    23.342874 
167708000     273.6348    243.57661      323.574   -310905.41    310998.51   -79.997388    23.344187 
167712000    285.72965    456.72922    288.50185   -310929.72    311021.48    168.22737    23.345082 
167716000    271.64581    371.76351    473.31351    -310990.7    311086.84      -101.55    23.344859 
167720000    304.76636    429.12242    522.17544   -311024.28    311102.57   -93.053026    23.344807 
167724000    253.66258    469.24168    227.34493   -311063.54    311150.85    241.89675    23.341714 
167728000    265.72981    209.52358    367.37684   -311090.49    311204.37   -157.85326    23.342576 
167732000     278.0477    333.09747    285.13495   -311151.94    311236.11    47.962524    23.340794 
167736000    314.21166    417.70112    522.84434   -311198.11    311263.18   -105.14322     23.33758 
167740000    235.18627    246.78344    273.31681   -311237.54    311331.56   -26.533371    23.336615 
167744000    236.48176    252.01457    310.05201   -311290.82    311400.88   -58.037446    23.339805 
167748000    301.20979    464.92259    268.95991   -311342.51    311418.67    195.96268    23.340466 
167752000    288.21079    408.44667    308.67485   -311366.28    311458.48    99.771822    23.340306 
167756000    307.81148    442.17816    332.91089    -311433.7    311500.06    109.26727     23.33734 
167760000    284.68488    267.84852    393.63188   -311471.18    311556.93   -125.78336    23.338918 
167764000     265.5931    352.66993    287.18187   -311486.76    311567.72    65.488066    23.339469 
167768000    282.96886    323.93685    283.43564   -311535.42    311627.23    40.501211    23.341295 
167772000    261.72351    223.30693    230.85265   -311582.47    311684.34   -7.5457118    23.340559 
167776000    284.20158    460.97025     183.5757   -311614.03    311705.25    277.39456    23.343521 
167780000     268.9796    258.20434    277.11658   -311657.74    311752.09   -18.912248    23.338898 
167784000     280.1393    392.27465    234.08226   -311709.08    311805.52     158.1924    23.338445 
167788000    266.60191    365.39653    274.38345   -311731.73    311831.75    91.013075    23.336784 
167792000    262.36248    408.88394    281.90527    -311757.4    311860.51    126.97867    23.338058 
167796000    291.86531    273.44201    617.70405   -311768.21    311861.54   -344.26204     23.33804 
167800000    242.72271    342.10486    253.30536   -311765.82     311885.3    88.799502    23.338805 
167804000    299.24632     429.3729    240.71562   -311796.33    311896.25    188.65728    23.341852 
167808000     305.8663    372.40063    318.12965   -311894.41    311949.91     54.27098    23.335524 
167812000    268.58091    337.61832    248.89653      -311882    311985.69     88.72179    23.335794 
167816000    261.39959     332.4027    176.68514   -311914.94    312006.62    155.71755    23.331419 
167820000    287.53008    408.91492    399.83124   -311952.11    312052.18    9.0836809    23.329476 
167824000    259.15665    321.06247    283.83447   -311971.73    312056.39    37.227998    23.330837 
167828000    276.37069    312.75151    304.17841   -312036.96    312122.69    8.5730976     23.32941 
167832000    290.95825    370.29128    359.65646   -312078.78    312163.65    10.634825    23.328179 
167836000    270.43543    289.32388     563.4043    -312097.2    312188.72   -274.08042    23.324137 
167840000    268.15608    251.47118    227.31074   -312140.99    312237.84    24.160447    23.324817 
167844000    275.46988    525.80203     214.1633   -312176.89    312271.26    311.63873    23.323928 
167848000    255.06241    246.66985    232.72618   -312167.97    312284.89    13.943676     23.32096 
167852000    286.43921    401.40935    356.78991   -312248.83    312330.42    44.619446    23.321143 
167856000    285.44951     266.1544    241.39557   -312288.23    312368.57    24.758824     23.31724 
167860000    292.99299    348.41715    413.43356   -312359.21    312451.66   -65.016405    23.317331 
167864000    269.30275    518.12059    236.01205   -312395.62    312483.51    282.10854    23.318489 
167868000    257.45232    221.98089    320.42691   -312387.71    312491.43   -98.446017    23.313363 
167872000     252.6388    286.99744    372.90844   -312427.32    312538.43      -85.911    23.312291 
167876000    292.98337    406.13373    276.25206   -312489.98    312567.83    129.88168    23.319091 
167880000    311.51516    328.95066    439.30155    -312511.3    312574.58   -110.35089    23.315343 
167884000    285.26626    433.32451    397.66393   -312511.32    312614.15     35.66058    23.318798 
167888000    295.48861    351.30157    323.76624   -312561.52    312637.42    27.535327    23.316333 
167892000    280.59155    365.34932    351.30452   -312586.29     312681.8    14.044805    23.312676 
167896000    280.66058     372.6775    447.55692    -312622.7    312715.16   -74.879417    23.311777 
167900000    287.41739    417.53649    556.51437   -312698.24     312791.2   -138.97788    23.309452 
167904000    263.43486    269.42722    270.49532   -312734.41    312808.19      -1.0681    23.306419 
167908000    303.72329    371.80545    278.38275   -312721.42    312787.56    93.422703    23.308267 
167912000    304.33836    388.26446    245.31505   -312777.15    312849.74    142.94942    23.317385 
167916000      288.092    304.98283    207.56178   -312790.03    312869.74    97.421053    23.315034 
167920000    282.07389    396.52528    190.34962   -312807.37    312887.43    206.17565     23.31843 
167924000    307.15931    356.18925     264.7691   -312871.31    312947.78    91.420146    23.320007 
167928000    278.45885    464.13895    312.50991   -312909.25    312975.94    151.62904    23.323376 
167932000    260.76867    273.04953    260.72908   -312946.22    313054.48    12.320457    23.319131 
167936000    293.26428    244.64933     350.3463   -313015.61    313099.48   -105.69696    23.316359 
167940000    320.55421    481.26772    405.69442   -313056.98    313113.71    75.573299    23.318706 
167944000    261.86576    162.46325    336.24475   -313079.87    313180.53   -173.78151    23.318941 
167948000    268.39199    271.99476    274.38801   -313114.81    313229.28   -2.3932502    23.321723 
167952000    290.63312    327.81978    308.80174   -313114.64    313223.15    19.018037    23.324597 
167956000    281.63496     337.0342    294.83265   -313181.57    313257.72    42.201551    23.322882 
167960000    232.33524    264.09665    200.45744   -313204.78    313318.82    63.639204    23.325586 
167964000    263.95615    386.40746    224.47288   -313236.49    313323.38    161.93458    23.326505 
167968000    281.51562     319.0288     270.9196   -313267.23    313360.26    48.109194    23.325796 
167972000    288.93182    253.70199    382.51956   -313310.94     313399.1   -128.81757    23.326542 
167976000    301.85389    508.31619    302.48111   -313382.75    313465.32    205.83509    23.330335 
167980000    297.52746    262.80239    454.00828   -313424.81    313513.63   -191.20589    23.326776 
167984000    277.69872    330.65888    279.78227      -313462    313550.21    50.876613    23.327239 
167988000     273.2105    504.04719    285.99604   -313488.31    313574.01    218.05115    23.331355 
167992000    261.72582    358.99286    297.59883   -313518.69    313608.65    61.394031    23.330868 
167996000    304.10858    373.27729      286.158   -313554.94     313632.1     87.11929    23.331543 
168000000    323.32006    490.65874    279.19806   -313582.69    313641.76    211.46068    23.334745 
168004000    287.52369    259.67326      513.926   -313582.11    313669.47   -254.25275    23.334215 
168008000    297.71809     249.3231    387.22333   -313596.26    313661.47   -137.90023    23.337387 
168012000    294.51899    259.61906    398.30927   -313637.17    313718.43   -138.69022    23.332136 
168016000    275.32684     262.1091    194.09239   -313644.32    313742.46    68.016704    23.336805 
168020000    283.62127    169.57854    314.16277   -313695.15    313771.05   -144.58422    23.337031 
168024000    260.53378    226.27755    294.78622   -313753.68    313859.37   -68.508667    23.338307 
168028000     283.0418    316.54404    539.11535   -313769.53    313858.07   -222.57131    23.338405 
168032000    300.94067    273.43141    255.74015   -313817.19    313888.34    17.691254    23.346111 
168036000    277.57026    370.58289     293.7199    -313818.2    313918.39    76.862985      23.3498 
168040000    274.48803    269.59527    269.23827   -313841.91    313927.53   0.35699636    23.354221 
168044000    282.32394    363.68359     377.9779   -313884.35    313976.57   -14.294308    23.354934 
168048000    276.17784    217.95015    439.19705   -313935.87    314028.58    -221.2469    23.356258 
168052000    294.51561    316.01753    431.19584   -313966.23     314049.4   -115.17831    23.356078 
168056000    286.70856    278.20314    320.39956   -313988.62    314078.92   -42.196425    23.354929 
168060000    286.16699    381.32669     173.0843   -314046.09    314129.07     208.2424    23.357311 
Loop time of 2237.55 on 4 procs for 32000000 steps with 196 atoms

Performance: 1544.544 ns/day, 0.016 hours/ns, 14301.331 timesteps/s
99.9% CPU use with 4 MPI tasks x no OpenMP threads

MPI task timing breakdown:
Section |  min time  |  avg time  |  max time  |%varavg| %total
---------------------------------------------------------------
Pair    | 469.85     | 501.09     | 531.3      | 126.3 | 22.39
Bond    | 700.02     | 822.38     | 965.73     | 400.0 | 36.75
Neigh   | 5.2151     | 5.3001     | 5.3796     |   2.6 |  0.24
Comm    | 260.85     | 429.73     | 569.55     | 549.8 | 19.21
Output  | 8.8298     | 10.438     | 12.479     |  49.6 |  0.47
Modify  | 395.03     | 403.11     | 410.75     |  31.2 | 18.02
Other   |            | 65.51      |            |       |  2.93

Nlocal:    49 ave 60 max 34 min
Histogram: 1 0 0 0 0 1 0 0 1 1
Nghost:    147 ave 162 max 136 min
Histogram: 1 1 0 0 0 1 0 0 0 1
Neighs:    978.75 ave 1210 max 713 min
Histogram: 1 0 0 0 1 0 0 1 0 1

Total # of neighbors = 3915
Ave neighs/atom = 19.9745
Ave special neighs/atom = 5.87755
Neighbor list builds = 66225
Dangerous builds = 0

write_restart FINALCONFIG

Total wall time: 0:39:08
