LAMMPS (16 Mar 2018)
# 1. INITIALIZATION
#allows pair, bond, bending and dihedral interactions
atom_style molecular

  # periodic (video game) boundaries in all cartesian directions
boundary p p s

  # uses real units (instead of units based on pair potential parameters).  List of units used in manual
units real

###########
# 2. ATOM DEFINITION
##########

   ##
   # Read in data from starting configuration file
   ##

#read_data chainconfig.dat

 #use to restart
read_restart RESTART
  orthogonal box = (-400 -400 -0.0371672) to (400 400 123.895)
  2 by 2 by 1 MPI processor grid
  196 atoms
  194 bonds
  192 angles
  190 dihedrals
  2 = max # of 1-2 neighbors
  2 = max # of 1-3 neighbors
  4 = max # of 1-4 neighbors
  6 = max # of special neighbors

   ##
   # Specify the nature of the bond interactions
   ##


bond_style harmonic
bond_coeff 1 450 1.54

special_bonds lj 0.0 0.0 0.0 angle no dihedral no

angle_style harmonic
angle_coeff 1 62.1  114.00

dihedral_style opls
dihedral_coeff * 1.4110 -0.2708 3.143 0.0

mass * 14.0

pair_style lj/cut 14.0
pair_coeff 1 1 0.0912 3.95 14.0
#pair_modify tail yes

group twistables type 3
6 atoms in group twistables
group freeze type 2
6 atoms in group freeze
fix startend freeze setforce 0.0 0.0 0.0
fix startend0 twistables setforce 0.0 0.0 0.0

################
# 3.  Simulation Settings
###############

neighbor        2.0 bin
neigh_modify    every 1 delay 0 check yes



# Define some variables
variable Lx          equal xhi-xlo   # Ang
variable Ly          equal yhi-ylo   # Ang
variable Lz          equal zhi-zlo   # Ang

variable dz          equal ${Lz}/30  # Ang
variable dz          equal 123.931948666893/30  

variable zzlo        equal zlo+0.05  # Ang
variable zzhi        equal zhi  # Ang
variable vol         equal ${Lx}*${Ly}*${Lz}  # Ang^3
variable vol         equal 800*${Ly}*${Lz}  
variable vol         equal 800*800*${Lz}  
variable vol         equal 800*800*123.931948666893  
variable TEMP        equal 300.00 # K
variable TThi        equal 320.00 # K
variable TTlo        equal 280.00 # K
variable dt          equal 1.25 # fs

timestep     ${dt}
timestep     1.25

variable zlo1      equal ${zzlo}+2.7
variable zlo1      equal 0.0128327665533126+2.7
variable zlo2      equal ${zzlo}+8.4
variable zlo2      equal 0.0128327665533126+8.4
variable zhi1      equal ${zzlo}+115.5
variable zhi1      equal 0.0128327665533126+115.5
variable zhi2      equal ${zzlo}+121
variable zhi2      equal 0.0128327665533126+121

# heat layers

region          hot  block  INF INF INF INF ${zlo1} ${zlo2}
region          hot  block  INF INF INF INF 2.71283276655331 ${zlo2}
region          hot  block  INF INF INF INF 2.71283276655331 8.41283276655331
region          cold block INF INF INF INF ${zhi1} ${zhi2}
region          cold block INF INF INF INF 115.512832766553 ${zhi2}
region          cold block INF INF INF INF 115.512832766553 121.012832766553
compute         Thot all temp/region hot
compute         Tcold all temp/region cold


# 1st equilibration run
fix             1 all nvt temp ${TEMP} ${TEMP} 50
fix             1 all nvt temp 300 ${TEMP} 50
fix             1 all nvt temp 300 300 50
thermo          100
run             8000
Unused restart file peratom fix info:
  fix style: STORE, fix ID: layers_COMPUTE_STORE
Neighbor list info ...
  update every 1 steps, delay 0 steps, check yes
  max neighbors/atom: 2000, page size: 100000
  master list distance cutoff = 16
  ghost atom cutoff = 16
  binsize = 8, bins = 100 100 16
  1 neighbor lists, perpetual/occasional/extra = 1 0 0
  (1) pair lj/cut, perpetual
      attributes: half, newton on
      pair build: half/bin/newton
      stencil: half/bin/3d/newton
      bin: standard
Per MPI rank memory allocation (min/avg/max) = 9.022 | 9.23 | 9.854 Mbytes
Step Temp E_pair E_mol TotEng Press Volume 
134452000    298.60387    -55.06289    175.32624    293.82923  -0.51796341     79316447 
134452100    325.02246   -56.779864    189.35178    321.49381  0.086642701     79316447 
134452200     302.2358   -52.329688    177.83833    301.18561  -0.51034772     79316447 
134452300    312.66659   -55.921652    180.39122    306.20951 0.0032803924     79316447 
134452400    290.30991   -50.222239    191.42604    309.94875   -0.4785203     79316447 
134452500    284.83141   -50.526353    188.90209    303.93626  -0.40916046     79316447 
134452600    318.97122   -50.009994    202.92033     338.3149  -0.26893797     79316447 
134452700    302.41321   -50.645067    186.98345    312.11847  -0.71988567     79316447 
134452800    318.54402   -52.019905    176.62467    309.76102  0.047207449     79316447 
134452900    280.31449   -55.896368    204.84355    311.88221  -0.67407111     79316447 
134453000    314.79234   -57.404227    169.35372    294.92505  -0.11230412     79316447 
134453100    308.15338   -54.922447    198.56123    322.75538  -0.39489665     79316447 
134453200    268.99801   -56.438354    189.47429    289.39317  -0.46803457     79316447 
134453300    313.15963   -54.684585    192.27794    319.61989  -0.17036006     79316447 
134453400    300.26814   -53.802103    179.32765    300.05879  -0.60904104     79316447 
134453500    259.98511    -53.00607    184.53621    282.64856   -0.0295332     79316447 
134453600    311.14633   -54.641457    192.49392    318.70874  -0.52634353     79316447 
134453700    299.66083   -57.026983    171.26001    288.41327  0.023572263     79316447 
134453800    303.14037   -55.625668    194.66245    315.23954   -0.4202163     79316447 
134453900    303.42115   -56.487031    170.15152    290.03045  -0.18182052     79316447 
134454000    297.50282   -55.181192    180.44701     298.1917  -0.20039774     79316447 
134454100    300.14984   -53.321511    197.47917    318.62214  -0.48587807     79316447 
134454200    268.12678    -52.89967    184.57446    287.52561 -0.039484289     79316447 
134454300    337.60312   -52.894815    165.76443    309.10412  -0.45238853     79316447 
134454400    306.12214   -56.329719    193.88773    315.49395 -0.055133836     79316447 
134454500    302.03901   -52.476784    198.00705    321.09285  -0.55893201     79316447 
134454600    285.39748   -55.002608    167.10045     277.9874  -0.18511073     79316447 
134454700     289.5557   -54.385364    181.25877    295.17996  -0.34759723     79316447 
134454800    317.82407   -52.408774    178.44139    310.77039   -0.4590615     79316447 
134454900    304.98681   -51.044229     196.1322    322.36398  -0.23878751     79316447 
134455000    299.65252    -51.59398    182.92312    305.50455  -0.68805866     79316447 
134455100    320.99409   -50.826955    198.97742    334.73084   -0.1182696     79316447 
134455200    289.58436   -52.038591    190.25105    306.53567   -0.5804968     79316447 
134455300    314.92092   -54.275921    185.30826    314.08263  -0.13469197     79316447 
134455400    291.97991   -54.384012    172.45836    287.78999  -0.22555418     79316447 
134455500    310.41795   -53.857676    185.06945    311.64469  -0.44773287     79316447 
134455600    279.56429    -53.71946    164.76791    273.54742 -0.045697175     79316447 
134455700    302.63511   -52.717104    189.61615    312.80811  -0.54350423     79316447 
134455800    303.45592   -51.671956    193.01023    317.72444 -0.027043399     79316447 
134455900    297.00574   -51.536292    176.24373    297.34439  -0.39917095     79316447 
134456000    298.34115   -50.980338    199.55771    321.99054  -0.12678848     79316447 
134456100    310.71834   -51.298366    195.38745    324.69659  -0.29231143     79316447 
134456200    270.73651   -51.098977     197.7566    304.02538  -0.38211024     79316447 
134456300    296.85485   -52.182911     191.6433    312.00963  -0.15041178     79316447 
134456400    301.38123   -51.480373    185.31132    309.01119  -0.42843788     79316447 
134456500     301.8746    -51.27195    187.55215    311.74721 -0.055319497     79316447 
134456600    283.38325   -52.987756    203.80992    315.54093  -0.48872204     79316447 
134456700    288.54795     -52.7868    188.53562    303.46961 -0.083748048     79316447 
134456800    305.07141   -50.844962    187.04588    313.52611  -0.22665594     79316447 
134456900    337.37593   -53.522763    190.15169    332.73137  -0.32936131     79316447 
134457000    299.04322   -53.041197     182.9916    303.77166 0.0065199012     79316447 
134457100    304.76111   -54.890306    184.68884    306.94336  -0.37312573     79316447 
134457200    299.63417   -52.027013    201.90404    324.04177 -0.017702058     79316447 
134457300    315.84313   -53.705647    186.50524    316.38593  -0.30701417     79316447 
134457400    288.49286   -53.722143    215.83374    329.80037  -0.19493101     79316447 
134457500    277.37125   -53.686024    189.03955    296.57778  -0.33697543     79316447 
134457600    341.31719    -52.47056    188.62173     334.5445   -0.3890511     79316447 
134457700    299.19626   -55.476813    188.41865    306.85205 -0.082206996     79316447 
134457800    305.02769   -51.335785    189.45556    315.41955  -0.44962593     79316447 
134457900    328.85493   -54.440476    202.02713     338.7362 -0.076656756     79316447 
134458000    291.93639   -52.349406    181.46208    298.80302  -0.38450584     79316447 
134458100    317.84727   -53.103651    188.17748    319.82509  -0.23436087     79316447 
134458200    310.13565   -54.333167    199.02475     324.9604  -0.32025249     79316447 
134458300    307.95712   -56.978792    181.80636     303.8301  -0.35469116     79316447 
134458400    277.97421   -56.432576    174.85223    279.99438  -0.18231603     79316447 
134458500    304.99868   -56.569355    180.38067    301.09422  -0.33762958     79316447 
134458600    312.32772   -57.083084    179.36163    303.82152  -0.11158135     79316447 
134458700    286.62295   -53.876862    174.54001    287.26502  -0.23101854     79316447 
134458800     310.9071   -53.270848    194.40545    321.85183  -0.22561677     79316447 
134458900    278.28794   -52.670716    188.77296    297.85932   -0.2522962     79316447 
134459000    315.67333   -54.917207    178.86838    307.43881  -0.32918674     79316447 
134459100      285.115    -53.70867    197.99933    310.01602  -0.11440165     79316447 
134459200    302.78609   -56.054097     184.5787    304.52143   -0.3404416     79316447 
134459300    256.91935   -56.430922    195.04119    287.94668  -0.22765874     79316447 
134459400    320.27799   -53.552039    191.89797    324.51007  -0.18961697     79316447 
134459500    285.47256   -54.623726    194.49735    305.80682  -0.44550932     79316447 
134459600    277.94234   -55.587101    183.65639    289.62549  -0.10917246     79316447 
134459700    329.27993   -54.143788    198.64015    335.89294    -0.437061     79316447 
134459800    251.68375   -54.050007    208.80486    301.04803  -0.34598414     79316447 
134459900    288.78218   -53.536986    193.25305    307.57301  -0.38796653     79316447 
134460000    294.72078   -53.854798    193.87907    311.33308  -0.40506509     79316447 
Loop time of 0.75493 on 4 procs for 8000 steps with 196 atoms

Performance: 1144.477 ns/day, 0.021 hours/ns, 10597.006 timesteps/s
100.0% CPU use with 4 MPI tasks x no OpenMP threads

MPI task timing breakdown:
Section |  min time  |  avg time  |  max time  |%varavg| %total
---------------------------------------------------------------
Pair    | 0.10616    | 0.12382    | 0.14009    |   3.4 | 16.40
Bond    | 0.16794    | 0.23569    | 0.3142     |  10.7 | 31.22
Neigh   | 0.009932   | 0.010053   | 0.010169   |   0.1 |  1.33
Comm    | 0.25043    | 0.33918    | 0.41926    |  10.3 | 44.93
Output  | 0.00091767 | 0.00097138 | 0.0011268  |   0.0 |  0.13
Modify  | 0.025982   | 0.030447   | 0.034196   |   1.8 |  4.03
Other   |            | 0.01477    |            |       |  1.96

Nlocal:    49 ave 80 max 18 min
Histogram: 1 0 0 0 1 1 0 0 0 1
Nghost:    147 ave 178 max 116 min
Histogram: 1 0 0 0 1 1 0 0 0 1
Neighs:    955 ave 1870 max 326 min
Histogram: 1 0 0 2 0 0 0 0 0 1

Total # of neighbors = 3820
Ave neighs/atom = 19.4898
Ave special neighs/atom = 5.87755
Neighbor list builds = 95
Dangerous builds = 0
velocity        all scale ${TEMP}
velocity        all scale 300
unfix           1

# Second Equilibration
fix             1 all nve
fix             hot all langevin ${TThi} ${TThi}  50.0 599804  tally yes
fix             hot all langevin 320 ${TThi}  50.0 599804  tally yes
fix             hot all langevin 320 320  50.0 599804  tally yes
fix             cold all langevin ${TTlo} ${TTlo} 50.0 27859 tally yes
fix             cold all langevin 280 ${TTlo} 50.0 27859 tally yes
fix             cold all langevin 280 280 50.0 27859 tally yes
fix_modify      hot temp Thot
fix_modify      cold temp Tcold


variable        tdiff equal c_Thot-c_Tcold
thermo_style    custom step c_Thot c_Tcold f_hot f_cold v_tdiff
thermo          4000
run             1600000
Per MPI rank memory allocation (min/avg/max) = 10.15 | 10.49 | 10.61 Mbytes
Step c_Thot c_Tcold f_hot f_cold v_tdiff 
134460000    597.62427    345.58944           -0           -0    252.03483 
134464000    403.42827    431.65164   -11.657199    19.240077   -28.223372 
134468000    224.51107    276.68199     5.562171     19.14705   -52.170917 
134472000     349.5262    293.18034   -36.506989    72.513696    56.345863 
134476000    605.74005    385.84742   -54.740833    81.893248    219.89264 
134480000    187.53626    378.81188   -66.599266    105.01104   -191.27561 
134484000     367.7817    300.58789   -102.90671    128.37441    67.193817 
134488000    471.30965    315.83186   -115.81458    154.87211    155.47778 
134492000    408.33969     521.5435   -138.79798    163.59426   -113.20381 
134496000     608.1391    345.84584   -141.19173    179.02538    262.29326 
134500000    343.34255    291.48154   -141.01531     170.3923    51.861012 
134504000    388.72532    206.75235   -138.78692    202.69252    181.97297 
134508000    269.25471    347.22928   -158.17776    202.58481    -77.97457 
134512000    544.73244     458.5828   -190.66575    224.36028    86.149637 
134516000    505.11651    273.38376   -209.98085    248.41266    231.73276 
134520000     437.3435    482.03875   -237.18626    277.03025   -44.695246 
134524000     237.7873    347.63308     -286.246    319.21408   -109.84578 
134528000    204.42987     254.1694   -324.24139    312.47838   -49.739533 
134532000    313.95391     476.2134   -322.26438    332.06687   -162.25949 
134536000    438.54107    386.55081   -329.73814    355.15633    51.990259 
134540000    421.20711    292.57717   -338.43452     375.7477    128.62994 
134544000    333.17197     366.9002   -333.30689    378.61131   -33.728228 
134548000    196.69703    284.83425   -332.57526    362.19918   -88.137225 
134552000    294.87265    362.91856   -348.75204    382.90504   -68.045903 
134556000    458.86027    237.00409   -370.95351    383.01063    221.85618 
134560000    596.32297    264.25996   -382.74912     388.3362    332.06301 
134564000    350.43641    286.14555   -371.01225    407.61465    64.290857 
134568000    638.87222    222.75584   -430.69167    460.45071    416.11638 
134572000    247.63561    260.53546   -443.95205    487.68572   -12.899847 
134576000    321.89327    371.79451   -469.60791    497.52247    -49.90124 
134580000    352.04156    432.29932   -471.76318    510.13608   -80.257759 
134584000    296.57253    282.97706   -491.40293    534.77788    13.595467 
134588000    422.78519    384.17633   -530.63389     567.4448    38.608864 
134592000    458.03749    553.78972   -566.59879    576.23588   -95.752239 
134596000    338.82056    325.05086     -555.093    610.29758    13.769704 
134600000    380.94056    393.23395   -582.75858    619.30805   -12.293393 
134604000    486.06275    308.22736   -604.25935    647.89473    177.83539 
134608000    389.53625    250.04324   -635.80893    666.13103      139.493 
134612000    300.67616    422.70777   -654.90029    689.05378   -122.03162 
134616000    250.89345    339.05637   -672.68273    705.63722   -88.162923 
134620000    319.08481    528.81778   -701.81637    708.39036   -209.73296 
134624000    236.94653     365.4927   -714.33292    708.91907   -128.54617 
134628000    483.81287    370.27248   -692.80126    712.47753    113.54039 
134632000    395.32327    311.75604   -732.23293    761.07034    83.567231 
134636000    417.97488    401.75137   -738.66401    765.58272    16.223506 
134640000    331.02506    301.40871   -755.25018    773.80235    29.616347 
134644000    503.91734    181.54887    -763.0692    807.21814    322.36847 
134648000    372.88182    617.46761   -786.59385    834.76992   -244.58579 
134652000    264.89207    380.11442   -818.07015    854.81077   -115.22236 
134656000    485.20444    390.55406   -814.79251    874.08737    94.650381 
134660000    279.88535     283.1232   -845.36069    886.66954   -3.2378556 
134664000    336.17289    304.67024   -865.94009    888.92536    31.502651 
134668000    290.65102    467.64536   -869.01782    900.65588   -176.99434 
134672000    344.51351    334.12223   -887.00048     919.1034    10.391281 
134676000    368.02389    448.40731   -915.37349    914.74688   -80.383413 
134680000    261.67827    268.84847   -914.52256    951.77953   -7.1701945 
134684000    298.92168    316.96483   -956.33404    979.69609    -18.04315 
134688000    292.21327    312.82064   -962.91087    988.50028   -20.607371 
134692000    353.52241    269.62866   -991.83643    1001.6391    83.893748 
134696000    483.24393    343.54512   -1021.9978    1016.2654     139.6988 
134700000     629.6141    251.97227   -1030.1479    1050.3756    377.64183 
134704000     527.2762    278.91919   -1037.5088    1066.7182    248.35702 
134708000    163.94831      300.134   -1062.8305    1097.7698   -136.18569 
134712000    318.43215    287.77509   -1106.7442    1131.2515    30.657059 
134716000      233.313    162.77804   -1130.9842    1140.3138     70.53496 
134720000    292.98205    213.45187     -1141.14    1163.2495    79.530186 
134724000    311.93864    170.52423   -1142.3964    1166.6191    141.41441 
134728000    249.78114    444.38612   -1148.6822    1213.1041   -194.60498 
134732000    401.42714    280.10179   -1194.6077    1229.9931    121.32534 
134736000    562.31102    302.26102   -1226.9555    1257.0107       260.05 
134740000    405.97907     270.2257   -1254.6051    1268.8617    135.75337 
134744000    280.10168    235.87219   -1268.3318    1309.1223    44.229487 
134748000    346.75447    287.88329   -1291.3413    1314.4674    58.871186 
134752000    540.44724    267.14416   -1275.9869      1303.88    273.30308 
134756000    402.29809    281.96751   -1303.4107    1341.2384    120.33058 
134760000    427.29494    259.42852   -1342.3942    1369.0491    167.86642 
134764000    412.32881    447.00769   -1359.4559    1410.6246   -34.678881 
134768000     453.9269    302.59263   -1368.2098    1410.3049    151.33427 
134772000    427.49417     242.5661    -1371.316    1407.5569    184.92807 
134776000    280.71481    368.59589   -1369.7886    1395.9986   -87.881073 
134780000    329.17951    473.71233   -1390.0697      1392.12   -144.53283 
134784000    382.45189     204.9683   -1419.6296    1426.5984    177.48359 
134788000    280.95325    216.18201   -1430.2231    1453.0597    64.771238 
134792000    302.74108    395.03526   -1430.9299    1466.9404   -92.294186 
134796000    557.27985    265.48061   -1465.7952    1476.7829    291.79924 
134800000    338.97863    292.66799   -1471.1436     1496.445    46.310646 
134804000     298.2824    214.81943   -1506.4309    1514.2266    83.462967 
134808000    194.70491    248.31278   -1494.9625    1549.7925    -53.60787 
134812000    267.65639    313.98085   -1544.3943    1549.6097    -46.32446 
134816000    342.67383    347.98033   -1539.2921    1568.4778   -5.3064992 
134820000     158.3834     444.5797   -1545.4662     1587.709    -286.1963 
134824000    611.02871    360.87076   -1585.2052    1600.3399    250.15795 
134828000    401.07634    476.59565   -1593.6565    1624.3678   -75.519307 
134832000    348.75849    262.41372   -1597.4421    1631.9465    86.344775 
134836000    374.36082    207.60253    -1617.575    1657.9321    166.75829 
134840000    389.65425    286.71852   -1627.7742     1669.178    102.93573 
134844000    322.77335      559.292   -1650.2504    1680.0992   -236.51865 
134848000    320.23708    444.69983   -1633.8444    1683.0892   -124.46276 
134852000    394.05167     198.0981   -1659.8518    1689.1942    195.95357 
134856000     248.1246    293.73708   -1674.3822    1703.2424   -45.612481 
134860000    439.90886    240.80884    -1680.209    1732.2264    199.10002 
134864000    364.95586    264.06418   -1704.5314    1725.0791    100.89168 
134868000     321.5617    233.34817   -1738.6172    1746.7568    88.213534 
134872000    319.57979     458.1761   -1753.1828    1772.2759   -138.59631 
134876000    497.10223    345.03941   -1778.2172     1805.127    152.06282 
134880000     298.7293    272.29129   -1806.6642    1844.1909    26.438012 
134884000    313.30437    243.41865   -1814.6211    1859.4824     69.88572 
134888000    416.52062    304.12299   -1852.5932    1873.5579    112.39764 
134892000    290.78908    409.48387   -1870.8436    1905.4403    -118.6948 
134896000    429.36941     363.2064    -1896.303       1908.5    66.163017 
134900000    450.07317    274.23006   -1923.7716    1952.6262    175.84312 
134904000    337.01073    234.29184   -1956.6332    1973.8539    102.71889 
134908000    428.58465    246.92067    -1958.125    1994.3108    181.66398 
134912000     349.3961    272.55451   -1981.8999    2007.4767    76.841589 
134916000    286.29612    393.49456   -1996.3844    2031.0664   -107.19844 
134920000    658.34872    424.31999    -1988.335    2028.1347    234.02873 
134924000    519.23237    555.15759   -2015.3849    2057.6116   -35.925214 
134928000    227.51033    355.82718   -2041.2962    2085.9917   -128.31685 
134932000    308.35436    238.83988   -2056.0864     2095.852    69.514481 
134936000    338.67355    273.95974   -2097.0424    2105.7991    64.713814 
134940000    244.79343    303.39926   -2105.3014    2126.0223   -58.605831 
134944000     275.3429    416.68849   -2137.1259    2148.6752   -141.34558 
134948000    295.67486       306.89   -2143.3693    2164.8179   -11.215147 
134952000    370.52579    465.54275   -2140.8209    2169.0122   -95.016959 
134956000    373.14168    438.26937   -2137.0784    2184.0983   -65.127692 
134960000    384.56364    168.08673   -2170.1086     2199.265    216.47692 
134964000    684.37506    315.03712   -2168.2458    2201.2723    369.33794 
134968000    281.14534    291.51497   -2158.7898    2200.8296   -10.369633 
134972000    359.30653    248.66435   -2199.4926    2219.8837    110.64218 
134976000    435.45714    341.16887   -2218.4413    2232.2134    94.288265 
134980000    225.58195    417.93868   -2255.9611     2288.778   -192.35673 
134984000    240.22735    540.07908   -2272.4254    2307.1635   -299.85174 
134988000    332.20285    245.90574   -2266.5314    2302.2919    86.297108 
134992000    201.16267    443.35016   -2276.7454    2328.4197   -242.18749 
134996000    341.99707    230.44792   -2283.9627    2331.5681    111.54916 
135000000    538.88112    328.93117   -2315.1171    2357.4974    209.94995 
135004000    468.55871    465.57131   -2342.2147    2364.1417    2.9873935 
135008000    389.81749    322.58776   -2348.5818     2376.663    67.229722 
135012000    353.62053    348.38502   -2347.8849     2379.907    5.2355086 
135016000    177.83621    399.77455   -2364.3935    2408.3063   -221.93834 
135020000    327.79159    287.92599   -2399.8168    2443.3346    39.865594 
135024000    397.07829    300.60373   -2412.0836     2436.975     96.47456 
135028000    544.73219    311.58262   -2418.1782    2460.6075    233.14956 
135032000    262.44292    303.74618   -2452.8213    2482.1421   -41.303255 
135036000    245.00212    254.50676   -2468.0248    2504.9963   -9.5046383 
135040000    381.72757    218.41664   -2487.2921    2527.9188    163.31093 
135044000    285.83091    231.03985   -2505.1073    2533.8918    54.791052 
135048000    302.36407    268.78384   -2540.9899    2566.2205    33.580228 
135052000    394.09088     235.5703   -2549.7199    2586.5897    158.52058 
135056000    378.95447     310.8635   -2569.6399    2617.4628    68.090972 
135060000    318.74664    485.98551    -2577.282    2627.3143   -167.23887 
135064000    270.39425    207.24832   -2611.4012     2637.508    63.145935 
135068000    434.50007    281.38595   -2631.2323    2664.4687    153.11412 
135072000    195.47518    366.64163   -2636.1588    2668.2221   -171.16645 
135076000    273.62131    318.98481   -2674.4987    2705.6247     -45.3635 
135080000    269.59716    369.41983   -2700.4859    2743.2388   -99.822673 
135084000    451.76502    303.49397   -2728.3971    2752.1181    148.27105 
135088000    398.22727    444.28726   -2733.2434    2765.7223   -46.059985 
135092000    341.52805    590.85063   -2770.4741    2795.7605   -249.32258 
135096000    377.60365    241.73261   -2816.9214    2835.3614    135.87103 
135100000    451.34842    373.33696   -2839.4459    2844.5985    78.011455 
135104000    319.13213    330.17092   -2838.5781     2868.846   -11.038791 
135108000    127.94094    299.94539   -2875.8396      2905.37   -172.00446 
135112000    437.34089    342.31717   -2865.6114    2908.4012    95.023712 
135116000    242.44975    470.54516   -2897.8506    2930.9495   -228.09541 
135120000    472.99203    188.65319   -2920.1606    2967.4105    284.33884 
135124000    262.99351    400.45318    -2958.318    2982.2423   -137.45967 
135128000     251.9251     272.1033   -2987.2484    2979.7059   -20.178204 
135132000    363.30246    415.30014   -2988.0426      3015.36   -51.997686 
135136000    481.29011    383.26089   -3003.8577    3025.3759    98.029221 
135140000     234.0096    246.34895   -3031.2774    3050.8749   -12.339344 
135144000    309.17774    452.89119   -3050.7713    3062.0688   -143.71345 
135148000    318.24362    289.64837   -3058.1095    3073.9956    28.595258 
135152000    487.91737     154.4163   -3072.7787    3093.9378    333.50108 
135156000     340.4432    304.95319   -3067.7767    3119.9021    35.490014 
135160000    380.77354     431.9113   -3070.5686    3089.5959   -51.137765 
135164000    503.65756    228.13947   -3087.9369    3117.2923    275.51809 
135168000    201.46331    194.63777   -3082.2474     3137.227    6.8255381 
135172000    426.80901    292.59761     -3113.84    3141.5718     134.2114 
135176000    246.05929    476.59593   -3109.3018    3128.9259   -230.53663 
135180000    385.14835    406.95363   -3137.0964    3148.7432   -21.805275 
135184000    392.10595    272.14171    -3142.023    3183.5045    119.96424 
135188000    338.40019    209.85148   -3156.7692    3202.7731    128.54871 
135192000    211.42751    292.72097   -3188.6183     3212.634   -81.293462 
135196000     314.7571    362.65811   -3230.5266     3233.998   -47.901003 
135200000    435.63974    345.18484   -3233.7111    3259.6373    90.454899 
135204000    419.71542    328.71498   -3240.8303    3261.7691    91.000442 
135208000    643.14964    232.39832   -3263.7719    3269.9364    410.75132 
135212000    191.17246    317.62229   -3251.4921    3265.4503   -126.44983 
135216000    225.66113    295.04965   -3250.4725    3271.3102   -69.388525 
135220000    282.49863    275.92445   -3243.7984    3302.6269    6.5741777 
135224000    291.09794    368.73861   -3279.0868    3322.1151   -77.640671 
135228000    559.39624    470.82775   -3295.5873    3310.7973    88.568488 
135232000    459.06079    394.42526   -3274.2265    3306.9812    64.635529 
135236000    498.93918    244.60661   -3300.7545    3322.1876    254.33256 
135240000    320.16989    603.28745   -3319.7387    3323.1483   -283.11756 
135244000    500.92241    451.97901   -3335.7214    3344.9363    48.943394 
135248000     330.5232    346.22783   -3347.8872    3364.0235   -15.704638 
135252000    504.87391    427.64081   -3377.9829    3380.0577      77.2331 
135256000     177.5203    274.82332   -3384.2992     3426.087   -97.303022 
135260000    422.22985    355.16496   -3398.7648    3432.8464    67.064891 
135264000    340.34938    385.82471   -3451.6658    3462.5759   -45.475333 
135268000    361.31848    217.49197    -3485.102    3527.4602    143.82651 
135272000    438.51283    260.56641   -3525.8865     3557.891    177.94642 
135276000    407.59422    366.91198   -3570.0031    3600.3089    40.682244 
135280000    373.83436    350.41988   -3588.3644    3617.1835    23.414484 
135284000    598.50132    293.09279   -3611.9867    3639.9274    305.40854 
135288000    546.18746    151.68265   -3626.9838    3658.5693    394.50482 
135292000    321.97408    443.20123   -3645.0774    3663.5105   -121.22715 
135296000    619.79096    316.22316   -3702.2316    3727.1499     303.5678 
135300000    452.49175     371.0784   -3730.8832    3761.5503    81.413347 
135304000    503.00668     201.6201   -3741.9678    3764.7867    301.38658 
135308000    245.14539    230.86781   -3742.9792     3777.893    14.277582 
135312000    300.13606    249.78998   -3756.5118    3809.5829    50.346074 
135316000    316.21236    378.26117    -3774.659    3820.5918   -62.048812 
135320000     335.6863    402.99082    -3825.526    3848.1438   -67.304516 
135324000    293.50139    348.45139   -3838.4708    3861.1743   -54.950004 
135328000    364.85772    280.59258   -3856.8794    3892.1069    84.265142 
135332000    413.18772    328.66041   -3876.7276    3902.3951    84.527314 
135336000    413.09959    334.98562   -3908.2959    3936.7589    78.113971 
135340000    317.49236    459.85902   -3934.6941    3966.2619   -142.36666 
135344000    328.13003    285.95117   -3956.7736    3995.2172    42.178854 
135348000    391.02426    329.73425   -4005.7047    4011.1424    61.290005 
135352000    418.47377    405.12913   -4022.9928     4037.838    13.344647 
135356000     571.2351    260.03149   -4065.0133    4072.2796    311.20361 
135360000    405.38084    276.19677   -4097.3348    4084.4372    129.18407 
135364000    507.17103    659.44767   -4113.4124    4116.4101   -152.27663 
135368000    361.10761    362.49111   -4116.9728     4142.808   -1.3834946 
135372000    307.77706    376.06097   -4118.0559    4171.1502   -68.283904 
135376000    482.80059    243.84158   -4164.5656    4195.6258    238.95901 
135380000    339.36578    250.88186   -4188.8343    4207.0054    88.483921 
135384000     349.6252    362.75018   -4194.7655    4229.2065   -13.124985 
135388000    379.55652    232.59997   -4251.7252    4253.6873    146.95655 
135392000     479.2688    396.14547   -4277.5532    4268.1796    83.123328 
135396000    328.03006    323.95956   -4267.6262    4302.8846    4.0705061 
135400000    339.60014    367.55378   -4332.8787    4347.7863   -27.953638 
135404000    383.54895    339.96682   -4350.1851    4398.2075    43.582128 
135408000    264.95441    248.11528   -4390.3616    4406.4732     16.83913 
135412000    316.77433    259.44219   -4374.2497    4427.0592    57.332146 
135416000    284.43144    337.05362   -4378.7448    4423.7436   -52.622182 
135420000    262.84178    312.23066   -4407.5548    4448.2632   -49.388877 
135424000    463.06302    186.86992   -4425.1378    4465.9861     276.1931 
135428000    560.35742    603.91446     -4424.66    4472.7113   -43.557044 
135432000     380.5583    357.50228   -4446.7638    4481.8579    23.056024 
135436000    489.00243    466.29707   -4472.4985    4489.0166    22.705357 
135440000    455.91559    127.34734   -4481.4267     4508.661    328.56825 
135444000    339.36508     267.0948    -4508.591    4533.4646    72.270287 
135448000    300.25586    255.05137   -4512.3669    4553.8484    45.204496 
135452000      231.677    395.36062   -4541.3437    4558.7443   -163.68362 
135456000    317.10084    321.61958   -4563.0857    4587.7688   -4.5187457 
135460000    413.45149    289.92901   -4589.5963     4597.042    123.52248 
135464000    154.27678     220.6957   -4569.1245    4616.8842   -66.418919 
135468000    268.44524     209.4739   -4580.8125    4633.0154     58.97134 
135472000    317.48146    261.44055   -4612.5237     4670.118    56.040903 
135476000    284.91924    297.68626   -4646.3653    4689.5307   -12.767017 
135480000    604.74959    244.39405   -4663.8753    4729.9128    360.35554 
135484000    597.10443    246.90931   -4728.6653    4760.3821    350.19512 
135488000     482.9293    193.31366   -4759.2727    4786.3517    289.61564 
135492000    437.70797     296.1037   -4791.2952    4809.5707    141.60427 
135496000    576.89692    197.35675   -4798.5001    4833.6606    379.54017 
135500000    257.77203    357.38882   -4831.1121    4874.1717   -99.616786 
135504000    291.51729    388.03321   -4850.4301     4890.041   -96.515926 
135508000    325.30556    290.49398   -4869.2983    4900.9711    34.811584 
135512000    485.32882    364.51613   -4882.1423    4922.9188    120.81268 
135516000    492.39208    267.04416   -4923.4027    4924.3859    225.34792 
135520000    328.18563    447.63787   -4937.5707    4963.2262   -119.45225 
135524000     466.6856    305.68715   -4957.6665    4999.3732    160.99844 
135528000    499.77324    154.90876   -4975.2823    5022.8905    344.86448 
135532000    334.40863    398.58945   -5029.0603    5073.4263   -64.180817 
135536000    394.94433    284.94666   -5056.9442    5086.3364    109.99767 
135540000    505.01719     285.9892    -5078.664    5104.8257    219.02799 
135544000    348.19925    403.74655   -5089.1267    5113.3467     -55.5473 
135548000    247.83432    277.92232   -5081.0975     5126.768   -30.088004 
135552000    537.87749    304.59549   -5132.4037    5143.2771      233.282 
135556000    422.63322    324.83663   -5131.9017    5188.5611    97.796596 
135560000    406.69608    438.95115    -5156.983    5173.6839   -32.255064 
135564000    441.07977    233.19218   -5170.5713    5201.5445    207.88759 
135568000    417.44179    268.96493   -5185.9595    5224.7717    148.47685 
135572000    495.24862    308.26306   -5196.2005    5213.9341    186.98555 
135576000    463.80434    418.64133   -5231.4357     5244.571    45.163003 
135580000    367.29565     193.4723   -5244.9724    5268.2822    173.82335 
135584000    414.38539    389.79671    -5257.011    5285.3161    24.588673 
135588000    384.91135    254.82888    -5275.409    5292.1311    130.08247 
135592000    254.51039    287.25517   -5288.6435    5301.9814   -32.744786 
135596000    418.21818    161.94098   -5295.1987    5332.2488     256.2772 
135600000    338.18874    139.86515   -5298.5925    5339.5804    198.32359 
135604000    239.79768    221.12514   -5343.4866    5374.5351    18.672544 
135608000     356.7138    292.81672   -5352.3527    5378.3769     63.89708 
135612000     292.4313    362.34636   -5374.2924    5384.7095   -69.915064 
135616000    449.51956    343.02893   -5390.0638    5422.6387    106.49064 
135620000     380.6231    249.91047   -5396.3088     5432.832    130.71263 
135624000    443.94998     361.4814   -5423.1994    5445.9289    82.468577 
135628000    471.74067    284.51811   -5438.4874    5453.9902    187.22256 
135632000     412.7957    245.11202   -5432.9244    5456.7325    167.68368 
135636000    358.44253    320.28395   -5455.0548    5498.1038    38.158574 
135640000    213.80934    235.80325    -5467.878    5506.6285   -21.993909 
135644000    312.62187    329.02829   -5499.1286    5536.0606    -16.40642 
135648000     245.1691    292.03952   -5549.2397     5554.439   -46.870417 
135652000    315.58127    293.80612   -5547.0353    5566.0212    21.775155 
135656000    293.99094    295.75107    -5543.171    5574.3944   -1.7601348 
135660000    372.10639    239.38005   -5570.4735    5576.3735    132.72633 
135664000    439.30839    266.90678   -5573.8498    5594.1791    172.40161 
135668000    355.05337    289.32397   -5607.9064    5590.0362    65.729398 
135672000    507.24377    424.34769   -5623.0653    5641.1325    82.896078 
135676000    230.09645    262.00169   -5655.3392     5665.309   -31.905241 
135680000    418.87751    485.28755    -5661.221    5692.0913   -66.410042 
135684000    407.26272    462.38376    -5705.171    5723.1977   -55.121039 
135688000    262.53131    354.11142   -5725.4579    5734.2574   -91.580107 
135692000    297.51036    449.10573   -5740.6683    5787.3062   -151.59537 
135696000    436.40508    218.18125   -5774.3806    5797.0535    218.22383 
135700000    201.04748     349.3414   -5772.7658    5805.2046   -148.29392 
135704000    282.58293    308.74553   -5792.1137    5815.0571   -26.162597 
135708000    375.14643    297.74544    -5826.907    5835.9304    77.400984 
135712000     286.4272    458.47999   -5856.5896    5856.1693   -172.05279 
135716000    283.43254    261.43406   -5864.2337     5883.265    21.998474 
135720000     539.1043    229.30689   -5878.0127     5915.117     309.7974 
135724000    430.22816     359.0573   -5906.8037    5948.9539    71.170862 
135728000    411.60987    595.21026   -5938.0159    5961.5058   -183.60039 
135732000     329.7106    352.01518   -5941.6251      5962.14   -22.304574 
135736000    491.28485    312.34036   -5957.7822     5978.136    178.94449 
135740000    373.31908    424.89212   -5958.2297    5974.1529   -51.573044 
135744000    437.66341    304.70922   -5965.9771    5983.6207    132.95419 
135748000    344.26275    209.13534   -5993.7146    6023.0684    135.12742 
135752000     283.1342    355.42981   -6001.7136    6026.0101   -72.295611 
135756000    385.39563    256.16711   -6005.3548    6011.8306    129.22851 
135760000    402.98248    386.88616   -6004.9203    6018.5116    16.096329 
135764000    383.70788    346.55126   -6011.9612    6041.1158    37.156614 
135768000    587.99573    137.63183   -6032.5079    6078.1803     450.3639 
135772000    417.98856    313.62891    -6074.763    6080.5964    104.35965 
135776000    386.53411    544.18639   -6075.6055    6103.9142   -157.65228 
135780000    441.64413    172.10635   -6097.8545    6125.3706    269.53778 
135784000    347.40519    297.80532   -6105.2433    6156.0533    49.599869 
135788000    354.85396    270.08522   -6144.2153    6168.0023    84.768738 
135792000    232.02633    159.69633   -6168.8964    6187.8088    72.329993 
135796000    405.37073    295.63579   -6197.0875    6220.8008    109.73495 
135800000    499.18845    300.91187   -6206.0232    6242.0329    198.27658 
135804000    367.77813    363.86327   -6186.3713    6238.9287    3.9148601 
135808000    329.57187    423.22002   -6229.9521    6258.4888   -93.648147 
135812000    337.39563    441.50821   -6234.1469    6260.7519   -104.11258 
135816000    364.38951    329.14597   -6258.6907    6297.3744    35.243541 
135820000    262.23606    472.96786    -6284.102    6337.8656   -210.73179 
135824000    297.23043    253.00367   -6327.7223    6372.1132    44.226763 
135828000    482.27353    292.29599   -6367.9479    6387.5724    189.97753 
135832000    429.45259    217.19323   -6367.9297    6408.9515    212.25936 
135836000    369.46224    357.21296   -6378.7214     6411.664     12.24928 
135840000    480.94057    409.62563    -6389.904    6422.6371    71.314934 
135844000    252.31638    297.64516   -6412.0715    6430.4185   -45.328774 
135848000     325.1343    301.56625   -6424.1487    6460.7705    23.568053 
135852000    245.27294    246.35105   -6449.0699    6480.8047   -1.0781096 
135856000    293.46673    364.48067   -6486.4447    6520.7091   -71.013935 
135860000    419.91248     510.0028   -6514.6235    6524.6589   -90.090322 
135864000    524.00336    351.77493   -6527.0252    6546.3753    172.22843 
135868000    493.46718    316.91406   -6547.0745    6566.1191    176.55312 
135872000    719.44948    206.21697   -6558.1467    6590.4572    513.23251 
135876000    421.94721    543.36306    -6573.828    6570.3896   -121.41585 
135880000     234.9747    377.24788    -6589.056    6614.4392   -142.27318 
135884000    280.73796    198.75125   -6632.4835    6659.4181    81.986713 
135888000    247.71629    310.42941    -6655.146     6675.446   -62.713115 
135892000    452.01394     390.4751   -6672.2523    6694.9174    61.538839 
135896000    409.72849    409.05721   -6702.9166    6680.8081   0.67128773 
135900000     395.6939    361.96448   -6706.7938      6731.38    33.729425 
135904000     304.0424    148.47077   -6708.9022    6751.0193    155.57163 
135908000    277.04973    277.45861    -6730.648    6759.5708  -0.40888208 
135912000    256.97321    252.31961   -6743.2971    6792.3048    4.6535994 
135916000    265.52473     219.6723   -6747.8815    6789.1148    45.852427 
135920000    366.04888    516.88984   -6763.0317    6783.1542   -150.84097 
135924000    493.48156    168.06459   -6782.4942    6773.0211    325.41697 
135928000    406.64795    391.95973   -6790.7767    6808.1725    14.688226 
135932000    370.40081    285.10312   -6820.8473     6834.474    85.297682 
135936000    515.95372    366.09147   -6808.2687    6852.9761    149.86224 
135940000    338.76689    380.70103   -6836.0416    6857.2325   -41.934139 
135944000    499.32308    251.23463   -6866.4213    6901.2132    248.08845 
135948000    262.94448    148.38006   -6904.3218    6931.5345    114.56442 
135952000    325.41885    342.87465   -6888.1737    6935.0802   -17.455802 
135956000    666.87739    290.12443   -6924.7029    6957.4596    376.75296 
135960000    251.57888    277.91585   -6946.2363    6984.5999   -26.336974 
135964000    462.70697    457.83472   -6969.5913    6989.2396    4.8722456 
135968000    549.32556    226.83526   -7007.2757    7012.7167     322.4903 
135972000    377.59737     360.5857   -7018.4645    7046.2562    17.011678 
135976000    373.49776     276.9987   -7027.9529    7028.4958    96.499052 
135980000    205.60369    312.50561   -7023.7284    7053.3006   -106.90192 
135984000    417.72053    380.62277   -7054.2502    7049.5704     37.09776 
135988000    485.17682    441.82183   -7036.3841     7065.116    43.354992 
135992000    328.26477    412.61351   -7035.0484    7075.6849   -84.348743 
135996000    307.97822       337.07   -7046.7713     7084.975    -29.09178 
136000000    296.86178    564.57129   -7090.9308    7097.0033   -267.70951 
136004000    281.67129    381.00072    -7086.605     7126.818   -99.329433 
136008000    263.55924    215.12895   -7122.4321     7134.611    48.430292 
136012000    395.16433    356.09203   -7135.4342    7165.7973    39.072299 
136016000    383.02397    353.15396   -7177.3517    7194.9456    29.870006 
136020000    376.20691    406.79264   -7187.5447    7221.0259   -30.585729 
136024000    269.21364    347.90859   -7214.4994    7248.3762   -78.694946 
136028000    217.39341    302.08478   -7221.6881      7273.36   -84.691371 
136032000    359.95009    167.93577   -7233.6653    7280.5136    192.01431 
136036000     433.1447    292.72678   -7261.1474    7295.8013    140.41792 
136040000     321.7937    204.12869   -7254.8086    7309.2938      117.665 
136044000    263.53314     252.6571   -7275.7529    7327.8382    10.876039 
136048000     316.6441    274.63777   -7302.2642    7349.9734    42.006327 
136052000    302.47908    264.77737   -7333.5845    7372.8863    37.701709 
136056000    329.98943    389.78027    -7362.457    7412.3737   -59.790848 
136060000    436.49576    356.18566   -7384.3428    7407.1382    80.310105 
Loop time of 174.703 on 4 procs for 1600000 steps with 196 atoms

Performance: 989.105 ns/day, 0.024 hours/ns, 9158.381 timesteps/s
100.0% CPU use with 4 MPI tasks x no OpenMP threads

MPI task timing breakdown:
Section |  min time  |  avg time  |  max time  |%varavg| %total
---------------------------------------------------------------
Pair    | 16.624     | 24.817     | 33.788     | 156.3 | 14.21
Bond    | 26.365     | 47.009     | 71.001     | 279.9 | 26.91
Neigh   | 1.7529     | 1.7728     | 1.7916     |   1.0 |  1.01
Comm    | 37.905     | 66.925     | 94.535     | 314.5 | 38.31
Output  | 0.0063138  | 0.0076088  | 0.0096807  |   1.5 |  0.00
Modify  | 23.812     | 26.019     | 28.297     |  42.6 | 14.89
Other   |            | 8.153      |            |       |  4.67

Nlocal:    49 ave 123 max 6 min
Histogram: 2 0 0 1 0 0 0 0 0 1
Nghost:    147 ave 190 max 73 min
Histogram: 1 0 0 0 0 0 1 0 0 2
Neighs:    956.5 ave 2325 max 59 min
Histogram: 1 1 0 0 1 0 0 0 0 1

Total # of neighbors = 3826
Ave neighs/atom = 19.5204
Ave special neighs/atom = 5.87755
Neighbor list builds = 17241
Dangerous builds = 0
unfix 1


# PRODUCTION

fix             1 all nve
fix             hot all langevin ${TThi} ${TThi}  50.0 52804  tally yes
fix             hot all langevin 320 ${TThi}  50.0 52804  tally yes
fix             hot all langevin 320 320  50.0 52804  tally yes
fix             cold all langevin ${TTlo} ${TTlo} 50.0 297859 tally yes
fix             cold all langevin 280 ${TTlo} 50.0 297859 tally yes
fix             cold all langevin 280 280 50.0 297859 tally yes
fix_modify      hot temp Thot
fix_modify      cold temp Tcold


variable        tdiff equal c_Thot-c_Tcold
thermo          4000

dump gigo all atom 40000 dump.cords_xyz.dat
dump_modify gigo scale no
dump vfgigo all custom 800 dump.velo.dat id vx vy vz fx fy fz

# thermal conductivity calculation
# # reset langevin thermostats to zero energy accumulation
#
compute         ke all ke/atom
variable        temp atom c_ke/1.5/0.0019872

fix             ave all ave/time 100 40 4000 v_tdiff ave running
thermo_style    custom step temp c_Thot c_Tcold f_hot f_cold v_tdiff f_ave

#compute         layers all chunk/atom bin/1d z lower 0.05 units reduced
compute         layers all chunk/atom bin/1d z lower ${dz} units box
compute         layers all chunk/atom bin/1d z lower 4.1310649555631 units box
fix             2 all ave/chunk  100 40 4000 layers v_temp file profile.langevin

#dump mydump2 all xyz 40000 prod-coord.xyz
#dump_modify mydump2 element C S S

run             32000000
Per MPI rank memory allocation (min/avg/max) = 11.99 | 11.99 | 11.99 Mbytes
Step Temp c_Thot c_Tcold f_hot f_cold v_tdiff f_ave 
136060000     295.2117    436.49576    356.18566           -0           -0    80.310105            0 
136064000    300.47705    366.53533    419.22098   -13.051764    9.9100946   -52.685651    14.786445 
136068000    292.00082    516.91111    324.07772   -33.872063    37.400565     192.8334     30.76533 
136072000    291.49167    389.63285     495.7354    -35.50195    31.990583   -106.10255    35.328588 
136076000    279.29396    225.04403    259.42183   -38.305145    53.931956   -34.377808    23.047838 
136080000    304.18144    271.76706    312.51219   -54.907248    59.066851   -40.745125    26.461388 
136084000    282.69556    388.34286    380.44781   -77.557099    82.863856    7.8950423    32.238651 
136088000     283.0462    250.05495    177.22921   -104.48304    105.92419    72.825742    32.402872 
136092000    277.43724    501.94689    288.28367    -123.6263    127.49309    213.66322    34.162957 
136096000    298.44295    434.62707    445.83726    -142.5192    149.89368   -11.210196    32.001269 
136100000    266.05368    296.69511    431.00813   -169.87524     177.6083   -134.31302    34.902033 
136104000    281.81146    314.71183    247.73893   -186.43119    195.83961    66.972897    37.500059 
136108000    283.99242    378.93153    289.32497    -201.7832    209.78834    89.606556      36.5649 
136112000    305.51517    485.26621    379.72967   -223.35784     211.9055    105.53654    38.060213 
136116000    284.42233     320.5204     343.0781    -230.0592    219.51629   -22.557698     42.73357 
136120000    297.87613    382.09746    286.88724   -261.99932    247.55877    95.210215    41.560354 
136124000    289.19781    325.14773    271.78906   -288.61113      287.769    53.358666    40.267573 
136128000    253.22229    302.32753    369.71549   -285.95265    305.99444   -67.387962    39.177541 
136132000    264.30869    324.73245    453.23008   -311.57225    309.17373   -128.49763    39.512223 
136136000    289.28942    477.25274     234.2495   -338.86263    350.23639    243.00324    38.528514 
136140000    276.47999    297.52864    278.42203   -361.58032    369.69713    19.106604    37.547975 
136144000    295.64342    418.42006    273.28608   -400.59743    399.20211    145.13398    38.088001 
136148000    265.61684    253.76987    304.84749    -418.0663    441.82213   -51.077627    37.197142 
136152000    295.59954    276.17608     501.3602   -455.64601    456.94116   -225.18411    37.890052 
136156000    298.95117    275.02065    247.15502   -454.17467    457.78233    27.865636    39.876521 
136160000    261.64887    339.70325    197.70061   -464.73332    475.92511    142.00264     39.26732 
136164000    300.89012    444.89081    347.25732   -496.23561    490.63828    97.633489    38.188425 
136168000    250.21922    396.43208     373.3092   -514.07204    531.75484    23.122881     38.56387 
136172000    277.29137    340.07971    438.17119   -525.55469    543.28238   -98.091488    39.310701 
136176000    289.97647    199.75186    267.95893   -577.28749    576.67617   -68.207066    39.251101 
136180000    288.35505    262.93769    277.84294   -625.79232    615.03924   -14.905249    40.132562 
136184000    329.44863     230.1498    520.87825   -656.65838    623.90411   -290.72845    40.329519 
136188000     259.9455    218.97341    212.77209   -652.18024    665.72547    6.2013203    39.767211 
136192000    273.33227    347.11202    278.78326    -663.0834    665.83686    68.328762    40.395749 
136196000    276.02577    277.56408    334.60912   -659.59066    681.93661   -57.045037    39.992392 
136200000    283.54844    410.76794    288.02431   -668.94484    697.56288    122.74363    41.408025 
136204000    272.08564    235.63019    382.78705    -677.6497    705.32417   -147.15687    41.034323 
136208000    262.75759    285.11137    262.76645   -721.07919    737.38718    22.344921    39.662289 
136212000    300.05948    324.00092    298.45459   -742.01375    740.67576     25.54633    38.674934 
136216000    279.34106    241.69753    182.39834   -751.57676    770.30184    59.299191    39.892301 
136220000    267.31409    313.65621     269.0684   -791.78709    800.42596    44.587807    39.777996 
136224000    270.46953    323.27295    363.90907    -817.6673    827.75439   -40.636117    39.589555 
136228000    274.79919    540.44834    315.00043   -832.03215    835.18077     225.4479    39.148138 
136232000    267.61747    329.77822    414.68092    -842.1664    855.62131   -84.902704    39.129169 
136236000    285.07716     389.2589    324.04534   -846.41707     850.4313    65.213563    39.615915 
136240000    276.21397     340.4778    320.02377   -854.39614    867.33054    20.454024    39.603732 
136244000    252.11006    233.47261    219.43887   -872.09299    904.77621     14.03374    39.264927 
136248000    262.28152    342.63226    222.63175    -901.2139    930.97817    120.00051    38.693067 
136252000     281.9573    391.22897    313.14272   -926.73471    935.99839     78.08625    38.851495 
136256000    243.56527    380.38433    310.06342   -936.85992    955.95504    70.320914     37.97934 
136260000    274.42918    387.99148    171.71766   -970.99266    967.30876    216.27382    38.271329 
136264000    296.62852    389.39715    367.46635   -965.37551    965.68762    21.930807    38.872551 
136268000    289.45427     338.4532     422.0439   -971.55836    980.93426   -83.590705    38.555144 
136272000    295.95444    227.40894    277.30183   -976.09674     966.7166   -49.892889    38.827811 
136276000    293.97487     395.8227     500.2691   -976.32356    980.34258    -104.4464    38.654484 
136280000    302.45896    338.16057    467.84047   -1014.6508    1001.5199    -129.6799    38.781017 
136284000    293.71995    265.02995     277.3857   -999.57037    1001.5855   -12.355743    39.112228 
136288000    290.00508    314.15927    232.81375   -1020.5591     1017.549    81.345521    39.028109 
136292000    315.78126    486.56526     416.5294    -1077.058    1037.4239    70.035866    38.539848 
136296000    291.85156    320.62597    253.52089   -1091.8525    1089.5193     67.10508    38.824682 
136300000    275.74694    276.44464     465.7403   -1116.9334    1124.1379   -189.29566    38.509462 
136304000    261.17426    361.32791    269.78911   -1133.1053    1151.6587    91.538801    39.006831 
136308000    298.46612     404.7214    397.45377   -1167.2534    1169.4301    7.2676355    39.139694 
136312000    296.05463    509.21079    426.51486   -1184.3601    1185.5009    82.695921    38.716607 
136316000     276.6933    566.10555    261.18595   -1218.9854    1207.9856     304.9196     38.66733 
136320000    280.10418    190.14125    290.62019   -1235.6566    1235.3417   -100.47895    38.444537 
136324000    295.04642    349.19596    286.13067   -1267.0288    1271.3375    63.065293    38.145128 
136328000    273.09287    370.26505    320.93615   -1280.9329    1291.6118    49.328902    37.750845 
136332000    249.63398      339.906    356.94718   -1294.7142    1308.7988   -17.041184    38.017141 
136336000    263.28921    270.89513    225.78577   -1311.2124    1312.4857    45.109367    37.383808 
136340000    263.51967     436.7287    198.87407   -1312.4401    1340.5057    237.85463    37.945769 
136344000    277.07381    312.66459    421.57525   -1332.4536    1349.1108   -108.91066    38.069867 
136348000    284.22414    309.28736    576.97272   -1361.5817    1369.2147   -267.68536    38.329451 
136352000    283.47802    354.88612    344.66242   -1394.5141    1407.3744    10.223699    38.201893 
136356000    294.71983    451.41163    300.53431   -1430.9386    1437.1971    150.87732    38.773335 
136360000    286.03249     390.7963    267.53818   -1459.5903    1454.5365    123.25812    39.011168 
136364000    291.27639    216.40157    176.14854   -1507.6981    1504.4062    40.253034    39.274682 
136368000    290.78839    361.34121    311.91326   -1548.7468     1545.753    49.427944    39.186616 
136372000    288.69216    431.65312    413.68268   -1573.0342    1578.4613    17.970437    38.525997 
136376000    267.49929    284.57234    436.96874   -1590.9496    1588.6126    -152.3964    38.430808 
136380000    255.47946    209.09836    439.19589   -1581.6926    1611.0669   -230.09754    38.261536 
136384000    281.56353    399.18238    268.03699   -1600.0187    1617.1392    131.14539     38.34447 
136388000    306.65689    257.49846    353.43987   -1651.5462    1635.4621   -95.941412    38.377315 
136392000    298.08657    385.35838    272.25051   -1681.2328    1669.7725    113.10787    38.385831 
136396000    278.82765    505.08275    284.29979   -1698.1596     1702.346    220.78296    38.619784 
136400000    294.11443    296.47494     318.0798   -1703.1021    1716.9894   -21.604856     38.87265 
136404000    280.84648    610.94161    229.45836   -1722.9836    1729.7509    381.48325    38.767906 
136408000    267.83981    370.81851    340.37265   -1751.3907    1762.9724    30.445861     38.58329 
136412000    300.80417    417.48777    377.74575   -1774.5301    1767.3032     39.74202    38.454046 
136416000    266.50715    244.57515    214.30263   -1793.4572    1801.6821    30.272526     38.43573 
136420000    282.74243    485.71153    415.33952   -1809.9733    1808.6533    70.372005    38.439441 
136424000    291.26561    489.03563    391.50238   -1829.1877     1831.438    97.533244    38.239656 
136428000    293.61341    316.98722    219.87855    -1857.167    1850.6657    97.108667    38.220296 
136432000    279.87915    313.88039    408.64177   -1866.9064    1864.2745   -94.761381     38.46287 
136436000    296.38865    381.30936    314.56545   -1904.8405    1893.4096    66.743911    38.138613 
136440000    288.59894     568.2241    192.92274   -1925.8265    1906.0473    375.30135    38.254858 
136444000    297.46512    305.66534    377.31489   -1933.4009    1911.2226   -71.649555    38.186715 
136448000     316.2876    463.36768    328.44492   -1941.5878    1927.1351    134.92277    37.961484 
136452000    275.71247    304.71959    340.23904   -1968.6716    1970.0733   -35.519452    38.268112 
136456000    252.52773    335.09513     297.5294   -1980.3026    1987.4851    37.565725    38.563804 
136460000    274.55231    299.63287    331.84947   -2001.0559    1993.2972   -32.216606    38.590583 
136464000    281.57065    298.71038     390.7949   -2029.1051    2039.0917   -92.084515    38.338297 
136468000    286.59702    461.34971    297.28809   -2064.1111    2071.6837    164.06162    38.300006 
136472000    287.97675    392.51551    357.37839   -2085.6743    2072.2463    35.137119    38.165212 
136476000    257.86525    441.84413    243.13518   -2077.0631    2091.0503    198.70894    38.492185 
136480000    244.75456    280.14938    423.71286   -2079.5848    2106.7584   -143.56348     38.60769 
136484000     297.0785    282.44128     328.2987   -2111.7465    2119.3442   -45.857417    38.761375 
136488000     273.2409    349.50115    150.21554   -2164.6408    2158.2527    199.28561    38.645531 
136492000     311.0495    273.82676    515.89887    -2189.279    2188.6788   -242.07211    38.636783 
136496000    313.06361    372.56372    294.84611   -2199.1646    2195.4186    77.717607    38.525939 
136500000    302.11606    213.50584     265.8606   -2231.7787    2217.4617   -52.354756    38.527212 
136504000    283.51225    441.17263    424.27354   -2233.1129    2256.1529     16.89909     38.64628 
136508000    264.17265    333.48795    183.85538   -2231.8943    2266.9357    149.63256    38.633164 
136512000    257.15904    270.51465    368.04187    -2266.541    2286.7596   -97.527218     38.85676 
136516000    277.63899    435.41542    326.38668   -2282.4021    2300.9239    109.02874    38.524852 
136520000     272.8014    493.35983    401.66395   -2287.4258    2317.7828     91.69588    38.899038 
136524000    252.58747    449.88202    340.12247   -2323.1084    2349.1285    109.75955    39.065158 
136528000    285.72918    429.66269       321.36   -2348.4073    2347.2483    108.30268    38.758501 
136532000    238.05158    254.43087    193.62761    -2341.959    2377.1767    60.803259    38.934107 
136536000    291.38215    600.86778     276.8423   -2374.7995    2390.4411    324.02548     38.68534 
136540000    270.70874    190.65645    256.29871   -2391.6446    2408.8054   -65.642269    38.577394 
136544000    278.25677    465.54552    319.40351    -2425.166    2425.0406    146.14201     38.62086 
136548000    269.38896    402.43833     347.8927   -2435.5394    2439.2974    54.545625    38.699963 
136552000    318.00439    356.41753    336.37456   -2453.8685    2449.3249    20.042964    38.920303 
136556000    307.83789    247.11223    248.85289   -2471.5039    2454.0473    -1.740668    38.779888 
136560000    305.82425    281.58979    244.75176   -2476.7381    2466.5868    36.838037    38.520989 
136564000    260.91554    336.56513    223.04045   -2455.3354    2497.3545    113.52468    38.542689 
136568000    288.71581    562.45666    319.98697   -2526.0309    2515.7773    242.46969    38.695002 
136572000     296.2213    279.82226    486.73676   -2552.8178    2554.9516    -206.9145    38.488076 
136576000      286.904    299.92909    361.97012   -2540.3954    2557.5978    -62.04103    38.294672 
136580000    281.35285    363.40794    181.46641   -2594.4709    2581.3049    181.94153    37.973671 
136584000    301.36904     417.8623    333.33712   -2596.1501    2595.5284    84.525184    37.922369 
136588000    292.88842    346.16506    430.49161   -2631.4129    2617.0583   -84.326548    37.924903 
136592000    267.62526    181.48459    142.76575   -2645.5078    2656.3558    38.718838       37.758 
136596000    293.14034    318.05955    410.89655    -2679.014    2680.4167   -92.837003    37.571499 
136600000    268.75855    186.60785    414.37295   -2660.8517    2682.0284    -227.7651    37.592256 
136604000     272.5733    284.83142    224.43964   -2683.2884    2683.1305    60.391773    37.462027 
136608000    282.44946    284.91221    207.04196   -2707.5567    2711.7181    77.870253    37.296935 
136612000    273.58917    492.21685    338.04103   -2714.6759    2734.1009    154.17582    37.217395 
136616000    284.76881    451.55868    188.76942   -2739.1675    2749.0438    262.78926    37.483193 
136620000    309.04924    298.99709    363.13213   -2762.8398    2766.2331    -64.13504    37.311186 
136624000    282.67988      195.854    347.56547   -2770.8523    2781.2002   -151.71147     37.19486 
136628000    280.03969    578.97975     241.1507   -2785.3172    2798.3024    337.82904    37.222919 
136632000     268.6314    475.44032    255.68957    -2798.803    2834.9797    219.75075    37.113978 
136636000    289.06248    247.95961    345.88008   -2816.6808    2826.7365   -97.920465    37.038421 
136640000    316.42147    329.88246    633.86774   -2830.1888    2806.6907   -303.98528    36.952535 
136644000     274.3644    301.02059    230.70691   -2831.4103    2856.3034    70.313685     36.86284 
136648000    281.32178    392.02784    316.70894   -2861.0215    2879.9103    75.318894    36.738643 
136652000    309.35282    480.41965    328.19318    -2915.888    2906.4223    152.22647    36.934948 
136656000    286.13584    216.49191    317.90557   -2913.8268    2924.2856   -101.41365    36.864404 
136660000    314.03694    503.68624    418.20309   -2966.8119    2949.8569    85.483155    36.756697 
136664000     304.2168     337.5149     397.9784   -2975.1773    2969.0353   -60.463498      36.8942 
136668000    264.22856    267.49424    343.75764   -2995.8415    3012.9296   -76.263392    36.965654 
136672000    298.19167    347.86932    355.62516   -3046.9004    3030.5682   -7.7558386    36.922927 
136676000    289.39167    351.50327    276.27945   -3048.4739    3060.8418    75.223823    36.837163 
136680000    279.50083    332.13668    274.56771   -3040.8949    3069.9187     57.56897    36.851893 
136684000    280.96144    365.49593    313.08562   -3042.6426    3056.5582    52.410317    36.911839 
136688000    281.08325     658.6103    237.76194   -3066.7658    3069.8535    420.84835    37.081798 
136692000     261.4952    291.41802    271.06397   -3069.4711    3101.1648    20.354051    36.911601 
136696000    251.26098    393.89853    296.32999   -3109.8643    3126.0167    97.568537    37.074891 
136700000    259.17867     397.9139    305.94621    -3150.591     3178.179    91.967692    37.102844 
136704000    301.24416    438.97393     394.6977    -3180.917    3197.5538    44.276223    36.929653 
136708000    294.19821    236.80189    275.70178   -3198.0662    3173.0826   -38.899891    36.919949 
136712000      270.407    370.75382    429.27429   -3187.7544    3194.6324   -58.520466    36.857971 
136716000    277.35496    368.52998    354.05706   -3208.0386     3219.871    14.472921    36.847436 
136720000    284.87482    445.50181    418.34386   -3224.0984    3232.8983    27.157944    36.831821 
136724000    278.36111    393.77273    417.18655   -3229.1949    3236.7188   -23.413812     36.95947 
136728000    286.31853    288.78534    425.80971   -3241.7301    3238.7437   -137.02437    37.085364 
136732000     254.4408    313.97813    259.65163    -3263.179    3288.9136    54.326503     37.14056 
136736000    270.86961    502.19445    426.09925   -3286.0794    3305.7131    76.095197    37.077875 
136740000    269.97323    461.44776    286.46906    -3293.732    3313.3235     174.9787    36.948247 
136744000    261.93127    461.84528    111.87252    -3309.964    3326.8932    349.97276    37.059523 
136748000    299.10834    503.89024    340.17199   -3338.1014    3337.3858    163.71825    36.788523 
136752000    289.42417    272.04758    381.26539   -3370.9636    3386.8557   -109.21781    36.879727 
136756000    289.36692    426.36929    290.71208   -3390.9987    3398.7198    135.65721    36.977833 
136760000    287.21261    418.65432    305.10225   -3427.2378     3421.479    113.55207    37.042284 
136764000    280.74881    439.16301    341.76019   -3443.0796    3446.6845    97.402812     37.36303 
136768000    281.93397    270.34373    338.42843   -3465.0856    3484.0375     -68.0847    37.297999 
136772000    256.01436    144.02057     270.6784   -3450.3218    3482.9763   -126.65783    37.377644 
136776000     260.5668     390.9131    269.75047   -3470.4035     3495.603    121.16264    37.228995 
136780000     257.7173    247.43921    353.06087   -3499.3288    3518.9513   -105.62165    37.152999 
136784000    287.89223    380.37792    184.98177   -3502.9241    3514.3723    195.39615    37.036601 
136788000    284.54377    502.85547      301.778   -3540.0838    3537.8086    201.07747    36.874549 
136792000    294.72598    570.61829    260.73316   -3565.6236    3562.2967    309.88513    36.879216 
136796000    304.65548    275.23787    213.15754   -3544.8719    3556.9189    62.080332    36.888287 
136800000    300.60076    278.99317    227.95702   -3559.2289    3560.1872     51.03615    37.033834 
136804000    285.43945    381.80706    295.86042   -3598.8626    3592.1125    85.946647     36.98121 
136808000    302.77631    388.28452    393.79863   -3624.8522    3617.9129   -5.5141126    36.929695 
136812000    278.24926    437.86535    482.75184   -3659.2173     3675.895   -44.886494    36.934681 
136816000     244.6372    489.82441    239.48932   -3680.6621    3698.3245    250.33509    37.189543 
136820000    272.79744    370.41755    194.58442   -3727.2367    3740.9169    175.83313    37.184679 
136824000    299.62945    428.83201    279.76159   -3774.1414    3767.3859    149.07042    37.129167 
136828000    274.70696    298.01591    454.68044   -3775.4215    3778.5634   -156.66453    37.010298 
136832000     286.4785    346.70969    302.42024   -3792.5118    3791.0819    44.289444    37.159499 
136836000    269.33036    329.24906    408.71554   -3812.1453     3818.888    -79.46648    36.937294 
136840000    264.31502    540.59175    442.53402   -3822.1131    3843.0996    98.057731    37.011366 
136844000     297.1552    564.40889    263.62531   -3837.3955    3847.1653    300.78357       37.015 
136848000    263.87625      340.468    433.60507   -3824.1713    3839.2079   -93.137069    36.742771 
136852000      281.777    226.66388    261.20656   -3858.6992     3857.343   -34.542682    36.681372 
136856000    298.28228    500.18223    357.31349   -3888.9517    3906.0519    142.86874    36.830053 
136860000    284.75914    291.02419    409.78846   -3907.5503    3906.3124   -118.76427    36.930122 
136864000     290.4905    375.76038    427.56894   -3907.7526    3909.5907   -51.808556    36.787144 
136868000    279.05989    473.13577    162.95162   -3932.9719    3938.3244    310.18415    36.872407 
136872000    276.33903    432.13899    184.34744   -3932.9804     3948.505    247.79154    36.745744 
136876000    280.52107    378.88767    298.97814   -3964.8282      3950.64    79.909525    36.827348 
136880000    311.10927    350.61119    147.14255   -3969.0394     3966.133    203.46863    37.094255 
136884000    296.29218    388.62122    501.72001   -3994.1433    3977.0199   -113.09879    37.237633 
136888000    287.58255    473.53823    362.64206   -3997.6639    4006.9341    110.89617    37.475204 
136892000     296.2357    323.35702     435.1045   -4006.6861    4016.9038   -111.74748    37.508978 
136896000    257.34402    301.08941    249.94933   -4031.7662    4058.9464    51.140083    37.371575 
136900000    251.44842    418.78839    186.20638   -4068.8939    4086.9634    232.58201    37.525466 
136904000    301.23849    319.07096    246.72112   -4128.6047    4123.1866    72.349839    37.447323 
136908000    320.24205    614.03297    337.40683   -4175.0607    4158.3955    276.62614    37.494478 
136912000    269.60733    380.37501    256.84603   -4182.4681    4186.4897    123.52898    37.330129 
136916000    245.90037    264.48518    206.84811   -4161.1137    4180.2207    57.637071    37.419381 
136920000    306.07012    527.22081    399.89993   -4181.6879    4169.4668    127.32088    37.272301 
136924000    295.77959    527.02181    480.88357   -4193.8772     4183.218    46.138247    37.368897 
136928000    299.24597    416.19712    254.08231   -4216.4193    4220.0891    162.11482    37.355459 
136932000     280.4245    348.34462     320.2633   -4218.6071    4217.2911    28.081316    37.444138 
136936000    268.33313    477.25489    150.95583    -4215.789    4244.8773    326.29906    37.583093 
136940000    264.07776    401.85694    310.61195   -4250.4714    4269.9683    91.244988    37.585177 
136944000    304.27418    587.28821    347.60469   -4259.9469    4263.3373    239.68351    37.523465 
136948000    280.14282    377.42155    323.59079   -4262.2604    4273.0341    53.830766    37.726419 
136952000    307.41719    342.31681    355.88114   -4293.1819    4292.0997   -13.564329    37.726865 
136956000    276.56613    475.89938    137.33606   -4311.3642    4330.2792    338.56332    37.718483 
136960000    268.36544    321.89885    207.19961   -4313.5895    4321.6782    114.69924    37.673531 
136964000    259.69915    427.52101    303.34632   -4331.3578    4341.9662    124.17469    37.727268 
136968000    266.42143    372.00141    398.68464   -4326.3235    4353.8415   -26.683228    37.715153 
136972000    270.30621    271.47083    250.01022   -4317.2452    4336.7111    21.460602    37.690847 
136976000    296.86367     471.8695    388.25795   -4357.3032    4344.6805    83.611551     37.68416 
136980000    257.68499    556.86013    376.71677   -4350.5686    4378.6145    180.14336    37.494573 
136984000    270.60588    383.44075    364.11877   -4387.2966    4401.1592    19.321983    37.552352 
136988000    302.09846    595.99486    210.66376   -4430.4994    4417.2097    385.33111    37.632927 
136992000    303.08988     229.7255    296.72464   -4414.9156     4420.706   -66.999146    37.607114 
136996000    282.52501    335.47225    302.45799   -4423.6774    4434.3155    33.014258    37.658941 
137000000    285.37789    468.33235    335.61458   -4455.9514    4466.9754    132.71777    37.730454 
137004000    274.68292    439.94481    368.02886   -4479.1585     4477.323    71.915945    37.646625 
137008000     275.8799    311.70594    250.27051   -4468.9615    4489.5893    61.435433    37.524984 
137012000    285.95951    408.90724    239.64825   -4491.5257    4494.6487    169.25899    37.510291 
137016000    304.77149    514.64081    414.91683   -4490.6988    4499.1233    99.723983    37.561446 
137020000    289.69676    192.10334    486.58104   -4482.6612    4502.5741    -294.4777    37.520062 
137024000    267.44877     338.2103    252.35136   -4502.6099    4521.5676    85.858941    37.509322 
137028000    283.04924    268.31214    374.94538   -4518.5244    4524.6586   -106.63324    37.397249 
137032000    306.64403    397.17557    361.68126   -4534.5261    4527.4694     35.49431    37.379521 
137036000    279.94591    428.09545     304.0614   -4552.8109    4562.5437    124.03405    37.491511 
137040000    290.33079    257.57684    363.40527   -4583.7518    4586.7516   -105.82842    37.429915 
137044000    268.55063    358.08138    229.44303   -4577.1122    4593.9286    128.63834    37.341078 
137048000    274.54156    381.35677    288.89255    -4588.508    4600.4907    92.464219     37.30982 
137052000    284.49697    260.74955    284.54109   -4607.7024    4608.6844   -23.791536    37.203664 
137056000    258.91604     237.8317    370.15673   -4603.8347    4633.0541   -132.32503    37.084164 
137060000    274.63194    388.98685    217.86587   -4646.6413    4662.4077    171.12098     37.15938 
137064000    276.99492    474.45273    351.91569    -4671.131    4686.4849    122.53704    37.144335 
137068000    267.08482    264.86889    322.14264   -4686.2287    4718.3662    -57.27375    37.046156 
137072000    263.32963    334.43842    347.35146   -4710.7892    4732.9637   -12.913037    36.980171 
137076000     294.4272    338.06724    389.59074   -4758.4438    4751.0845   -51.523502    37.140985 
137080000    259.48912    278.59628    409.22242    -4780.934    4793.1839   -130.62614    37.108137 
137084000    283.21073    432.87862    321.67457   -4819.9865    4830.6991    111.20404    37.152898 
137088000    294.71853    588.26443    380.06032   -4842.8533    4865.2467     208.2041    37.101518 
137092000    290.68225    142.32338    229.48564   -4862.5318    4868.5715   -87.162263    36.992023 
137096000    294.57253     370.6849    525.75606   -4890.2035    4890.2501   -155.07116    37.068418 
137100000     270.1849    376.32716    510.81845   -4879.6259    4907.6474   -134.49129    37.006801 
137104000    321.21236    437.71317    354.61973   -4919.6707    4907.7997    83.093439    36.995732 
137108000      289.481    399.01562    262.69627   -4929.7467    4941.4193    136.31935    36.921267 
137112000     262.9089     199.9201    253.57659   -4915.6476    4919.5608   -53.656487    36.894816 
137116000    294.44852    270.40637    266.89085   -4923.5555    4932.2646    3.5155278    36.916549 
137120000    293.44216    409.52658    220.43243   -4966.6468    4976.1972    189.09415    36.957921 
137124000    282.92085    319.43355    528.08314   -4977.3528    4991.4285   -208.64958    36.869957 
137128000    244.87102    268.96747    238.54543   -4989.1075    5012.1769    30.422046    36.843584 
137132000    307.80815    389.31547    419.51227   -5056.7421    5046.3179   -30.196807    36.805033 
137136000    289.40861    440.64482    360.60584   -5055.9909    5050.9393    80.038975    36.670567 
137140000    295.50135     464.1728    245.72825   -5077.6534    5079.1422    218.44455    36.651716 
137144000    281.70377    378.28409    309.60977   -5106.2083    5087.6682    68.674325    36.592294 
137148000     312.5499    235.49701    473.10562   -5125.7181    5103.8263    -237.6086     36.53984 
137152000    278.45805    293.72597     208.5934   -5146.1079    5158.5451     85.13257    36.407999 
137156000    276.52082    70.679805    348.20106   -5179.9803    5182.1181   -277.52126    36.386151 
137160000    278.56196    447.52928    580.25217   -5171.1878     5182.772   -132.72289      36.3747 
137164000    286.04792    423.16353    487.10051   -5204.5777    5196.8758    -63.93698    36.255656 
137168000       257.91    294.01769    416.32132   -5183.3063    5213.8669   -122.30362    36.115628 
137172000    279.35478    423.42043    334.38323   -5188.0135    5207.9037    89.037206    36.121281 
137176000    327.46436    567.35709    325.38284   -5218.6847    5203.5476    241.97424    36.232996 
137180000    279.51242     290.5628    162.86026   -5221.6833    5249.8821    127.70253    36.338861 
137184000    275.70548    480.04012    302.20925   -5252.7511    5264.1958    177.83087     36.39885 
137188000    275.25967    408.50861    268.62257   -5301.2958     5293.762    139.88604     36.42428 
137192000    297.19714    530.09413    363.07103    -5328.802    5320.7593     167.0231    36.400462 
137196000    274.66673     351.7612    476.50755   -5353.2442    5356.6947   -124.74635    36.435232 
137200000    301.21681    253.19187    427.54715   -5344.8057    5351.2001   -174.35529    36.596602 
137204000    280.45784    135.98984    337.20995    -5381.196    5378.2229   -201.22011    36.603475 
137208000    265.93893    393.05919    195.88645   -5425.4311    5427.8585    197.17274    36.628123 
137212000     282.0308    284.35266    416.64674   -5456.9645    5457.9168   -132.29408    36.625586 
137216000    297.16675    415.65107    279.31055   -5504.1411    5496.0851    136.34052    36.571384 
137220000    289.76698    290.93744    399.42997   -5483.5739    5498.0718   -108.49253    36.774743 
137224000    278.01037    407.75291    256.56079   -5495.4813    5493.4379    151.19212    36.856372 
137228000    283.99223    244.11268    182.57933   -5488.5507    5492.3102    61.533354    36.903979 
137232000     305.2339    476.80472      430.528   -5515.0695    5509.7402    46.276721    36.931937 
137236000    299.94685    391.45357    253.23487   -5532.4292    5543.2308    138.21871    36.868118 
137240000    286.82693    306.60612    177.24435   -5540.7408    5558.3638    129.36178      36.9141 
137244000     287.7814    390.15609    360.23375   -5558.3775    5554.9686    29.922341    36.952097 
137248000    281.35104    123.38653    407.78308   -5550.5188    5564.8656   -284.39655    36.939161 
137252000      275.605    280.94048    494.99665   -5580.3279    5593.0872   -214.05617    36.873868 
137256000    286.62386    353.69377    305.48214    -5610.328    5629.5349     48.21163    36.869666 
137260000    263.16698    409.84883    244.56801   -5627.2441    5636.1372    165.28082    36.666448 
137264000    286.57835    286.01925    283.22107   -5644.0203    5651.9996    2.7981804    36.672673 
137268000    294.78848    569.08852    321.60597   -5689.3063    5688.5868    247.48255    36.604661 
137272000    285.14156    358.03286    565.42026    -5681.646     5702.318    -207.3874    36.669823 
137276000    288.26572    253.77796     250.2695   -5717.2981    5743.7395    3.5084568    36.490587 
137280000    274.01013    288.16278    157.79034   -5735.0091    5768.0702    130.37244    36.489497 
137284000    297.46754    257.72022    279.70074   -5764.8228    5764.4307   -21.980514    36.412697 
137288000    318.55374    317.33128    378.17099   -5801.7113    5780.4074   -60.839708    36.373695 
137292000    261.24399    208.50001    311.85458   -5802.8311    5811.7009   -103.35457    36.420285 
137296000    269.33542    360.41313    273.88408    -5812.177    5828.1169     86.52904    36.367584 
137300000    304.33824    449.94146    498.69232   -5844.3131    5823.8016    -48.75086    36.398036 
137304000    308.68296    363.62191    390.04028   -5856.1515    5842.9824   -26.418371    36.268276 
137308000     294.6068    535.96589    239.47483   -5874.1573    5882.8358    296.49106    36.261319 
137312000    279.20166    405.21723    319.61288   -5893.2873    5908.0375    85.604348    36.228106 
137316000    254.29653     409.4556    290.47705   -5914.5375    5935.6002    118.97856     36.21558 
137320000    297.37323    459.83252    403.96043    -5950.955    5951.2928    55.872081    36.182356 
137324000    294.60849    408.05597    250.96741   -5976.8352    5978.2945    157.08856    36.151282 
137328000     262.7198    275.84112    127.89499   -6006.0315    6014.6273    147.94614    36.294003 
137332000    274.86348    372.46372    188.12256   -6033.1483    6042.6581    184.34116     36.23964 
137336000    277.18386    553.15788    162.53573    -6044.672    6064.6016    390.62215    36.300874 
137340000    289.88448    343.82385    531.57771   -6077.2083    6074.7904   -187.75386    36.281085 
137344000    283.27166    770.65788    177.21869   -6106.7582    6118.0359    593.43919    36.256699 
137348000    253.62394    298.66996    269.65197   -6134.8944    6153.0107    29.017994    36.275391 
137352000    256.57387    273.06838    205.61103    -6185.055     6195.288    67.457345    36.302949 
137356000    281.33173    266.69783    407.91725   -6186.6293    6197.6446   -141.21941     36.29257 
137360000    288.71381    375.18297    150.31981   -6230.8837    6224.8403    224.86316    36.339807 
137364000    305.71798    403.29568    462.08193   -6259.9742    6247.8944   -58.786253    36.329392 
137368000    270.40285    464.09097    216.22176   -6254.3805    6274.5915    247.86921    36.422521 
137372000    257.59755    529.07602    294.22339   -6265.9215    6290.8039    234.85263    36.486804 
137376000    274.71267    249.03894    288.46173   -6275.5619    6268.1328   -39.422786    36.459475 
137380000     270.6211    415.87685     289.4573   -6297.6687    6290.8531    126.41955    36.424094 
137384000     292.7712    172.25715    283.31325   -6324.8439    6316.0261   -111.05609    36.286898 
137388000    295.96368    407.19147    740.88411   -6330.2943    6322.6398   -333.69265    36.152645 
137392000    312.39496    371.47082    424.82976   -6329.0132    6320.3042   -53.358935    36.046077 
137396000    263.38671    341.36362    387.59565   -6333.7159     6337.092   -46.232024    36.016755 
137400000    276.95828    492.11782    463.11833   -6343.3793    6344.8566    28.999488    35.929203 
137404000    280.02846    347.37301    325.80458   -6349.1934    6360.1813    21.568431    35.997234 
137408000     268.3408    371.00305    296.46015   -6340.4594    6357.1873    74.542892    36.041751 
137412000    289.52653    347.62742    272.31953   -6379.4024    6374.0133    75.307889    36.262557 
137416000    301.07032    452.95056    348.34172   -6382.6168     6376.372    104.60884    36.338982 
137420000     267.5315    420.71863     289.3208   -6393.0802    6397.8148    131.39784    36.314511 
137424000    257.71543    338.37794    298.83362    -6409.178    6428.3648    39.544325    36.349146 
137428000    293.07624    330.15823    555.47068   -6431.9467    6426.8884   -225.31245    36.371149 
137432000    284.72714    259.80869    304.54524    -6450.787    6441.6391   -44.736555    36.353656 
137436000    250.60652    242.86767    374.35142   -6433.0103    6454.8996   -131.48375    36.390643 
137440000    307.33547    215.63001    439.26995     -6487.49    6479.0063   -223.63993     36.46215 
137444000    270.45665    315.67355    237.06295   -6489.9613     6514.634    78.610602    36.443849 
137448000    288.67556    291.96934    286.83731   -6505.2111    6513.1997    5.1320346    36.512193 
137452000    302.99277    373.84581     319.1817   -6550.3617    6541.4383    54.664102    36.457961 
137456000    283.92709    450.96749    214.19674   -6562.5516     6558.685    236.77075    36.400782 
137460000    289.56484    381.70475    298.33626   -6585.1997     6580.731    83.368497    36.388433 
137464000    261.63174    279.65361    341.61894   -6569.9378    6581.0985   -61.965331    36.403061 
137468000    284.69121    342.73064    388.89982   -6583.1337     6612.224    -46.16918    36.397935 
137472000    279.40337     589.9541    227.36255   -6607.4486    6642.0485    362.59154     36.40673 
137476000    303.03296    272.55663    316.11735   -6645.9304    6650.4797    -43.56072    36.364626 
137480000    304.92955    389.43344    446.81754   -6635.8086    6647.7185   -57.384095    36.416841 
137484000        296.7    388.17634    332.35828   -6672.8998    6662.6153    55.818061    36.320629 
137488000    288.97319    390.92078     256.4407   -6685.5429    6697.8945    134.48009    36.346225 
137492000    311.79722    474.91382    269.89564    -6709.148    6710.4179    205.01818    36.334012 
137496000    263.31757     443.8453    261.31719   -6698.7386    6727.6152    182.52811    36.331308 
137500000    263.21927    227.27949    350.41766   -6714.6124    6724.3986   -123.13817    36.337714 
137504000     272.6716    373.57003    302.06753   -6745.1004    6768.7926    71.502498    36.327318 
137508000    275.95481    429.06706    348.50447   -6766.3778    6786.5424    80.562595     36.21025 
137512000     287.1662    385.84253    238.92985   -6806.0465    6803.6055    146.91268     36.29622 
137516000    305.55422    381.82529    397.35161   -6829.6167    6818.8912   -15.526321    36.422327 
137520000    281.21123    210.52714    377.60422   -6814.1618     6812.409   -167.07708    36.483165 
137524000    294.97497     370.4021    572.24931   -6828.9342    6823.3818   -201.84721    36.402855 
137528000    272.46797     656.3523    275.01163   -6845.1363    6860.1417    381.34067    36.429589 
137532000    252.29621     272.8577    347.14538   -6857.4942    6887.2299   -74.287678    36.338092 
137536000    278.27385    427.72764    254.15623   -6896.9474    6897.5737    173.57141    36.312568 
137540000    300.19773      243.131    384.20891   -6908.5022    6906.6254   -141.07791    36.305616 
137544000    286.76195     314.5628    400.34265   -6926.3159    6934.9388   -85.779841     36.33429 
137548000    299.38327    512.42929    410.51333   -6956.7447    6955.9891    101.91596    36.360309 
137552000    296.18636    189.17038    247.74094   -6986.8306    6992.1001   -58.570562    36.304161 
137556000    280.74015    361.67568    266.27474   -6988.5362    7006.5143    95.400935    36.330963 
137560000    293.61101    516.32179    165.14078    -6990.184    6996.0785    351.18101    36.353015 
137564000     298.4827    415.24483    426.57077   -7032.4911    7043.5873   -11.325942    36.295861 
137568000    290.79386    427.59868    353.94407   -7057.9442    7059.6973    73.654604    36.204177 
137572000    276.52074    360.44402    338.50961   -7081.6166    7085.2586    21.934406    36.144044 
137576000    279.05356    316.35607    311.23845   -7110.7942    7096.6722    5.1176124    36.129978 
137580000    255.91569    330.16562    165.28036    -7103.969    7135.7536    164.88526    36.131049 
137584000    247.73788     434.2278    225.79939   -7121.9244    7153.4523    208.42841    36.258158 
137588000    281.87147    412.23894    292.85949   -7147.3078    7163.1017    119.37945    36.182689 
137592000     265.6486    297.49736    346.05442   -7150.2563    7162.1121   -48.557053     36.20986 
137596000    274.92696    337.56259    112.77115   -7191.5656    7196.4638    224.79144    36.228651 
137600000    296.61336    404.32189    181.42776   -7204.6779    7215.4477    222.89412    36.182542 
137604000    286.64597    255.51909    286.90148   -7213.9114    7241.2012   -31.382393    36.081516 
137608000    272.59636    329.46407    308.05886   -7236.4735    7270.6642     21.40521    36.105857 
137612000     281.1369    395.92047    281.48848   -7237.9868    7258.1443    114.43199     36.08158 
137616000    277.75978     427.1267    357.24113   -7260.6016    7263.5586    69.885572    36.053243 
137620000    275.80273     317.8785    326.87632   -7279.2766    7290.2636   -8.9978202    36.057916 
137624000    273.99138    325.94175     225.4812   -7301.0314    7320.1944    100.46055    36.028017 
137628000    259.56086     311.9648    167.42368   -7310.9357    7337.0174    144.54112    36.097688 
137632000    262.78921    339.72461    383.01963    -7317.476    7342.0839    -43.29502    36.090578 
137636000    297.46625    728.43321    562.32601   -7333.0481    7335.4207     166.1072    35.979432 
137640000    286.09836    322.18929    131.53787   -7346.7142    7345.2416    190.65142     35.92202 
137644000    283.71494     321.0972    365.06152   -7370.5623    7377.8486    -43.96432    35.807538 
137648000    304.17926    394.94058    377.84096   -7381.1128    7368.8245    17.099623     35.73545 
137652000    308.98278    331.57272    349.94481   -7397.4549    7387.1737   -18.372089    35.743398 
137656000    304.88257    421.13561    307.70319   -7413.2621    7389.4949    113.43243    35.846992 
137660000    307.66271    306.32985    489.27595   -7415.5821    7406.4205    -182.9461    35.861735 
137664000    296.60869    606.50135    326.17353   -7441.6234    7425.2048    280.32782    35.871468 
137668000     255.0321    340.51735    380.51936   -7448.2872    7453.9706   -40.002005    35.777987 
137672000    294.40218    424.68823    284.53375   -7475.7608    7475.0701    140.15448    35.786974 
137676000    258.77518    246.85096       245.22   -7458.1858    7487.0692    1.6309663    35.821048 
137680000    291.94488    381.55746    437.31902   -7490.6991    7491.8978   -55.761553    35.826952 
137684000    277.21363    407.64239    256.11779    -7506.286    7507.7769     151.5246    35.920788 
137688000     294.5472    383.76236    383.10795   -7530.9406    7539.7022   0.65440562    35.895304 
137692000    296.13864    343.59419    335.51699   -7571.0068    7564.6419     8.077201     35.91696 
137696000    286.07884    228.94522     287.5709   -7576.3405     7580.444   -58.625685    35.872759 
137700000    328.93564    444.05311    250.69767   -7615.1688    7583.8409    193.35545    35.804235 
137704000    301.18882    575.65703    311.92992   -7622.7703    7614.7324    263.72711    35.849799 
137708000    293.16738    363.59219    416.48799   -7640.0837    7641.4439     -52.8958    35.889854 
137712000     304.5781    381.06856    307.70581   -7662.6553    7666.6743    73.362753    35.883628 
137716000    275.84125    246.57316    405.29603   -7684.9712    7689.4089   -158.72287    35.959912 
137720000    263.37499    201.64361    253.60351   -7696.2979    7726.2473   -51.959907    35.878747 
137724000    298.60529    344.63047    240.09124   -7721.9447    7731.8739    104.53923    35.849907 
137728000    282.27876    294.46211    321.74498   -7741.2964    7751.3302   -27.282873    35.752201 
137732000    283.31484    363.07398     162.4642   -7764.8705    7770.2794    200.60977     35.76563 
137736000    299.30469    344.07611    259.59302   -7786.0797    7797.1526    84.483086    35.839128 
137740000    282.01318    590.64343    248.70041   -7803.1635    7803.9264    341.94302    35.851209 
137744000    295.55038    332.72627    272.94073    -7837.547    7823.1208    59.785538    35.813634 
137748000    272.38114    292.15122    228.29733   -7834.1105    7841.4452     63.85389    35.935777 
137752000    316.57944    432.46292     501.4867   -7848.3352    7840.9912   -69.023785    35.909263 
137756000    301.37542    459.52139    438.50664   -7873.1817    7869.1135    21.014753    35.931016 
137760000    273.00793    319.91099     383.6617   -7915.8622    7907.4485   -63.750709    35.913564 
137764000    338.01247    540.05509    282.11366   -7960.7282    7929.8885    257.94143     35.92297 
137768000    285.05196    254.12434    183.99196   -7938.0036     7950.101    70.132372    35.843523 
137772000    266.79779    284.58136    224.54011   -7944.0297     7971.442    60.041251    35.833117 
137776000    299.08512    188.88357    322.20415   -7990.6417    7994.0902   -133.32059    35.838968 
137780000     323.0428    209.64642    415.44918   -8026.4901    8008.5397   -205.80276    35.863841 
137784000    302.10678    421.33326    428.63435   -8043.7461    8015.5735   -7.3010907    35.902589 
137788000    266.14736    362.17395     383.4562     -8040.62    8050.8464   -21.282251    35.901435 
137792000    286.47314    287.52565    408.81164   -8086.8322    8081.6975   -121.28598    35.861733 
137796000    260.69588    342.43361    410.30344   -8092.2435    8097.8191   -67.869836    35.840182 
137800000    289.25782    191.29833    436.56399   -8111.8688    8113.7804   -245.26566    35.866176 
137804000    290.88151    564.55971    329.35361    -8145.243     8127.373    235.20611    35.836788 
137808000    264.84432    249.01408    246.20489   -8139.0177     8152.463     2.809194    35.886148 
137812000    253.57323    372.32604    191.18501   -8156.8779    8172.1975    181.14103    35.863051 
137816000    251.11478    320.98698    254.59151   -8160.9202    8195.2174    66.395462    35.816291 
137820000    315.02906    377.19376    208.92698   -8200.0913    8165.5393    168.26678    35.814643 
137824000    236.95345    596.96055    280.94608   -8175.6713    8225.3651    316.01446    35.791113 
137828000    306.59841    449.37526    417.91949   -8212.1417    8228.4568    31.455766    35.816134 
137832000    300.24007    337.39414    288.61439   -8238.5258    8218.2905    48.779753    35.807622 
137836000    283.62009    346.95073    491.68049   -8217.6017     8216.476   -144.72976     35.71634 
137840000    295.86283    347.30244    398.82567   -8239.3801    8252.8052   -51.523234    35.770137 
137844000    280.20879    225.82048    357.76491   -8260.3041    8273.3319   -131.94444    35.765515 
137848000    286.44972    413.47049    469.08336    -8291.393     8283.128   -55.612866    35.799117 
137852000    289.37956    368.28207    264.68014   -8318.3615    8334.0297    103.60193    35.853428 
137856000    287.60777     342.6818    388.36305   -8348.6746     8345.165   -45.681253    35.799693 
137860000    263.47267    396.14443    302.06001   -8348.2312     8376.987    94.084419     35.68461 
137864000    260.56935    148.30644    312.10997   -8366.9856    8383.7302   -163.80352    35.646542 
137868000    276.56138    535.35509    467.19499    -8405.942    8415.1124    68.160094    35.661759 
137872000    308.95161    523.62156    328.13061   -8423.7198    8427.3525    195.49095    35.655048 
137876000    292.31943    608.92346    318.08039   -8432.4736    8452.8917    290.84306       35.712 
137880000    262.19653    387.97498    225.02386   -8469.6518    8485.1379    162.95112    35.655026 
137884000     312.2508      269.703    353.61501   -8506.0028    8495.8363   -83.912012    35.711724 
137888000    292.80634    314.06909    420.00626   -8488.3857    8493.8874   -105.93717    35.834228 
137892000    308.22434    504.73065    237.40528   -8513.2253    8510.5173    267.32537    35.916893 
137896000    291.18286    270.49382    265.12509   -8527.2366    8538.4826    5.3687297    35.973814 
137900000    253.81806    271.68386     299.6816   -8544.0943    8567.3135   -27.997743    36.003056 
137904000    288.81514    403.13026    438.89536   -8571.7511    8572.7785   -35.765097    35.980371 
137908000    305.71392      481.489    303.77865   -8599.4967    8607.2436    177.71035    35.952673 
137912000    284.62348    300.65878     434.8457   -8599.5907    8618.4755   -134.18692    35.964944 
137916000    282.65088    403.99123    312.24499   -8622.4041    8641.9655    91.746246    35.931585 
137920000    270.68184    296.46926    361.00414   -8670.9422    8665.3321   -64.534882    36.009009 
137924000    280.22943    560.71142    248.31856   -8695.0191    8706.0576    312.39286    36.085083 
137928000    292.53961    497.19146    254.66182   -8690.0169    8709.8091    242.52964    36.078268 
137932000    289.63206    419.84955     360.4587    -8701.587    8713.7659    59.390854    36.151796 
137936000    258.56876    279.79714    200.72697   -8713.5871    8733.3956    79.070169    36.208427 
137940000    306.49712    358.24991    338.25113   -8741.7582    8731.9053    19.998777    36.229177 
137944000    277.62457    262.72919    263.54378   -8727.7214    8741.3036  -0.81459852    36.239348 
137948000    279.27889    446.58876    198.39615   -8734.1888    8750.1768    248.19261    36.276157 
137952000    294.36967     407.7926    343.50013   -8763.8969    8774.4316    64.292463    36.290294 
137956000    266.17432    367.19049    313.92044    -8785.808    8796.5803    53.270048    36.282679 
137960000    261.48201    371.96321    341.26948   -8806.3969    8825.9401    30.693727    36.290394 
137964000    263.41062    247.62491    250.39137   -8815.1095    8824.5075   -2.7664636    36.265674 
137968000    284.36736    264.98533    423.95229   -8842.7206    8840.4968   -158.96696    36.252078 
137972000    306.78091    522.64685    301.65743   -8891.7048    8894.0559    220.98942    36.295397 
137976000    276.56756    259.55513    318.01482   -8940.0198    8924.4731   -58.459688    36.200429 
137980000     305.9517    203.86368    264.30203   -8956.2767    8931.7708   -60.438353    36.189976 
137984000    335.56232    372.35584    448.73936   -8976.4288    8951.0608   -76.383526    36.159349 
137988000    281.13617    250.38757    317.55755   -8976.2316    8994.2199   -67.169974    36.223983 
137992000    323.26608    514.51091    396.16535   -9020.3315    8995.1658    118.34556    36.195176 
137996000    287.35601    509.23416    197.95486   -9047.2496    9049.7358     311.2793    36.241168 
138000000    282.61124    195.66563    468.03967    -9062.592    9062.3431   -272.37404    36.221737 
138004000    270.06998    379.50167    364.37133   -9098.3871    9127.9698    15.130344    36.231338 
138008000    271.90622    499.68025    355.82544    -9142.485    9160.4792    143.85481    36.257332 
138012000     258.1242      397.676    265.64602   -9183.2318     9203.717    132.02998    36.240042 
138016000    269.21124    182.42167    234.28927   -9208.0634    9242.9073   -51.867608    36.182413 
138020000    280.40715    325.63754    382.90279   -9233.7039    9246.2782   -57.265248    36.131266 
138024000    305.33704    507.41213    200.28674   -9281.5865    9267.2048    307.12539    36.124688 
138028000    307.50778    424.59783    196.08685   -9312.1775     9281.672    228.51099    36.198597 
138032000    313.51081    608.97179      178.847   -9337.7581    9314.6486    430.12479    36.252645 
138036000    281.00281    274.72597    346.68443   -9347.8426    9344.0759   -71.958451    36.323859 
138040000    298.93283    393.05194    497.32835   -9376.4317    9355.5319   -104.27641    36.436362 
138044000    290.04169    426.01431    227.62967   -9392.2163    9389.0846    198.38464    36.359491 
138048000    260.69813     263.3635    305.14572   -9400.3248    9406.7931   -41.782228    36.312829 
138052000     253.2968       211.04    360.90979   -9416.0096    9434.8659   -149.86979    36.317666 
138056000    277.12956    341.20028     430.5972   -9432.2495    9445.8327   -89.396927    36.283136 
138060000    268.05863    362.58371    529.45953   -9447.1964    9452.5444   -166.87582    36.282749 
138064000     270.1095    397.13725    369.64455   -9457.9517    9469.7561    27.492696    36.240655 
138068000    270.88503    295.17733    339.04899   -9464.7949    9473.3611   -43.871661    36.246302 
138072000    283.13061    550.22748    307.45956   -9468.0347    9475.9849    242.76792    36.194007 
138076000    251.42914    531.87711    253.40131   -9474.6164    9502.9451     278.4758    36.152538 
138080000     304.1654    401.54901    385.26941   -9524.9611    9517.5439    16.279595     36.22323 
138084000    281.32406     549.9195    226.15098   -9571.4231    9570.7857    323.76852     36.26456 
138088000    266.46913    386.02255    496.98765   -9587.9274    9600.7205   -110.96509    36.282531 
138092000    287.10284      492.951    334.24864   -9630.2532    9622.3263    158.70236    36.322377 
138096000    279.22928    264.94996    302.18888   -9626.8607    9642.1003   -37.238921    36.271303 
138100000    288.88606     331.8701    148.87336   -9664.0464    9663.5461    182.99673    36.267142 
138104000    279.31823    301.15311     323.3275   -9697.9528    9701.6891   -22.174387     36.29465 
138108000    305.73484    376.76459    283.27615   -9737.9663    9743.0219    93.488444    36.253787 
138112000    287.35161    369.77057    267.86942   -9747.1646    9748.0719    101.90115    36.325681 
138116000     278.1871    591.25672      287.496   -9777.0197    9797.4583    303.76072    36.343597 
138120000    275.19394    389.28833    308.68867   -9787.7528    9789.1486     80.59966    36.368949 
138124000    276.52967     262.3891    345.36182   -9810.8573    9830.6554   -82.972725    36.428568 
138128000    285.38871    342.72723    354.31014   -9815.4972    9825.7896   -11.582909     36.38427 
138132000    257.27831    603.01181    358.23013   -9839.7351     9864.905    244.78168    36.390685 
138136000    290.22954    480.36731    409.29861   -9843.3412    9836.9746    71.068701    36.463444 
138140000    299.88407    417.68862     294.2638   -9877.3111    9875.4899    123.42482    36.475525 
138144000    268.91454    348.31104     410.0241   -9910.1999    9925.5904   -61.713063    36.532256 
138148000    268.28016    359.15843    299.16525   -9926.9538    9943.9844    59.993189    36.483938 
138152000    264.74443    235.35624    277.12348   -9954.3967    9957.2978   -41.767241    36.404711 
138156000    269.70127    232.81011    276.30742   -9950.4924    9981.7216   -43.497311    36.375433 
138160000     275.5649    326.60236    440.52594    -9959.222     9970.555   -113.92357    36.356141 
138164000    282.96515    372.92036    259.81494   -9998.4632    9998.5478    113.10542    36.367537 
138168000    300.63837    325.33216    356.75349    -10029.66    10030.501   -31.421323    36.376782 
138172000    277.28158    388.20541    214.85583   -10064.244     10072.92    173.34958    36.401669 
138176000    294.45135    338.53361    383.32345   -10071.424    10063.949   -44.789845     36.41576 
138180000    249.47568    306.23577    216.21067   -10066.442    10100.966    90.025094    36.398781 
138184000    263.10858     432.5463    244.70225   -10085.813     10119.84    187.84405    36.336261 
138188000    305.13081      430.741    330.63307   -10108.068    10085.326    100.10792    36.292241 
138192000    308.55606    297.36113    473.76573   -10125.568    10109.482    -176.4046    36.313856 
138196000    319.79261    474.51798    495.43567   -10148.666     10147.21    -20.91769    36.277216 
138200000    319.41769    408.97799    429.94825   -10176.111    10146.485   -20.970266    36.277073 
138204000    299.89198    384.26645    252.51318    -10205.04    10186.038    131.75327    36.211938 
138208000    282.40832    446.55037    321.82454   -10214.244    10230.471    124.72583    36.206891 
138212000    273.78427    351.50933     279.2394   -10242.643    10239.286    72.269934    36.167432 
138216000    289.05125    277.05749    354.88821   -10283.697    10269.828   -77.830717    36.270858 
138220000    310.45996    224.04545    599.00963   -10321.934    10296.405   -374.96417    36.270433 
138224000    258.15179    215.82872    375.59521   -10339.899    10353.462   -159.76649    36.253333 
138228000    274.90419    506.88614     379.7492   -10369.811    10382.904    127.13694    36.300878 
138232000    283.62341    426.52942    393.52877   -10413.909    10418.379    33.000647    36.302196 
138236000    293.89379    327.47402    211.42265   -10441.146    10446.102    116.05137    36.288652 
138240000     287.9619    436.54841    249.24933   -10456.642    10446.886    187.29908    36.246453 
138244000    293.79291    205.04679    482.44091   -10471.022    10464.092   -277.39411    36.236746 
138248000    277.59542    274.85831    218.46703   -10493.162    10505.561    56.391283    36.219701 
138252000    288.19576      224.919     306.6466   -10516.144    10515.049     -81.7276    36.197101 
138256000    283.36936    334.01291    230.52506   -10547.028    10554.933    103.48785    36.161723 
138260000    282.67481    204.68966    313.40972   -10578.471    10579.336   -108.72006    36.119659 
138264000    262.67216     428.2971    535.76165   -10581.856    10595.422   -107.46456    36.076765 
138268000    289.42537    360.37456    320.13307   -10595.854    10586.912    40.241495     36.09951 
138272000    293.36296    198.54874    319.08722   -10600.614    10604.956   -120.53848     36.11721 
138276000    281.74633    383.10446    281.43778   -10642.492    10645.668    101.66667    36.165915 
138280000    270.43873    334.60831    385.33735   -10631.893    10657.528   -50.729037    36.247106 
138284000    277.96006    306.21516    292.52515   -10672.126    10696.406    13.690013    36.225777 
138288000    286.06925    459.64863    360.52241   -10717.644    10714.778    99.126218    36.297725 
138292000    281.68877    245.25256    256.46014   -10740.252    10745.609   -11.207583    36.287084 
138296000      307.501    333.98353     442.8264   -10773.034    10770.259   -108.84287    36.279555 
138300000    258.08599    496.21485    341.08604   -10765.293    10793.183    155.12882    36.304898 
138304000    277.98562    330.95993    301.81082   -10782.945    10793.275    29.149107    36.278748 
138308000    306.10959    708.57643    523.05375   -10812.489    10795.941    185.52269    36.212997 
138312000    275.19044    355.61242    273.65312   -10832.934     10847.34    81.959302    36.293087 
138316000    292.74373    244.61105    323.49959   -10835.999    10837.231   -78.888536    36.325365 
138320000    282.01497    743.04847    298.58286   -10858.862    10862.453    444.46561    36.319088 
138324000    272.03499    369.82677    430.53983   -10858.722    10867.288   -60.713056    36.284931 
138328000    296.20589    381.76036    236.18484   -10888.215    10888.345    145.57552     36.28961 
138332000    247.74416    259.75348    227.37918   -10882.137    10895.409    32.374298    36.228724 
138336000    273.59283    357.00704    298.95897   -10930.306    10911.796    58.048076     36.26892 
138340000    318.98505    364.30648     409.1239   -10926.824    10923.502    -44.81742     36.28316 
138344000    272.86429    222.41338     421.1086   -10938.896    10948.713   -198.69523     36.20164 
138348000    293.35751    490.94259    394.47215   -10949.773    10953.303    96.470443    36.316052 
138352000    277.96501    377.78885    332.54726   -10954.086    10971.498    45.241591    36.358704 
138356000    256.92477     313.6337    344.13064   -10949.007    10976.503   -30.496943    36.442948 
138360000    270.07048    315.80748    511.44367   -10966.862    10980.627    -195.6362    36.411563 
138364000    262.64504    319.91105    176.76922   -10973.312    10994.701    143.14183    36.417074 
138368000    292.83144    476.70269    216.27247   -11000.752    11010.037    260.43022    36.409807 
138372000    267.31654    290.07606    205.50103   -11025.562    11053.197    84.575023    36.426361 
138376000    322.31225    239.82322    241.19505   -11077.724    11061.714   -1.3718383    36.443455 
138380000    277.83037    517.30856    262.98139   -11106.778    11110.884    254.32717    36.434336 
138384000    267.96753    256.00317    320.02986   -11123.072    11152.785   -64.026692    36.403825 
138388000    261.35478    430.62392    168.27202   -11156.231    11176.834    262.35189    36.399126 
138392000    272.39236    496.01884    276.11166   -11163.501    11193.912    219.90718    36.448342 
138396000    270.70888    329.85623    387.60225    -11211.42    11217.871    -57.74602    36.422942 
138400000    281.61799    581.24082    311.38851   -11244.355    11257.016    269.85231    36.419806 
138404000    283.53171    195.14651    387.19247    -11266.56    11262.283   -192.04596    36.395393 
138408000    274.91774     238.8733    342.79286    -11293.34    11302.066   -103.91957    36.450577 
138412000    285.19459    369.10904    383.95467   -11323.443    11320.482   -14.845628    36.450543 
138416000     255.6445    452.09648    286.88011   -11330.076     11353.04    165.21637    36.402007 
138420000    285.35848     334.8061    382.30843   -11364.846    11356.093   -47.502337    36.407583 
138424000    290.35779    270.20465    440.73011   -11390.543    11402.573   -170.52546    36.421857 
138428000    286.31565    386.27695    371.69711   -11422.236     11418.53    14.579841    36.452516 
138432000    277.59506    384.79914    307.51448   -11455.356    11448.369    77.284663    36.418418 
138436000    287.03526    249.93087    339.14474   -11502.327    11480.209   -89.213869    36.370435 
138440000    270.25014     328.5428    293.24189   -11505.838    11516.897    35.300905     36.34054 
138444000    291.40958    267.53964    482.27955   -11512.908    11527.654   -214.73991    36.345628 
138448000    287.76872    234.14772    265.36563   -11518.711    11530.967   -31.217905    36.372937 
138452000    308.58767    226.43434    521.24256   -11532.607    11524.046   -294.80822    36.374274 
138456000    267.61393    260.03709    294.43702   -11559.663    11569.095   -34.399927    36.380535 
138460000    287.78141    238.55485     342.4141   -11585.692    11594.889   -103.85925    36.345346 
138464000    282.03979    300.15197     348.2764   -11617.749    11633.696   -48.124434    36.327342 
138468000    295.86754    576.54406    412.49984    -11622.64    11619.868    164.04422    36.313887 
138472000    298.98971    612.23233    210.79563   -11624.347    11625.711     401.4367    36.358958 
138476000    287.42564    459.21587    360.73002   -11633.786     11645.69    98.485847    36.313984 
138480000    263.29285    276.01182    300.38822   -11658.973    11658.436   -24.376405    36.275252 
138484000    287.14069    552.93249     364.1266   -11700.096    11709.083    188.80589    36.272618 
138488000     282.6105    365.51274    296.95797   -11740.266    11725.134    68.554767    36.260432 
138492000    296.96799    414.94009    142.89736   -11760.303    11759.848    272.04274    36.224665 
138496000     283.7738     247.5436    338.73201   -11763.155    11761.495   -91.188416    36.213118 
138500000    299.47729    301.78583    388.30125   -11796.937    11785.851   -86.515421    36.206379 
138504000    273.41591     376.7682    392.14832   -11797.446    11796.471   -15.380114    36.155223 
138508000    323.86059    612.30675    402.59788    -11830.74    11809.655    209.70888    36.170501 
138512000    278.66202    377.32635     302.8691   -11843.748    11855.413    74.457249    36.195741 
138516000     288.4663    492.27735    211.56731   -11852.481    11863.248    280.71005    36.211151 
138520000    285.49644    245.74972    220.35541   -11863.205    11868.765    25.394309    36.256567 
138524000    293.71636    731.55059    348.76373   -11889.368    11887.239    382.78687    36.332626 
138528000    268.08478    479.76708     463.7295   -11905.994     11907.64    16.037586    36.356321 
138532000    291.39146    403.69536     344.9391   -11926.372    11910.407    58.756266    36.359582 
138536000     345.2901    275.62314    436.03622   -11944.667    11919.147   -160.41308    36.309112 
138540000    304.49119    192.25837    401.43413   -11938.245    11929.464   -209.17576    36.268436 
138544000    307.12361    349.61269    252.53953   -11959.783    11960.932    97.073158    36.314727 
138548000    236.88116    374.10592    276.34277    -11958.96    12002.918     97.76315    36.346279 
138552000    316.29962    512.52913    578.46462   -11992.509    11980.481   -65.935487    36.354206 
138556000    275.11537    304.53548    226.22525   -11986.543    12001.132    78.310232    36.321754 
138560000    287.74597     453.2111    276.27198   -12006.628    12017.072    176.93913    36.340374 
138564000    283.74783    238.20019    216.79307    -12003.04    12011.228    21.407114    36.399941 
138568000    256.33635    227.05211     409.3036   -12040.074    12056.301   -182.25149     36.39756 
138572000    250.63282    261.15181    307.52558   -12064.286    12083.693   -46.373773    36.442678 
138576000    302.21212    323.17299    270.70945   -12111.583    12100.451     52.46354     36.50255 
138580000    291.66438    426.13642    348.93412   -12151.228    12131.586    77.202298    36.539402 
138584000    277.79989    266.35527    377.48472   -12126.903    12125.743   -111.12945     36.54488 
138588000     259.9534    356.49628    275.60064   -12155.201    12166.276    80.895636    36.597299 
138592000    264.44007    359.92659    372.15287   -12162.859    12189.758   -12.226276    36.547963 
138596000    301.58707    297.58127    533.08477    -12192.67    12198.948    -235.5035    36.508019 
138600000    291.29703    409.93071    167.87962    -12234.12    12224.867    242.05109    36.455044 
138604000    264.34994    315.26795    211.95347   -12249.104     12252.71    103.31447    36.406239 
138608000    274.27935    466.88467    222.79656   -12250.823    12266.604    244.08811    36.430613 
138612000    272.10599    338.14481    482.14619   -12273.247    12289.657   -144.00138    36.441862 
138616000    293.87125    262.10591    360.65761   -12316.106    12320.469   -98.551701    36.464171 
138620000    287.70153    357.54399    139.20181   -12348.117    12343.662    218.34219    36.407791 
138624000    299.24639    324.55028    386.84032   -12359.337    12359.858   -62.290039    36.418114 
138628000    288.54063     231.3494    211.90172   -12387.097    12381.681    19.447683    36.421474 
138632000    305.01658    289.29984    392.16532   -12407.698    12384.434   -102.86548    36.392703 
138636000     302.1851    246.09587     386.2679   -12417.423     12402.34   -140.17204    36.448626 
138640000     244.6592    356.42309    290.73195   -12390.743    12413.865    65.691143    36.443818 
138644000    235.14273    288.39699    247.78855   -12413.747    12433.602    40.608436     36.53054 
138648000    283.87873    371.17821    369.31869   -12419.069    12440.168    1.8595221    36.516131 
138652000    295.87112    405.38226    320.88893   -12458.768     12457.72     84.49333    36.466287 
138656000    279.93225    247.42997    479.97544    -12504.36    12497.407   -232.54547     36.47245 
138660000    246.93244    285.89528    298.01062   -12506.485    12539.674   -12.115343    36.451325 
138664000    260.98724    178.29671    431.41333   -12522.888    12551.255   -253.11662    36.462448 
138668000    278.28416    454.80698     443.4638   -12542.157    12540.666    11.343184    36.493118 
138672000    271.05824    472.35829    275.07372   -12527.413    12549.766    197.28456    36.515013 
138676000    294.64426    322.61514    384.79259    -12550.16    12544.854   -62.177454    36.523769 
138680000    297.32248    480.07029     197.8886   -12575.785    12578.846    282.18169    36.561476 
138684000    305.47592    314.23044    376.68032   -12587.278    12575.078   -62.449875    36.572023 
138688000    265.61077     211.9317    391.01829   -12598.876    12618.159   -179.08659     36.55181 
138692000    279.66995    433.42671    247.11415    -12602.58    12627.443    186.31256    36.499466 
138696000    293.10963    349.60299    300.31531    -12605.34    12634.019    49.287673    36.439474 
138700000    259.51723    293.32794    216.76958   -12620.784    12640.787    76.558357    36.412085 
138704000    254.11373     143.4207    337.22554   -12612.276    12653.056   -193.80484    36.381982 
138708000      261.204    450.77865    366.48099   -12648.995    12683.426    84.297658    36.421713 
138712000    261.16397    285.04575    198.28749   -12680.934    12699.092    86.758262    36.355238 
138716000    275.57414    387.50266    398.95886   -12717.665    12738.221   -11.456193    36.388631 
138720000    282.57961    436.48049    248.74448   -12739.169    12754.036    187.73601    36.441996 
138724000    298.11895    271.33335    291.86135   -12744.881    12750.643   -20.528001    36.473221 
138728000    274.81629    420.29996    354.57821   -12766.481     12767.02    65.721752    36.528364 
138732000    304.79321    286.70711    374.31694   -12805.233    12787.138   -87.609827    36.464426 
138736000    296.26088    208.13818    430.18009   -12814.524    12803.484   -222.04191     36.45765 
138740000    266.44074    287.14317    280.56354   -12815.597    12825.184    6.5796312    36.477838 
138744000    262.83498    392.17078    246.91142   -12827.675    12837.188    145.25936    36.467758 
138748000    267.20548    548.10415    204.36678   -12840.499     12850.87    343.73737    36.464027 
138752000    295.08208    449.00718    452.29662   -12853.298    12842.156   -3.2894445    36.511244 
138756000    327.27517     331.4976    413.35771   -12861.588    12822.058   -81.860115    36.515888 
138760000    271.30385    129.75634    259.12612   -12845.438    12852.578   -129.36978    36.497178 
138764000    262.11714    400.25224    244.86483   -12851.298    12880.899    155.38741    36.603109 
138768000    296.71654    369.24939    364.17875   -12881.366    12865.672    5.0706419    36.625597 
138772000    270.72506    394.68925    226.61214   -12883.572    12898.773    168.07712    36.652427 
138776000    280.91763    600.27835    245.02961   -12893.617     12898.81    355.24874    36.653599 
138780000    264.36175    291.20221    404.30496   -12902.358    12917.755   -113.10274    36.623119 
138784000    251.12836    510.18516    304.16622   -12929.938    12933.537    206.01894    36.675209 
138788000    328.28976    463.37034    470.45235   -12980.959    12966.268   -7.0820093    36.637922 
138792000      265.916    310.31189    283.49028   -12991.166    13004.566    26.821603     36.65676 
138796000    247.90495    157.29175    339.19048   -13001.042    13031.031   -181.89873     36.61357 
138800000    291.02413    437.94219    352.48542   -13025.951    13023.827    85.456775     36.62576 
138804000    305.19034    641.39291    303.73534   -13068.389    13055.959    337.65757    36.637019 
138808000    292.72124    390.11575    320.77903   -13074.493    13077.174    69.336718    36.671343 
138812000     298.8385    527.47095    330.46724   -13107.317    13103.103     197.0037     36.63792 
138816000    268.62367    244.25927    180.80127   -13142.428    13161.627    63.457994    36.689946 
138820000    265.96586    256.99591    444.24095    -13137.18    13158.704   -187.24505    36.650594 
138824000    280.92194    493.59176    335.46724   -13157.141    13181.592    158.12451    36.646696 
138828000    247.02441    429.40189    163.90581   -13162.519     13181.42    265.49607    36.622841 
138832000    274.12026     413.8834    160.66144   -13175.393    13200.145    253.22196    36.572928 
138836000    263.58678    247.48193    314.99332   -13172.091    13203.321   -67.511392    36.539793 
138840000    289.00864    378.33619    202.60656   -13200.141    13190.957    175.72963    36.491614 
138844000    293.01204    522.85677    290.19232   -13222.034    13225.043    232.66445    36.548263 
138848000    270.82308    473.94258    604.71986    -13213.89    13242.477   -130.77728    36.516878 
138852000    312.42167    449.38034    435.39373    -13255.77    13262.629    13.986614     36.50215 
138856000    291.76174    291.41035    262.24147   -13280.598    13272.706    29.168882    36.479472 
138860000    254.37105    194.23772    355.08971   -13261.197    13300.473   -160.85199    36.458888 
138864000    269.82865    196.60957    431.15961   -13319.587    13309.238   -234.55003    36.462506 
138868000    275.56301    358.09938    349.50926   -13343.665    13344.988    8.5901183     36.52561 
138872000    317.01289    523.86409    275.49942   -13380.123    13365.078    248.36467    36.554324 
138876000     308.5821    507.05211    177.25616   -13398.944    13390.989    329.79595    36.614374 
138880000    284.60743    442.22397    261.75975   -13446.766    13437.237    180.46422    36.632926 
138884000    291.17577    378.67043    240.09552   -13453.292    13449.474    138.57492    36.614295 
138888000    280.81433    321.40693    477.81412   -13453.789    13454.942   -156.40719    36.634241 
138892000    280.41442    356.71964    239.39013   -13480.028    13494.573    117.32951    36.630766 
138896000    288.78828    279.07306    387.85399   -13513.598    13516.882   -108.78094    36.639381 
138900000    280.62992    614.48003    358.99332   -13519.797     13513.26    255.48671    36.636794 
138904000    276.82564    414.49961    272.61705   -13528.632    13538.768    141.88256    36.662533 
138908000    276.15728    196.09771     329.5461   -13539.289    13562.633   -133.44839    36.627435 
138912000    296.92831    234.42361    353.01029   -13559.476    13567.026   -118.58668    36.624392 
138916000      277.405    272.59497    282.10348   -13578.647    13591.692   -9.5085076     36.63388 
138920000    305.54262    235.06155    499.94745   -13610.028     13608.41   -264.88589    36.662617 
138924000    295.44567    510.04818    500.28506   -13664.306    13637.798    9.7631212    36.657356 
138928000    290.66557     282.6879    307.55266   -13690.659    13670.545   -24.864762    36.660857 
138932000    285.70206    438.05832    270.73429   -13690.062    13703.832    167.32403    36.669897 
138936000    280.67217     406.6809     265.2757   -13709.272     13699.64     141.4052    36.635986 
138940000    265.82152    178.31488    255.32502   -13728.687    13711.274   -77.010136    36.631233 
138944000    313.55067    424.13539    449.75941   -13753.497    13728.262   -25.624015    36.656599 
138948000    287.29864    531.90152    401.00164   -13756.954    13764.405    130.89988    36.653242 
138952000     304.8664    411.03159    447.24666   -13758.771    13754.724   -36.215075    36.654324 
138956000    279.59293    516.23774    348.22038    -13766.85    13783.688    168.01736    36.658209 
138960000    286.49583    268.63691    418.48851   -13796.352    13787.731    -149.8516    36.637286 
138964000    277.95511     527.0015    187.06928   -13831.817    13840.332    339.93222    36.622127 
138968000    294.78262    233.94869    269.85092   -13846.061    13830.983   -35.902232    36.646753 
138972000     254.6083    351.54911    275.71094   -13825.777    13854.624    75.838171    36.678254 
138976000    275.79653    536.01297    334.92564   -13867.452    13879.222    201.08733    36.663591 
138980000    282.11056    237.54535    285.06578   -13904.015    13907.278   -47.520427    36.691739 
138984000    273.76862    365.43641    419.91109   -13919.029    13942.736   -54.474676    36.689352 
138988000    292.03795     393.6092    252.25609   -13939.174    13945.169    141.35311    36.752758 
138992000    285.77182    311.56445    156.48819   -13951.949    13961.204    155.07627    36.735118 
138996000    284.37901    416.38047    445.97728   -13964.448    13968.454   -29.596809    36.667259 
139000000    295.64955    250.87884    504.06127   -13986.898    13990.445   -253.18243    36.611954 
139004000    309.49161    266.02464    351.80068   -14015.439    14022.299   -85.776036    36.535787 
139008000    313.65823    389.30698    144.88021   -14037.729    14038.506    244.42677    36.515437 
139012000    296.44064     542.7238    575.92632   -14053.417    14051.302   -33.202516    36.544355 
139016000    263.60772    321.11497    271.32039   -14083.738    14082.811    49.794583    36.541154 
139020000    277.89393    307.68417    375.88619   -14099.681    14116.965   -68.202022    36.547334 
139024000    265.46233    328.31955    345.47121   -14133.784     14147.91   -17.151657    36.566448 
139028000     284.9461     356.0327    419.01054   -14160.409    14170.649   -62.977841    36.551083 
139032000    291.53656    319.82756     272.7246   -14217.391    14208.857    47.102963     36.52644 
139036000    278.39322    567.78184    363.58231   -14202.982    14215.154    204.19952    36.498918 
139040000    307.33038    558.13397    332.82894   -14221.121    14221.555    225.30503    36.463835 
139044000    263.73938    520.02216    209.42195   -14237.577     14249.76    310.60022    36.443878 
139048000    305.97016    530.25334    491.33399   -14287.936    14278.679    38.919348     36.45906 
139052000    279.05707    178.42442    293.42334   -14286.125    14310.925   -114.99893    36.415441 
139056000    276.29749    241.50698    401.82923    -14328.83    14332.518   -160.32225    36.397997 
139060000    242.64064    303.55953      166.867   -14331.681     14358.94    136.69253    36.383231 
139064000    278.71183     386.8293    427.67025   -14349.619    14362.253   -40.840958    36.420553 
139068000    269.40462    248.89873    389.81302   -14365.021    14374.202   -140.91429    36.389348 
139072000    279.31407    519.58894      376.815   -14390.643    14382.557    142.77394    36.373967 
139076000    275.64421    272.16884    320.71604   -14387.848    14409.076   -48.547199    36.359306 
139080000     299.8973    482.22057    371.78701   -14435.552    14426.944    110.43356    36.353597 
139084000     272.5122      309.076    366.26642     -14441.7    14457.412   -57.190425    36.351036 
139088000    283.09996    312.83078    420.41006   -14455.278    14456.551   -107.57928    36.337948 
139092000    272.26763    237.38635    517.67662   -14438.882    14465.837   -280.29028    36.311983 
139096000    240.17025     371.5874    369.79636    -14446.57    14482.375     1.791031    36.294884 
139100000    261.06501    189.20617    271.37624   -14488.245    14499.348   -82.170068    36.294319 
139104000    309.70832    598.42741    221.08271   -14523.925    14529.676     377.3447    36.279414 
139108000    270.74337    427.21224    425.59967   -14518.647     14533.23    1.6125648    36.277322 
139112000    287.09558    447.00242    367.61143   -14545.795    14545.922    79.390995    36.268721 
139116000    278.48135    317.85897    492.72543   -14576.529    14606.485   -174.86646    36.235446 
139120000     285.2304    344.45826    245.29112   -14597.039    14606.344    99.167144    36.236034 
139124000    255.04419    299.08364    307.11594   -14636.113    14652.207   -8.0322929    36.197124 
139128000    277.19308    374.41865    330.15371   -14654.177    14671.043    44.264941     36.17406 
139132000    288.57476    447.48375    345.33266   -14667.248    14699.759    102.15108    36.166638 
139136000    268.65885    308.58049    354.65693   -14723.292    14732.299   -46.076432    36.198125 
139140000    283.92004    347.94071    203.87032   -14766.716    14768.817    144.07038    36.199649 
139144000    285.46197    201.45292    312.85297   -14776.906    14779.995   -111.40006    36.157031 
139148000    268.63898    257.91688    359.54184   -14779.532    14799.417   -101.62496    36.136156 
139152000    283.16071    241.09586    501.15765    -14827.76    14822.969   -260.06179    36.150631 
139156000     267.9022     247.2506    388.24268   -14830.025    14861.531   -140.99208     36.13986 
139160000    267.93077     286.5872    416.82884   -14895.089    14900.371   -130.24164    36.164388 
139164000    286.66829    403.40476    452.14503   -14891.466    14910.605   -48.740272    36.109734 
139168000    299.48637    323.40473    251.89074   -14903.749    14904.752    71.513988    36.118961 
139172000    287.02346    212.66673    366.05329   -14912.047    14929.256   -153.38656    36.094159 
139176000    262.09813    322.40839    213.53835   -14941.195    14963.372    108.87004     36.09809 
139180000    298.86944    439.46169    320.86082   -14963.665    14959.635    118.60086    36.152845 
139184000    312.82871    213.85638    374.09008   -14961.689    14948.746    -160.2337    36.124008 
139188000    296.30945     320.0362    218.81745   -14968.923    14964.297    101.21875    36.101379 
139192000    296.95416    244.74381    385.30667   -14985.604    14970.137   -140.56286     36.10037 
139196000    301.10337    252.70376       299.63    -14984.35    14996.303   -46.926236    36.113795 
139200000    279.80902    333.66511    188.46786   -15016.915     15014.76    145.19725    36.140227 
139204000    282.14974    218.55924    261.11983     -15019.2    15021.507   -42.560597    36.106154 
139208000    293.31446    325.88758    405.39812   -15036.544    15041.449   -79.510538    36.153779 
139212000    289.88191    333.58223     358.3586   -15055.671    15060.579   -24.776371    36.139185 
139216000    309.27715    344.62681    352.90371    -15077.61    15067.351   -8.2769035    36.174107 
139220000    298.79736    368.18448    246.22433   -15108.172    15097.697    121.96015    36.197813 
139224000    281.32708    312.02731    288.99897     -15118.6    15107.993    23.028335    36.239169 
139228000    274.40326    353.52873    321.00117    -15114.43    15123.078    32.527566    36.201738 
139232000    287.65637    481.42733    437.58588   -15130.875    15153.505    43.841443    36.240464 
139236000     280.4444    469.01239    312.49076   -15158.826    15167.635    156.52163    36.192068 
139240000    280.46382    359.94313    281.56868   -15190.511    15193.358    78.374449    36.161676 
139244000    267.01761    231.22632    178.96713   -15218.313    15222.314    52.259193    36.219245 
139248000    275.58256    357.00615    411.98931   -15224.396    15248.855   -54.983161    36.206842 
139252000    262.99996    305.09503    311.25651   -15250.868    15260.807   -6.1614876    36.217091 
139256000    299.05067    299.23859    326.33131   -15256.242    15253.745   -27.092714     36.20299 
139260000    310.65737    529.33427    351.95224   -15292.715    15274.229    177.38203    36.181444 
139264000    299.31875    415.19377    252.49057   -15283.262    15269.417     162.7032    36.177688 
139268000    293.65927    340.28466    575.57733   -15303.257    15306.359   -235.29267    36.117337 
139272000    290.11721    347.64861    242.22234   -15317.143    15321.268    105.42627    36.109899 
139276000    276.91515    431.98443    287.08739   -15349.129     15344.87    144.89705    36.085758 
139280000    311.96796    383.05446    337.30428   -15375.347    15355.298    45.750177    36.081765 
139284000    292.72167     290.3303    304.77668   -15376.198    15392.785   -14.446374    36.068524 
139288000    280.89335    437.58438    201.44812   -15383.249    15406.703    236.13626    36.056947 
139292000    299.85177    237.19478    459.53629   -15395.278    15387.147   -222.34151    36.036529 
139296000    287.81602    407.41669    296.62953   -15417.906    15427.437    110.78716    36.048041 
139300000    295.72288    425.61285    414.79392   -15449.362    15447.036    10.818926    36.036722 
139304000    273.57888    417.64846    326.67234   -15460.301    15461.171    90.976122    35.991461 
139308000    308.68927    281.63008    625.60593   -15487.903    15483.152   -343.97585     36.00216 
139312000    318.06986    521.64177    532.30322   -15514.843    15509.173   -10.661445    35.967607 
139316000    301.59495    476.70021    289.12585   -15547.759    15537.593    187.57436    35.983454 
139320000    276.05666    406.34298     319.3331   -15582.473    15585.908    87.009886     36.01412 
139324000    295.37925    503.74604    385.07768   -15606.461    15584.088    118.66835    35.991813 
139328000    282.26213    306.31578    427.00196    -15617.79    15617.261   -120.68617    35.978412 
139332000    291.72577    574.08013    367.79476   -15653.157    15644.854    206.28537    35.950398 
139336000    279.24915    419.78791    363.98668   -15657.323    15666.156     55.80123    35.942468 
139340000    275.50896    277.12973    451.71535   -15659.395    15679.504   -174.58563    35.967823 
139344000    274.86493    359.50373     651.2781   -15682.725    15704.472   -291.77437    35.895665 
139348000    297.58005    460.43252    282.28182   -15702.433    15716.007     178.1507      35.8225 
139352000    283.25833    235.06819      252.093   -15724.238    15720.965   -17.024809    35.870063 
139356000    297.76966     549.1127    288.71465   -15715.025    15716.875    260.39805    35.872028 
139360000    284.27827     331.7226    359.53989   -15737.245    15724.456   -27.817285    35.831243 
139364000     306.6181     438.2252    388.85178   -15765.487     15741.74    49.373414    35.838752 
139368000    304.31441    585.86553    370.92613   -15779.419    15778.951     214.9394    35.809903 
139372000    283.65243    413.96753    297.58525   -15782.976     15788.37    116.38228    35.794109 
139376000    288.83629    319.48329    166.31504   -15788.961    15792.615    153.16825    35.815188 
139380000    300.80123    650.76365    309.33986   -15802.153    15792.426    341.42378    35.836631 
139384000    277.14653    234.25702    181.45351   -15816.812    15816.638    52.803507    35.839608 
139388000    297.42594    423.49917    204.16919   -15809.715    15822.641    219.32998    35.822846 
139392000    296.21807    441.00672    232.36891   -15851.794    15847.779    208.63781    35.801646 
139396000    274.94944    266.30745    292.13224   -15860.322     15875.22   -25.824796    35.787924 
139400000    284.83472     429.3184    262.85825   -15891.329     15893.68    166.46014    35.798959 
139404000    274.31983    294.00277    310.77291   -15915.337    15935.804   -16.770138    35.781911 
139408000    277.41761    277.10323    257.58575   -15926.612    15931.044    19.517477    35.812249 
139412000    257.51228    296.46489    227.04194   -15930.276    15957.584    69.422949    35.794843 
139416000    297.04525      287.176    387.02272   -15970.568    15965.804   -99.846725    35.825401 
139420000     270.7014    341.45072    214.49091   -15976.595    16004.785    126.95981    35.847724 
139424000    255.88398    294.37646    407.04331   -15983.874    16003.263   -112.66685    35.868903 
139428000    267.52894    203.83477    350.09064   -15991.498    16008.721   -146.25587    35.835257 
139432000    258.44146    335.39059    153.00759   -16007.944    16039.659      182.383    35.830777 
139436000    261.11795    351.06721     427.8495   -16040.695    16061.862   -76.782297    35.827739 
139440000    265.96693    332.91551    378.59532   -16070.322    16083.133   -45.679817    35.794627 
139444000    305.11691    281.38191    325.40874   -16110.676     16110.05   -44.026833    35.743099 
139448000    276.98339     636.4104    256.73579   -16132.282    16138.262    379.67461    35.733124 
139452000    288.33513    494.72431    447.31777   -16154.367    16164.179    47.406541    35.734174 
139456000    255.58224    451.62391    345.35742   -16177.483    16212.229    106.26648    35.760922 
139460000    277.58516    259.56304    434.71938   -16210.997    16227.007   -175.15634    35.756467 
139464000    283.76445    353.40715    299.30182   -16232.443     16250.57    54.105338    35.745956 
139468000     272.2835    361.88752    380.79638   -16256.003     16274.66   -18.908859    35.799473 
139472000    274.36448    179.13364    265.47602   -16287.704     16287.75   -86.342384    35.798006 
139476000    316.02298    472.94776    414.32472   -16299.542    16288.752    58.623036    35.782493 
139480000    259.87794    303.09315    403.98489   -16306.729    16340.256   -100.89173    35.720256 
139484000    292.19902    329.47957    175.37119   -16351.615    16349.456    154.10839    35.712034 
139488000    271.37267    275.99508    254.41252   -16374.116    16368.106    21.582552    35.748246 
139492000    265.29776    330.41186    285.21048    -16375.16    16389.286    45.201382      35.7364 
139496000    260.18701    291.51496    312.55118    -16375.87    16409.765   -21.036215     35.73198 
139500000    284.78389    272.80997    461.68522   -16396.836    16413.573   -188.87524    35.737612 
139504000    265.87075    401.77259    270.70234   -16421.274    16440.447    131.07025     35.76976 
139508000    275.59518    383.66165    262.69014   -16448.621    16461.449    120.97151     35.74504 
139512000    328.67757    279.30082    246.56701   -16487.275    16464.659    32.733812     35.74469 
139516000    289.96504    531.09869    250.18468   -16499.356    16507.825    280.91401    35.703071 
139520000    274.58091    403.50943    282.58674   -16520.661    16539.645    120.92269    35.702406 
139524000    290.53546    422.03749    288.75276   -16559.406    16545.254    133.28472    35.674334 
139528000    337.65339    368.86333    335.97916   -16583.403      16554.7    32.884165    35.686437 
139532000    270.73642    505.80591    331.17319   -16580.245    16590.632    174.63272    35.649284 
139536000    263.16709    385.47688    288.81064   -16583.397    16601.721    96.666246    35.679668 
139540000    258.46209    315.77405    287.53921   -16586.331    16632.792    28.234843    35.700123 
139544000    290.61254    320.83861    502.36812    -16634.72    16634.282   -181.52951    35.719174 
139548000    287.29086    156.59522    166.55193    -16648.58    16659.612   -9.9567054    35.700125 
139552000    279.96472    526.91804     290.4468   -16663.466    16672.388    236.47124    35.727321 
139556000    265.93782     317.9922    430.70099   -16658.858    16685.534   -112.70878    35.736661 
139560000    273.18421     278.1182    248.05033   -16673.629    16702.552    30.067872    35.708693 
139564000      317.087    589.28945    357.05785    -16731.46    16704.641    232.23161    35.699883 
139568000     281.0554    455.88132    361.82862   -16730.606    16727.501    94.052703    35.712715 
139572000    277.03111    435.04549    207.25932    -16735.42    16731.974    227.78618    35.705007 
139576000    286.55908    387.49422    245.83778   -16741.467    16752.059    141.65644    35.664432 
139580000    277.02508    842.52711    359.29066   -16775.083    16775.166    483.23645    35.710476 
139584000    271.36108    307.07914     349.2071   -16760.594    16778.482   -42.127963    35.723496 
139588000    313.31895     556.4663    388.01239   -16806.369     16775.84    168.45391    35.711842 
139592000    290.54015    320.55906    281.38791   -16851.575     16838.59    39.171144    35.699215 
139596000     277.7631    205.00513    237.04365   -16872.073    16871.068   -32.038521    35.683121 
139600000    279.64384    339.72042    459.84666    -16883.32    16921.366   -120.12625    35.715578 
139604000    281.14555    366.57414    364.82666   -16911.921    16921.445    1.7474745    35.726181 
139608000    313.09922    297.55055    487.45404   -16949.593    16915.286   -189.90349     35.70675 
139612000    265.42229    233.90082    255.85999   -16928.255    16953.834   -21.959167    35.681486 
139616000    299.43161    366.39718    446.66431   -16967.877    16978.422   -80.267125    35.705017 
139620000    267.78432    269.15539    259.27919   -16996.775     17004.57    9.8762038    35.695556 
139624000    261.62291    201.02316    330.34488   -17017.859    17034.233   -129.32172    35.659403 
139628000    284.49982    539.48695    342.43824    -17057.26    17069.322    197.04871    35.700484 
139632000     274.9313    282.95913    375.28541   -17068.975    17095.805   -92.326278    35.705881 
139636000    273.44931    436.78701    237.95782    -17092.13    17120.131    198.82919    35.738132 
139640000    306.32346    399.00019    321.88683   -17130.529     17130.01    77.113353     35.76176 
139644000    294.58226    397.40223    354.17415   -17188.139    17156.435    43.228084    35.727184 
139648000    301.82649    544.27183    352.04203   -17203.904     17202.79     192.2298    35.683256 
139652000    296.22464    503.63185      267.075   -17219.479    17222.302    236.55685    35.711356 
139656000    309.08886    446.26627    295.12446   -17224.821    17220.443     151.1418    35.700712 
139660000    275.44343    316.30359    303.43123   -17238.276    17245.969    12.872365    35.678752 
139664000    259.73179    292.96547    280.07672   -17242.545    17274.072    12.888756    35.691577 
139668000    280.32977    246.32583    385.97983   -17288.211    17304.077     -139.654    35.685498 
139672000    266.25797    557.95149     500.4628   -17298.813    17315.402    57.488695    35.734304 
139676000     274.9236    330.39136    333.88026   -17315.702    17326.839   -3.4888966    35.716502 
139680000    294.41567    183.52811    220.78396   -17346.785     17358.98   -37.255853    35.698858 
139684000    280.66456    309.00741    278.08172   -17372.592    17371.703    30.925684     35.73343 
139688000    289.35248    256.43151    295.28246   -17392.962    17398.265   -38.850949    35.752169 
139692000    277.26952    271.21268    174.52414   -17413.838    17426.285    96.688541    35.774251 
139696000    280.65332    456.50929    241.23358    -17443.73    17457.424    215.27571    35.778279 
139700000    282.61865    447.43929    333.78165    -17484.11    17463.518    113.65764    35.760982 
139704000    293.59945    312.88916    524.23096   -17492.343    17485.583    -211.3418    35.782539 
139708000    309.19432    292.20058    356.55408   -17521.912    17520.191   -64.353504    35.781315 
139712000    264.17489    413.95916    285.79074   -17529.247    17537.582    128.16842    35.753769 
139716000    293.28934    408.10482    307.34429   -17559.296    17545.811    100.76053    35.752916 
139720000    252.52892    264.28434    265.86149   -17542.006    17571.067   -1.5771463    35.750569 
139724000     261.8752    304.53202    290.04292   -17572.866    17603.557    14.489099    35.738639 
139728000    278.99703    486.96764    266.56148    -17603.44    17602.572    220.40617    35.729186 
139732000    271.35251     227.3921    284.33438   -17600.897    17613.303   -56.942286    35.749497 
139736000    274.07668    236.04646     205.7279   -17609.328     17630.18    30.318561    35.777824 
139740000    280.74014    322.39915    270.93596   -17649.969    17638.199    51.463183     35.77139 
139744000    280.41424    233.32959    482.35154    -17664.35    17669.022   -249.02195    35.791981 
139748000    300.61906    498.85804    294.02953   -17691.608    17679.658    204.82851    35.784686 
139752000     291.4277    342.89503    347.27862   -17693.759    17694.789   -4.3835923    35.799779 
139756000    297.06027    386.52843    338.29951   -17714.775    17716.205    48.228912    35.799994 
139760000    283.78716    332.15925    312.35278    -17748.11    17738.419     19.80647    35.805569 
139764000    266.72191    326.49014    509.96133   -17753.053    17769.139   -183.47118    35.797467 
139768000    257.22701    237.17884    256.06637   -17740.182    17771.083   -18.887531    35.763824 
139772000    290.24195    635.85566    421.44853   -17783.212    17781.674    214.40712    35.771262 
139776000    249.15065     166.7452    374.18987   -17809.581    17834.131   -207.44467    35.795246 
139780000    276.24949    302.67888    356.39769   -17839.677    17850.579    -53.71881    35.795887 
139784000    290.29906      436.785    234.35544   -17889.752    17886.287    202.42955    35.809453 
139788000    245.33049    217.77883    306.42931   -17874.656     17909.49   -88.650476    35.831407 
139792000    298.99132    361.52164    329.99905   -17936.005    17920.852    31.522586    35.884818 
139796000    306.81801    254.62036    255.77989   -17952.457    17952.711   -1.1595332    35.850242 
139800000     278.6542    343.57303    334.58097    -17970.03    17967.811    8.9920581    35.844887 
139804000    295.70952    327.18783     214.7347   -18006.177    17988.108    112.45313    35.804665 
139808000    265.51765    361.32028    341.27524    -18025.49    18032.715     20.04504    35.785639 
139812000    280.79623    375.06466    388.85914   -18033.028    18048.645   -13.794478    35.771249 
139816000    243.81463    399.23303    389.02417   -18043.891     18070.94     10.20886    35.758512 
139820000    286.64941    323.88318    437.58446   -18056.077    18045.204   -113.70127     35.73241 
139824000    283.93985    416.38591    380.38595   -18090.523    18098.971    35.999963    35.743936 
139828000    270.16802    255.17227    467.95979   -18097.831    18104.382   -212.78752    35.705969 
139832000    258.33593    266.18821    276.95358   -18097.388    18122.358   -10.765368    35.709221 
139836000    269.20263     328.0074    460.58727   -18122.898    18133.144   -132.57987    35.680241 
139840000    293.85969    576.49342    236.70114   -18156.974    18169.613    339.79228    35.709682 
139844000    283.02158     417.6172    304.14605   -18219.005    18214.627    113.47115    35.692552 
139848000    280.89523    459.38354      348.438   -18229.798    18241.396    110.94554    35.688871 
139852000    279.12733    319.11931    310.83397   -18257.299    18262.883    8.2853365    35.654425 
139856000    273.39732    187.17068    226.40518   -18301.238    18312.804   -39.234504    35.631459 
139860000    280.59992    295.42716    306.64276   -18318.763      18324.3   -11.215597    35.584888 
139864000     294.2758    378.32382    299.95419   -18337.916     18357.27    78.369626    35.566259 
139868000    283.77062    298.55529    275.27248   -18382.004    18372.051    23.282809    35.561409 
139872000     281.5414    401.59676    370.79633   -18384.127    18376.741    30.800426     35.56357 
139876000    259.75321    213.47857    296.81707   -18405.148    18410.375   -83.338496    35.530576 
139880000    264.75028    426.15296    253.27773   -18403.713    18428.067    172.87523     35.56686 
139884000    316.50053    382.97547    451.54753   -18431.058    18412.341   -68.572059    35.581076 
139888000    280.68176     272.2642    302.63548   -18457.639    18464.025   -30.371279    35.552797 
139892000    282.67477    405.06999    329.36718   -18476.645    18481.026    75.702814    35.527566 
139896000    279.14707    294.31141    302.07374   -18476.202    18505.178   -7.7623331    35.538782 
139900000    270.47401    221.15456    317.40061   -18512.712    18513.299   -96.246045    35.535578 
139904000    271.13302    313.62848    254.49878   -18533.535    18539.407    59.129697    35.537761 
139908000     292.9529     331.3371    376.67851   -18562.554    18551.863    -45.34141    35.587049 
139912000    288.69271    408.96208     443.2549   -18555.882    18557.703   -34.292823    35.582246 
139916000    269.88973    328.84754    443.08662   -18565.094    18575.463   -114.23908    35.587423 
139920000    284.02478    301.40577    292.15287   -18575.316    18580.666    9.2528961    35.592643 
139924000    285.99066    351.97853    441.04066    -18587.91    18608.704   -89.062131     35.59214 
139928000    288.11058    405.38207    302.28139   -18609.291      18625.9    103.10068    35.603831 
139932000     311.1722    309.75635    360.63205   -18627.254    18627.372   -50.875698    35.606192 
139936000    294.85512    472.16943    365.94025   -18641.818    18647.361    106.22918    35.622567 
139940000    315.10602    262.46529    269.74443   -18659.798     18665.11    -7.279136    35.672253 
139944000    289.98804    229.77793    436.73029   -18678.469    18679.912   -206.95236    35.684688 
139948000    300.17441    632.26901    186.46871   -18707.981    18724.812    445.80029    35.675665 
139952000    320.53588    606.83318    436.22088   -18740.754    18722.263    170.61231    35.674296 
139956000    276.01569    127.60219    389.72817   -18750.722    18770.868   -262.12598    35.676205 
139960000    296.16711    317.80005    212.16233   -18761.498    18760.261    105.63772    35.666126 
139964000    290.38183    330.85987    333.25489   -18806.191    18807.948   -2.3950264    35.670574 
139968000    233.97603     344.5099    265.17307   -18806.314    18824.983     79.33683    35.680027 
139972000    260.68235    282.50644    444.96007   -18809.136    18828.168   -162.45363    35.676038 
139976000    269.36982    240.31169    307.39338   -18837.316    18858.019   -67.081687    35.698604 
139980000    263.18796    310.00614    420.52705   -18864.869    18882.208   -110.52091    35.736026 
139984000    274.98619    259.38048    420.74784   -18910.269    18912.965   -161.36735    35.733913 
139988000    310.34653    562.83685    311.44514   -18930.529    18932.541    251.39171     35.74048 
139992000    307.65173    306.72861    342.01077   -18960.591    18932.272   -35.282165    35.728408 
139996000    324.90084    308.07715    367.00276   -18999.456     18989.08   -58.925605    35.706837 
140000000    289.76195    469.45465    326.86033   -19006.026    19015.803    142.59432    35.732788 
140004000    280.03352    271.56628    236.92407   -19029.326    19025.879    34.642213    35.748529 
140008000    314.10143    284.70094    304.82972   -19073.588    19048.341   -20.128781    35.722094 
140012000    287.28495    366.34535    323.07187   -19057.186    19075.087    43.273485    35.713007 
140016000    315.82493    388.72045    305.23684   -19098.681     19081.36    83.483609    35.735231 
140020000    286.54259    352.17359    241.89889   -19116.967    19107.066     110.2747    35.744619 
140024000    299.73174    346.98281    488.89059   -19110.524    19094.259   -141.90778    35.756818 
140028000    270.82494    282.81722    303.53344   -19121.712    19139.784    -20.71622      35.7612 
140032000    275.82281    395.56662    427.71625   -19147.408    19155.018   -32.149635    35.708894 
140036000    317.96582    413.93333    465.10632   -19184.855     19160.35   -51.172991    35.717281 
140040000    308.86266    378.18412    315.41275   -19187.649    19170.904    62.771372    35.775186 
140044000    258.97424    373.94864    465.96108    -19187.07    19205.281    -92.01244     35.76282 
140048000    301.47537    395.40111    316.70594   -19222.341    19228.188    78.695173    35.776672 
140052000    266.56115    181.00009    362.11649   -19218.088    19251.108    -181.1164    35.796621 
140056000    246.84547    189.90102    349.05242   -19224.339    19260.324    -159.1514    35.796283 
140060000    252.61874    402.99624    287.40545   -19246.025    19265.975    115.59079    35.761739 
140064000    276.03649    345.57122    331.71865   -19277.622    19280.116    13.852569    35.788615 
140068000    279.68657    489.83284    490.85571   -19292.792    19307.624   -1.0228745    35.767474 
140072000    269.15992     487.6795    299.52883    -19319.85     19331.05    188.15067    35.706397 
140076000    289.23456    378.11792    320.11473   -19362.626    19370.668    58.003197    35.710494 
140080000    264.61384    341.40386    197.23964   -19371.994    19392.502    144.16422    35.713224 
140084000    287.39682    299.49156    550.99192   -19401.932    19402.022   -251.50036    35.700122 
140088000    265.40291    413.44099    215.54453   -19428.769    19430.248    197.89646    35.685865 
140092000    266.74335    359.08895    282.07308   -19458.396    19455.035    77.015863    35.663023 
140096000    288.24565    334.14578    279.68024   -19441.447    19455.434    54.465539    35.666883 
140100000    280.24924    461.27855    259.09791   -19482.568    19490.821    202.18064     35.69347 
140104000    310.13009    371.28468    138.87808   -19510.521    19507.724     232.4066    35.687123 
140108000    286.74446    403.62538    299.31246   -19542.998    19541.157    104.31292    35.704101 
140112000    300.62886    365.75401    363.99745   -19551.869     19552.02    1.7565568    35.712758 
140116000    260.01893    276.42069    483.82042   -19563.971    19576.761   -207.39973     35.67688 
140120000    298.54052    418.13282    375.09243   -19583.878    19580.857     43.04039    35.635468 
140124000    304.16148    189.06093      293.129   -19628.093    19617.405   -104.06806    35.619768 
140128000    286.75601    370.37993    291.23195   -19652.698    19652.389    79.147974    35.609851 
140132000     276.6966    506.03247    425.36004   -19682.542    19707.058     80.67243    35.637665 
140136000    282.36485    285.73088    210.19918   -19702.858    19709.975    75.531697    35.614574 
140140000     297.9657    595.36302    329.54753   -19729.304     19735.76    265.81549    35.616498 
140144000    281.32662    386.72635    192.67146    -19780.14    19786.999    194.05489    35.643276 
140148000    294.56544    290.54646    325.97938    -19784.94    19801.746   -35.432923    35.633209 
140152000    308.58483     333.3982    217.05339   -19809.708    19816.842    116.34481    35.666284 
140156000    269.37242    388.78172    317.08836   -19789.077    19818.426    71.693365    35.677727 
140160000    262.04272    207.12452    309.79404   -19814.223    19830.926   -102.66952    35.693334 
140164000    293.76899    294.44388    398.98767   -19839.168    19847.244   -104.54379    35.663841 
140168000     277.2227    198.13806    198.18171   -19874.674    19882.218 -0.043650201     35.65401 
140172000    272.00198    519.20908    353.42573   -19902.494    19914.216    165.78335    35.636605 
140176000    285.36809    253.07912    563.00805   -19921.333    19915.558   -309.92893    35.597862 
140180000    283.23826     272.5461    401.72889   -19922.082    19912.293   -129.18279    35.603856 
140184000    306.07602    359.49652    409.55154   -19922.365    19912.978   -50.055018    35.635187 
140188000    268.84348    276.60424    384.56457   -19938.406    19943.894   -107.96033    35.636615 
140192000    303.03873     565.4195    277.27664   -19941.671    19939.998    288.14287    35.584331 
140196000    289.40909    481.23967    234.06174   -19961.713    19959.647    247.17793    35.557446 
140200000    291.77794    317.27574    204.87962   -19965.045    19974.322    112.39612    35.584552 
140204000    283.30699    259.79623    424.97447   -19970.844    19980.747   -165.17824    35.549126 
140208000    264.62777    255.74648    280.80029   -19984.879    20001.309   -25.053816    35.520196 
140212000    272.89966    314.58429     221.6813   -20014.046    20020.245    92.902987    35.480953 
140216000    284.50542    346.87273    262.92274   -20046.004    20046.384     83.94999    35.478122 
140220000    309.44121    385.12462    434.63412   -20059.183    20065.096   -49.509506    35.459477 
140224000    255.05484    248.14675    299.33664   -20058.489    20095.405   -51.189891    35.455493 
140228000    275.22148    265.20471    273.73641   -20110.273    20123.864   -8.5316992    35.458637 
140232000    287.00272    525.68362    290.72784    -20130.16    20144.217    234.95578    35.496511 
140236000    281.08526    258.69665    362.16935   -20162.237    20146.105    -103.4727     35.49373 
140240000    284.95785    483.45303     481.1127   -20176.095    20175.316    2.3403324    35.520386 
140244000     288.0121    539.96203    446.71731   -20210.722    20203.563    93.244715    35.508971 
140248000    288.93516    170.34657    466.92637   -20230.474    20232.019    -296.5798    35.504227 
140252000     267.0108    347.12662    375.66232    -20229.01    20239.017   -28.535702    35.504515 
140256000    281.53091    395.44102    332.43545   -20242.947    20257.693    63.005571    35.572209 
140260000    273.98598    317.80812    359.51813   -20248.379    20258.582   -41.710011     35.58906 
140264000    307.93923    487.13532      390.831   -20283.225    20283.371    96.304318    35.600419 
140268000    281.31071    285.90748    213.74974   -20310.575     20312.58    72.157738    35.661308 
140272000    280.54117    297.74224    328.21054   -20345.633    20355.561   -30.468297    35.664552 
140276000    293.54002    254.54992    567.95043   -20367.482    20372.848   -313.40051    35.657646 
140280000    278.29808    259.28851    163.62652   -20405.043    20416.683    95.661987    35.634561 
140284000    287.66306    253.15331    383.45602   -20453.769    20446.145   -130.30271    35.619146 
140288000    275.37592    459.74849     344.3927   -20459.394     20474.14    115.35579    35.645607 
140292000    264.47646    347.96958    301.00372   -20480.561    20495.027     46.96586    35.631746 
140296000    256.50655    321.75262    289.15676   -20486.183    20514.811    32.595862    35.617938 
140300000    274.36778    362.68893    349.50752   -20536.399    20516.609    13.181411    35.605767 
140304000    279.02349    508.98477    331.46276   -20520.805     20541.56    177.52201    35.604639 
140308000    276.91345    408.79163    179.44561   -20512.252    20543.056    229.34602    35.655057 
140312000    279.46701    236.92646    138.13723   -20542.096    20554.163    98.789226    35.678869 
140316000    274.66871    355.76228    250.25513   -20558.836    20561.495    105.50715    35.685483 
140320000     260.5298    247.25808    380.05092   -20559.606     20579.84   -132.79284    35.679822 
140324000    301.86043    339.48911    416.92193   -20574.971    20577.338   -77.432814    35.673581 
140328000    311.73174    285.28876    325.07721   -20598.649     20592.44   -39.788446    35.676282 
140332000    303.78584     384.1594    149.75673    -20638.53    20628.268    234.40267    35.670915 
140336000    287.58548    297.94567    573.98079   -20643.627    20631.971   -276.03512    35.672384 
140340000    264.49638     432.9798    228.84146    -20630.25    20646.801    204.13833    35.676771 
140344000    267.93125    312.36468    252.58537   -20646.393    20665.528    59.779316    35.683721 
140348000    304.21115    445.10624    234.66982     -20672.6     20668.32    210.43642    35.706405 
140352000    294.31514    582.44122    382.29809   -20675.578    20671.717    200.14313    35.735771 
140356000    265.00165    206.45655    356.72473   -20694.648    20719.985   -150.26817     35.73228 
140360000      296.642    388.16458    301.64403   -20738.137    20722.763    86.520543    35.764822 
140364000    288.95599    378.50713    196.30336   -20763.091    20747.959    182.20377    35.782104 
140368000    299.09405    504.41257    443.93744   -20773.587    20777.062    60.475129    35.770361 
140372000     327.8716    458.68977     277.0198   -20804.032    20789.762    181.66997    35.726881 
140376000    287.55805     518.8103    471.22363   -20795.063    20791.161    47.586678    35.731957 
140380000    277.46793    189.31034    479.45586   -20801.483    20808.953   -290.14552    35.693603 
140384000    282.54488    388.96262     517.0265   -20813.032    20823.994   -128.06388    35.663733 
140388000    285.38208    259.16617    431.66324   -20824.899     20834.45   -172.49707    35.664281 
140392000    297.70904    620.85744    167.72071    -20846.74    20835.221    453.13672     35.67715 
140396000    276.48506     314.3083    576.28474   -20853.193     20871.48   -261.97644    35.689111 
140400000    293.59527    117.78419    290.16631   -20893.406    20894.679   -172.38212    35.678512 
140404000    269.41831    215.52644    459.64677   -20914.742    20904.596   -244.12033    35.700841 
140408000    274.44973     425.2912    277.50736   -20890.119    20920.285    147.78384    35.712156 
140412000    274.69928    403.12829    449.53678   -20922.938     20922.89   -46.408484    35.731134 
140416000    274.19146    397.57204     362.6761   -20938.178    20958.569    34.895936     35.75169 
140420000    258.40752    261.35921    228.84561   -20929.751    20974.121    32.513594    35.760707 
140424000    292.40822    215.03724    355.46401   -20989.189    20985.489   -140.42677    35.783863 
140428000    261.55698    281.97868    296.22404   -20996.718    21016.978   -14.245359    35.751859 
140432000    264.59804    244.36556    330.91102    -21007.76    21030.836   -86.545465    35.763671 
140436000     300.5522      178.612    341.95841   -21019.987     21033.32   -163.34641    35.779294 
140440000    283.48465    358.29151    349.44823   -21051.545    21056.258    8.8432756    35.770817 
140444000    279.88756    244.33831    262.93086   -21083.398     21086.97   -18.592555    35.752334 
140448000    268.15215    447.67998    341.64123   -21086.149    21114.652    106.03875    35.806641 
140452000    267.62734    282.92809    335.85769   -21113.854    21122.971   -52.929603    35.770933 
140456000    285.61165    440.37521    307.95488   -21137.386    21139.076    132.42033    35.761563 
140460000    296.78006    369.71608    295.11915   -21154.898    21162.721    74.596924    35.755944 
140464000    289.54922    244.97242    300.07681   -21163.666    21162.308   -55.104391    35.685227 
140468000    288.07849    313.71508    224.86722   -21171.644    21168.418    88.847856     35.70111 
140472000    291.76848    311.87058    310.08116   -21176.778    21199.185     1.789423    35.668635 
140476000    290.26984    293.96441     232.0162   -21204.693    21206.925    61.948211    35.659907 
140480000    288.92289    498.08853    309.62005   -21217.875    21230.711    188.46848    35.679053 
140484000    266.44344    322.87411    405.72944   -21237.941    21249.908   -82.855329    35.675961 
140488000    285.38116    383.56076    469.50509   -21281.496    21275.097   -85.944329    35.657057 
140492000    300.29142     348.3647    474.38884   -21291.816     21300.32   -126.02413     35.64841 
140496000    307.18576    701.99189    360.52874   -21329.999    21324.899    341.46315    35.648684 
140500000     262.3252    229.39857    202.54387   -21358.222    21373.218     26.85471    35.635935 
140504000    277.01858    469.75809    180.20635   -21382.673    21394.318    289.55174    35.642101 
140508000    296.19447    359.00288    304.17715   -21408.859     21397.37    54.825731    35.663952 
140512000    292.39497    286.36927    232.39112   -21430.696     21426.48    53.978142    35.655888 
140516000    272.41561    350.88043     254.6634   -21456.059    21453.311    96.217026    35.643442 
140520000    275.03238     382.7253    307.18664     -21469.3    21484.344     75.53866    35.678311 
140524000    267.71962    538.49914    226.96438   -21469.525    21497.076    311.53476    35.725194 
140528000     280.7819    276.41275    206.41948   -21502.632    21508.268    69.993271    35.727187 
140532000    297.44039    379.87741    342.42413   -21514.558    21542.188    37.453283    35.746158 
140536000     260.8883    297.42997    229.19948   -21561.857    21562.793    68.230482    35.736134 
140540000    288.24534    362.20118    416.64789   -21586.527    21589.935   -54.446706    35.770581 
140544000    298.68866    473.11514     259.7205   -21594.533    21589.393    213.39464    35.772277 
140548000    290.88546    688.50013    252.49907   -21615.389    21619.351    436.00106    35.771466 
140552000    291.75869    505.66994    478.97155   -21633.588    21634.671     26.69839    35.795946 
140556000    312.91607    348.70241    510.76939   -21660.019    21644.301   -162.06699    35.793429 
140560000     269.3386    269.46828    344.73423   -21678.288    21707.369   -75.265955    35.768678 
140564000    309.33627    400.99567    257.36267   -21724.488    21715.075      143.633     35.76861 
140568000    306.38889     306.9788    261.22263   -21734.353    21736.225    45.756172    35.761426 
140572000    298.99894    278.09178    223.89753   -21760.333    21763.496    54.194243    35.783435 
140576000    292.51914    279.73424    376.49431   -21767.234    21767.146   -96.760066    35.817427 
140580000    309.97455    256.69629    451.07463   -21794.698    21777.924   -194.37834    35.818724 
140584000    279.44349    345.39167    390.29329   -21806.575    21804.763   -44.901621    35.806717 
140588000    261.65544    557.38621    257.03028   -21808.039    21836.145    300.35593    35.799183 
140592000     307.5864    379.05673     305.7495   -21835.256     21838.34    73.307234    35.803713 
140596000    271.18853    340.11703    246.61761   -21848.679    21877.495    93.499418    35.810909 
140600000    284.80968    383.92315    203.98774   -21882.783    21900.474    179.93541    35.818723 
140604000    272.50883    321.52758     274.4666   -21893.221    21915.679    47.060985    35.838513 
140608000    278.18365    262.43446    320.85977   -21926.898    21926.747   -58.425307    35.825763 
140612000    315.26803    502.82329    404.24824   -21945.135    21929.216    98.575048    35.836381 
140616000    291.35395    459.35689    382.40044    -21953.03    21959.984    76.956449    35.853482 
140620000    293.10727    426.18165    398.35817   -22001.683    21973.654    27.823483    35.845711 
140624000    272.32229    451.52605    312.81805   -22016.225    22016.469      138.708    35.865099 
140628000    284.60201    405.66133    250.50549   -22054.632    22045.823    155.15584    35.868699 
140632000    277.58322    312.33298    292.55146   -22068.235    22073.572    19.781528    35.890418 
140636000    268.51601    308.36237    271.12473   -22109.932    22100.838    37.237643    35.900484 
140640000     274.9353    379.56073    235.97128   -22120.042    22139.228    143.58944    35.913627 
140644000    271.47958    550.21667    212.47263   -22123.375    22151.166    337.74404    35.927049 
140648000    280.72242    226.85244    261.22137   -22151.046    22165.291   -34.368924    35.927444 
140652000    273.12941    316.92312    304.47989   -22168.669    22185.206    12.443222    35.879449 
140656000    271.89685    257.28313    356.95406   -22182.653    22189.154   -99.670931    35.909403 
140660000    265.60829    310.94698    440.77484   -22203.003    22219.756   -129.82786    35.916844 
140664000    295.72612     377.1982    346.52507   -22238.942    22231.541    30.673124     35.92967 
140668000    279.79768    513.43883    386.31691   -22234.021    22258.811    127.12192    35.895552 
140672000    279.86039     324.9648    295.60037   -22241.972    22264.339    29.364428    35.918772 
140676000    261.07902    446.94398    265.93583   -22263.407    22297.622    181.00815    35.903116 
140680000    300.19578    446.12086    401.20672    -22295.75    22293.112    44.914146     35.87974 
140684000    291.73521    562.13883    266.12771   -22314.321    22325.113    296.01113    35.890931 
140688000    259.37546    327.92244    162.05092   -22334.957    22378.699    165.87152    35.914722 
140692000    273.42279     294.4237    268.15855   -22374.146    22388.875    26.265144    35.918968 
140696000    273.23163    504.64913    356.02015   -22370.236    22390.502    148.62898    35.916372 
140700000    278.38597    228.00862    232.55777   -22400.252    22419.315   -4.5491494    35.904332 
140704000    275.35861    225.15793    282.54058   -22428.766    22456.044   -57.382642    35.888447 
140708000    270.34463    280.81372     441.9442   -22460.975    22483.555   -161.13048    35.902805 
140712000    284.15951    508.51418    350.23142   -22483.953    22508.209    158.28276    35.908817 
140716000     261.5665    373.14354    326.63565    -22496.67    22502.696    46.507891    35.892183 
140720000     245.8381    254.21504    516.91579   -22500.168    22529.132   -262.70075    35.884595 
140724000    286.76301    350.94911    296.80857   -22526.017     22535.25    54.140541    35.858025 
140728000      283.814    334.98573     371.6074   -22535.557    22547.672   -36.621671    35.839299 
140732000    285.77383    630.09571    284.33152   -22553.774     22566.49    345.76418    35.862796 
140736000     285.4647    355.17508    292.88233   -22584.774    22580.888    62.292753    35.888319 
140740000    282.33942    369.08357    477.16607   -22602.573    22601.031    -108.0825    35.865683 
140744000    276.69696    445.66009    367.90824   -22619.113    22627.656     77.75185    35.857752 
140748000     239.1178    327.63632    218.77381   -22585.268    22618.515    108.86251    35.858599 
140752000    289.39311    376.01071    559.14795   -22582.033    22597.254   -183.13725    35.841068 
140756000     304.7625    378.95485    325.02922   -22612.779    22605.846    53.925633     35.85372 
140760000    299.00153    504.71734    329.01677   -22639.421    22632.996    175.70058    35.856992 
140764000    297.76748    317.73291    285.39999   -22651.171    22651.106    32.332918    35.847484 
140768000    284.67371    506.22591    192.51539    -22679.45    22677.252    313.71052    35.851021 
140772000    273.18801    256.28215    375.20099   -22688.476     22701.95   -118.91883    35.845021 
140776000    286.60784    529.60228     296.5591   -22720.327    22707.274    233.04318     35.85171 
140780000     289.5652    276.66623    282.09122   -22741.904    22745.001   -5.4249963    35.836564 
140784000    277.74429    362.43219    352.29862    -22737.97    22740.357    10.133571    35.832237 
140788000    250.70519    288.40946    338.20149   -22741.978    22764.162   -49.792032    35.832538 
140792000    266.61535    434.27957    383.46345   -22756.368    22783.012     50.81612    35.818052 
140796000    282.91293     314.4348    273.28688   -22778.017    22775.855    41.147912    35.854436 
140800000    272.97846    260.20972    226.61313   -22797.142    22824.565     33.59659    35.833102 
140804000    253.00412     282.4481    414.64029   -22771.982    22818.687   -132.19219    35.819491 
140808000    277.75971    312.50495    512.94978   -22807.459    22822.049   -200.44482    35.831885 
140812000    285.35731    342.99065    212.22052    -22830.36    22846.173    130.77012    35.813906 
140816000    267.59553    206.64461    312.60376   -22837.889    22861.543   -105.95916    35.812688 
140820000    261.33938    167.31813    219.59246   -22855.749    22886.364   -52.274332    35.802311 
140824000    269.99006    379.66307    227.67826   -22876.099    22901.997    151.98481    35.790016 
140828000    267.85629    507.06462    273.42892   -22884.653    22902.449     233.6357    35.840617 
140832000    261.07221    285.51463    310.84874   -22904.723    22922.947   -25.334111    35.846422 
140836000    291.25121    578.50904    407.52935   -22919.654    22929.581    170.97969    35.848959 
140840000    268.63565    332.87983    644.20084   -22947.101    22955.274   -311.32101    35.853375 
140844000    287.34032    560.15342    351.65242   -22967.373    22983.873    208.50099    35.846262 
140848000    293.63211    283.89591    508.84014   -22990.222    22986.917   -224.94424    35.803117 
140852000    261.06564    219.89879    267.24691   -23003.383     23034.09   -47.348119    35.809786 
140856000    281.26352     331.7357    426.96972    -23030.21     23060.31   -95.234018    35.821937 
140860000     239.4706    214.33828    249.89248   -23057.242    23097.543   -35.554197    35.829796 
140864000    286.23596    353.40157    249.85887   -23101.355    23107.303     103.5427    35.838576 
140868000     272.6083     335.9896    210.73414    -23095.29    23118.135    125.25545    35.866707 
140872000    271.79947    437.48029    369.64374   -23109.515    23116.663    67.836552    35.875489 
140876000    292.00341    288.81025    227.85551   -23132.753      23137.1    60.954747    35.873489 
140880000    319.04229    340.16323    401.31093    -23184.69    23161.968   -61.147703    35.878444 
140884000    284.69556    457.02545     243.2409   -23220.144    23194.392    213.78455    35.875953 
140888000    277.78159    454.00467    304.69769   -23224.434    23220.779    149.30699    35.883967 
140892000    277.76664    288.68421    202.16824   -23255.068    23259.045    86.515979    35.935596 
140896000    311.64031    286.87731    230.54674   -23290.585    23286.963    56.330567    35.928939 
140900000    289.80165    238.08646    389.93893   -23294.715    23301.637   -151.85247    35.911947 
140904000    274.03712    452.96801    306.50642   -23299.616    23308.649    146.46159     35.91094 
140908000    264.21546    217.04681    351.44228    -23290.05    23331.407   -134.39547     35.92021 
140912000    293.78173     387.6956    322.36714   -23326.574    23333.891    65.328456    35.919599 
140916000    316.14442    354.57368    415.88152   -23360.164     23347.73   -61.307843     35.94497 
140920000    283.54229      742.511    255.21966   -23386.001     23390.76    487.29134    35.961992 
140924000    257.18432    420.90521    204.95269   -23394.899    23413.329    215.95251    35.986759 
140928000    280.65546    357.83736    332.00253   -23412.864    23414.485    25.834829    35.971865 
140932000    270.57352    482.73217    446.65722   -23428.355    23433.073    36.074951    36.012044 
140936000    281.24214    327.83012    225.56952   -23466.354    23477.681     102.2606    36.026818 
140940000    294.81072    345.84036    244.66872   -23484.797    23483.748    101.17164    36.018649 
140944000    292.20521     358.1741    554.42292   -23523.808    23536.121   -196.24883    36.061897 
140948000    263.37095    388.67403    305.16593   -23528.898    23544.058    83.508104    36.055016 
140952000    235.40511    252.94983    210.64818   -23523.507    23562.595    42.301649    36.059041 
140956000    282.98904    322.26022    259.12036    -23557.51    23570.377    63.139863    36.043205 
140960000    287.20599    316.78756    298.99746    -23569.94     23571.25    17.790098    36.025273 
140964000    262.17644     454.8164    182.91314   -23568.989    23598.432    271.90326    36.037096 
140968000    290.16564    592.06299      296.084   -23569.454    23587.497    295.97898    36.030812 
140972000    257.31526     249.3904    308.17625   -23590.382     23596.03   -58.785851    36.033113 
140976000    292.77616    318.53883    368.15287   -23616.244    23629.713    -49.61404    36.014199 
140980000    261.16317    412.42583     315.5929   -23624.859    23651.236    96.832932    36.001069 
140984000    250.17112    221.33643    375.68733   -23648.737      23669.4    -154.3509    36.027787 
140988000    316.37656    356.66606    277.93975   -23697.391    23697.327    78.726313    36.032283 
140992000    295.90489    348.30381    255.17097   -23738.894    23742.545    93.132848    36.031712 
140996000    304.11575    238.22214    253.25129    -23774.99    23768.886    -15.02915    36.016981 
141000000    298.96796     297.9239    484.07898   -23804.996    23804.314   -186.15508    36.009207 
141004000    267.56171    298.40708    391.11233   -23839.049    23854.776   -92.705247    36.019064 
141008000    321.28787    499.68859    468.34918   -23857.325    23835.324    31.339411    36.018908 
141012000    280.54637    358.26784    508.63598   -23854.171    23862.501   -150.36815    35.994716 
141016000    236.06071    300.49432    321.50802   -23846.073    23896.917   -21.013697     35.97489 
141020000    287.52147     348.2446    290.39729    -23907.98    23922.728    57.847308    35.945434 
141024000    279.29355    339.97041    386.09461   -23914.809    23927.173   -46.124208    35.913331 
141028000    273.65695    321.46653    336.94791   -23925.951    23938.014   -15.481378    35.879934 
141032000    304.79952     390.4517    358.02461   -23962.616    23944.565     32.42709    35.869279 
141036000    277.57591    424.17059    324.27031   -23982.457    23970.634    99.900284    35.843872 
141040000    269.22381    366.24256    292.63604   -23997.013    24020.076    73.606518    35.851317 
141044000    266.09832    515.51974    390.97725    -24018.24    24051.896    124.54248    35.850432 
141048000    291.06987    278.78764    304.11078   -24026.259    24046.556    -25.32314    35.867711 
141052000    283.99861    417.42961    257.20393   -24043.606    24052.224    160.22568    35.854519 
141056000    261.66524    237.32456     359.5749   -24072.657    24099.436   -122.25034    35.838605 
141060000    302.79344    311.63389    356.89505   -24104.135     24100.15   -45.261159    35.822476 
141064000    280.69596    366.21401    323.41392    -24129.08    24119.179    42.800091    35.825356 
141068000     287.1698     492.7088    319.97744   -24174.584    24174.455    172.73137    35.852211 
141072000    266.98028    420.62963    283.35473   -24176.397    24209.669     137.2749    35.856362 
141076000    265.39552     428.9282    378.68853   -24212.449    24237.028    50.239676    35.827721 
141080000    260.12676    346.92339    346.54364    -24240.74    24261.403   0.37974593    35.820486 
141084000    278.55828    307.70201    445.04399   -24238.482    24275.509   -137.34198     35.82844 
141088000    280.53562    512.23429    306.18019   -24279.929    24294.217    206.05409    35.825041 
141092000    271.66537    341.73706    202.94759   -24320.199    24324.643    138.78947      35.8045 
141096000    285.23807    167.70371    236.39838   -24313.681    24315.377   -68.694665    35.777748 
141100000    284.13503    324.91473    237.71456       -24348    24350.437    87.200169    35.799513 
141104000    281.25712    398.33827     180.0485   -24372.367    24374.676    218.28977    35.826548 
141108000    290.18965    395.91182    239.34171   -24377.763    24382.999    156.57011    35.841289 
141112000    279.98268    591.16298    259.04577    -24391.85    24382.246    332.11721    35.868757 
141116000    286.23245    216.47522    334.88895   -24412.489    24401.241   -118.41373    35.873593 
141120000     269.0198    269.31526     274.1947   -24416.251    24439.725   -4.8794391    35.925823 
141124000    287.96951    357.22742    602.84372   -24439.286    24456.966    -245.6163      35.9174 
141128000    297.02493    476.02772    448.89769   -24454.047     24456.99    27.130031    35.903644 
141132000    289.56958    224.46046    253.62504   -24477.745    24475.787    -29.16458      35.9296 
141136000     300.1077    240.72585    368.89394   -24483.578    24493.075   -128.16809     35.91163 
141140000    301.79383    452.03266    457.97176   -24511.523    24490.622   -5.9390948      35.8813 
141144000    309.24494    431.41414    287.87102   -24539.073     24537.74    143.54312    35.897464 
141148000    296.75042    597.95089    260.22912   -24579.667    24585.153    337.72177    35.887232 
141152000     298.7785    357.66503    219.73478   -24573.434    24570.489    137.93025    35.893109 
141156000    266.27558    229.42722    358.45612   -24560.189    24578.842   -129.02891    35.907473 
141160000    271.44663    220.78797    368.90856    -24585.35      24597.8   -148.12059    35.925779 
141164000    290.07701    348.39862    343.55219   -24626.753    24644.162     4.846434    35.938264 
141168000    303.66829    358.86123     270.1073   -24667.372    24663.164    88.753931    35.938153 
141172000    279.19286    355.19856    403.46833   -24673.469    24698.611   -48.269766    35.944706 
141176000    284.44966    231.27473    226.24691   -24705.991    24706.045    5.0278153    35.904245 
141180000    288.88478    340.35193    259.61864   -24718.208     24721.08    80.733297     35.90731 
141184000     299.1759    250.39283      220.603   -24763.747    24743.162    29.789834      35.9079 
141188000    282.88143    329.61241     519.2667   -24778.504    24790.739    -189.6543    35.894781 
141192000     262.8559    368.01635    367.98319   -24808.731    24820.402  0.033155249    35.880947 
141196000    284.43815    196.37787    290.73031   -24833.401    24848.213   -94.352444    35.880013 
141200000    283.45771    266.12696    165.74524   -24854.342    24875.567    100.38171    35.895235 
141204000    248.28304    436.73756    325.78388   -24868.263    24905.757    110.95368    35.910167 
141208000    292.49016    443.65115    350.35538   -24917.658    24924.362    93.295771    35.934729 
141212000    294.18056    254.16242     338.0535    -24935.16    24926.969    -83.89108    35.946074 
141216000    289.54326     349.6545    439.31637   -24945.917    24959.312   -89.661867    35.951471 
141220000    301.31326    305.90739    238.84529   -24988.752    24980.251    67.062096    35.938566 
141224000    285.68844     346.9602    207.11115   -25021.377    24996.346    139.84905    35.942294 
141228000    273.49449    240.43969    362.54885   -24990.746    25019.446   -122.10915    35.926558 
141232000     248.0175    309.45844    308.08999   -25000.087    25040.445    1.3684573    35.929983 
141236000    275.83029    366.19301    362.70454   -25044.938    25056.708    3.4884678    35.902643 
141240000    272.75219    268.01193    312.11129   -25031.348    25049.712   -44.099365    35.889691 
141244000    275.67188    259.28088    268.32687   -25072.084     25086.19   -9.0459822    35.883265 
141248000    273.90557    233.78967    219.58669   -25098.679    25099.548    14.202977    35.857109 
141252000    297.34141    219.22803    510.54575   -25125.675    25116.565   -291.31772    35.818129 
141256000    272.28135    231.22384     345.6042    -25133.87    25140.403   -114.38036    35.841069 
141260000    291.80135    347.82386    439.28971    -25170.32    25170.191   -91.465857    35.836023 
141264000    285.75959    256.06893    356.29031   -25197.516    25192.419   -100.22138    35.848118 
141268000    282.76233    333.94861    365.64599   -25193.254    25200.863   -31.697382    35.842015 
141272000    315.54298    299.23075    472.57586   -25203.002     25198.41   -173.34511     35.83908 
141276000    297.29095    330.07521     507.3183   -25206.879    25212.899   -177.24309    35.811363 
141280000    287.15366    300.84207    239.44001   -25241.857    25241.806    61.402055    35.830489 
141284000    295.11014    324.79085    358.12835    -25266.07    25266.364   -33.337499    35.844124 
141288000    260.95168    286.10022    404.29253   -25254.632    25283.783    -118.1923    35.827668 
141292000    260.61671    387.80814    352.06095   -25285.907    25306.741    35.747195    35.820456 
141296000    273.25676    440.83955    221.24531   -25320.639    25342.495    219.59424    35.851091 
141300000    264.21362    317.67174    292.91932   -25346.858      25370.6    24.752423    35.883135 
141304000    279.47301    382.39601    336.06356   -25370.551    25403.507    46.332456    35.896652 
141308000     259.6472     390.8486    285.70887   -25400.574    25435.497    105.13973    35.882502 
141312000    261.59394    288.04783    309.91139   -25441.907    25463.816   -21.863564    35.875451 
141316000    268.45249    213.64839    291.70528   -25453.687    25451.649   -78.056887    35.852362 
141320000    287.50396    334.25338     191.5597   -25460.536    25459.415    142.69368    35.873316 
141324000    325.71366    264.32055    409.51465   -25466.985    25454.848    -145.1941    35.872913 
141328000    283.30771    193.10583    292.67967   -25474.863    25465.491   -99.573845    35.877007 
141332000    262.32175     242.1411    335.10303   -25475.855    25488.757   -92.961927    35.867252 
141336000    293.75748    269.86739    485.60273   -25496.023    25511.543   -215.73534    35.860857 
141340000    288.40267    397.82197    306.25677   -25512.475    25515.284    91.565199    35.891671 
141344000    279.02795    390.18853     311.8311   -25512.927    25527.131    78.357433     35.91469 
141348000    300.96243    369.18387    261.56952   -25532.696    25511.812    107.61435    35.922049 
141352000    270.89059    418.77375    456.93634   -25538.662    25531.603   -38.162592    35.929791 
141356000    265.57863    339.35986    235.10503   -25532.321    25561.356    104.25483    35.928438 
141360000    282.84427    319.94624    242.91337   -25555.823    25565.478    77.032872    35.933597 
141364000    296.99057    562.06553    183.92144    -25575.26    25574.582    378.14409    35.939285 
141368000      311.639    382.19628    417.10249    -25598.45    25596.965   -34.906211    35.952843 
141372000    331.27199    855.76773    295.35883   -25644.051    25630.339     560.4089    35.934642 
141376000    297.95077    555.19526    208.08812   -25646.749    25658.042    347.10713    35.961324 
141380000    255.36864    196.21586    299.10545   -25651.985    25667.963   -102.88958    35.962474 
141384000    270.96335    323.23986    362.39499   -25672.883    25656.815    -39.15513    35.927762 
141388000    278.09154    460.36194     201.8111   -25682.683    25688.997    258.55084    35.949991 
141392000    278.21036    373.56794    194.98366   -25692.055    25717.933    178.58428    35.936137 
141396000    293.05871    314.26333    514.88152   -25733.402     25725.46   -200.61819    35.947369 
141400000    291.96943    193.23898    392.57924   -25744.813    25746.105   -199.34026    35.947317 
141404000     255.8658    407.70027    282.71265   -25759.853     25795.34    124.98763    35.940586 
141408000     281.3983     259.8296    210.75611    -25792.68    25793.601    49.073486    35.982703 
141412000    281.60612     460.6366    339.56485   -25776.621    25793.752    121.07175    36.007778 
141416000    294.20917     284.0667    212.10171   -25786.884    25796.114    71.964989    35.987661 
141420000    282.93508    535.66392    324.84336   -25819.281    25828.844    210.82057    35.998545 
141424000    292.80832    540.93579    375.32287   -25830.577    25834.587    165.61292    36.023939 
141428000    287.50756     565.4264    320.44058   -25866.721    25868.071    244.98582    36.025536 
141432000    279.89233     466.0173    384.95432   -25872.317    25890.129     81.06298    36.026637 
141436000     318.1289    514.09164    442.52656   -25895.481    25884.533    71.565075    36.035821 
141440000    272.18107    352.96948     211.8951   -25907.128    25931.135    141.07438    36.017709 
141444000    273.57806    256.51945    222.53528   -25916.502    25950.469    33.984169    36.029271 
141448000    303.84752    620.35215    463.58207   -25941.239    25925.563    156.77007    36.030949 
141452000    289.09753    331.29773    567.83394   -25975.198    25969.695   -236.53621    36.049871 
141456000    281.33708    327.17182    363.19008   -25972.819    25968.082   -36.018262    36.068503 
141460000    296.61971    466.99491    251.15381   -25989.414    25982.582    215.84111    36.063392 
141464000    282.91722    427.47783    501.51922   -25978.528    26021.221   -74.041391    36.064007 
141468000    251.31908    422.31107     218.6267    -25999.86    26032.826    203.68437     36.05202 
141472000    255.80302    312.97114    311.52491   -26036.304    26066.978    1.4462246    36.006684 
141476000    283.43978    299.41973    307.71502   -26079.329     26083.96   -8.2952897    36.012383 
141480000    280.88199    286.12771    231.35086   -26112.264    26123.018     54.77685    35.999853 
141484000    263.08607    257.30232    303.73549   -26123.309    26147.825   -46.433168    35.989836 
141488000     269.6526    287.56677    236.35346   -26124.663    26142.051    51.213315    35.953475 
141492000    282.73104    335.87017    309.67992   -26152.723    26153.235    26.190246    35.936541 
141496000    285.09789      274.494    239.73502   -26168.596     26156.24    34.758983    35.942239 
141500000    282.97036    232.96288    483.16614   -26167.129    26166.139   -250.20326    35.944986 
141504000    307.90161    524.13356    284.69078   -26200.826    26192.428    239.44278    35.951665 
141508000    304.03921    350.43574    324.47054   -26225.919    26215.751    25.965204    35.949164 
141512000    292.93107    264.59234    350.36418   -26222.878    26241.278   -85.771831    35.956602 
141516000    289.14071    338.27645    534.54821   -26260.612    26253.395   -196.27177    35.951687 
141520000    282.07566    185.18922    289.44713   -26277.655    26280.052   -104.25791    35.965862 
141524000    309.48947    328.74108    282.46944   -26282.712     26278.38     46.27164    35.975854 
141528000    281.51296    303.55443     276.8721   -26280.148    26292.815    26.682326    35.976769 
141532000    268.03145    440.10218     358.1264   -26308.534    26313.344    81.975782    35.989247 
141536000    292.13323    289.96666    354.35389   -26308.529    26311.316   -64.387231    35.985215 
141540000    296.95899    316.26109     285.1081   -26301.143    26304.114    31.152994    35.975783 
141544000     310.2828    403.43005    460.97994   -26336.661    26326.992   -57.549884    35.957174 
141548000    293.66395    298.01375     386.1049     -26370.2    26374.009   -88.091151     35.96557 
141552000    284.78913    349.66363    340.02037   -26397.396    26397.686    9.6432628    35.983608 
141556000    287.95712    341.23607    422.07256   -26422.445    26436.602   -80.836495    35.961948 
141560000    292.46941    590.16606    414.22524   -26439.286    26461.663    175.94082    35.968466 
141564000    287.23728    281.52333    290.62545   -26455.945    26460.339   -9.1021203    35.985088 
141568000    289.10006    487.78839     447.4476   -26466.537    26476.252    40.340786    35.998236 
141572000    310.95039    683.70934    201.52614   -26484.501    26469.212     482.1832    36.021499 
141576000    288.50119    418.06237    279.48393     -26500.7     26498.31    138.57844    36.037265 
141580000    275.64004    306.78178    240.59124   -26503.237      26514.6    66.190542     36.04334 
141584000    294.73608     257.1859    130.37049   -26526.148    26550.935    126.81541    36.026346 
141588000    300.39629    373.68011    263.31255   -26564.426    26567.524    110.36756    36.025999 
141592000    284.44424     402.2275    398.32152   -26589.074    26586.487    3.9059825    36.019526 
141596000    310.24705    218.33879    263.08128   -26604.734    26586.336   -44.742495    36.038645 
141600000    259.76993    415.44182    237.69166   -26607.268    26619.608    177.75016     36.05641 
141604000    271.42402     506.8564    406.35412   -26646.717    26656.079    100.50228    36.052695 
141608000    297.36446    334.34026    491.39299   -26659.229    26662.656   -157.05273    36.061149 
141612000    290.19308    303.26211    278.69302   -26678.219    26683.986    24.569087    36.081463 
141616000    289.76255    358.56477    347.98253   -26704.964    26696.555    10.582244    36.080241 
141620000     296.2384    593.92988    274.43122   -26716.013    26703.316    319.49866    36.081178 
141624000    326.42153    502.05527     287.5045   -26716.916    26706.624    214.55077    36.108121 
141628000    292.78881    282.78833    417.38103    -26715.34    26723.314    -134.5927    36.103378 
141632000    299.33687    336.39556    245.54863    -26736.58    26724.869    90.846937      36.1099 
141636000     272.7287    363.17576    307.32141    -26745.59    26757.818    55.854353    36.109113 
141640000    297.82364    375.45911    201.90571   -26778.163    26758.693     173.5534    36.113485 
141644000    264.90397    433.67457    196.16371   -26781.881    26788.977    237.51086    36.122978 
141648000    300.82341    494.33098    366.10021   -26820.525     26813.74    128.23076    36.158828 
141652000    294.26528    487.67804    284.03057   -26837.574    26836.865    203.64748    36.167529 
141656000    290.20743    534.82097    298.86392    -26842.45    26856.664    235.95705     36.16055 
141660000    268.26567    206.30062    167.52316   -26849.096    26862.874    38.777463    36.164476 
141664000    268.86328     400.4527    310.97288   -26887.845    26901.464    89.479821     36.15612 
141668000    301.57762    411.43455    575.02021   -26899.173    26906.285   -163.58566    36.170434 
141672000    274.58313    441.26856    355.51828   -26969.929     26965.42    85.750278    36.179703 
141676000    281.43866    288.12209    462.10875   -26970.676    26975.947   -173.98666    36.165006 
141680000    299.55797    403.94614    167.73191   -27008.735    26992.456    236.21423    36.178373 
141684000    282.52563    555.83864    269.31453   -27032.553    27043.188    286.52411    36.177827 
141688000    283.76342     302.3836    252.45542   -27060.664    27065.673    49.928175    36.178038 
141692000    292.18437    386.58765    454.95718   -27114.981    27116.555   -68.369524    36.187199 
141696000     293.9526    411.82534    254.86169   -27126.485    27121.912    156.96365    36.185838 
141700000    316.30499    458.47722    538.37342   -27150.127    27143.846   -79.896198    36.188972 
141704000     283.2011     318.4496    326.94181   -27165.939    27165.998   -8.4922131    36.180389 
141708000    314.55747    606.69222    236.30358   -27215.501    27219.757    370.38863    36.172092 
141712000    318.94519     350.2518    246.69783   -27256.947    27236.446    103.55398    36.171264 
141716000    324.43825    381.22087    484.40951   -27254.295    27239.111   -103.18864    36.174857 
141720000    275.08569    339.50334    309.83868   -27271.634    27283.602    29.664653    36.190304 
141724000    280.26318     250.0025    205.47886   -27293.354    27312.944    44.523642    36.197585 
141728000    303.32459    460.04631    720.76201   -27315.773    27319.012    -260.7157    36.173777 
141732000    288.13006    358.32887    321.99863   -27355.889     27359.05    36.330243    36.156388 
141736000    276.11232    316.74888    292.90129   -27370.322    27374.706    23.847582    36.181888 
141740000    316.89837    302.57419    434.23163   -27382.169    27380.067   -131.65744     36.18358 
141744000    321.85807    348.36048    524.20811   -27401.344    27381.817   -175.84763    36.183532 
141748000    287.80466    310.11219    420.87508   -27434.058    27440.248    -110.7629    36.181509 
141752000    285.90719    498.15327    488.85051   -27489.821    27503.233    9.3027635      36.1742 
141756000    296.63177    284.88472    241.44159   -27481.673    27490.844    43.443128    36.179985 
141760000    287.51351    496.43654    278.83611   -27527.025    27527.104    217.60043    36.177623 
141764000    263.12875    360.52285    168.62153   -27545.102     27575.94    191.90132    36.192482 
141768000    264.73586    520.01914    218.99234   -27552.453    27584.604     301.0268     36.21415 
141772000    294.14565    613.78551    295.73696   -27587.992    27599.045    318.04854    36.226326 
141776000     243.9989    352.43142    240.56732     -27602.3    27622.162     111.8641    36.239124 
141780000    262.69948    359.01716    274.88174   -27614.401    27639.527     84.13542    36.244916 
141784000    262.45102    147.28057    397.44395   -27622.558    27655.911   -250.16338    36.248663 
141788000    246.73094    264.62453    196.19928   -27631.391    27668.958     68.42525    36.245231 
141792000    276.70926    327.19732    457.89033   -27659.379    27672.436   -130.69301    36.258858 
141796000    254.18852    380.68743    344.72071   -27698.963    27712.359    35.966714    36.267142 
141800000    299.91028    153.38651    262.06931    -27710.11    27716.181    -108.6828    36.227672 
141804000    285.93098    363.61403    358.96437   -27705.478    27724.886    4.6496608    36.240872 
141808000    276.56229    329.55512    338.00201   -27726.542    27743.667   -8.4468882    36.219795 
141812000    262.36731    223.42508    369.83777   -27744.935    27750.359   -146.41269    36.220398 
141816000    297.39959    371.22801    361.57696   -27778.993     27768.47    9.6510528    36.226166 
141820000     297.0946    631.45328    323.47129   -27805.053    27805.935    307.98199    36.214952 
141824000    308.99961    357.95224    425.62863   -27822.463    27802.427   -67.676389    36.207762 
141828000    307.92222     250.4135    259.47814   -27820.789    27814.628   -9.0646436    36.210782 
141832000    272.57062     347.6004    293.10361   -27846.302    27863.162    54.496795    36.179778 
141836000    290.01655    268.32305    388.63353   -27889.151    27897.015   -120.31048    36.156208 
141840000    323.46013    431.91404    398.98705   -27894.984    27882.882    32.926996    36.181382 
141844000    292.29608    450.73729    338.72019   -27907.459    27913.933     112.0171    36.162031 
141848000    292.04218    395.53256    232.18082   -27931.265    27921.616    163.35174    36.196867 
141852000    297.95223    202.07385     272.9412   -27946.934    27941.464   -70.867349    36.215032 
141856000    276.53577      458.986    373.63505   -27968.876     27975.66     85.35095    36.223694 
141860000    277.46598    418.90785    228.98441   -28014.091    28033.503    189.92344    36.212577 
141864000    291.54844    281.82114    269.22186   -28058.911    28064.857    12.599282    36.188724 
141868000     287.4028    169.55149    325.66093   -28072.033    28087.792   -156.10945     36.17193 
141872000    302.02485    380.13917    294.26223    -28119.24    28116.691    85.876937    36.191371 
141876000    313.09299    392.98898    346.72598   -28177.778    28159.278    46.262992    36.184465 
141880000    298.81483    675.13645    312.99779   -28180.264    28182.726    362.13866    36.184833 
141884000    273.23655    305.42084    296.91167   -28194.287    28215.234      8.50917    36.165107 
141888000     294.5156     276.1153    220.79186   -28231.096    28229.772    55.323446    36.144893 
141892000    293.11951    340.99218     326.5661   -28238.522    28241.783    14.426083    36.179098 
141896000    266.17312    388.05376    309.61048   -28258.453    28256.514    78.443274    36.161683 
141900000    290.88241    443.65053    342.70258   -28259.567    28283.761    100.94795    36.170091 
141904000    271.76861    204.00163    532.29702   -28281.214    28289.477    -328.2954    36.176152 
141908000    289.97807    261.53922    223.71232   -28302.208    28313.337    37.826902    36.161975 
141912000    268.96661    295.75407    229.49334   -28317.133    28328.864    66.260724    36.161901 
141916000    286.53309    358.48393    177.10432   -28339.851    28357.662    181.37961    36.154235 
141920000    257.35386     416.6537    301.16902   -28357.115    28367.729    115.48468    36.153521 
141924000    269.51134    261.43728    258.73938   -28382.941    28403.584       2.6979    36.145327 
141928000    282.18592    392.62489    294.90923   -28397.142    28416.937    97.715658    36.151696 
141932000    243.00265    490.59493    249.67682   -28430.575    28445.989    240.91812    36.190256 
141936000    262.11237    318.89915    319.37507   -28444.945    28467.729  -0.47591812    36.189193 
141940000    237.96819    306.50151    341.33159   -28443.024    28493.765   -34.830082    36.168501 
141944000    271.94114    445.72742    292.80292   -28458.819    28478.495     152.9245     36.16362 
141948000    289.60789    338.44278    360.52658   -28498.302     28508.51   -22.083799    36.169904 
141952000    301.07853    435.95662    330.45317    -28508.56    28504.354    105.50345    36.175985 
141956000    293.42398    550.89817    265.66752   -28515.376     28531.73    285.23065    36.203137 
141960000    301.24791    457.60837     312.2846   -28538.178    28540.076    145.32376    36.155368 
141964000    275.63291    462.29901    204.24547   -28560.646    28563.391    258.05354    36.162831 
141968000    273.85797    262.03001    352.52227   -28559.201    28566.904   -90.492262    36.163858 
141972000    268.94965    345.61475     308.3944   -28567.841    28597.964    37.220349    36.173803 
141976000    250.62943     309.4683    180.06087   -28557.927    28614.202    129.40744    36.173612 
141980000    286.83008    262.88646    283.78028   -28605.528    28625.661    -20.89382    36.179332 
141984000    270.72005    265.79052    266.16878   -28648.362    28646.976  -0.37826428    36.185225 
141988000    297.36515    425.28718    343.30513   -28656.157    28663.516    81.982051    36.178424 
141992000    277.11407    370.81416    164.03073   -28684.294    28694.247    206.78344    36.195785 
141996000    244.36412    422.27102    166.22036   -28686.175    28731.823    256.05066    36.192125 
142000000    269.77386    327.79003    291.37605    -28741.12    28757.778    36.413978    36.201422 
142004000    265.37216    210.13885     177.3839   -28758.546     28764.23    32.754958    36.196322 
142008000    292.89701     573.5933    258.74322   -28795.968    28800.953    314.85008    36.220839 
142012000    307.32576    373.22253    342.22755   -28842.413    28828.453    30.994983    36.224203 
142016000    286.53988    199.76604    351.11681   -28873.407    28874.777   -151.35077    36.206509 
142020000    300.47441    363.59666     273.3369   -28907.484    28889.528    90.259766     36.19742 
142024000    301.49049    334.43857    179.36226   -28901.613     28899.97    155.07631    36.202979 
142028000    256.26487    627.84715    392.32016   -28894.647    28927.675    235.52699    36.205394 
142032000    284.66793     322.9045    252.82725   -28938.479    28954.656    70.077253      36.2171 
142036000    265.07452    331.72518     292.3971   -28972.056    28984.917    39.328083     36.23866 
142040000     290.5518    418.14257    453.21279   -29000.781     29002.72   -35.070218    36.201534 
142044000    299.81332    401.71485     326.6092   -28999.481     29008.54    75.105655    36.167565 
142048000    282.46381    228.95076    416.52051   -29047.103    29041.715   -187.56975     36.18328 
142052000    292.37893    448.39355    392.59135    -29054.88    29067.324    55.802208    36.192199 
142056000    269.40556    341.96669    478.69444   -29050.236    29084.958   -136.72775    36.206041 
142060000    286.99608     364.1882    304.84895   -29093.443     29091.73    59.339243    36.186461 
142064000    298.87468    369.92981    333.23132   -29112.892    29119.571    36.698493    36.182075 
142068000    286.32646    521.52342    301.22769   -29135.579    29139.602    220.29572    36.184844 
142072000    268.39193    221.51124    272.66512   -29118.534    29151.939   -51.153881    36.193103 
142076000    266.01353    222.96554     191.7664   -29145.774    29161.412    31.199143    36.211898 
142080000    283.45874    177.25936    337.45989   -29182.493    29208.523   -160.20053    36.216612 
142084000    294.93195    329.08363    271.40311   -29201.713     29226.26    57.680517    36.204918 
142088000    278.62341    330.36597    446.06687    -29243.88    29241.442    -115.7009    36.192504 
142092000    288.44423    516.22805     312.2935   -29279.816    29287.516    203.93455    36.199854 
142096000    315.35275    440.74804    287.64856   -29312.687    29282.722    153.09948    36.189841 
142100000    293.66013    366.91409    343.38412    -29311.72    29314.192    23.529977    36.174545 
142104000    282.14702    724.27902    326.61172    -29313.95    29310.273     397.6673    36.164926 
142108000    265.13811    439.17388    276.04997   -29293.053    29317.433    163.12391    36.156345 
142112000    290.87497     449.3212    167.91271     -29310.9    29313.863    281.40849    36.167507 
142116000    264.32405    409.08414    372.39411   -29312.613     29327.47    36.690029    36.174727 
142120000    296.66183    419.55877    297.64597   -29336.731    29350.413    121.91279    36.199228 
142124000    254.88428    242.36804    284.62969   -29344.418     29386.48   -42.261649    36.177399 
142128000    278.53352    708.11434    353.04116   -29374.142    29416.657    355.07318    36.187162 
142132000    292.49038    389.89518     330.8751   -29420.472    29418.454     59.02008    36.181938 
142136000    315.83044     513.5327    270.27133   -29463.431    29433.585    243.26138    36.187637 
142140000     287.7435    283.14404    307.26218   -29453.279    29463.841   -24.118143    36.221196 
142144000    311.76864    610.75042    187.06663   -29484.167    29473.107    423.68378    36.210386 
142148000    282.90772    340.46659    237.43599   -29498.107    29503.272    103.03059    36.212257 
142152000    287.00998    363.09619    413.47893   -29512.616    29517.886   -50.382742    36.197387 
142156000    290.12221    485.02727    382.96924   -29511.226    29529.398    102.05803    36.213462 
142160000    280.10594    282.97069    161.64539   -29541.127    29544.563     121.3253    36.224625 
142164000    288.20887    416.90253    199.11322    -29550.13    29535.913    217.78931    36.250838 
142168000    274.82104    252.57809    337.63076   -29565.579    29555.717   -85.052672    36.237428 
142172000    280.77733    205.93839     503.9477   -29570.151    29590.983   -298.00932    36.253868 
142176000    297.58356    318.67897     252.5422   -29625.413    29602.473    66.136766    36.241388 
142180000    286.46304    457.57887    338.51462    -29605.68    29620.743    119.06425    36.259508 
142184000    281.76173    287.63771    272.49401   -29622.816    29637.225    15.143696    36.242867 
142188000    265.08282    339.15151    272.51698   -29660.319    29681.302    66.634531    36.256858 
142192000    273.94703     546.5439    265.64466   -29705.823    29713.286    280.89924    36.233494 
142196000    273.09531    283.51983    290.96902    -29737.09     29755.66   -7.4491886    36.221484 
142200000    266.75288    369.88286    237.17447   -29744.439    29750.355    132.70839    36.221373 
142204000    272.75499    315.28671    477.56356   -29771.841    29799.222   -162.27685    36.213312 
142208000    274.91789    290.31494     405.3415   -29780.148     29791.51   -115.02656    36.221077 
142212000    271.49532    270.82997     200.6219   -29816.783    29831.387    70.208071    36.222521 
142216000    268.15419    320.88762    256.06939   -29865.613    29873.815    64.818228    36.231861 
142220000    267.29796    312.16942    405.18986   -29855.036    29889.648   -93.020443    36.245668 
142224000    284.14301    337.56497    375.41956   -29914.972    29925.714   -37.854591    36.273767 
142228000    291.09812    396.73912     248.4347   -29922.876    29926.211    148.30442    36.314138 
142232000    273.82602    224.24818    308.37039   -29934.228     29942.86   -84.122212    36.304395 
142236000    309.88905    563.10987    214.04457   -29972.316     29971.94     349.0653    36.325582 
142240000    270.11725    356.93748    273.51715   -29992.625    30009.241    83.420326    36.345493 
142244000    286.24126    621.25208    269.37732   -30021.289    30032.224    351.87476    36.335194 
142248000    255.02971    257.29346    251.11287   -30030.847     30049.27    6.1805864    36.295407 
142252000    278.23186    508.36084     261.7551   -30066.613    30061.869    246.60575    36.298545 
142256000    283.68543    400.07227    366.27378   -30080.535    30063.746    33.798493    36.320846 
142260000    281.75837    302.85133    216.27039   -30077.791    30103.738    86.580943    36.310083 
142264000    284.80319    328.71888    191.30451   -30133.656    30137.048    137.41437     36.31303 
142268000    286.36549    209.82903    354.14522   -30150.288    30163.505    -144.3162    36.301861 
142272000    304.57523     338.3143    300.15198   -30179.925    30178.772    38.162324    36.290567 
142276000    279.29551    296.77465    295.89615   -30221.616    30214.539   0.87849335     36.27797 
142280000    281.70163    317.43098    259.50116   -30246.847    30263.698    57.929823    36.299012 
142284000    262.81431    363.85772    381.81157    -30271.32    30285.333   -17.953853    36.320551 
142288000    289.70365    241.16236    359.63409   -30291.468    30290.095   -118.47172    36.320949 
142292000    292.01213    321.38373    287.03749   -30312.961    30310.183     34.34624    36.339825 
142296000    289.36332    302.15358    390.68687   -30326.928    30336.195    -88.53329     36.33615 
142300000     287.1599    420.76992    223.20119   -30374.029    30357.747    197.56873    36.339221 
142304000    274.86474      192.118    281.86431   -30378.102    30381.575   -89.746317     36.34449 
142308000    288.32067    265.30406    373.79767   -30398.295    30401.238   -108.49361    36.327585 
142312000    333.45706    296.39185    350.18617   -30436.351     30408.59   -53.794326    36.330483 
142316000    306.43137    272.51291    309.64256   -30443.656    30440.974   -37.129643    36.342546 
142320000    304.18652    555.07589    255.30496   -30459.119    30459.992    299.77094    36.324921 
142324000    270.25982    300.78335    252.73227   -30488.198    30499.387    48.051085    36.357654 
142328000    248.81455    241.33039    434.20568   -30482.597    30515.237   -192.87529    36.358095 
142332000    285.41638    242.46722    350.83442   -30504.068     30522.16    -108.3672       36.356 
142336000    309.72401    499.30158    337.68215   -30534.431      30529.2    161.61943       36.365 
142340000    307.20954    254.10143    148.04726   -30564.493    30551.864    106.05418    36.372385 
142344000    309.61545    595.73298     291.4456   -30589.597    30573.087    304.28737    36.366491 
142348000    275.99894    458.12578    152.65652    -30583.75    30596.365    305.46925    36.336705 
142352000    309.16627    296.32359    232.89205   -30620.738    30618.259     63.43154    36.347577 
142356000    304.03966    416.03945    230.74401   -30660.862    30643.872    185.29544    36.352711 
142360000    274.93995    363.45372    158.21601   -30677.118    30670.498    205.23771    36.367315 
142364000    251.92876    354.17228    257.01189   -30692.644    30716.238    97.160384    36.373386 
142368000    265.50629    292.83378    307.28721   -30738.882    30744.317   -14.453438    36.359072 
142372000    284.39892    374.81679    395.98892   -30754.014    30764.953    -21.17213    36.362144 
142376000    293.00287    330.11299     371.5231   -30781.459    30784.285   -41.410101    36.367191 
142380000    292.07583    545.85827    184.83491   -30804.306    30815.879    361.02336    36.388635 
142384000       268.07    260.75367    360.76329   -30795.189     30817.02   -100.00962    36.382093 
142388000     291.9673    248.44453    573.08498   -30832.698    30842.497   -324.64045    36.372127 
142392000    275.42671    410.13014    389.52275   -30869.907    30885.514    20.607385    36.394145 
142396000    275.86672    316.53555    347.35256    -30873.32    30882.409    -30.81701     36.38594 
142400000    269.21198    254.86903    324.19677   -30897.605    30911.123   -69.327736     36.38583 
142404000    294.50372    494.23645    469.19703   -30915.926    30910.476    25.039415    36.396783 
142408000    247.03053    214.87378    279.77637   -30907.899    30934.075   -64.902586    36.396993 
142412000    284.63285    203.85162    295.09263   -30960.938    30953.337   -91.241012    36.394728 
142416000    294.51791    412.87543    268.21421   -30970.596    30979.681    144.66122     36.39756 
142420000     280.0145    392.75994    411.39506   -30968.459    30971.974   -18.635114    36.395668 
142424000    257.55888    251.18006    266.60931   -30959.298    30981.877   -15.429247    36.390184 
142428000     299.2153    336.13053    290.08003   -30980.006    30994.737    46.050494     36.37215 
142432000    296.64814    305.56615    327.81406   -31000.006    31006.588   -22.247911    36.371192 
142436000     272.1298     182.3113    382.28592   -31019.562    31013.884   -199.97462    36.350643 
142440000     285.9234    334.58232    263.48563    -31034.83    31048.098    71.096685    36.371894 
142444000    275.84051    347.52324    296.94363   -31048.763    31070.939    50.579613    36.342435 
142448000    286.44428    187.23586    441.33492   -31058.363    31063.225   -254.09906    36.302673 
142452000    300.64153    246.53821    431.81645   -31085.509     31081.65   -185.27824    36.315356 
142456000    315.64219    208.84214    496.58588   -31158.011    31137.599   -287.74374    36.327114 
142460000    283.90879    202.35029    345.90776   -31174.605    31193.141   -143.55747    36.313933 
142464000    270.18948    327.29504    308.06222   -31226.773    31238.617    19.232815    36.325885 
142468000    291.69226    274.37829    290.67622   -31255.849    31263.048   -16.297929     36.30721 
142472000    287.51895    300.65198     180.7375    -31254.65    31260.855    119.91448    36.289558 
142476000    262.00393    278.09521    237.94767   -31244.935     31259.17    40.147542    36.269876 
142480000    285.05862    355.84692    391.33995   -31278.277    31286.563   -35.493032    36.266119 
142484000    286.58146    508.29655    196.34825   -31305.121    31302.537     311.9483    36.277547 
142488000    280.89586    176.00407    322.40872   -31316.741    31333.135   -146.40466    36.274156 
142492000    271.24755    404.47211    185.74959   -31331.489    31337.196    218.72252    36.276664 
142496000    278.91187    412.74404    350.83819   -31362.276     31364.81    61.905841     36.27931 
142500000    271.48502    435.96885    386.93242   -31371.492    31382.988    49.036433     36.28188 
142504000    287.05088     386.3448    441.52917   -31367.677    31373.549   -55.184364    36.286988 
142508000    273.86568    409.70362    430.73425   -31385.898    31385.842   -21.030628    36.286841 
142512000    299.13878    316.53171    287.57199   -31406.113    31412.321    28.959716    36.287629 
142516000    270.98923    227.26917    267.14039   -31445.301    31442.553   -39.871218    36.306995 
142520000    268.15697    413.22847    208.28515    -31432.15    31453.643    204.94332    36.309016 
142524000    292.95011    502.30157    429.39256   -31461.219     31456.25    72.909011    36.352121 
142528000    290.29916    298.27827    370.64474   -31455.307    31464.895   -72.366474    36.328995 
142532000    279.28416    432.09148    395.04695   -31487.568    31498.999     37.04453     36.34186 
142536000    326.23109    424.47825    239.25802   -31513.979    31489.828    185.22023    36.348877 
142540000    297.60818    293.38032    339.51555   -31533.481    31532.127   -46.135232    36.360617 
142544000    290.30021    336.36331    328.48802   -31550.815    31557.868    7.8752864    36.360888 
142548000    295.18307    258.62125    274.10487   -31555.664    31580.924   -15.483627    36.364847 
142552000    277.96484    292.93312    408.61943   -31579.166    31585.758   -115.68631    36.389039 
142556000    270.77748    353.37533    333.71598   -31589.127    31601.285    19.659347    36.402048 
142560000    295.38659    440.47791    264.35415   -31609.987    31623.377    176.12376    36.406332 
142564000    271.74561     347.4059    270.47933   -31633.445    31648.144    76.926574    36.413681 
142568000    274.71651    447.03653    329.67658   -31667.107    31694.393    117.35995    36.431223 
142572000    289.61773    399.62445    385.18902   -31701.363    31713.076    14.435433    36.416577 
142576000    286.90522    419.76487    325.16522   -31750.345    31744.109    94.599647    36.425453 
142580000    262.79681    374.90125    556.15555   -31759.205    31768.974    -181.2543    36.413716 
142584000    266.84348    166.94553     529.7062   -31769.287    31778.811   -362.76067      36.4147 
142588000    278.64648    296.22989    408.92605   -31807.934    31806.248   -112.69616    36.422979 
142592000    306.87913    463.47037    232.42951   -31842.053    31837.073    231.04086    36.425605 
142596000    253.39868    183.06453    350.98058   -31855.689    31877.665   -167.91605    36.432517 
142600000    289.10603    248.38582    290.51874    -31890.13    31890.085   -42.132914    36.426106 
142604000    298.43492    394.28108    310.93948   -31912.647    31917.771    83.341598    36.424746 
142608000    316.91002    324.24394    469.48316   -31945.554    31935.402   -145.23922    36.434489 
142612000    278.39279    586.32536    279.31874   -31956.232     31975.34    307.00662    36.407002 
142616000    284.68124    255.91518    359.96663   -32016.261    32001.236   -104.05144    36.401356 
142620000    291.12831    465.46333    338.48345   -32030.404    32027.742    126.97988    36.402339 
142624000      270.041    467.21278    212.96291   -32048.618    32062.523    254.24986    36.410618 
142628000    313.37193    486.82325    385.28754   -32073.373    32063.913    101.53572    36.416651 
142632000    286.47387    465.17627    225.32846    -32094.24    32106.876    239.84781    36.420106 
142636000    258.03024     438.4176    366.62339   -32101.858    32117.627    71.794214    36.434445 
142640000    269.82278    421.14724    277.59204   -32133.778    32140.144     143.5552    36.438999 
142644000    298.40045     191.4178     312.3422   -32153.318    32174.933    -120.9244    36.456433 
142648000    277.72431    318.23057    301.10358   -32153.933    32177.263     17.12699    36.457576 
142652000    274.31518    357.63066    414.02867   -32189.198    32204.127   -56.398013    36.491654 
142656000    279.63589    230.32351    438.85687   -32203.207    32217.811   -208.53336    36.493509 
142660000    308.68166    427.83958    296.61716   -32226.158    32219.301    131.22242    36.489765 
142664000    322.82938    471.32312    321.30761   -32234.735    32212.485    150.01551    36.504983 
142668000    277.61855    372.71663    236.78343   -32226.892    32242.132     135.9332    36.512467 
142672000    291.92579    540.03595    325.12453   -32228.493    32232.157    214.91142    36.501537 
142676000    299.26884    344.36439     264.6222   -32247.809    32253.392    79.742188    36.498935 
142680000    286.19076    421.62137    367.96087   -32264.883    32277.656    53.660506    36.496735 
142684000    302.69059    157.75789    330.34805   -32313.555    32308.802   -172.59016    36.511294 
142688000     290.9378    500.57494    348.87076   -32335.967    32354.455    151.70418     36.50355 
142692000    282.56468     456.7214    411.17954   -32361.301    32357.739    45.541857    36.509968 
142696000    293.25682    405.84037    362.71996   -32391.104    32381.431    43.120403    36.538082 
142700000    274.70328    350.06208    234.13442   -32413.972    32427.836    115.92766    36.539804 
142704000    294.60787    229.05595    339.42875   -32445.206    32448.264   -110.37279    36.516195 
142708000     225.4411    458.57236    410.97958   -32446.555    32492.806    47.592785    36.528149 
142712000    280.31489    356.02643    238.93169    -32477.98    32497.434    117.09474    36.541106 
142716000    284.24986    335.78313    346.20151   -32506.739    32511.187   -10.418379    36.558236 
142720000    283.20269     332.0851    231.33369    -32539.13    32528.322    100.75141    36.550183 
142724000    256.23273    260.67764    246.17536   -32548.322    32573.941    14.502283    36.553819 
142728000      280.505    366.42146    202.72233   -32587.822    32598.917    163.69913    36.584105 
142732000    269.53293    406.20932    210.02109   -32631.941     32642.07    196.18823    36.571849 
142736000    277.06902    426.55137    464.42743   -32635.477    32658.546   -37.876064    36.569439 
142740000     281.5401    417.31669    431.82689   -32655.209    32673.278   -14.510208    36.574584 
142744000    262.24237    308.23438    323.53826   -32673.597    32695.801   -15.303883    36.561445 
142748000    240.49383    320.59554    324.68212   -32676.379    32724.637   -4.0865862    36.554353 
142752000    276.72596    236.30413    334.14864   -32697.019    32727.778    -97.84451    36.541662 
142756000    300.39737    176.21104     347.9367   -32748.022    32732.666   -171.72566    36.539089 
142760000    279.94996    260.33406    301.92124    -32753.17    32767.797    -41.58718    36.502944 
142764000    290.64851    530.98218    394.03812   -32780.063    32779.723    136.94406    36.485068 
142768000     302.9162    354.04347    346.59598    -32795.56    32789.597    7.4474954    36.480924 
142772000    291.65584    367.44854    407.00562   -32809.369    32805.956   -39.557084     36.47531 
142776000     317.8863    362.27633    347.71849   -32823.741     32793.88     14.55784    36.462373 
142780000    309.59726    354.24982    156.30731   -32825.647      32806.8    197.94251    36.469982 
142784000    331.80386     371.0422    404.55838   -32835.175    32815.782   -33.516172    36.450468 
142788000    282.22889    330.97577    357.57599    -32834.65    32843.022   -26.600212    36.453805 
142792000    280.82375    497.06395     231.8102   -32859.001    32857.505    265.25374    36.450259 
142796000    299.80276    394.22842    270.63839   -32893.137    32892.058    123.59003    36.441442 
142800000    274.86132    371.78935    290.13676   -32904.601    32911.772    81.652594    36.449627 
142804000    276.97329    332.46382     527.6222   -32915.866     32925.57   -195.15839    36.451834 
142808000    262.32798    285.67386    242.65978   -32934.738    32953.907    43.014083    36.460797 
142812000     272.2514    381.63243    287.44764   -32979.423    32991.558    94.184783    36.450431 
142816000    250.20425    370.04683    322.54319   -32968.952    33012.255    47.503633    36.461605 
142820000    274.94502     410.5107    255.96494   -33000.703    33027.713    154.54576     36.45616 
142824000    273.30437    265.97205    405.62437   -33025.997     33044.89   -139.65232    36.454488 
142828000      288.339    402.73232    351.85346   -33046.622    33039.732    50.878863    36.464656 
142832000    291.39546    333.13235    210.91879    -33059.29    33076.792    122.21356    36.429487 
142836000    316.30237    441.69454    422.82236   -33081.596    33078.558    18.872175    36.435211 
142840000    285.51061    420.88827     491.3901   -33072.616    33072.068   -70.501823    36.459583 
142844000    274.42579    328.06625    255.36228   -33080.261    33097.578    72.703968    36.469724 
142848000    298.67656    256.99001    396.03604   -33094.431    33081.952   -139.04603     36.48474 
142852000    321.70546    286.90885    403.20768   -33125.191    33092.354   -116.29883    36.475124 
142856000    286.98984    466.93075    359.88901   -33130.203    33133.093    107.04175    36.483126 
142860000    276.19589    363.01315    333.42101   -33127.646    33132.926    29.592142    36.482109 
142864000    302.12059    256.44656    372.13338   -33158.418    33150.517   -115.68682    36.479709 
142868000    259.99703    365.90892    478.74982   -33169.329    33190.294    -112.8409    36.489225 
142872000    279.14515    291.77824    378.16049   -33206.618    33218.768   -86.382251     36.47142 
142876000    274.77035    406.49137    278.91133   -33242.342    33264.152    127.58005    36.464939 
142880000    267.90961    281.38181    112.93241   -33238.032    33276.397     168.4494    36.458183 
142884000    264.67055    453.37925    247.62225   -33265.536    33274.113      205.757    36.479561 
142888000    287.30313    264.72376    231.31421   -33302.387    33315.925     33.40955    36.484734 
142892000    261.33972    406.56774    363.00006   -33302.175    33321.686    43.567685    36.489174 
142896000    300.34088    401.68778    198.94565   -33331.295    33329.416    202.74212    36.484352 
142900000    298.31169    222.91147    274.93849   -33361.948    33350.657   -52.027015     36.48227 
142904000    289.92745    373.48685    298.21015   -33370.832    33380.853    75.276701    36.464842 
142908000    286.87287    511.39512    396.67138   -33388.819    33393.072    114.72375    36.464293 
142912000     267.5175    375.59819    313.77666   -33379.637    33388.251    61.821529    36.448786 
142916000    263.98903    343.13332     315.6217   -33430.424    33459.841    27.511617    36.455631 
142920000    247.19206    522.32859    229.20787   -33447.052    33456.822    293.12073    36.437145 
142924000    281.06158    380.74994    217.80371   -33457.947    33473.517    162.94623    36.430281 
142928000    277.03007     378.2761    283.11244   -33468.794    33478.155    95.163664    36.426821 
142932000    317.00107    281.40567    433.79187   -33476.374    33472.839    -152.3862    36.421033 
142936000    281.87035    487.88021    272.83308   -33476.791    33494.773    215.04714    36.425473 
142940000    294.50812    532.83767    265.89069   -33501.553    33513.283    266.94698     36.42391 
142944000    296.36268    341.16341     295.0722   -33509.466    33512.727    46.091206    36.448389 
142948000    288.94795    290.07979    309.78442   -33524.877    33523.829   -19.704623    36.433837 
142952000    294.37514      540.298    363.78852   -33525.603    33539.264    176.50948    36.425904 
142956000    277.08146    297.45742    543.07948   -33525.482     33523.81   -245.62206    36.408028 
142960000    280.33342    238.17462    582.13718   -33534.966    33557.839   -343.96255    36.393944 
142964000    274.04297    465.31194    281.24412   -33553.624    33565.635    184.06782     36.36907 
142968000    285.51057    221.43592    362.80083   -33564.432    33576.374   -141.36491    36.388938 
142972000    295.61684    466.33203    450.83489   -33590.482    33576.252    15.497143    36.383731 
142976000    268.38783    256.67702     198.8499   -33594.665    33613.803    57.827117    36.411663 
142980000    294.72346     413.3819    289.00729   -33603.668    33616.151    124.37462    36.429012 
142984000    267.58304    264.35393    348.31537   -33611.666    33633.463   -83.961436    36.421558 
142988000    278.43686    340.73692    356.46993   -33638.788    33632.062   -15.733013    36.408723 
142992000    277.22626    350.82715    378.87325    -33685.99    33677.438   -28.046098    36.415105 
142996000    271.47559    390.32661    252.03911   -33671.805    33688.046     138.2875    36.426649 
143000000    284.48176    572.37223    386.91138   -33705.888    33709.364    185.46084     36.42728 
143004000    265.04667    400.80323     254.7783   -33722.176    33738.165    146.02493    36.426898 
143008000    294.31454    348.88211    337.61103   -33759.765    33753.493    11.271083     36.43499 
143012000    282.34125    329.23572    281.61438   -33766.603    33780.116    47.621339    36.422041 
143016000    259.83707    316.41485    155.30718   -33790.944    33809.725    161.10767    36.416895 
143020000    269.31398    363.02955    333.92322   -33807.065    33832.897     29.10633     36.42351 
143024000    290.38752    248.08351    321.27041   -33827.328    33849.448   -73.186901    36.428557 
143028000    291.95469    296.44229    469.85229   -33870.332    33867.848      -173.41    36.408326 
143032000    304.45752    374.18923     405.3584   -33896.412     33886.28   -31.169168     36.38672 
143036000    291.59197     387.6202    297.43019   -33917.729    33910.119    90.190005    36.399692 
143040000    282.53615    400.03167     170.5603    -33926.74    33939.481    229.47137    36.406145 
143044000    281.33018    449.03539    286.55278   -33949.009    33954.824    162.48261     36.39728 
143048000    299.69517    387.93802    452.76208   -33978.524     33972.83   -64.824063    36.399792 
143052000    254.14759    254.39665    256.95465   -33996.733    34017.804   -2.5580012    36.393612 
143056000    279.04458    275.38466    300.85244   -34018.567    34023.537   -25.467783    36.411192 
143060000    286.15127    326.61089    338.01509   -34038.029    34017.773   -11.404199    36.411911 
143064000     290.7796    278.97263    335.62779   -34022.365    34028.611    -56.65516     36.41659 
143068000    290.74765     284.1593    312.37026   -34061.729    34064.175   -28.210965    36.424343 
143072000    284.05724    507.39282    459.62268   -34098.928    34096.986    47.770147     36.41074 
143076000    271.95741    243.73815    256.93709   -34127.148    34129.932   -13.198943    36.399796 
143080000    286.78632    340.40666     493.7227   -34133.502    34145.218   -153.31604    36.390519 
143084000    271.70644     268.0553    344.87035   -34154.469    34173.519   -76.815052     36.37691 
143088000    269.31044    318.35785    214.00458   -34181.964    34189.909    104.35326    36.353196 
143092000     260.0392    346.90079    111.34654   -34196.764    34203.536    235.55426    36.338716 
143096000    257.18308    343.98074    419.65262   -34178.784    34205.567    -75.67189     36.37367 
143100000    283.29953    482.76828    322.97204   -34198.663    34210.784    159.79625    36.384253 
143104000    261.82271    265.68801    298.57634   -34225.076    34233.061   -32.888326    36.370835 
143108000    283.36524    398.24476    251.61389   -34266.879    34268.562    146.63088    36.381324 
143112000    281.44928     376.0547    291.02113   -34293.708    34307.088    85.033568    36.382042 
143116000     294.3251    412.75255    265.63162   -34303.474    34301.413    147.12093    36.405028 
143120000    294.26608    435.30234    363.24532    -34313.62    34318.385     72.05702    36.384189 
143124000    278.39942    444.06331    228.35679   -34325.569    34345.618    215.70652    36.371871 
143128000    274.92065    257.87442    269.29192   -34358.382    34374.972     -11.4175    36.372867 
143132000    297.88911    359.41092    463.77381   -34380.779    34367.202   -104.36289    36.372612 
143136000    308.11968    403.91382    235.87024   -34372.777    34378.754    168.04358    36.380793 
143140000    287.48319    228.22234    394.67271   -34402.582    34384.318   -166.45037    36.389782 
143144000    323.50993    408.04818     456.3505   -34405.644    34411.597   -48.302322     36.37224 
143148000    288.41983    449.71226    269.62766   -34435.268    34420.938     180.0846    36.381724 
143152000    253.84659    218.54761    221.53944   -34447.494    34470.001    -2.991834    36.390095 
143156000    243.74168    240.92887     298.8463   -34455.225    34484.409   -57.917427    36.398875 
143160000    303.18758     204.7863    339.71557   -34502.964    34494.756   -134.92927    36.401766 
143164000    226.52928    330.01303    220.38521   -34504.459    34550.497    109.62782    36.385217 
143168000    263.63772    209.96016    269.51377   -34509.879    34545.396   -59.553609    36.391058 
143172000    275.58552    555.35116    324.85664   -34550.774    34556.199    230.49452    36.385471 
143176000    292.73964    342.12217    404.92037   -34563.418    34580.575   -62.798193    36.392062 
143180000    292.56252    441.78248    328.96033   -34601.324    34605.716    112.82215    36.416966 
143184000    259.65752     198.6711    505.24777   -34601.218    34620.867   -306.57667    36.418389 
143188000    305.58404    261.33916    275.43595   -34624.551    34598.256   -14.096781    36.403077 
143192000    271.76403    366.12237    400.65415   -34655.676    34671.097    -34.53178     36.42719 
143196000    301.14136     396.9913    297.21959   -34680.812    34680.328    99.771705    36.442837 
143200000    283.74852    258.62102    360.35678   -34700.475    34704.756   -101.73576    36.423389 
143204000    287.76794    284.73842    281.23381   -34736.998    34719.494    3.5046095    36.390987 
143208000    270.04467    197.54734    248.68175   -34710.633    34722.454   -51.134409    36.396751 
143212000    301.50935     503.0897    287.83712   -34742.945    34745.619    215.25257     36.38314 
143216000    300.48007      396.656    383.83243    -34772.47     34769.06     12.82357    36.372492 
143220000    319.72529     229.1716    352.83546    -34792.82    34785.332   -123.66385    36.379851 
143224000    295.81768    346.24432    265.85985   -34787.097    34793.736    80.384463    36.379521 
143228000    291.41631      373.905     298.3916   -34797.669    34818.795    75.513401    36.378556 
143232000    278.28452    259.47258    179.95005    -34815.88     34831.63    79.522531    36.393322 
143236000     264.8956    284.99779    168.71889   -34840.746    34868.905     116.2789    36.400323 
143240000      277.619    346.55985     325.0401   -34876.971    34884.759    21.519751    36.388317 
143244000    253.53601    458.65938    378.69034   -34877.563    34921.088    79.969039    36.366278 
143248000    249.89343      245.036    316.77155   -34892.825    34923.572   -71.735547    36.371327 
143252000    305.60482    325.97235    364.98633   -34909.501    34913.348   -39.013981    36.395281 
143256000    296.58361    412.08781     265.7525    -34932.83    34933.841    146.33531    36.413774 
143260000    267.35838    326.16921    336.82904   -34914.196    34930.828    -10.65983    36.428521 
143264000    269.80706    321.17844    368.06338   -34940.044    34949.045   -46.884931    36.455731 
143268000    255.77921    581.78933    380.94038   -34946.607    34976.499    200.84895    36.453128 
143272000     300.3115    448.91537    472.60934   -34988.105    34963.623   -23.693974    36.451253 
143276000     267.5871    289.01504    291.43692   -34955.248    34981.511   -2.4218838     36.46323 
143280000    278.11187    256.23515    249.24666   -34970.393    34981.151    6.9884941    36.454166 
143284000    286.69946     539.8528    386.64504   -34994.983    35005.102    153.20776    36.463352 
143288000    296.56605    327.19982    348.96535   -35013.873    35021.622   -21.765533    36.467084 
143292000    281.13906    491.50387    160.82624    -35032.59     35043.41    330.67763    36.457421 
143296000    266.71527    250.12599    482.17956    -35041.66    35063.074   -232.05357    36.455661 
143300000     257.3304    149.07026    396.15715   -35064.366    35092.234   -247.08688    36.461331 
143304000    250.83008    318.17361    183.77519   -35092.439    35109.141    134.39841    36.454074 
143308000    292.01983    480.56123    321.89843   -35135.676    35122.672    158.66279    36.447218 
143312000    270.95707    252.33322    378.54073   -35137.022    35137.859   -126.20751    36.445356 
143316000     269.0963    311.89524     274.1555   -35163.162    35171.768    37.739742    36.446437 
143320000    278.97789    360.36252    263.98936   -35193.632    35217.939    96.373156    36.442167 
143324000    290.05376    318.29745    461.46355   -35218.593    35231.543    -143.1661    36.429559 
143328000    256.68986    220.70592    235.21132   -35227.617    35240.278   -14.505393     36.42937 
143332000    274.95465    288.53373     243.2055   -35268.714    35288.289    45.328234    36.412727 
143336000    267.74521      641.524    144.20528   -35318.525    35336.603    497.31872    36.420797 
143340000    313.59899    359.95715    303.15444   -35336.986    35334.483    56.802706    36.433312 
143344000    284.45804    484.13839     354.0513   -35338.533    35355.184    130.08709    36.422355 
143348000     249.3384    371.40852    337.48081   -35353.112    35377.123    33.927715    36.418158 
143352000     259.0538    412.16544    366.05563   -35394.738    35419.052     46.10981    36.416606 
143356000    316.51294    511.02222    253.12222   -35420.743    35411.254        257.9    36.415464 
143360000    296.38838     441.8158    452.72445   -35447.341    35445.425   -10.908655     36.40874 
143364000    284.06375    330.19875    371.90039   -35453.095    35466.471   -41.701643    36.421238 
143368000    290.90636    484.51224    342.91238   -35469.988    35474.922    141.59986    36.423631 
143372000    298.83136    350.42727    327.87571   -35499.608    35513.053    22.551557    36.418842 
143376000    267.94539    588.41884    336.68517   -35519.459    35540.879    251.73368    36.417779 
143380000    262.90093    265.63659    482.14863   -35514.304     35547.62   -216.51204    36.405275 
143384000    279.96183    298.64027    410.74545   -35528.376     35532.83   -112.10518    36.416885 
143388000    307.47767    431.34807    222.21233    -35578.42    35563.003    209.13574     36.41017 
143392000    300.92472    543.13646    422.27357   -35604.665    35587.639    120.86289    36.399986 
143396000    244.04866    321.10251    360.25625   -35613.105     35629.68    -39.15374    36.381292 
143400000     279.3095    220.14164    400.26855   -35622.633    35650.787   -180.12691    36.364383 
143404000    280.80974    191.07104    340.21631   -35664.022    35664.584   -149.14527    36.332826 
143408000    292.21829    431.79422    377.65206   -35703.255    35711.851    54.142159    36.328212 
143412000    270.51762    230.29937    202.33797   -35722.795    35730.853    27.961395    36.333249 
143416000    268.37627    391.36396    168.42902   -35735.235    35767.004    222.93494    36.338065 
143420000    273.21562    265.65252    96.467592   -35776.416    35784.717    169.18493    36.345953 
143424000    296.60429    294.01306    321.44627   -35815.257    35819.201   -27.433208    36.349602 
143428000    288.29414    488.17287    352.78456   -35852.361    35859.108    135.38831     36.35633 
143432000    255.29751    243.34372    301.09306   -35871.463    35890.798   -57.749344    36.339108 
143436000    318.15864    418.50821    394.81976   -35922.277    35889.963    23.688445    36.330644 
143440000    300.72561    449.46775    403.35472   -35933.524    35919.523    46.113032    36.323406 
143444000    263.46316    349.88493    232.46804   -35928.622    35952.097    117.41689    36.316578 
143448000    314.52676    354.93501    599.42509   -35959.746    35948.438   -244.49008    36.316141 
143452000    275.85835    222.24893    265.07305   -35971.813    35981.427   -42.824115    36.315409 
143456000    272.42519    275.12353    245.48306   -35995.448    36013.485    29.640468    36.310393 
143460000    301.47205    512.58919    320.26137   -36027.846    36015.381    192.32782    36.324366 
143464000    273.16821    401.58766    249.10445    -36019.09    36031.142    152.48321    36.295325 
143468000    263.72616    279.41103    269.97645   -36021.338    36045.315    9.4345827    36.286774 
143472000    299.79242    418.44579    462.92789   -36068.411    36072.453   -44.482096    36.270551 
143476000    283.59119    589.49027    284.21839   -36102.612     36090.57    305.27187    36.275184 
143480000    283.80681    310.95377    269.41501   -36110.473    36124.011    41.538762    36.272443 
143484000    302.72271    523.62735    231.46658   -36151.809    36151.334    292.16077     36.27545 
143488000     297.1397    283.63493    271.98188    -36190.67     36160.37    11.653046    36.271261 
143492000    305.23541    364.27948    540.31382   -36185.455    36181.914   -176.03434    36.280605 
143496000    297.85811    607.94512    237.34484   -36207.034    36210.674    370.60028    36.300307 
143500000    275.53086    443.55154    264.16195    -36237.04    36240.043    179.38959    36.287133 
143504000    310.46456    450.24535     289.4943   -36279.309    36275.989    160.75105    36.314055 
143508000    288.58664     530.9904     224.7909   -36300.635    36286.993     306.1995    36.298344 
143512000    258.73984    321.20523     388.3997   -36309.567    36350.818    -67.19447    36.294441 
143516000     281.2145    469.53849    298.14525   -36354.078    36347.613    171.39324    36.300988 
143520000    308.10058    362.22545    360.94146   -36371.575    36357.977    1.2839901    36.300676 
143524000    271.17397    440.19592    283.49153    -36385.57    36402.472    156.70439    36.297457 
143528000    254.26511    122.24716     425.2428   -36416.775    36431.059   -302.99564    36.289518 
143532000    299.39938    389.66884    478.68355   -36415.053    36418.233   -89.014708    36.285439 
143536000    288.01429     209.3686    292.19417   -36433.974    36444.676   -82.825567    36.266353 
143540000     289.9019    398.89368    461.29593   -36463.351    36473.196   -62.402245    36.261691 
143544000    269.48538      349.023    229.77135   -36465.641    36484.999    119.25165    36.255148 
143548000    290.10284    464.11051    224.85753   -36488.247    36497.916    239.25298    36.246377 
143552000    301.15221    506.84636    222.57165   -36511.603    36499.204    284.27471    36.285305 
143556000    309.76741    475.96486     481.6695   -36522.169    36524.282   -5.7046396    36.276725 
143560000    244.84213    221.06556    212.26506   -36520.742    36551.962    8.8004966    36.284424 
143564000    273.15853    369.56286    171.53208    -36533.02    36561.001    198.03078    36.283789 
143568000    272.17598    293.24048    307.16818    -36552.94    36563.029   -13.927703    36.285147 
143572000    282.14977    275.54679    335.83208   -36562.485    36578.532    -60.28529    36.274323 
143576000    286.80846    417.19221     319.4195   -36605.985    36612.596    97.772708    36.301857 
143580000    279.19975    245.71558    142.03671   -36624.673    36633.416    103.67888    36.331208 
143584000    311.37809    548.32398    325.54984   -36681.617    36674.121    222.77413    36.328876 
143588000    255.76988    564.77921    418.96511   -36698.023    36707.079    145.81409     36.32011 
143592000    275.04603    436.70157     258.1615   -36713.833     36729.26    178.54008    36.321897 
143596000    255.30351    202.57889    303.35324   -36712.945    36756.304   -100.77435    36.319934 
143600000    261.23039    524.23601    257.71552   -36770.549    36779.016    266.52049    36.330574 
143604000     271.2737    358.88167    445.56655   -36800.746    36819.124   -86.684874    36.338238 
143608000    301.85937    423.49291    469.26604   -36827.955    36822.096   -45.773131    36.339499 
143612000    279.11944    367.59755    344.61463   -36848.031    36846.834    22.982916    36.341527 
143616000     297.8289     320.0874    494.87468   -36863.655    36867.748   -174.78728    36.342522 
143620000    292.27276    294.06064    263.31083   -36889.926    36894.294     30.74981    36.346383 
143624000     313.0023    412.45386    284.56022   -36947.121    36929.389    127.89363    36.349015 
143628000    304.85417     231.8604    304.49897   -36945.133    36945.917   -72.638566    36.346921 
143632000    286.69586    362.26322     121.5758   -36962.374    36977.825    240.68742    36.339811 
143636000    274.31029      468.439    339.20527   -36993.039     37004.05    129.23373    36.365166 
143640000    270.26847    570.96349    304.54199   -37007.075    37029.234    266.42151    36.372222 
143644000    257.39795    163.64297      456.577   -37016.826    37048.183   -292.93403    36.345066 
143648000    290.65015    331.85172    352.97142   -37065.601    37067.193   -21.119698    36.323887 
143652000    296.96066    448.71626    292.02874    -37093.01    37095.419    156.68752    36.334183 
143656000     269.9141    440.89769    325.72124   -37110.303    37124.374    115.17645    36.331468 
143660000    298.57994    394.31282    306.82155   -37143.867    37125.461    87.491275    36.326095 
143664000    260.69733    267.70631    331.27986    -37144.63    37148.036    -63.57355    36.304589 
143668000     287.6677     287.7552    366.99925   -37153.573    37165.128   -79.244057    36.291575 
143672000    293.26684    511.55545    274.69434    -37169.23    37174.059    236.86112    36.300837 
143676000    283.42091    362.45849    230.21451   -37186.281    37182.876    132.24399    36.307283 
143680000    272.17711     577.4697    357.15537   -37196.465    37209.605    220.31433    36.314739 
143684000    275.91386    287.82005    371.13482   -37215.063    37224.962   -83.314776    36.291704 
143688000    306.18381    267.83273    278.46057   -37235.347    37219.736   -10.627845    36.283791 
143692000    292.06246    306.17864    242.20314   -37233.359    37249.583    63.975502      36.3104 
143696000    282.01022    312.27189    240.84938   -37272.225    37273.858    71.422506    36.286685 
143700000    295.22502    529.92242    277.87236   -37288.908    37288.392    252.05006    36.286577 
143704000    290.05918    359.82844    256.37508   -37309.583    37310.438    103.45336    36.266195 
143708000    285.98167    239.69713    370.91431   -37331.845    37323.386   -131.21719    36.270876 
143712000    279.64281    310.61608    370.58176   -37323.779    37315.854    -59.96568    36.263665 
143716000    264.08342    231.64713    206.89848    -37323.97    37347.422    24.748648    36.273592 
143720000    284.83028    265.88843    339.37106   -37344.955    37352.798   -73.482633    36.266319 
143724000    305.52824    423.03115    442.68653   -37367.093    37362.954   -19.655383    36.264962 
143728000     251.0142     253.8434    443.00846   -37369.324    37397.722   -189.16506    36.262269 
143732000    303.33059    462.99539       357.89   -37399.891    37397.446    105.10539    36.259603 
143736000    290.35088    380.55217    411.83832   -37399.442    37400.498   -31.286147    36.239796 
143740000    267.89521    363.82286    508.61439   -37409.223    37423.918   -144.79153    36.246108 
143744000    300.36765    307.37597    286.34047   -37445.603    37438.891    21.035507    36.247408 
143748000    298.98799    309.17224    391.23679   -37453.942    37462.141   -82.064546    36.240296 
143752000    290.03598    331.86009    318.42184   -37498.146     37513.04    13.438252    36.236078 
143756000    270.08615    353.00696    380.84551   -37505.947    37523.669   -27.838553    36.214727 
143760000    283.39172    476.10449     371.4821   -37525.625    37535.866    104.62239    36.201303 
143764000    291.80834    290.09126    218.79993   -37547.085    37566.303    71.291327    36.205184 
143768000    279.00972    412.13246    326.72846   -37569.728    37584.884    85.403992    36.199679 
143772000    256.40014    537.28803    281.08286   -37594.361    37585.251    256.20517     36.21599 
143776000    266.43149    413.96857    253.13152   -37593.733    37604.877    160.83706    36.215543 
143780000    303.28541    231.25527    385.62082   -37592.556    37603.535   -154.36555    36.206662 
143784000    278.65665      391.033    207.92163    -37618.49    37623.337    183.11137    36.205352 
143788000    326.31048    414.43742    614.08326   -37646.294    37632.146   -199.64585    36.199615 
143792000    253.99513    436.79506    126.99293   -37645.211    37676.508    309.80213    36.188742 
143796000    292.86929    376.26778    400.01489    -37670.46    37666.047    -23.74711    36.187423 
143800000    277.44043    383.65708    462.29073   -37690.509     37704.48   -78.633648    36.180236 
143804000    272.09136    498.03281    194.57576    -37727.65    37743.953    303.45705     36.18909 
143808000     262.8756    242.23299    247.93654   -37726.767    37767.769   -5.7035462    36.196902 
143812000    285.10998    181.15056    262.77644   -37762.182    37780.894    -81.62588     36.19552 
143816000    309.54771    268.92212    515.82633   -37795.451    37783.516   -246.90421    36.179831 
143820000    260.99093    254.82855    288.96728   -37801.755     37837.04   -34.138724    36.175964 
143824000    268.91667    411.15648    260.06911   -37811.627    37838.127    151.08737    36.174806 
143828000     289.2754    443.25009    345.25449   -37837.617    37828.824    97.995593    36.172771 
143832000    282.31528    457.95707    535.48318   -37829.587    37832.615   -77.526114    36.164179 
143836000    286.33577    278.77048    480.74945   -37841.978    37855.368   -201.97897    36.175102 
143840000     296.8505    583.68265    378.90412   -37882.207    37875.935    204.77853    36.175154 
143844000    266.89957    312.00053    303.02616   -37867.185    37892.851    8.9743695    36.176621 
143848000    277.49267    408.13395    556.64929   -37890.949    37893.394   -148.51535     36.17875 
143852000    293.60542    380.79981     362.9365    -37917.15    37916.559     17.86331    36.166672 
143856000    269.09688    224.98279    380.25219   -37919.355    37921.301    -155.2694    36.173192 
143860000    327.10738    430.98785    502.67521    -37978.91    37968.818   -71.687357    36.188308 
143864000    286.52085    214.31583    506.67061   -37996.452    37988.251   -292.35477    36.188657 
143868000    265.99444    377.66509    277.37231   -37999.632    38007.573    100.29278    36.192138 
143872000    331.57216    481.09613    265.78588   -38024.313    38000.348    215.31025    36.204379 
143876000    279.95654    195.48899    374.35128   -38003.583    38024.176   -178.86229    36.187182 
143880000    302.50282    330.03555    247.31196   -38037.689    38034.228    82.723591    36.195773 
143884000    297.37132    324.98456    362.04947   -38063.704     38054.13   -37.064903    36.203853 
143888000    265.80625    329.96883      322.132   -38063.655    38060.248    7.8368285    36.196352 
143892000    280.06392    426.54561    283.18601   -38081.255     38085.78    143.35959    36.178168 
143896000      274.456    278.57372    307.14514   -38098.722    38108.069   -28.571424    36.175708 
143900000    309.66818    512.60404    419.91945   -38119.668    38113.736      92.6846    36.164565 
143904000    294.71154    300.13351    439.45934   -38116.494     38122.31   -139.32583    36.177425 
143908000     279.8246    311.77118    458.21674   -38121.425    38125.851   -146.44555    36.175524 
143912000      287.599    329.55981    667.63428    -38148.85    38138.374   -338.07447    36.164471 
143916000    290.27757    367.44599    293.45659   -38154.493    38138.835    73.989395    36.162686 
143920000    277.97176     475.6985    266.73914    -38147.84    38149.777    208.95936    36.168304 
143924000    304.86181    576.59471    207.70872   -38163.322    38170.108    368.88598     36.18539 
143928000    305.43768    505.97551    330.63511    -38173.44    38167.925     175.3404    36.172191 
143932000    276.14518    408.54482     176.6513   -38200.942    38201.601    231.89353    36.175279 
143936000    290.33252    384.83995    261.03391   -38211.754    38228.878    123.80603    36.154379 
143940000    268.31458    324.01414    265.00663   -38219.939    38236.192     59.00751     36.16666 
143944000    291.12106    384.88247    400.22685    -38270.37    38273.068   -15.344383    36.155453 
143948000    279.85964    307.23786    577.13133   -38279.621    38294.377   -269.89347    36.149703 
143952000    280.00051    449.38022    558.99768   -38311.939    38323.868   -109.61746    36.145013 
143956000    271.93403    225.03328    562.86455    -38311.37    38322.986   -337.83127    36.133339 
143960000    283.68539    442.60386    177.51845    -38324.38    38317.981    265.08541    36.145136 
143964000     267.2349    233.61854    202.10291   -38339.503    38353.117    31.515634     36.15676 
143968000    276.71054    157.11337    228.13469   -38343.543    38334.055   -71.021316    36.167261 
143972000    263.20132    385.86167    376.69558   -38361.128     38374.96    9.1660836    36.159222 
143976000    264.75916    422.82783    324.98044   -38358.694    38391.526    97.847389    36.170016 
143980000    268.68912    413.29485     283.8138   -38396.628    38416.438    129.48105    36.154268 
143984000    276.93662     442.8322    289.73168    -38423.82    38424.084    153.10052      36.1623 
143988000    260.24936    210.78319    237.50376   -38403.064    38420.529   -26.720572    36.161653 
143992000    296.14868     366.6722    228.79579   -38413.585    38426.342    137.87641    36.154006 
143996000    270.66554    297.92023    236.07423   -38443.152    38452.043    61.846003     36.14203 
144000000    295.26231    424.78826    290.33169   -38451.798     38463.52    134.45657    36.155085 
144004000    253.60532    321.31647    484.26263   -38462.035    38503.416   -162.94617    36.134694 
144008000    306.12166    387.91074     413.0102   -38513.013    38499.697   -25.099461     36.13539 
144012000    297.54555    482.61168     244.8597    -38546.57    38543.127    237.75198    36.142464 
144016000    270.06895    336.63733    196.54309   -38544.673    38572.173    140.09424    36.141412 
144020000    246.72614    337.77814    242.89765   -38579.814    38604.023      94.8805    36.132131 
144024000    290.60129    505.41588    263.97346   -38616.515    38616.556    241.44242    36.144386 
144028000    286.74791     428.2556    323.76226   -38653.155    38657.402    104.49335    36.139718 
144032000    283.91391    379.55865    415.73426   -38668.713    38672.645   -36.175608    36.163649 
144036000    299.58865    519.71566    276.36775    -38690.85    38705.774    243.34791    36.163503 
144040000    281.86574    499.10463     648.4963   -38704.909    38710.459   -149.39167     36.17707 
144044000    303.91275    249.97345     292.6971   -38737.398     38735.67   -42.723644    36.166233 
144048000    310.46933    345.23755     372.9771    -38759.07    38749.131   -27.739554    36.166659 
144052000    297.71032     431.1765    281.74937   -38804.057    38786.529    149.42713    36.161932 
144056000    288.51126    313.92338    160.35722     -38817.5    38820.775    153.56616    36.185875 
144060000    317.93981    428.19601    314.70448   -38849.547    38840.147    113.49153    36.178824 
144064000    309.58026    550.75371    263.47855   -38892.625    38891.697    287.27516    36.183022 
144068000    298.80054    362.74753    494.84981   -38901.295     38906.75   -132.10228    36.175056 
144072000    268.02539    341.03377    364.88415   -38923.946    38941.963   -23.850377     36.16385 
144076000    242.67003    179.07057    313.84237   -38920.907    38945.962    -134.7718    36.148954 
144080000    267.75334    474.78896    572.48055   -38979.369    38994.504   -97.691598    36.166685 
144084000     304.5552    328.60355    230.72846   -39012.741    39002.385    97.875084       36.169 
144088000    267.66479    388.52718    351.61738   -39028.664    39034.181    36.909797    36.159645 
144092000    265.58067    299.20391    404.47505   -39044.064     39064.18   -105.27114    36.157579 
144096000    244.52906    355.73693    262.66668   -39070.532    39086.491    93.070242     36.14456 
144100000    282.80118    476.54444    360.29152   -39099.728    39112.961    116.25292    36.149775 
144104000     266.4406    240.25207    206.34431       -39129    39153.305    33.907762    36.151587 
144108000    279.79112    283.61417    404.97941   -39156.136    39188.072   -121.36524    36.159889 
144112000    303.72833     643.1224    316.62465    -39196.23    39182.509    326.49776    36.154567 
144116000    285.46729     524.8799    448.99011   -39216.915    39224.822    75.889791    36.164816 
144120000    261.50292    243.59322    249.91905   -39223.465    39230.624   -6.3258282    36.161462 
144124000    283.31356    354.10702    429.49119   -39242.927    39248.353   -75.384168    36.155952 
144128000     304.8064    334.56955    217.02597   -39285.906    39278.224    117.54358    36.145183 
144132000    283.10526    318.71475    490.70873   -39303.462    39309.347   -171.99398    36.138272 
144136000    272.66363    309.99472    359.77532   -39332.378    39350.362   -49.780607    36.145719 
144140000    268.44074    299.23048    352.80564   -39347.144    39352.794    -53.57516     36.15663 
144144000    266.28066    495.91031    287.88257   -39368.852    39382.976    208.02775    36.157247 
144148000    274.00285    296.54169    366.50261   -39397.854    39399.965   -69.960917    36.158841 
144152000     291.3766    334.70688    287.02503   -39434.001    39423.442     47.68186    36.159934 
144156000    279.93077     318.6836    319.99394   -39424.905    39443.045   -1.3103488    36.152732 
144160000    277.05333     422.0192    355.60125    -39469.61    39480.762    66.417947    36.150517 
144164000    291.18496    460.97875    215.61525   -39487.583    39489.163     245.3635    36.166922 
144168000    307.36459    454.37331    301.14105   -39498.386    39500.434    153.23226    36.153823 
144172000    260.39156    160.80813    347.76215   -39475.904    39499.777   -186.95402    36.161789 
144176000    287.79088    374.61067    255.16667   -39493.267    39505.353      119.444    36.167685 
144180000    279.82986    153.24164    211.91542   -39512.252    39524.558    -58.67378    36.172439 
144184000    273.22278    448.13608    299.09868   -39534.739     39544.88     149.0374    36.184796 
144188000    297.37702    333.17475    316.95335   -39553.335    39555.116    16.221397    36.197931 
144192000     305.3707    655.38079    385.49352   -39598.646    39588.624    269.88727    36.214623 
144196000     273.1521    284.43067    271.77702   -39593.355    39607.214    12.653645    36.220338 
144200000    290.58369    254.66369    270.77026   -39612.521    39598.568   -16.106574    36.236635 
144204000    309.68348    517.63693    349.55564   -39631.363    39623.309    168.08129    36.234679 
144208000    268.63807    173.97395    171.69598   -39630.542    39649.428    2.2779702     36.22234 
144212000    272.62222    294.87576    364.88535   -39635.373    39649.974   -70.009591    36.207854 
144216000    300.35284    339.34532     542.0012    -39665.72    39669.602   -202.65588    36.208554 
144220000    294.91749    290.16138    328.60007   -39678.064    39694.067   -38.438691    36.208514 
144224000    270.18235    377.30099    236.95256   -39708.996    39711.571    140.34843    36.218061 
144228000    299.52481    445.97598    294.70102   -39742.467    39733.919    151.27496    36.223399 
144232000     309.3766    323.63712      134.342     -39724.7    39733.025    189.29512    36.216932 
144236000    291.41755    257.33869    315.14489   -39752.379    39747.209   -57.806205    36.211495 
144240000    294.93615    454.22593    222.91892   -39776.387    39771.785    231.30701    36.220209 
144244000    241.09467    376.25819    240.99402   -39778.843    39816.114    135.26417    36.217466 
144248000    277.56908    252.43799    191.37994   -39781.331    39805.452    61.058056    36.195807 
144252000     275.1391    227.11732    344.04242   -39793.778    39800.119    -116.9251    36.193223 
144256000    267.45347    191.23462    218.14722   -39800.946    39840.341     -26.9126    36.200227 
144260000    249.60892    276.57186    237.59883   -39836.199    39859.142    38.973032    36.207883 
144264000    266.15605     495.3479    291.60963   -39878.082    39903.758    203.73827    36.247617 
144268000    278.12847    425.91369    317.83716   -39882.373    39897.778    108.07654    36.251156 
144272000     273.7325    449.22154    289.06893   -39893.971    39913.288     160.1526    36.240677 
144276000    257.91675     246.8398    419.46265   -39919.981    39950.239   -172.62285    36.230642 
144280000    276.69078    323.45679    281.20797   -39942.272    39964.331    42.248814     36.23008 
144284000    268.76023    310.32825    315.14406   -39973.037    40007.598   -4.8158057    36.223962 
144288000     263.5821    246.25212    387.67295   -39978.252    40000.607   -141.42083    36.209834 
144292000    280.20015    445.54832    338.70945   -40013.137     40018.79    106.83887    36.232373 
144296000    334.48101    430.05914    178.21938   -40076.773    40039.491    251.83976    36.226451 
144300000    312.21513    495.05014    207.03345   -40081.993    40041.485     288.0167    36.238028 
144304000    258.97003    265.60031    360.46349   -40049.909     40064.09   -94.863177    36.240948 
144308000    270.17046    196.72336    289.49434   -40063.319    40092.491   -92.770975    36.235149 
144312000    294.49078     236.5849    317.89453   -40083.543     40090.28   -81.309625    36.227946 
144316000    280.85103    461.54458    274.56921   -40101.407    40105.802    186.97537    36.219488 
144320000    308.20718    412.64213    407.92637   -40120.356    40123.306    4.7157587    36.227578 
144324000    290.63342    524.05864    265.28719   -40166.564    40178.704    258.77146    36.223116 
144328000    294.80943    344.97589    377.08427   -40207.393    40202.679   -32.108389    36.210785 
144332000    274.61525    512.37153    289.65071    -40205.25    40219.097    222.72083    36.218736 
144336000    303.68572    477.82044     317.9086   -40241.535    40236.637    159.91184    36.229405 
144340000    291.49973    370.09287    286.21984   -40270.308    40268.196    83.873023    36.227596 
144344000    294.05981    425.03164    261.56786   -40270.323    40267.638    163.46378    36.238201 
144348000    287.92229    553.42158    482.84545   -40263.072    40255.547    70.576132    36.228364 
144352000    282.47862    484.19061    271.14255   -40269.848     40284.62    213.04806    36.249245 
144356000    274.55958    406.52015    218.15691   -40268.196     40288.82    188.36324    36.247915 
144360000     276.3024    382.25012    354.50154   -40277.929    40305.121    27.748586    36.243838 
144364000    256.92621    209.18735     366.0951   -40297.582    40314.328   -156.90774    36.231279 
144368000    275.79959    441.36542    257.16096   -40326.309     40337.93    184.20446    36.234939 
144372000    283.65684    543.22331    498.02921   -40355.387    40356.247    45.194103     36.23729 
144376000    288.58466    315.21776    173.58448   -40355.112    40371.724    141.63327    36.244865 
144380000    273.29996    225.91132    286.66439   -40366.278    40391.098   -60.753072    36.250252 
144384000    301.77456    355.35991     277.2363   -40404.612    40420.668    78.123609    36.253762 
144388000    268.57513    587.49008    389.98488    -40452.66    40444.367     197.5052    36.254429 
144392000    309.51537    352.46247      300.898   -40481.853    40462.126    51.564469    36.270947 
144396000    288.04571    227.71427    293.44126   -40470.353    40476.566   -65.726987    36.262261 
144400000    274.72929    346.67588    323.68388   -40500.516    40509.742    22.991996    36.237272 
144404000    270.97582    310.43277    225.81906   -40518.699    40519.855    84.613713    36.229142 
144408000     277.7467    258.26507    385.89462   -40514.444    40535.783   -127.62956    36.216037 
144412000    256.75181    519.06712    229.00676   -40508.404        40541    290.06036    36.230706 
144416000    275.00338    363.78653     349.7787   -40520.976     40546.56    14.007825    36.230871 
144420000    272.11727     226.8637    380.14479    -40547.46    40571.808   -153.28109    36.232027 
144424000    253.46191    265.73918     119.2776   -40568.777    40594.197    146.46158    36.251097 
144428000    289.74831    320.52341    452.70101   -40590.802    40597.425    -132.1776    36.238525 
144432000    276.04533    287.42089    266.30725     -40593.3    40609.169    21.113641     36.24331 
144436000    282.13736    260.54138    202.06291   -40607.332    40629.086    58.478475    36.240788 
144440000    282.99997    326.86346    351.91765   -40663.774    40678.851   -25.054188    36.235569 
144444000    274.85464    353.73741    390.00307   -40694.218    40706.707   -36.265654    36.234623 
144448000     271.3116    276.64805    453.58962   -40683.236    40714.833   -176.94158    36.241581 
144452000    283.00232    213.62279    208.89065   -40728.477    40729.431    4.7321424    36.237594 
144456000    247.37967    300.08389    186.28054   -40738.465    40757.312    113.80335    36.253078 
144460000    282.15141    406.31204    499.42702    -40754.71    40766.078   -93.114985      36.2436 
144464000    290.05609    378.61822    226.06783    -40778.75    40773.141    152.55039     36.25798 
144468000    310.63722    226.93558    388.41447    -40818.46    40800.643   -161.47889    36.245888 
144472000    271.32674     215.7033    354.45958    -40839.87     40873.19   -138.75628     36.24529 
144476000    274.59401    398.72295    439.08928   -40869.637    40896.554   -40.366325    36.242274 
144480000    294.53102    393.11741    150.81328   -40890.841    40880.913    242.30412     36.23583 
144484000     289.8109    419.34556    105.71392   -40885.059    40891.985    313.63164    36.256611 
144488000    293.44708    309.81797    216.64274   -40889.542    40883.793    93.175226    36.266631 
144492000    284.65301    450.19564    316.17887   -40892.235    40893.237    134.01677    36.257624 
144496000    307.72522    291.45597    384.36181   -40916.244    40912.867   -92.905843     36.24117 
144500000    272.60107    281.68444    271.92477   -40916.837    40918.709    9.7596647     36.22434 
144504000    298.60425    536.11025    353.55626   -40934.658    40927.163    182.55399     36.21924 
144508000    317.87075    308.69878    398.44883   -40947.381    40927.527   -89.750046    36.220896 
144512000    299.85181    245.23917    290.26096   -40967.939    40968.975   -45.021796    36.213629 
144516000    293.14421    510.94691    466.61044   -41003.683    41010.956    44.336475    36.214147 
144520000    271.37362    335.01173    170.52353   -41035.092      41042.1     164.4882    36.217412 
144524000    285.60462    318.83679    262.71915   -41047.992    41054.835    56.117646    36.211999 
144528000    318.20193    503.07462    473.63006   -41089.158    41077.026    29.444556    36.208418 
144532000     283.1623    276.73744    120.80555   -41077.824    41105.924     155.9319    36.200892 
144536000    294.80374    369.51539    320.93719   -41103.691    41105.058    48.578202     36.21191 
144540000    286.79039    334.97606      429.531   -41096.425     41107.13   -94.554938    36.209187 
144544000    269.84556    418.07694    393.99146   -41132.781    41136.193    24.085482    36.229505 
144548000    265.84691    406.39654    273.92917   -41153.109    41190.028    132.46737     36.22846 
144552000    278.17762    300.39792    280.14941   -41186.773    41187.553     20.24851    36.234439 
144556000    278.24997    272.94887    384.85119   -41204.417    41211.342   -111.90232    36.228768 
144560000    287.48604    338.89392    391.84556   -41255.593     41248.19   -52.951635    36.230985 
144564000    278.80576    341.70627     411.5835   -41274.342    41283.939   -69.877237    36.221401 
144568000     313.1028     449.8645    367.43631   -41304.582    41301.343    82.428189    36.227714 
144572000    292.76541     292.2866    356.79705   -41293.747    41318.125   -64.510451    36.218363 
144576000    270.38361    341.69833     448.3453   -41288.696    41325.177   -106.64697    36.225233 
144580000    268.58877    356.81986    179.32728   -41330.601    41340.225    177.49258    36.221753 
144584000    307.70811    383.07701    262.01877   -41367.694    41360.878    121.05824    36.215483 
144588000    250.60122    527.09633    232.00697    -41374.91    41383.757    295.08936    36.210922 
144592000    302.73021    272.32446    352.18556   -41394.758    41394.774   -79.861093    36.193127 
144596000     288.0725    340.76852    429.06762   -41433.827    41430.892   -88.299104     36.20119 
144600000    277.21037    363.65773    327.25827   -41450.995     41455.16    36.399459     36.19644 
144604000    277.73507    436.16163    441.57498   -41461.042    41484.431   -5.4133493    36.196297 
144608000    278.65601    254.18176    217.75568   -41470.089    41491.193     36.42608    36.185754 
144612000    288.73083    434.97433    259.88093   -41506.142    41517.134     175.0934    36.188773 
144616000    260.05115    404.54518    122.52631    -41523.97    41547.643    282.01887    36.174862 
144620000    278.66481    203.28391    231.09037   -41539.758    41562.663   -27.806455    36.164316 
144624000    289.50778    535.67339     411.4275   -41560.239    41562.836    124.24588    36.160107 
144628000    280.42552     393.8495    449.63655   -41576.976    41597.124   -55.787052    36.149054 
144632000    276.85309    418.31353    411.58832   -41600.143    41619.935    6.7252123    36.159146 
144636000    279.56019    404.08091    330.51232   -41624.644    41628.888    73.568584    36.148393 
144640000    307.01174    476.99139    330.26722   -41661.286    41653.188    146.72418     36.16014 
144644000    273.02922    368.05167    183.23719   -41648.499    41679.275    184.81448    36.167136 
144648000    305.97014    435.89696    407.84711   -41663.742    41674.031    28.049845    36.180022 
144652000    272.87322    256.11786    251.14772   -41688.451    41697.016    4.9701374    36.168303 
144656000    293.36021     343.5793     181.1293   -41731.534    41726.032    162.44999     36.15762 
144660000    272.52709    256.09263    269.20093   -41745.004    41753.376   -13.108299    36.169082 
144664000     283.1006    618.13226    399.91135   -41760.805    41773.865    218.22091    36.189467 
144668000    289.16046    378.64144    512.59004   -41774.073    41786.482    -133.9486    36.192858 
144672000    298.15301    353.20162    497.72311   -41814.182    41806.238   -144.52148    36.179978 
144676000    284.34179    265.30036     345.7695   -41830.646    41848.741   -80.469145    36.163061 
144680000    273.66702     384.0093    281.26246   -41839.186    41867.923    102.74684    36.162575 
144684000    267.44907    335.68948    475.55403   -41842.927    41886.452   -139.86455    36.151583 
144688000    297.25743    366.67963     541.9369   -41873.587    41875.316   -175.25727    36.154351 
144692000    294.84678    166.11894    241.42556   -41897.959    41895.565   -75.306622    36.155663 
144696000    308.73773    414.25507    246.48868   -41940.632    41946.732    167.76639    36.157667 
144700000    277.22555    217.12798    198.04085   -41942.539    41973.816    19.087128    36.157132 
144704000    283.30548    383.52043     258.9266   -41965.804    41968.881    124.59383    36.165684 
144708000    308.88926    290.83437    299.60473   -42002.404    41978.738   -8.7703541    36.159655 
144712000    262.46397     289.3716    254.84061   -41971.242     41990.46     34.53098    36.165529 
144716000    279.96574    407.23464    329.29005   -41980.162    41985.389    77.944595    36.171847 
144720000    269.45544    296.05808    251.50938     -41978.8     41977.05    44.548697    36.185119 
144724000    310.04396    492.52701    272.84244   -42025.476    42020.003    219.68457    36.189347 
144728000    306.98489    334.49432    335.58211   -42053.013    42043.324   -1.0877896    36.174213 
144732000    278.98592    441.38654    220.84941   -42055.163    42058.045    220.53713    36.186784 
144736000    258.71876    243.02691    153.15589   -42057.126    42087.097    89.871023      36.1712 
144740000    298.97526    525.36787    227.98277   -42104.933    42092.847    297.38511    36.170993 
144744000    254.39575    386.73945    286.58527   -42116.881    42141.448    100.15418    36.182846 
144748000    276.22128     326.5225    144.30779   -42145.988    42161.896    182.21472    36.183958 
144752000    304.49333    403.65559    279.71571   -42180.787     42167.47    123.93988    36.175495 
144756000    280.89703    484.51242    201.15202   -42201.725    42212.955     283.3604     36.19577 
144760000    298.36869    394.16281    482.38534   -42238.569    42228.549   -88.222523    36.198769 
144764000     281.5271    292.24095    417.09592   -42237.675    42247.438   -124.85497    36.200206 
144768000    277.70141    487.93844    423.86452   -42267.483    42272.858    64.073926     36.19654 
144772000    272.69832    362.10978    323.64595    -42302.61    42317.898    38.463837    36.184852 
144776000    299.49538    514.33968     419.6016   -42313.494    42324.115    94.738086    36.172235 
144780000    274.07631    311.84171    388.18933   -42334.184    42338.409   -76.347614    36.186356 
144784000    280.73187    261.79326    308.76175   -42353.984    42367.539   -46.968485    36.157285 
144788000    265.98121    483.49187    251.87805   -42380.128     42385.14    231.61382    36.154087 
144792000    306.68958    534.17908    591.92844   -42401.415    42387.889   -57.749351    36.143722 
144796000    293.43958    413.01712    455.70412   -42412.649    42404.877      -42.687    36.143761 
144800000    265.74643    274.23969    378.55402   -42408.329     42426.17   -104.31433    36.144428 
144804000    252.04535    433.42283     363.0349   -42430.721    42447.326    70.387927    36.131511 
144808000    301.63081    396.41535    245.74981   -42484.466      42485.6    150.66553    36.150424 
144812000    287.55548    205.29653    511.12496   -42520.534    42516.327   -305.82843    36.135675 
144816000     297.2137    591.59235    401.06646    -42560.56    42561.659    190.52589    36.146272 
144820000    253.86482    256.19701    216.31153   -42572.028    42591.244    39.885484    36.131489 
144824000    241.37161    276.58021     336.7498    -42598.83    42635.546   -60.169597    36.154928 
144828000    268.53206    528.10587    331.10653    -42644.39    42670.777    196.99934    36.171395 
144832000     279.3745    325.36143    238.54953   -42689.393    42694.054    86.811899    36.172091 
144836000    296.33822    482.14963    326.71769   -42696.173    42690.271    155.43194    36.180194 
144840000    282.51682    497.17503    214.21057   -42694.634    42689.923    282.96446    36.196528 
144844000    252.17157    261.65735    373.22764   -42695.174    42705.469   -111.57028    36.197785 
144848000    264.78223    356.22296    149.47263   -42707.171     42728.51    206.75033    36.190442 
144852000    295.30358    416.70061    358.76969   -42745.405    42744.071    57.930913      36.2087 
144856000    270.35596    388.52243    395.57508   -42780.011    42792.903   -7.0526529    36.201754 
144860000    292.90594    381.64758    457.64074    -42798.74    42804.494    -75.99316    36.204411 
144864000    262.35012    411.48596    280.36083    -42785.12    42811.549    131.12513     36.19611 
144868000    273.50188    367.06523    311.14912   -42797.149    42818.233    55.916112    36.210065 
144872000    268.11106    320.95413    221.36595   -42825.129    42835.902     99.58818     36.23846 
144876000    287.01062    235.07081    261.47289   -42838.424    42848.472    -26.40208    36.242166 
144880000    283.50052    329.60751    384.28598    -42870.36    42869.065   -54.678473     36.25047 
144884000    273.60971    383.39098    248.67903   -42894.318    42911.488    134.71195    36.252801 
144888000    288.44288    369.64138    347.19191   -42903.214    42914.782    22.449469    36.252389 
144892000    271.07091    352.67404    271.41084   -42948.376    42961.803    81.263204    36.258444 
144896000    292.39263    485.54371    232.90437   -42969.344    42982.716    252.63933    36.254793 
144900000    283.30744     275.1443    260.39978   -42988.596    43002.286    14.744529    36.253529 
144904000    298.15496     377.7374    287.04198   -43010.727    43005.781    90.695416    36.260929 
144908000    278.63388    262.35171    325.44177   -43013.151    43033.666   -63.090061    36.268391 
144912000    325.30214    267.45381    266.34433   -43041.854    43025.315    1.1094798    36.259872 
144916000    292.37181    499.43018     453.7179   -43054.448    43071.722    45.712282    36.262444 
144920000    292.09088    301.22365     234.3287   -43076.883     43073.35    66.894952    36.276668 
144924000    280.36214    408.99449    414.10772   -43098.548    43109.567    -5.113233    36.265303 
144928000    297.50491    324.85472    334.40635    -43124.15    43110.863   -9.5516209    36.261779 
144932000    281.14646    388.55845    173.52279     -43140.9    43144.343    215.03566    36.258951 
144936000    275.61578    407.57772    320.95609   -43154.067    43168.435    86.621622    36.248593 
144940000    283.74386    294.79721     365.4642   -43179.693    43192.392   -70.666988    36.265332 
144944000    278.57754    474.13048    493.55163   -43192.847    43199.576   -19.421152    36.251591 
144948000    315.16541    495.83476    379.97457   -43202.033    43189.079    115.86019    36.246927 
144952000    276.46924    422.72804    192.01457   -43202.019    43207.589    230.71347     36.23953 
144956000    314.31513    435.54893    342.91589   -43228.178    43217.193    92.633038     36.23646 
144960000    284.82275    409.87933    482.01812   -43238.125     43241.62   -72.138795      36.2338 
144964000    304.81032     261.3417    423.41286   -43257.152    43261.107   -162.07115     36.23284 
144968000    265.58383    334.30984    279.14492   -43258.984    43280.948    55.164918    36.233682 
144972000     278.4308    240.27034    344.03309   -43265.257    43289.945   -103.76275    36.241908 
144976000     270.9736    457.29096    485.05619   -43279.533     43298.84   -27.765232    36.228779 
144980000    285.14645    486.88029    358.73464   -43313.096    43325.536    128.14564    36.236324 
144984000    256.87999    315.97716    253.07603   -43339.332     43367.71    62.901134    36.223237 
144988000    262.75076    450.11762    370.03358   -43365.199    43391.292    80.084041    36.245746 
144992000    272.54651    293.89996      366.991   -43402.024    43421.647   -73.091046    36.257782 
144996000    262.02421    304.79976    392.80816   -43421.738    43437.774   -88.008399    36.253803 
145000000    263.24881    289.06396    327.27591    -43446.57     43468.14   -38.211944    36.253216 
145004000    292.79512    360.03569    236.96648   -43490.096    43476.158    123.06921    36.252822 
145008000    312.39835    512.43304    433.74777   -43483.438    43487.487    78.685275    36.256289 
145012000    292.12099    435.48248    307.63808   -43498.831    43524.946     127.8444    36.260842 
145016000    287.72012    501.79622    520.57053   -43518.379     43525.17   -18.774316    36.273298 
145020000    289.98363    424.76386    302.80836   -43553.652    43561.033     121.9555    36.275324 
145024000    287.97405    440.33817    285.38605   -43588.954    43590.217    154.95212     36.28815 
145028000    289.04889    288.82836    257.58077   -43601.759    43613.885     31.24759    36.287405 
145032000    312.28904    520.49359     262.7699   -43621.475    43612.915    257.72369    36.287928 
145036000    254.29924    345.57068     179.5313    -43609.78    43634.191    166.03938    36.296173 
145040000    277.83994    558.13572    434.31265   -43618.319    43649.823    123.82307    36.308745 
145044000    249.69051    302.28955    336.64512   -43620.996    43669.079   -34.355572    36.299544 
145048000    285.57801    374.89295     437.3127   -43660.577    43660.856   -62.419754    36.301683 
145052000    286.31105    254.80488    302.15752   -43693.473    43684.105   -47.352647    36.302729 
145056000    278.37403    290.07363    326.91309   -43727.407    43747.525   -36.839454    36.294152 
145060000    287.38435    504.23752     284.0068   -43772.852    43769.201    220.23072    36.290504 
145064000    279.15901    155.38092    262.83364    -43806.14    43820.644   -107.45273    36.288155 
145068000    291.02405    325.37121    209.63712   -43833.499    43849.929    115.73409    36.284696 
145072000    294.15422    395.44164     351.1094   -43859.716    43855.252    44.332241    36.288734 
145076000    272.82654    275.40752    325.14638   -43878.993    43895.899    -49.73886    36.264017 
145080000    246.88517    373.82913    254.35644   -43883.517    43914.348     119.4727    36.259119 
145084000     285.1106     298.2454    321.89819   -43917.881    43921.236   -23.652789    36.253135 
145088000    252.93329    266.86832    118.50464   -43916.372     43936.59    148.36368     36.25541 
145092000    282.22459    250.53774    335.06626   -43937.125    43939.062   -84.528518    36.247586 
145096000    288.13222    230.37091    379.33205   -43960.819    43965.015   -148.96114    36.245508 
145100000    261.62477    411.73095    257.13331   -43997.575    44001.327    154.59764    36.238912 
145104000    296.06604    447.45531    221.77777   -44001.721    44009.231    225.67755    36.235073 
145108000    281.36609    405.02346    221.12397   -44028.256    44046.072    183.89948    36.241134 
145112000    278.79786    303.48456    350.15658   -44047.235    44069.637   -46.672015    36.235247 
145116000    256.35631     408.8278    259.13365   -44050.371    44088.114    149.69415    36.256403 
145120000    278.60234     484.8569    390.74635   -44075.411    44083.428    94.110549    36.257161 
145124000    289.76642     465.7057    271.20741   -44105.584    44107.934     194.4983    36.255378 
145128000    277.57719    366.05734    306.24551   -44140.086    44143.537     59.81183    36.255071 
145132000    279.55078    305.22652    353.48351   -44128.478    44158.797   -48.256981    36.246107 
145136000    267.22195    183.75799    226.57839    -44152.52    44177.686   -42.820396    36.247104 
145140000     290.7333    283.47505    435.59614   -44190.712    44184.857   -152.12109    36.241216 
145144000    297.58843    185.33136    317.78291   -44195.694    44181.775   -132.45155    36.262557 
145148000    283.75544    287.52809     383.9578   -44192.641    44180.167    -96.42971    36.276461 
145152000    282.48135    236.92744    284.81575   -44199.403    44213.191   -47.888315    36.290261 
145156000    271.10243    382.60049    291.87371   -44233.357    44248.124    90.726774    36.284169 
145160000    332.54618    535.42829    305.41599   -44247.727    44234.655    230.01231    36.291658 
145164000    265.29157    367.16308    215.86978   -44254.883    44258.554     151.2933    36.284262 
145168000    289.05794    513.20903    398.87608   -44248.624    44268.337    114.33295     36.27333 
145172000    276.81492    419.35662    240.15137   -44280.383    44301.978    179.20525    36.279167 
145176000    293.78555    312.05255    252.45924   -44302.532    44314.551    59.593305    36.291743 
145180000    320.17997    555.07532    240.59946   -44338.158    44320.878    314.47586    36.308551 
145184000    301.26651    381.01609    330.07372   -44349.935    44356.796    50.942374    36.311281 
145188000    287.63762    595.15385    244.71885   -44393.236    44390.543      350.435    36.301896 
145192000    267.50461    253.85364    233.28258   -44397.358    44405.927    20.571066    36.317007 
145196000    309.33319    302.54736    398.27835   -44430.068     44417.86   -95.730994    36.312786 
145200000    298.40636    299.10631    337.15944   -44424.621    44429.648    -38.05313    36.307499 
145204000    279.20466    422.73741    329.27745   -44435.573    44444.321     93.45996    36.311296 
145208000    286.85455    477.30682    288.53554    -44442.74    44462.335    188.77128    36.317972 
145212000    280.74697    235.81036    206.63757   -44465.494    44479.045    29.172784    36.312897 
145216000    300.70661    294.44814    277.99511   -44498.338    44493.975    16.453028     36.31717 
145220000    287.27578    299.79873    304.43529   -44501.879    44507.642   -4.6365635    36.328932 
145224000    281.18179    427.81569    346.02592   -44512.683    44525.333    81.789762    36.350598 
145228000    264.90742     336.4303    250.45825    -44518.11    44543.971    85.972051    36.351483 
145232000    286.47428    268.84953    281.24321   -44544.067    44566.001   -12.393681    36.353091 
145236000    241.76263    320.21607    202.63178   -44576.742     44611.72    117.58429    36.360855 
145240000    289.57809    297.58207    330.28838   -44614.456    44613.024   -32.706308    36.336019 
145244000    282.61061    290.11449    376.69966   -44626.649    44629.845   -86.585168    36.333631 
145248000    273.19958    137.02963    302.61935   -44646.986     44649.45   -165.58972    36.330272 
145252000     280.8494    268.17734    248.72099   -44638.982    44650.275    19.456351    36.318404 
145256000    265.02304    325.06345    341.53529   -44623.197    44636.494   -16.471844    36.305954 
145260000    287.91832    507.05917    284.89198   -44649.992    44653.534     222.1672     36.30485 
145264000      301.528    342.28303    305.40837   -44657.625    44643.605    36.874659    36.317897 
145268000    278.24967    426.50382    316.55036   -44677.243    44693.259    109.95345     36.31603 
145272000    287.48359    355.65375    422.30763   -44682.332    44692.856   -66.653881    36.300431 
145276000    286.33532    248.46851    167.99708   -44682.613    44696.272    80.471434    36.299594 
145280000     303.0531    560.13658    472.25986   -44690.723    44691.425    87.876724    36.302082 
145284000    260.43306    408.87813    294.39259   -44709.907    44739.466    114.48554    36.316662 
145288000    303.57771    431.66423    760.99952   -44740.458     44720.84   -329.33529    36.318218 
145292000     275.1778    276.40737    190.40662   -44751.491    44777.488    86.000744    36.318097 
145296000    286.69486    327.86542    197.53647     -44781.4    44797.772    130.32895    36.334847 
145300000    269.17822    192.52392    529.30096    -44795.86    44809.735   -336.77704    36.333763 
145304000    297.85234    330.11655    230.20111   -44824.617    44824.497    99.915448    36.339566 
145308000    283.19028    373.00375    235.36672    -44872.95    44848.282    137.63704    36.354424 
145312000    272.95703    217.11973    218.26835   -44872.345    44881.327   -1.1486204     36.36239 
145316000    255.78456     411.6366    255.83868   -44908.657    44906.821    155.79793    36.347665 
145320000    261.63246    427.87909    364.74665   -44897.911    44927.156    63.132441    36.349255 
145324000    296.92758    300.40431    192.36963   -44917.002    44923.138    108.03467    36.364451 
145328000    259.57944    283.35507    257.05223   -44946.493      44965.9    26.302843    36.351413 
145332000    259.92345    507.67597    422.56374   -44963.467    44968.891     85.11223    36.359735 
145336000    295.12074    181.09891    368.78774   -44962.713    44961.661   -187.68882    36.357379 
145340000    270.59187    397.90758    253.84079   -44956.131    44976.241    144.06679    36.344635 
145344000    296.51988    388.98938     444.0842   -44988.315    44974.364   -55.094819    36.340544 
145348000    292.76055    400.55643    248.27718    -45002.89    44995.219    152.27925    36.348496 
145352000    295.08283    434.20752    380.42984   -45019.579    45017.983    53.777678    36.355095 
145356000    287.49003    341.42457    320.98755   -44998.706    45020.403    20.437019    36.361821 
145360000    260.76365     447.3991    257.77477   -45001.426    45021.669    189.62433     36.34644 
145364000     284.6058    446.47412    346.78569   -45014.322     45036.42    99.688424    36.360536 
145368000    297.92109    360.18507    363.97081   -45050.014    45059.725    -3.785741    36.377806 
145372000    280.22548    576.00927    381.77507   -45095.525    45095.459    194.23421    36.395012 
145376000    270.19131    424.96295    336.48208   -45094.677    45106.904    88.480868    36.390026 
145380000    286.32472    306.99842     343.7646   -45116.775    45121.785   -36.766186    36.390547 
145384000    308.90186    316.67522     334.6186    -45135.13    45126.193   -17.943378    36.396764 
145388000    264.75082    325.75193    317.66423   -45120.221     45145.04     8.087696    36.397158 
145392000    298.12425    572.27673    556.03879   -45162.313    45178.885     16.23794    36.379958 
145396000    307.62183    359.87099    267.68375   -45200.324    45194.501    92.187246     36.38305 
145400000    284.16134    350.55192    284.04579   -45200.016    45210.512    66.506134    36.365656 
145404000    297.64288    409.78679    221.45788   -45205.883    45207.434    188.32891    36.376541 
145408000    285.83307    302.92891     465.7208   -45202.782    45225.561   -162.79189    36.381908 
145412000    284.89784     373.7211    185.44372   -45212.952    45225.336    188.27738    36.369574 
145416000     288.9473    382.68548    498.47269   -45257.865    45245.222   -115.78722    36.368224 
145420000     319.0905    364.14197    312.91792   -45272.709    45259.249    51.224051    36.366881 
145424000    286.10838    666.95585    334.03973   -45297.769    45297.977    332.91612    36.359396 
145428000     308.4402    407.66291     376.1154   -45319.696    45314.436    31.547513     36.34806 
145432000    294.32789    289.01794     204.5533   -45341.755    45350.594    84.464635    36.343725 
145436000    296.30167    495.77465    368.36036   -45357.298    45354.727     127.4143    36.344196 
145440000    292.56188    375.12971    223.46701   -45379.228    45378.179     151.6627    36.349039 
145444000     275.9448    251.72105    189.48201   -45411.552    45423.564    62.239048    36.365481 
145448000    291.52284    285.82287    294.35969   -45430.576    45418.322   -8.5368235    36.372697 
145452000    273.44133    519.08002     114.3488   -45476.494    45473.636    404.73122    36.386032 
145456000    255.08508    437.01036    202.04273   -45465.308    45489.699    234.96763    36.384834 
145460000     271.1451    410.99842    245.49854   -45490.994    45515.097    165.49988    36.370461 
145464000    260.14778    352.20053     284.8558   -45516.802    45535.831    67.344724    36.358221 
145468000    273.59302    381.06305    311.99097    -45543.43    45555.419    69.072084    36.363069 
145472000    284.71518    429.29117    316.29915   -45579.054    45587.529    112.99202    36.361809 
145476000    274.70432    347.48779    357.27114   -45583.506    45584.317   -9.7833476    36.346864 
145480000    327.94633    545.26363    339.31907   -45642.372    45612.673    205.94456    36.352155 
145484000    282.05108    314.47536    294.35555   -45627.836    45628.903    20.119808    36.333839 
145488000    268.53534    427.66264    522.51734   -45629.538     45654.53   -94.854697     36.34044 
145492000     264.9774    439.96391    164.55697   -45665.779    45673.007    275.40694     36.34415 
145496000    277.22984    310.59511    247.96287   -45659.964    45660.787     62.63224    36.330348 
145500000    251.73556    262.34018    234.89029   -45654.759    45671.092    27.449892    36.320639 
145504000    287.42679    438.17544    351.99543   -45665.873    45659.489    86.180016    36.309714 
145508000    280.38451    333.99484    503.46511   -45666.683     45679.58   -169.47026    36.296231 
145512000    285.11372    360.28535    304.97526   -45659.944    45671.125    55.310082    36.305873 
145516000    257.24897    258.84657    323.74174   -45670.486    45694.048   -64.895175    36.314438 
145520000    254.13672    295.88507    313.16935   -45690.325    45734.705   -17.284276     36.30682 
145524000    256.77954    455.57312    352.26335   -45732.725    45759.215    103.30977    36.305651 
145528000    296.85219    304.15833    254.47406    -45758.21    45761.984     49.68427    36.304385 
145532000    279.06281    475.24189    418.36822   -45792.106    45780.393     56.87367    36.309711 
145536000    273.53458    276.97896    250.50086   -45786.131    45805.682    26.478102    36.313178 
145540000    269.05861    224.74217    289.37839   -45805.027    45838.157   -64.636221    36.303746 
145544000     273.0712       336.67    277.57042   -45851.223    45868.416    59.099587    36.305673 
145548000    284.16733    392.06694     372.3731   -45860.441    45862.248    19.693847    36.324416 
145552000    283.66511    296.26226    222.92737   -45856.139    45885.866    73.334882    36.340895 
145556000    263.68517    221.43343    170.71031       -45845    45882.006    50.723113    36.335671 
145560000    266.04031     404.8821    336.88226   -45884.129    45920.624    67.999841    36.329714 
145564000    266.99548    637.02543    513.49131   -45924.835    45942.808    123.53412    36.325524 
145568000     276.5389    193.15482    328.60582   -45951.685    45962.157     -135.451    36.314546 
145572000      293.248    555.39294    304.24642   -45970.813     45983.19    251.14652    36.322802 
145576000    279.53584    340.47547    327.80542   -46008.524    46021.196    12.670044    36.316241 
145580000    306.45656    315.18088    370.96255   -46029.432    46023.541   -55.781673    36.314551 
145584000    299.58024    404.96928     308.8857   -46047.936     46032.14    96.083581    36.312865 
145588000    288.92957    354.00746    270.79002   -46053.313    46046.114    83.217443    36.312445 
145592000     242.4026    364.33218    227.69964   -46054.473    46081.261    136.63254     36.30408 
145596000    282.95562    209.65276    318.17587   -46081.125    46083.221   -108.52311    36.314407 
145600000    316.77831    371.35641    227.70833    -46114.11    46110.582    143.64808     36.31388 
145604000    274.84637     327.2187    435.14397   -46112.897    46129.944   -107.92527    36.311981 
145608000    284.73829    719.20543    307.03804   -46122.614    46136.642    412.16739    36.318829 
145612000    299.61055    326.75648    389.18639   -46139.259    46121.028   -62.429907    36.313534 
145616000    261.09064    360.06693    174.97281   -46136.447    46153.957    185.09412    36.321343 
145620000    302.97705    387.60211    372.23934   -46191.658    46177.793    15.362771    36.324161 
145624000    258.79574     332.1261    298.34532   -46209.256    46225.873    33.780778    36.332429 
145628000    306.84551    325.41489    237.14231    -46251.78    46234.216    88.272581     36.34148 
145632000     296.9281    584.58773    347.26718   -46258.481    46269.117    237.32055    36.344098 
145636000    282.98177    541.50961    467.00624   -46270.208    46285.453    74.503369    36.344168 
145640000    282.67204     155.4883    223.71844   -46296.636    46316.813   -68.230136    36.340169 
145644000    289.71681    336.57431    294.77339   -46326.336    46313.287    41.800924    36.335259 
145648000    306.94864    381.04349    223.46738    -46333.88    46340.827    157.57611    36.345063 
145652000    287.54168    346.26962    278.86473   -46366.727    46377.721    67.404888    36.340084 
145656000    291.77638    466.49494    389.36927    -46400.16    46408.754    77.125678    36.342624 
145660000     245.9893    484.70831    297.69712   -46400.918    46455.688    187.01119    36.339481 
145664000    281.38911    214.14106    310.34215   -46451.387    46445.448   -96.201091    36.352369 
145668000    263.08583    333.67385    338.70946   -46452.004    46479.825   -5.0356175    36.354544 
145672000    294.01049    345.21267    414.63462   -46496.129    46502.325   -69.421943    36.351851 
145676000    282.64008    461.28564     255.7105   -46537.919    46565.484    205.57514    36.365323 
145680000    271.55774    408.96858    287.24695   -46600.334    46596.885    121.72164    36.375855 
145684000     291.5944    290.46963    358.28201   -46589.375    46599.475   -67.812377    36.381877 
145688000    277.95337    574.46421    198.10031   -46623.191    46630.308    376.36391    36.389619 
145692000    285.10021    486.11932    297.16955    -46637.87    46659.341    188.94977    36.388416 
145696000    306.31359    394.46029    341.21712   -46681.285    46679.734    53.243174    36.388091 
145700000    279.46048    622.77276    526.04381   -46688.998    46688.504    96.728943    36.381037 
145704000    276.31689    541.34525    292.24422   -46708.562    46724.679    249.10103    36.375556 
145708000    297.65143    416.22636    241.82365    -46732.45    46726.608    174.40271    36.368057 
145712000    277.46706    290.57976    210.80076   -46741.504    46744.757    79.779007    36.370097 
145716000    252.79793    155.46919    270.22785   -46760.974    46791.381   -114.75866    36.369768 
145720000    285.31281    415.96856     270.4483   -46788.468     46816.07    145.52025     36.36705 
145724000    306.64144    321.25375    462.24505   -46826.294    46805.072    -140.9913    36.350757 
145728000     281.1775    504.45918    414.10093   -46837.857    46850.255     90.35825    36.350953 
145732000    246.11636    269.81608    226.64006   -46836.233    46864.687    43.176026    36.353934 
145736000    260.83044    218.96782    416.90754   -46826.197    46866.667   -197.93972     36.34004 
145740000    228.06569    424.72802    408.91254   -46833.011    46885.012    15.815485     36.34841 
145744000    269.62895    416.61964    337.01982   -46855.081    46887.532    79.599819    36.359398 
145748000    291.82344    527.75229    262.42413   -46877.808    46884.033    265.32816    36.367801 
145752000    269.82376     402.4354    322.29294   -46888.151    46903.882     80.14246    36.364518 
145756000    295.06958    515.73596    234.08063   -46915.483    46915.622    281.65532    36.361902 
145760000    304.95333    342.23863    260.37267    -46924.55    46915.989    81.865961    36.362618 
145764000    280.97307    594.32575    387.99036   -46939.089    46941.923    206.33539    36.359618 
145768000    289.66645    307.37984    310.45245   -46946.691    46953.254   -3.0726145    36.358953 
145772000    280.19238    271.02869     366.8186   -46979.738    46981.472   -95.789914    36.339304 
145776000    289.70408    358.17938    217.01857   -46989.483    46987.173    141.16081    36.331447 
145780000    266.60143    191.06543    196.74141   -46993.464    47010.293   -5.6759829    36.329262 
145784000    278.64145    429.51911    407.68108   -47030.836    47053.976    21.838024    36.326202 
145788000    296.53007    643.07592    410.57742   -47070.272    47057.345     232.4985    36.323476 
145792000    302.04784     798.3156    338.47601   -47092.376    47098.892    459.83959    36.318499 
145796000    274.32082    473.35488    423.05917   -47123.349     47136.77    50.295707    36.323718 
145800000    286.76274    294.29407     371.0777   -47144.959    47162.913   -76.783636    36.320439 
145804000    263.29697    449.59104     293.7002   -47194.818    47203.851    155.89084    36.323276 
145808000    281.59108    502.40682    410.31425   -47228.066    47245.784    92.092575    36.310514 
145812000    287.09645    452.26209    213.73992   -47277.061     47278.48    238.52217    36.323274 
145816000    291.26222    410.53905    273.06999   -47285.196     47304.51    137.46906     36.32725 
145820000     275.3699    394.26845     260.4033   -47287.813    47307.038    133.86515    36.323151 
145824000     271.7104    242.84807    347.71687   -47285.771    47318.941    -104.8688    36.314194 
145828000    314.21656     329.0044       549.96   -47337.758    47338.811    -220.9556    36.312674 
145832000    292.16547    346.28643    355.35454   -47364.162    47368.031   -9.0681159    36.306108 
145836000    300.73435    432.46436    377.49231   -47381.118    47368.867    54.972054    36.315642 
145840000    296.04002    386.80803    245.92134   -47370.302    47378.808    140.88668    36.313346 
145844000    268.87836    292.15455    418.40527   -47400.549    47399.706   -126.25073    36.302221 
145848000     298.5625    415.48214    260.99851   -47415.746    47412.465    154.48363    36.292826 
145852000    278.20418    383.99142    333.72064   -47427.342    47442.187    50.270779    36.291946 
145856000    283.94899    333.46576    295.45548   -47440.375    47464.681    38.010283    36.325733 
145860000     312.2625     389.8447    300.07889    -47462.08    47459.032    89.765809    36.326425 
145864000    282.79244     303.1295    374.47752   -47487.009     47486.14   -71.348017    36.326658 
145868000    272.38191    457.59167    270.27685   -47489.446    47493.873    187.31482    36.324571 
145872000    282.14401    462.21679    545.84159    -47482.48    47497.217   -83.624801    36.331501 
145876000    268.86433    366.44526    357.29147    -47497.75    47510.992    9.1537967    36.342888 
145880000    300.76425    548.64666    560.15948   -47516.351    47518.721   -11.512819    36.333808 
145884000    275.28142    421.69526    315.06035   -47548.192    47564.562    106.63491     36.32786 
145888000    279.99003    407.78993     344.2117   -47554.666    47558.758    63.578225    36.324354 
145892000    261.80473    368.98966     143.1309   -47565.794    47587.971    225.85875    36.331817 
145896000     296.1393    432.89889    294.24928    -47607.39    47597.683    138.64961     36.33284 
145900000    295.18666    436.32728    205.78571    -47612.69    47604.912    230.54158    36.339846 
145904000    328.86534    199.24781     511.8806   -47644.087    47634.948   -312.63279    36.328881 
145908000    310.24172    386.21112    304.85441   -47656.532    47649.225    81.356707    36.341832 
145912000    276.78636    341.40997    305.19081   -47675.519        47680    36.219158      36.3257 
145916000    267.14736    265.40537    281.54275   -47708.473    47720.652   -16.137388     36.33579 
145920000    299.27953    378.24938    234.46542   -47709.201    47726.578    143.78396    36.345248 
145924000    281.86446    400.21893     235.4943   -47744.712    47756.523    164.72463     36.35139 
145928000    267.06341    248.02911    211.91262   -47756.093    47765.549    36.116486    36.341042 
145932000    284.34273    350.81726    307.89066   -47758.712    47767.715      42.9266     36.33923 
145936000    293.60921     488.7331    210.51116   -47786.924    47792.175    278.22195    36.345845 
145940000    308.65444    372.51995    404.46196   -47807.299    47800.126   -31.942014    36.344798 
145944000    282.01806      388.181     373.7027   -47835.943    47824.781    14.478304    36.337489 
145948000    285.79494    330.78637     305.8022   -47858.444    47863.881    24.984166    36.328881 
145952000    281.53896    291.98552    220.61912   -47870.007    47900.646      71.3664    36.329022 
145956000    290.74259    254.15525    305.99011   -47886.169     47895.34   -51.834852    36.325255 
145960000    276.12428    297.41987     247.0032   -47915.199    47934.189    50.416666    36.323058 
145964000    266.32676    331.78042    270.12184   -47932.351    47949.162    61.658584     36.32084 
145968000    289.72928    246.57882    344.51406   -47955.112     47964.07   -97.935237    36.307573 
145972000    274.12873    167.28475    300.64205   -47956.697     47981.64   -133.35729    36.317353 
145976000    271.69552    304.98657    386.39055   -47952.599    47970.216   -81.403984    36.321898 
145980000    302.13577    244.77132    476.29828    -47992.78    47965.381   -231.52696    36.320834 
145984000    276.23884    367.71017    313.27453   -47993.199    48001.046    54.435635    36.314026 
145988000    290.00377    470.07293    173.53419   -48032.287    48012.896    296.53873    36.321767 
145992000    289.35242    422.93941    362.38277   -48047.852    48063.969    60.556644    36.333548 
145996000    265.71444    457.45389    181.80358   -48068.244    48081.245    275.65031    36.339951 
146000000    258.46372    304.21497    248.45651   -48068.576    48086.788    55.758463    36.328645 
146004000    276.44333     405.8667    459.89496    -48076.66    48102.748   -54.028259    36.332803 
146008000    277.50568    362.51553     463.1695   -48083.788    48107.854   -100.65398    36.335056 
146012000    291.56774    320.73811    377.59058   -48108.823    48112.702   -56.852465    36.333585 
146016000    264.29495    220.27052    238.85808   -48119.055     48136.42   -18.587563    36.345774 
146020000      279.829    424.35439    385.85472   -48131.749    48150.556    38.499672    36.340369 
146024000    268.43853    331.41928    317.14948    -48151.76    48173.319    14.269798      36.3229 
146028000    272.51007    412.52769    182.19989   -48197.719    48215.512     230.3278     36.31954 
146032000    254.69254    357.87685     270.0371   -48217.529    48254.754    87.839746    36.311925 
146036000    312.67696    242.04966    311.07109   -48257.184      48251.3   -69.021435    36.334021 
146040000    288.43561    332.62173    192.00041   -48262.212    48262.291    140.62132    36.341592 
146044000    269.91361    352.24346    307.88775   -48266.654    48278.314    44.355717    36.352142 
146048000    265.20033    369.04778    355.93205   -48284.436    48302.184    13.115729    36.341721 
146052000    290.07835    230.75154    330.86515    -48296.87    48315.624   -100.11361    36.345864 
146056000    308.94525    363.72983    572.64461   -48321.259    48303.693   -208.91479    36.349119 
146060000    277.83219    344.44517    259.34004   -48316.346    48335.037    85.105133    36.355408 
146064000    270.42137    284.58167    237.32895     -48344.9    48358.824    47.252721    36.339678 
146068000    270.77985    487.06195    369.24231   -48374.137    48381.509    117.81964    36.352341 
146072000    270.36784    234.64425    498.63816   -48392.548    48407.896    -263.9939    36.338446 
146076000    262.77447    317.84483    299.86475   -48419.307    48438.793    17.980075    36.345012 
146080000     257.4848    440.10891    298.87136   -48417.439    48448.408    141.23755    36.339283 
146084000    257.59757     369.5638    293.72964   -48425.402    48450.566    75.834167    36.330857 
146088000    267.96426    288.05812    255.82943   -48445.124    48482.799    32.228685    36.312292 
146092000    282.02947    332.31352    279.93409   -48485.156    48500.661    52.379422    36.320131 
146096000    269.85704    346.02908    359.03915   -48488.832    48528.117   -13.010077     36.32431 
146100000    312.46145    471.02589    412.01276   -48518.934    48511.611     59.01313    36.349566 
146104000    268.59718    232.28264    180.00083   -48516.915    48536.803    52.281806    36.354329 
146108000    279.84229    377.24306    269.47267   -48540.591    48552.622    107.77039    36.359535 
146112000    263.51853    354.74256    273.58326   -48526.481    48560.558      81.1593    36.360958 
146116000    293.58647    231.44069    398.87329    -48563.35    48569.024   -167.43259    36.349642 
146120000    282.77522    279.50809    270.31894   -48569.875    48567.623    9.1891442    36.353641 
146124000    289.35652    379.69118    236.95372   -48578.222    48595.034    142.73747    36.355913 
146128000    264.35573     318.6901    268.14671   -48610.818    48632.492    50.543388    36.347458 
146132000    307.82226    457.68209    164.39461   -48632.151    48645.972    293.28747    36.342032 
146136000    279.66521    322.19485     269.6509   -48669.566    48674.071    52.543957    36.339272 
146140000    304.79403    365.48819    431.86501   -48681.018    48682.554   -66.376822    36.326709 
146144000    296.81541    277.05934    132.97789   -48671.876    48678.614    144.08145    36.325015 
146148000    295.42307    350.04083    323.89281   -48687.471    48698.781    26.148019    36.315223 
146152000    290.33091    401.44242    252.44963   -48722.263    48717.035    148.99279    36.311811 
146156000    297.59169    281.19654    446.64322   -48737.788    48734.182   -165.44668    36.299109 
146160000    281.99049    340.40836    308.55117   -48748.115    48765.114    31.857193    36.296372 
146164000    276.92676    282.98263      275.989   -48771.012    48785.135    6.9936262    36.294753 
146168000    291.78142    240.46162    243.06233   -48780.675     48781.46   -2.6007168     36.29448 
146172000    293.91909    408.45769    344.60224   -48796.313    48796.593    63.855454    36.298942 
146176000    275.23132    274.68702    350.32787   -48821.788    48844.456   -75.640847    36.301657 
146180000    254.13499    309.17306    275.30869   -48832.106     48855.13    33.864368    36.309659 
146184000    277.55023    381.89496     267.8587   -48860.777    48887.099    114.03626     36.28681 
146188000    275.45174      216.509    242.70613   -48885.083     48885.84   -26.197133    36.279274 
146192000    276.20034    507.97528    273.27897   -48890.938    48902.306    234.69632    36.290175 
146196000    271.68927    312.51645    277.00534   -48915.049    48914.265     35.51111    36.300339 
146200000    300.48274    290.07216    488.87901    -48932.44    48933.912   -198.80686    36.318881 
146204000     288.9845    391.35197    456.19289   -48952.861    48954.493    -64.84092    36.322794 
146208000    298.74661    418.38304    346.56532   -48953.855    48962.132    71.817718    36.320527 
146212000    267.80731    269.65478    332.64471   -48969.693    48972.119   -62.989931       36.318 
146216000    284.38251    541.72427    221.94288   -48983.196    48990.601    319.78139     36.31907 
146220000    313.14813    325.51861    331.43907   -49029.986    49021.943   -5.9204601    36.301735 
146224000    290.85945    222.99474    384.01898   -49048.949    49058.524   -161.02423    36.309299 
146228000    260.46639    333.38397    400.11882   -49047.169    49081.903    -66.73485    36.291219 
146232000    250.11101    197.66219    506.83351   -49076.643    49107.301   -309.17133    36.311059 
146236000    288.89683    362.88254    345.61241   -49105.129    49101.944    17.270123    36.315683 
146240000    297.05972    293.13901    203.18234   -49142.139    49134.842    89.956663    36.320365 
146244000     304.6374     453.9297    277.14671       -49199    49175.855    176.78298    36.326189 
146248000    258.49072    361.48773    513.99326   -49200.067    49214.931   -152.50553    36.317569 
146252000    272.86344    321.53626    286.08453   -49215.301    49229.044    35.451736    36.311406 
146256000    297.76949    276.42812    241.87939    -49236.48    49220.158    34.548727    36.308788 
146260000    290.75092    360.09795    369.06114   -49239.963    49241.638   -8.9631876    36.316985 
146264000    288.23448    396.65242    232.28093   -49250.958    49262.258    164.37149    36.313988 
146268000    274.76007    258.14702    471.79528   -49266.569     49281.65   -213.64825    36.315909 
146272000    293.35241    257.48709    325.59484   -49282.119     49300.34   -68.107745    36.306429 
146276000    298.69406    329.35909    458.70311   -49335.965     49343.58   -129.34401    36.296803 
146280000    299.35613    396.73243    322.52284   -49347.545    49345.694    74.209596    36.296063 
146284000    305.14023    626.93838    277.68567   -49370.487    49362.677    349.25272    36.308677 
146288000     301.3467    428.99711    226.29151   -49395.713    49416.337     202.7056    36.300017 
146292000    278.95178    257.58913    320.81239   -49394.376    49405.229    -63.22326    36.296928 
146296000    284.95779    459.54655    346.73264   -49411.351    49421.794    112.81391    36.291381 
146300000     318.3229      228.394    376.90102   -49451.843    49449.823   -148.50703    36.279748 
146304000     287.2479     432.1386    321.10153   -49462.966    49475.464    111.03707    36.283228 
146308000    264.04821    459.03134    303.03945   -49471.919    49494.606     155.9919    36.282353 
146312000    273.59744    338.53332    355.55135   -49490.947    49508.329    -17.01803    36.272173 
146316000    308.93283     515.8576    375.03451   -49516.537    49521.628    140.82309    36.288738 
146320000    287.71011    275.68441    369.45998   -49524.476    49535.285   -93.775578    36.286112 
146324000    278.58217    283.06456    354.83234   -49538.415    49546.895   -71.767777    36.289812 
146328000    314.24613    353.93707    396.25184   -49566.846    49576.083   -42.314771     36.29992 
146332000    307.75021    440.46563    354.52573   -49597.929    49609.124    85.939891    36.304575 
146336000    282.71328    464.82778    327.41598    -49612.28    49620.988     137.4118    36.293288 
146340000     297.6994    177.40375    435.55441   -49622.331    49651.504   -258.15066    36.278871 
146344000    280.40293    359.42763     275.6389   -49644.524     49644.47    83.788735    36.289356 
146348000    286.35321     270.7386     420.7117   -49670.019    49667.014    -149.9731    36.289569 
146352000    283.61732    322.88582    384.52397    -49701.13    49701.606   -61.638151    36.297998 
146356000    271.42745    334.59368    230.94521   -49700.423    49706.776    103.64847    36.301721 
146360000    278.61299    286.75921    340.52482    -49694.95    49715.955    -53.76561    36.291167 
146364000    279.01232    283.29292    294.77588   -49738.899     49735.11   -11.482961    36.293636 
146368000    313.21641    525.34751     598.1143   -49776.238    49762.649   -72.766795    36.300777 
146372000    278.89548    364.65336    208.70488   -49775.273     49793.83    155.94848    36.292401 
146376000    272.18172    311.36609    258.91877   -49795.604    49797.802    52.447319    36.290757 
146380000     311.2102     381.6173    483.38092    -49797.33    49773.593   -101.76362     36.28949 
146384000    287.23215    427.41663    563.33004   -49825.168    49832.986    -135.9134    36.300191 
146388000     281.3578    336.08775    300.80155   -49843.779    49856.501      35.2862    36.293328 
146392000    268.73227    304.96668    173.94363   -49855.738    49875.594    131.02305    36.290951 
146396000    276.00224    506.91405    381.26752   -49867.925    49897.505    125.64653    36.285785 
146400000    256.94512    262.55201    392.43351   -49867.973    49900.541    -129.8815    36.287627 
146404000    238.45956    183.00983     304.3821   -49890.764    49921.736   -121.37227    36.281869 
146408000    239.72383    418.47114    551.70656   -49901.304    49937.915   -133.23542    36.288628 
146412000    245.84722    333.02901    153.22047   -49927.195    49957.815    179.80854    36.283033 
146416000    284.20984    247.16042    292.61698   -49962.491    49962.588   -45.456559    36.285124 
146420000    290.37954    405.36916    231.02892     -49965.7    49978.399    174.34024    36.270401 
146424000     273.2101    408.67952    275.63366   -50010.769    49996.565    133.04586    36.269059 
146428000    253.27444    345.63954    278.29996   -49995.411    50019.859    67.339576    36.276744 
146432000    256.18818    403.34479    417.33256   -50011.034    50046.272   -13.987776    36.262913 
146436000    305.87751    218.52666    413.98493   -50045.648    50049.452   -195.45827    36.261565 
146440000     327.8883    525.29253    294.13038   -50102.902     50056.89    231.16214    36.272537 
146444000    265.03908     198.9518    168.23394   -50087.166    50103.502    30.717861    36.272725 
146448000    293.32291    474.63487    419.88741   -50111.587    50111.355    54.747459    36.263818 
146452000    271.69719    329.04653    381.94148   -50121.451    50132.176   -52.894944    36.263477 
146456000    296.93249    260.41108    288.91994   -50146.839    50143.478   -28.508859    36.271194 
146460000    292.47705    397.32963     323.7108   -50161.444    50176.083    73.618833    36.269737 
146464000      308.736    454.01795    302.20849   -50211.588    50207.432    151.80946    36.276712 
146468000    299.09821    265.37379    294.73676   -50222.991    50242.735   -29.362966    36.275823 
146472000    310.94431    403.06306    399.83897   -50267.886    50268.227    3.2240842    36.267485 
146476000    288.64185     833.8062    186.49803   -50272.232    50284.907    647.30817    36.249678 
146480000    282.87421    396.10756    413.70534    -50308.73    50308.298    -17.59778    36.242355 
146484000    297.32564    277.61995    486.55293   -50317.139    50322.883   -208.93298    36.231863 
146488000    270.16663    203.36941    155.92714   -50325.259    50352.785    47.442261    36.219654 
146492000    281.53617    305.19334      178.657   -50356.178    50368.346    126.53634     36.22968 
146496000    270.56559    307.90514    359.23947   -50354.065    50375.059    -51.33433      36.2361 
146500000    265.03506    231.85572     338.8293    -50375.24     50396.33   -106.97358    36.233202 
146504000    278.04907    294.59565    512.12841   -50405.814    50406.796   -217.53276    36.229059 
146508000    270.63224    344.61876    287.79607   -50385.951    50419.531    56.822691    36.227431 
146512000    277.85356    365.57383    595.92478   -50415.463    50441.905   -230.35096    36.223845 
146516000    274.76808    269.55018    429.79246   -50475.112    50482.875   -160.24227    36.221507 
146520000    277.21544    284.42407    339.42854   -50492.347    50501.661   -55.004472    36.210403 
146524000    276.58228    301.14401    327.04916   -50530.745    50525.013   -25.905148    36.200693 
146528000    295.07793    367.21675    415.69954   -50539.105      50558.5   -48.482787    36.202763 
146532000    229.79962    312.34853    305.78897     -50537.1    50590.976    6.5595669    36.196592 
146536000    267.95847    399.32779    473.52197   -50574.153    50602.769   -74.194175     36.17814 
146540000    320.53912    396.45175    271.50078   -50605.234    50593.791    124.95097    36.176865 
146544000    277.39806     284.9594    272.26826   -50625.242    50634.548    12.691136    36.182963 
146548000    267.15633    351.21379    464.57766     -50632.2    50661.464   -113.36387    36.188492 
146552000    260.00509    393.45611    285.74957   -50649.798    50674.363    107.70654    36.196249 
146556000    269.21665    214.64689    297.43946   -50678.934    50689.503   -82.792563    36.192539 
146560000    280.86667    451.44366    268.12694   -50694.699    50702.249    183.31672    36.186853 
146564000    290.07928    289.41611    300.90774    -50716.44    50728.603   -11.491628     36.19105 
146568000    278.43071    492.98527    427.52904   -50731.123    50745.906    65.456226    36.195359 
146572000    285.24903    208.79205     289.9152   -50756.184    50767.874   -81.123148    36.190932 
146576000    289.50972    395.08289    218.76668   -50776.528    50789.299     176.3162    36.180134 
146580000    260.58668    657.41254    393.38013   -50808.295    50812.646    264.03241     36.18146 
146584000    272.85489    239.74284    466.31322   -50821.486    50834.081   -226.57038    36.166281 
146588000    272.09019    284.25775    324.67371   -50856.408    50865.756   -40.415956    36.181823 
146592000    291.40092    534.50908     346.0408    -50844.68    50860.636    188.46828    36.175082 
146596000    283.52376    307.61877    280.74244   -50864.591    50884.535    26.876326    36.167757 
146600000    248.40902    256.63238    292.90089   -50896.028    50935.298    -36.26851    36.167805 
146604000    297.73244    316.12748    222.45141   -50945.123    50941.241     93.67607    36.173762 
146608000    291.17229     247.5706    446.09932   -50952.172    50957.322   -198.52872    36.159867 
146612000    266.50976     371.2194    189.28049   -50946.563    50968.534    181.93891    36.165184 
146616000    264.87727     265.4403    458.58263   -50982.967      50994.5   -193.14233    36.161061 
146620000    255.03248     355.7886    256.25286   -50985.814    51004.859     99.53574    36.144146 
146624000     278.6048    326.67797    593.27095   -51001.158    51014.169   -266.59298    36.146001 
146628000    294.27344    295.76371    351.71366   -51036.087    51040.252   -55.949957    36.142122 
146632000    274.82943    274.58011    358.82677   -51061.862    51085.653   -84.246655    36.136889 
146636000    275.03504    212.17279    213.65554   -51106.976    51107.247   -1.4827482    36.133261 
146640000    291.42316     362.6368    406.14995   -51129.157    51129.851   -43.513143    36.146904 
146644000     305.8421    326.50123    334.12201   -51147.282    51158.129   -7.6207754    36.157707 
146648000    286.97505    344.85992    166.76265   -51171.556    51181.631    178.09727    36.162522 
146652000    281.82516     209.2995    226.69985   -51219.644    51239.098   -17.400347    36.182877 
146656000    284.68645    256.97489     202.1383   -51244.241    51257.848    54.836586    36.177581 
146660000    284.62629     462.5448     312.7361   -51280.548    51282.988    149.80869    36.181452 
146664000    306.70482    333.18319    439.36766   -51291.913    51298.962   -106.18447    36.176533 
146668000    283.21379    332.88247    277.60902   -51319.492    51316.379    55.273458    36.168952 
146672000     287.1446     550.9676    290.67495   -51314.898    51325.245    260.29265    36.172748 
146676000    262.16621    333.46699    222.71756   -51309.932    51321.062    110.74943    36.161189 
146680000    308.15147    358.52068    238.92434   -51347.315    51340.356    119.59633    36.174626 
146684000    304.96959    569.70785    355.42554    -51365.64    51365.199    214.28231    36.179354 
146688000    286.45214    221.91356    534.82403   -51382.545    51409.572   -312.91047    36.172054 
146692000    305.51019    349.91014    285.26081   -51439.283    51434.456    64.649324    36.169312 
146696000    249.53319    348.54924    456.53262   -51456.751    51483.905   -107.98338    36.179415 
146700000    256.69997    413.30008    393.93932   -51480.986    51499.762    19.360761     36.17715 
146704000    293.62312    326.86826    281.41472   -51508.104    51517.613    45.453539    36.174762 
146708000    259.13866    306.86215    287.68708   -51515.569    51553.631    19.175073    36.180688 
146712000    285.57802    452.30764    201.12851   -51530.815    51537.113    251.17913    36.187753 
146716000    267.79558    446.31613    295.27721   -51543.988    51572.882    151.03892    36.196105 
146720000    276.44574     372.8193    412.97302   -51563.799    51592.582   -40.153724    36.201168 
146724000    278.38716    371.66501    427.71189   -51593.987    51625.949    -56.04688    36.203029 
146728000    264.49871     447.9766    254.77721    -51621.08    51655.138     193.1994    36.210754 
146732000    266.76619    338.42899     278.4284   -51665.617    51686.187    60.000589    36.200017 
146736000     264.0885    450.18047    188.29048   -51678.848    51702.597    261.88999     36.19809 
146740000     277.0049    334.99261    221.46793   -51685.037    51705.207    113.52468    36.207991 
146744000    286.80528    301.43563    284.70973   -51690.808    51703.534    16.725902    36.220791 
146748000    277.99417    320.51914    366.28605   -51712.723     51724.83   -45.766912    36.220242 
146752000    262.62489    342.35558    187.60784    -51736.55    51738.478    154.74774    36.216169 
146756000    287.62392     379.6343    251.57143   -51765.385    51767.695    128.06287    36.218504 
146760000    266.90581    321.41676    329.18442     -51779.4    51799.849    -7.767656     36.21364 
146764000    262.36289    423.29877    289.26619   -51795.871    51813.407    134.03257     36.22431 
146768000    241.20744    211.74842      325.053   -51794.268    51833.076   -113.30458    36.218478 
146772000    271.16865    314.20266    283.23834   -51824.674    51851.609    30.964322    36.218212 
146776000    269.13847    234.41723    288.07965   -51849.948    51873.671   -53.662419    36.209007 
146780000    303.00701    255.53226    415.73404   -51866.797    51880.785   -160.20178    36.200761 
146784000    295.21936    400.55683    439.26382   -51893.302    51899.105    -38.70699    36.205132 
146788000    264.81632    378.63817    351.88086   -51878.597    51910.533    26.757312    36.199352 
146792000    281.54324    291.42137    274.50146   -51904.912    51918.959    16.919911    36.203292 
146796000     296.0023    359.54659    412.37806   -51937.416    51924.713   -52.831469    36.192111 
146800000    305.84761    210.12343    503.99654   -51961.849      51958.2   -293.87312    36.195134 
146804000    306.82728    336.10024    246.28801   -51980.647    51982.841    89.812232    36.179014 
146808000    291.37444    360.46805     330.3421   -52001.311    52017.489    30.125958      36.1859 
146812000     255.9634    253.62258     157.0558    -52018.56    52046.813    96.566781    36.182319 
146816000    253.23594    430.05231    218.41687   -52035.602    52070.229    211.63544    36.176765 
146820000    287.43359    374.24437    389.45304   -52068.005    52093.681   -15.208666    36.179636 
146824000    256.89639    243.09291    215.19324   -52080.481    52123.561    27.899665    36.177092 
146828000    294.74725    403.95355    253.44964   -52119.537    52129.143    150.50391    36.176943 
146832000    259.93447    362.80848     420.3421   -52111.753    52158.786   -57.533616    36.195532 
146836000     257.7605    440.30842    377.81225   -52131.198    52148.736     62.49617    36.192808 
146840000    298.79194    339.07843    350.59032   -52172.425    52181.126   -11.511889    36.182207 
146844000    291.00811    458.14683    491.45706   -52174.472    52189.024   -33.310226     36.19243 
146848000    299.24909    417.45138    400.18167   -52208.136    52217.666    17.269711    36.190188 
146852000    274.10245    427.46727     161.9977   -52236.877    52247.709    265.46957    36.186506 
146856000    266.74715    175.92752    235.20271     -52259.7    52288.173   -59.275196    36.192474 
146860000    269.10181    283.74773    223.72593   -52284.175    52300.865    60.021796    36.203974 
146864000    289.78722    442.92142    253.38596   -52297.964    52303.412    189.53546    36.200085 
146868000    264.44313    293.54529     313.2503   -52305.233    52317.826   -19.705008    36.185687 
146872000    281.12623    296.73619    224.13234   -52328.987    52349.093    72.603843    36.183957 
146876000    300.56415    267.73881    336.48327   -52344.877    52348.896   -68.744463    36.180425 
146880000    273.29338     323.4101    217.99559   -52356.075     52376.32    105.41451     36.18927 
146884000    264.69549    247.88785    283.06579   -52348.973    52385.039   -35.177945    36.167111 
146888000    293.02749    416.01842    206.37052   -52396.911     52414.31    209.64791    36.182839 
146892000    269.35225    410.80576    326.16421   -52427.159    52450.331    84.641548    36.184814 
146896000    289.69641    261.47298     263.5867   -52456.012    52468.043   -2.1137253    36.176294 
146900000    281.05978    498.18361    169.95516   -52507.629    52503.088    328.22846    36.167112 
146904000    286.24338    382.46747    326.64322   -52515.266    52520.277    55.824244    36.175321 
146908000     272.0576    295.64987    321.32974   -52534.494    52558.742   -25.679867    36.182104 
146912000    285.14853    408.67029    369.88758   -52556.091    52562.648    38.782704    36.178469 
146916000    258.71396    494.80885    112.24532   -52555.965    52593.891    382.56353    36.181164 
146920000    278.45549     314.2291    287.31143    -52594.12    52599.803    26.917671    36.194186 
146924000    300.63886     301.9153    333.53378   -52611.675    52606.181   -31.618477    36.193384 
146928000    257.31922    262.44395    200.92006   -52623.231    52656.156    61.523889    36.207606 
146932000    310.98454    431.04613    371.40241   -52658.132    52665.027    59.643723     36.20455 
146936000    282.65672    294.25934    221.57167   -52675.146     52684.99    72.687665    36.192552 
146940000    260.21871    379.39131    266.79897   -52658.319    52692.622    112.59234    36.186486 
146944000    244.84864    316.42235    265.32087   -52672.059    52704.104    51.101483     36.19233 
146948000    243.96438    297.27756     231.0977   -52693.173    52730.572    66.179857    36.199765 
146952000    315.99034     557.4536    304.32455    -52729.04    52727.633    253.12905    36.198437 
146956000    295.99568    311.06893    361.05642   -52734.819     52754.01   -49.987496     36.20736 
146960000    301.86854    378.25505    498.04559   -52772.237    52768.986   -119.79053    36.201883 
146964000    277.33761    255.24612    297.11966   -52797.096    52815.968   -41.873538    36.194572 
146968000    278.71606    279.37585    481.34872   -52850.745    52850.303   -201.97286    36.196454 
146972000    290.98595    445.74011    184.66865   -52848.219    52862.387    261.07146    36.201439 
146976000    273.38319    534.20866    273.19058   -52856.118    52855.546    261.01808    36.200676 
146980000    303.77298    511.63303    519.05875   -52861.969    52847.635   -7.4257181    36.212634 
146984000    305.58825     354.5399    388.59412    -52876.29    52880.966   -34.054224    36.216508 
146988000    293.01672    380.07021     529.5188   -52900.126    52898.799    -149.4486    36.210687 
146992000    257.69029    403.45254    295.54882   -52889.533    52926.599    107.90371    36.201661 
146996000    276.41461    263.52588    273.34522   -52939.184    52961.545   -9.8193305    36.208198 
147000000     285.3271    341.87062    209.99554   -52975.815    52985.547    131.87507    36.225354 
147004000    260.25427    294.06364    453.97938    -52974.57    53009.413   -159.91574    36.215773 
147008000    255.58188    368.21753     354.5337   -52993.372    53012.888    13.683827    36.224616 
147012000    298.47393    328.10806    361.99197    -53020.91    53010.521    -33.88391    36.223209 
147016000    292.32645    308.79354    452.88808   -53035.898    53024.951   -144.09454    36.230551 
147020000    295.67436     406.7428    555.07595   -53054.872     53040.49   -148.33316    36.210505 
147024000     285.4846     460.0074    289.05039   -53070.056    53087.324    170.95701    36.212358 
147028000    287.10116    422.69891    324.88236   -53122.777    53121.753    97.816555     36.22268 
147032000    295.86777    235.86969      332.353   -53152.916    53168.623    -96.48331    36.243364 
147036000    285.52899    573.32194     282.3369   -53199.973    53186.803    290.98504    36.243771 
147040000    276.31484    339.73043    276.48841   -53199.095    53217.014    63.242023    36.238199 
147044000    285.29972    284.55381    448.03493   -53268.733    53265.879   -163.48112    36.237692 
147048000    314.30353     207.6274    647.92366   -53294.364    53292.644   -440.29626    36.232729 
147052000    290.55423    405.88309    239.60369   -53300.141    53300.907     166.2794    36.241785 
147056000     300.3126    431.00484    179.73331   -53330.467    53329.765    251.27152    36.256395 
147060000    274.09088    241.32631    191.30589   -53345.516    53356.578     50.02042    36.241228 
147064000    273.46224    317.02158    266.55761    -53341.86    53373.753    50.463976    36.239978 
147068000    269.48661    385.77562    198.63485   -53377.591    53403.952    187.14077    36.245991 
147072000    246.23141    326.73444    315.64118   -53403.381    53444.831    11.093254    36.239382 
147076000    253.88586     286.4305    245.62601   -53416.866    53426.604    40.804487    36.244234 
147080000    295.82376    472.25649    351.83123   -53445.703    53440.699    120.42525    36.256544 
147084000    282.20765    286.55301    262.31765   -53465.447    53468.547    24.235359    36.267389 
147088000    314.35056    361.30809    318.47986   -53493.406     53475.39    42.828229    36.262267 
147092000    307.65832    386.51565    274.96903   -53504.813    53497.755    111.54662    36.251389 
147096000    274.19868    375.69336     247.4513   -53511.168      53517.9    128.24206    36.253606 
147100000    271.55473    309.88993    224.25592   -53550.687    53561.758    85.634005    36.257767 
147104000    310.01249    453.40196    405.27528   -53547.114    53542.111    48.126685    36.261062 
147108000    310.46253    383.61826    435.18391   -53570.117    53558.615   -51.565653    36.262301 
147112000    278.06004    410.87407    287.11963   -53579.489    53594.189    123.75444    36.268654 
147116000    269.84733    354.77006    158.60919     -53595.9     53608.63    196.16087    36.283115 
147120000    255.84556     263.0929    260.74718   -53582.233    53624.429    2.3457184    36.267454 
147124000    287.03169    472.22484    530.36171   -53611.296    53637.424   -58.136875    36.270293 
147128000    263.85483    493.49294    269.12186   -53653.782    53657.036    224.37108    36.283702 
147132000    272.33241    371.46147    261.89782   -53693.759    53695.389    109.56365    36.296909 
147136000    300.48243    861.02634    451.23813   -53708.822    53712.201    409.78822    36.296773 
147140000    304.58431    398.41481    272.30564   -53729.393    53741.185    126.10918    36.300842 
147144000     284.8051    481.83307    439.33984   -53768.311    53780.398    42.493231    36.291173 
147148000    246.82626    270.96026    268.53245   -53792.554    53823.372    2.4278035    36.280889 
147152000    287.19214    478.77028    419.49463   -53822.415    53838.598    59.275648    36.269744 
147156000    262.55416    378.97872    266.59798   -53870.831    53892.565    112.38074     36.27462 
147160000    288.02559    219.19719     281.6384   -53883.185    53902.888   -62.441204    36.277953 
147164000    280.26289    413.10962    241.18926    -53876.65    53889.974    171.92036    36.276172 
147168000    260.71906     268.1496    472.43708   -53896.396    53917.815   -204.28748    36.278737 
147172000    293.50172    399.51714    313.77677   -53933.555    53951.059    85.740376    36.279231 
147176000    272.82628    359.26415     527.6511   -53959.506    53958.671   -168.38695    36.275781 
147180000    277.33285    476.97645    314.77192   -53960.283     53983.02    162.20454    36.273378 
147184000    313.11744    329.20326     359.3343   -53992.322    53986.011   -30.131038    36.279199 
147188000    255.51989     417.2216    333.39365   -53998.812    54030.524    83.827953    36.278603 
147192000     275.9375    337.68215    364.63594    -54011.78    54022.575   -26.953791    36.290754 
147196000     288.6581    373.73633    343.17975   -54038.509    54043.013    30.556584     36.27304 
147200000    272.33085    474.44052    374.61794   -54039.549    54056.909    99.822581    36.266173 
147204000    284.63211    244.29066    250.96152   -54062.604    54068.952    -6.670857    36.261307 
147208000    272.25136    386.39843    249.64655    -54086.76     54108.39    136.75187    36.256438 
147212000     287.1326    316.18585    127.52531   -54109.507    54132.183    188.66054     36.25689 
147216000    296.61474    304.54373    282.27032   -54135.247    54138.425    22.273418    36.256132 
147220000    260.24637    356.11463    268.48491   -54133.748    54161.952    87.629722    36.262339 
147224000    261.65081    368.99501    226.95858   -54137.973    54177.806    142.03643    36.250561 
147228000    280.29044    493.34233    184.23143   -54181.539    54189.045     309.1109    36.256895 
147232000    277.07176    238.55465     301.2329   -54187.661    54206.333   -62.678243    36.269868 
147236000    274.28829    267.52125    274.17815   -54222.671    54235.953   -6.6569049    36.260236 
147240000    282.13797    390.62015    330.57209   -54259.156     54263.14    60.048053    36.290604 
147244000    272.21471    272.07663     523.6597   -54286.523    54304.092   -251.58307    36.286553 
147248000    309.57088      426.679    505.20612   -54323.164    54326.953   -78.527115    36.283682 
147252000    284.57913    353.94103    305.73971   -54355.906    54374.271    48.201321    36.289859 
147256000    285.79996    354.79672    598.70615    -54365.19    54374.463   -243.90943    36.279182 
147260000    285.59229    299.79821    280.65168   -54397.467    54395.533    19.146524    36.281534 
147264000    256.47547     433.0718    215.44732   -54392.025    54419.397    217.62447    36.277834 
147268000    274.37373    242.14198    298.72884   -54410.472    54432.307   -56.586856    36.280066 
147272000    309.10218    477.70679    258.14309   -54432.456    54428.215     219.5637    36.276032 
147276000    239.56237     175.4456    202.80001   -54428.881    54441.304   -27.354411    36.269838 
147280000    290.48599    223.47574    327.09571   -54423.373    54444.574   -103.61996    36.257931 
147284000    261.48482    274.72331    260.07718   -54435.966     54469.03    14.646126    36.250345 
147288000     275.3828     351.2856     318.4691   -54455.133    54483.363    32.816497    36.249233 
147292000    244.02027    210.23023    378.23273   -54475.582    54508.883    -168.0025    36.240772 
147296000    276.73566    303.38488     336.3064   -54500.104    54501.797   -32.921511     36.22869 
147300000    282.23867    304.86906    385.19675   -54532.614    54527.247   -80.327691    36.234761 
147304000     262.2332    322.98567    264.58711   -54551.783    54579.132    58.398561    36.236426 
147308000    298.65882    462.04249    463.70429   -54573.417    54594.211    -1.661803     36.22912 
147312000    267.63763    415.32141    263.96187   -54583.823    54606.986    151.35954    36.227711 
147316000    275.27226    360.71338    331.85892   -54614.039    54628.937    28.854464    36.227142 
147320000    295.28248    329.68701    183.59405   -54631.592    54640.723    146.09296     36.24031 
147324000    282.31217    292.76304    338.95695   -54645.004    54661.331   -46.193912    36.243291 
147328000    299.55944    247.79268    261.02554   -54678.123    54676.678   -13.232863    36.244735 
147332000    273.06424    311.16181    302.35048   -54707.959    54725.523    8.8113291     36.22928 
147336000    306.88588    409.80956    369.05513   -54734.357    54728.484    40.754438    36.235807 
147340000    257.30049    364.47071    374.69724   -54764.341    54798.428   -10.226537    36.232011 
147344000    257.76623    253.66099    340.08299   -54799.007    54826.298   -86.421997     36.21369 
147348000    294.21684    352.35214    476.60563   -54817.025    54820.168   -124.25349    36.207986 
147352000    283.78418    583.38687    356.38783   -54813.678    54825.959    226.99903    36.208246 
147356000    298.28971    461.72322    276.02846   -54829.947    54838.301    185.69476    36.193642 
147360000    303.65683    395.98202    197.75205   -54861.158    54845.008    198.22997    36.194409 
147364000    299.68568    650.09756    268.86347   -54884.367    54873.634    381.23409    36.188684 
147368000    302.48913    338.64113    518.42759   -54906.746     54912.58   -179.78647    36.185905 
147372000    263.75572    316.79987    344.11273   -54940.818    54945.488   -27.312864    36.182573 
147376000    303.32071    259.21507    443.55904   -54946.073     54931.15   -184.34397      36.1666 
147380000    281.41412    292.70345     259.6246   -54940.734    54953.467    33.078847    36.158634 
147384000     292.7749    235.72817    377.98368   -54963.255     54968.53   -142.25551     36.15026 
147388000    275.51565    262.76851    243.43504   -54980.904    55001.321    19.333462    36.153042 
147392000    293.75678    376.76715     382.3468   -55012.846    55012.231   -5.5796516     36.14554 
147396000    294.76669    432.53226    259.63123   -55025.591    55019.387    172.90104    36.163931 
147400000    249.67445    373.40586    196.12993   -55027.454    55051.235    177.27593    36.148903 
147404000    275.85934    227.66506    376.70187   -55044.768    55069.987   -149.03681    36.153679 
147408000    285.18402    350.37787    261.17118   -55082.395    55094.131    89.206691    36.144962 
147412000    276.38697      277.037    339.88404   -55089.542    55105.005   -62.847045    36.144869 
147416000    289.60146    329.16631    328.83159   -55111.126    55135.934   0.33471499     36.12972 
147420000    290.44072    338.24614    326.83272   -55135.864    55148.249    11.413429    36.131072 
147424000    299.58129    474.31938     437.9875   -55144.404    55148.558    36.331883    36.132945 
147428000    319.21294    220.21944    463.18287   -55165.294    55162.433   -242.96343    36.136716 
147432000    270.93632    238.18475    277.82482    -55153.25    55172.185   -39.640075    36.125203 
147436000    241.74611    269.58671    197.48136   -55160.334    55210.589    72.105341    36.122357 
147440000    296.12962    628.65452    579.38599   -55213.444    55201.826    49.268534    36.118419 
147444000     277.5355    297.00103    361.12822   -55218.331    55226.276   -64.127195    36.141286 
147448000    319.91329    408.90704    369.59147    -55229.57    55208.319    39.315574    36.131727 
147452000    277.60696    546.09279    274.11014   -55235.886    55247.603    271.98265    36.133428 
147456000    274.32015     279.1147    264.33988   -55261.864    55272.076    14.774823    36.138313 
147460000    287.83369    377.26536    428.93572    -55292.86    55282.912   -51.670359    36.130249 
147464000    283.17803    445.11572    232.94218   -55306.441    55308.755    212.17354    36.128646 
147468000    295.71651     221.7878    289.24141   -55322.533    55318.149   -67.453612     36.11298 
147472000    267.61202    341.45573    397.62992   -55325.527     55339.06   -56.174193    36.104538 
147476000    300.82828    385.59989    302.12439   -55361.984    55371.753    83.475494    36.105003 
147480000    273.54448     476.7027    408.84515   -55394.717    55403.457    67.857551     36.11175 
147484000     298.5152    331.96142     292.8343   -55402.082    55391.592    39.127114    36.113325 
147488000    285.11413    340.00192    421.17094   -55411.624    55422.555   -81.169027    36.114408 
147492000    303.18642    401.04552    311.90755   -55444.486    55444.591    89.137976    36.113922 
147496000    263.33434    256.20568    387.96614   -55426.971    55448.076   -131.76046    36.104992 
147500000    290.16139     396.3826    394.87398    -55445.16    55465.631    1.5086212    36.105606 
147504000      298.637    435.65426    422.24444   -55473.129    55482.864    13.409816    36.109977 
147508000    302.68877    359.28861    413.90136   -55500.753    55497.507   -54.612754    36.101238 
147512000    298.52519    403.86383    227.49027   -55516.596    55512.355    176.37355    36.092353 
147516000    295.57256    561.85938    297.19933   -55535.899    55540.525    264.66006    36.099763 
147520000     289.7824    345.96933    342.84575    -55540.01    55547.558    3.1235813    36.098354 
147524000    273.99922    377.97586    388.65482   -55566.973    55563.777   -10.678962    36.103944 
147528000    267.22472    333.64004    426.72372   -55599.759    55608.295   -93.083679    36.096977 
147532000    296.45682    373.01369    426.13335   -55604.273    55608.033   -53.119659    36.092394 
147536000    270.32443    390.68097    326.46579   -55619.337    55634.191    64.215181    36.098509 
147540000    296.56953    412.65734    473.16812   -55647.032    55658.069   -60.510779    36.105103 
147544000    284.93749    308.96584      438.147   -55660.646    55666.362   -129.18116    36.098222 
147548000    308.59051    437.46417    241.06458   -55696.106    55683.963    196.39958    36.111754 
147552000    289.34566    263.31428    327.51827   -55721.505    55710.433   -64.203992    36.118307 
147556000    317.48835    376.21404    219.08887   -55768.845    55729.841    157.12516    36.122084 
147560000    281.83034    364.36076    333.51094   -55782.856    55799.528    30.849825    36.119474 
147564000    302.97214    419.77025    192.35919   -55789.777    55820.145    227.41106    36.116352 
147568000    283.47748    424.58314    323.66638   -55813.281    55825.437    100.91677    36.121172 
147572000    262.94218      483.889    348.74058   -55828.368    55859.456    135.14842     36.12512 
147576000    264.62636    278.05786    386.34675   -55854.807    55863.513   -108.28888    36.139568 
147580000    278.66597    393.41633    272.72623   -55865.991    55874.117    120.69009    36.154393 
147584000    295.56952     243.1041    377.47013   -55872.804    55897.681   -134.36603    36.150257 
147588000    266.89744    360.85637    328.01158   -55892.105    55917.564    32.844787     36.14489 
147592000    281.79438    334.04583    349.20531   -55920.152    55926.323   -15.159487     36.15801 
147596000    287.61242    378.53548     343.6349   -55916.162    55928.535    34.900582    36.166143 
147600000    249.49994    212.54144    371.98559   -55927.482     55962.26   -159.44416    36.165914 
147604000    280.41592    567.53451    299.18903   -55954.881    55956.107    268.34548    36.167379 
147608000    293.87052    394.12824    332.90409   -55939.923    55953.639    61.224155    36.173018 
147612000    287.98016    391.12615    293.41327   -55964.384     55954.26    97.712878     36.19334 
147616000    271.69172    302.04262    296.59267   -55981.159    56007.956     5.449957    36.201284 
147620000    259.36873    189.38564    388.63308   -55976.902    56011.365   -199.24744    36.194102 
147624000    292.47637    419.32528    383.10483   -56037.823     56039.83    36.220449    36.198077 
147628000    280.52166    367.91466    203.90852   -56056.712    56063.587    164.00614    36.206872 
147632000     314.0959    360.65625    308.30512    -56071.33    56077.544    52.351131    36.201622 
147636000    270.51156    495.42212    347.20416   -56106.234    56114.371    148.21796    36.199842 
147640000    309.46822     448.5003    194.43175   -56141.501    56127.843    254.06855    36.195984 
147644000    275.36973     358.3205    444.03424   -56135.594    56157.101   -85.713742    36.196179 
147648000     285.2321    372.17173    416.37054   -56164.883    56156.274   -44.198805    36.189244 
147652000    286.53558    310.35828    307.65014   -56214.715    56215.011    2.7081436    36.178432 
147656000    282.73643    274.46771    352.22519   -56238.474    56251.204   -77.757477    36.185457 
147660000    305.74238    556.13148    321.48473   -56298.429    56272.386    234.64674    36.191958 
147664000     295.3981    541.85963    327.53592   -56313.903    56316.266     214.3237    36.192166 
147668000    269.94073    332.77482    368.87598   -56327.701     56347.09   -36.101163    36.190164 
147672000    265.01305     234.1038     546.6092   -56332.292    56331.952   -312.50539    36.185463 
147676000    304.19153    237.40434    271.75175   -56342.133    56336.662   -34.347409    36.193307 
147680000    319.12966    377.65429      351.907   -56385.415    56377.506    25.747293    36.193566 
147684000    297.62653    227.23819    228.96344   -56383.297    56393.893   -1.7252476       36.201 
147688000    277.70503    187.20064    320.69655   -56373.664    56393.207   -133.49591    36.208958 
147692000    260.28942    199.44036    179.90466   -56388.924    56423.808    19.535701    36.208137 
147696000    291.36017    375.73406    308.48495   -56423.684    56425.202    67.249112    36.205437 
147700000    264.41182     328.1425    439.70473   -56423.984    56448.174   -111.56223    36.196652 
147704000     292.3339    447.97348    320.13792   -56456.164    56452.123    127.83556    36.181515 
147708000    310.42067    423.90449    357.18322   -56479.847     56484.37    66.721276    36.180895 
147712000     274.0809     169.3401    369.69098   -56504.279    56507.061   -200.35088    36.171669 
147716000    302.41771    256.06656    370.57274   -56530.118    56541.428   -114.50618    36.176395 
147720000    277.25881    377.59985    174.11408   -56545.051     56550.62    203.48578    36.176556 
147724000     281.7023    532.27265    259.09607    -56556.69    56571.322    273.17658    36.187245 
147728000    260.40695    349.26616    250.35086   -56579.142    56592.868    98.915294    36.187642 
147732000    286.82703    414.91951     205.6294   -56616.081    56618.155    209.29011    36.186973 
147736000    270.82407    557.02415    275.49054   -56642.753    56648.993     281.5336    36.189885 
147740000    290.87196     426.1523    589.09663   -56660.347    56662.033   -162.94433    36.176544 
147744000    267.43281    342.40649    306.78421   -56692.907    56694.719    35.622277     36.18622 
147748000    271.47933    475.67506    314.56446   -56699.269    56705.478     161.1106    36.191265 
147752000    283.91606    285.78266    215.91663   -56717.882    56725.755    69.866032    36.192889 
147756000    295.67539    333.56717    362.13432   -56731.611    56737.583   -28.567156    36.187598 
147760000    276.50775    326.89468    352.08754   -56734.184    56759.767   -25.192859    36.194056 
147764000    302.62004    249.61154    312.17188   -56755.128    56761.544   -62.560339    36.193745 
147768000    277.23279    440.66856    334.49255   -56778.089    56784.576    106.17601     36.19203 
147772000    272.23581     369.6386    271.95093   -56837.918    56847.648     97.68767    36.174418 
147776000    284.17891    200.14597    159.26374   -56852.109    56855.478    40.882229    36.175796 
147780000    292.85783    248.81076    434.68027   -56876.755    56882.826   -185.86951     36.16777 
147784000    285.04748    512.48895    190.40926   -56894.649    56910.344    322.07969    36.154027 
147788000    276.40774    371.30217    429.62098   -56927.123    56951.975   -58.318812    36.161223 
147792000    277.35841    306.46125    450.19234   -56936.025    56947.249   -143.73109    36.166053 
147796000    268.95289    321.61934    264.30146   -56970.321    56981.302    57.317881    36.175206 
147800000    281.59599    310.83336    253.75021   -56973.159    56990.024    57.083156    36.183033 
147804000    294.50858    430.56457    483.79819   -57022.363    57021.229   -53.233619    36.184994 
147808000    259.05835    357.78624    255.41704   -57026.024    57046.208     102.3692    36.180694 
147812000    285.94819    524.73778    308.99315   -57024.719     57043.75    215.74464    36.180488 
147816000    294.84669    324.50176    463.11672   -57043.164    57053.747   -138.61496    36.151261 
147820000    261.68297    457.98683    193.71166   -57078.065    57103.885    264.27517    36.152238 
147824000       289.45    380.97884    494.58291   -57119.373    57130.437   -113.60407    36.154279 
147828000    253.61721     211.4387    211.09906   -57142.486    57170.712   0.33964587    36.154768 
147832000    273.22612    242.62169    195.39352   -57157.562    57177.008    47.228168    36.169547 
147836000    276.19296    340.68228    244.80604   -57171.989    57166.545    95.876236    36.169966 
147840000    275.43515    267.46975    333.20108   -57182.422    57198.426   -65.731331    36.160457 
147844000    285.59621    403.34232    156.60944   -57199.141    57202.279    246.73288    36.164227 
147848000    276.29918    244.67723     473.8062   -57182.838    57193.355   -229.12897    36.148792 
147852000    292.29406    272.30716    356.49256   -57213.947    57214.246   -84.185402    36.134347 
147856000    302.36061    380.25441    557.26247   -57222.638    57220.761   -177.00806    36.136443 
147860000    304.75472    278.88908    412.60748   -57247.258    57256.429    -133.7184    36.139464 
147864000    288.16464    474.18436    301.29646   -57254.687    57265.253     172.8879    36.132082 
147868000    278.84629    635.71468    177.18499   -57275.697    57290.747    458.52968    36.120374 
147872000    276.10752    282.56772    278.36584   -57307.882    57301.452    4.2018755    36.123103 
147876000    274.56464    385.61642    502.79712   -57342.726    57339.448    -117.1807    36.123793 
147880000    295.23885    257.44414    418.08623   -57367.359    57376.382   -160.64209     36.11241 
147884000    267.39856    306.35717      303.275   -57379.811    57401.103    3.0821728    36.104305 
147888000     281.5778    485.34462    259.47002   -57415.981    57415.061     225.8746     36.11328 
147892000       292.13    337.24045    155.09506    -57412.19     57419.29    182.14539    36.105883 
147896000    286.72922    371.32329    420.21212   -57434.037    57443.456   -48.888826     36.10192 
147900000    302.19281       360.27    382.22434   -57461.186    57465.547   -21.954336    36.094746 
147904000    251.89546    413.65009    178.09018   -57451.534    57489.423    235.55992    36.096447 
147908000    308.26045    413.99535    252.22322   -57500.813    57486.595    161.77213    36.112227 
147912000    271.62593    224.16626    327.48973   -57502.093    57511.992   -103.32347    36.114926 
147916000    262.10574    308.91452    237.47326   -57499.607    57538.631    71.441256    36.118016 
147920000    299.63445    447.16766    358.00763    -57551.63    57558.295    89.160027    36.121638 
147924000    286.72267    509.70435    348.35808   -57572.787    57577.452    161.34627    36.128366 
147928000    256.60246    378.58869    192.38365   -57570.341    57616.843    186.20504    36.134078 
147932000    294.97932    429.35817    380.41218   -57605.435    57623.838    48.945995    36.143422 
147936000    249.92235     446.3184    319.07352   -57627.715    57650.578    127.24489    36.144494 
147940000    285.48252    363.97248    253.47139    -57627.09    57651.735    110.50109    36.140378 
147944000    267.43719    316.00128    234.92771   -57633.271    57657.655     81.07357    36.144823 
147948000    270.38565    348.44136    548.94457    -57635.84    57664.691   -200.50321    36.143031 
147952000    255.07228    290.60009    228.81974   -57677.104    57703.903    61.780352    36.140687 
147956000    263.62604    328.32749    458.21163   -57695.879    57726.731   -129.88414    36.155075 
147960000    274.93028    503.31602    275.65928   -57725.277    57748.382    227.65674    36.154715 
147964000    303.96809    481.42507     350.3002   -57769.393    57777.451    131.12487    36.153364 
147968000    287.63271    248.32918    332.62814   -57788.664      57798.5   -84.298957     36.15219 
147972000    275.96853    308.62591    438.68499   -57788.971    57793.834   -130.05907    36.156482 
147976000    269.56621    336.52285    213.46728   -57808.406    57812.994    123.05557    36.154704 
147980000    296.55533    520.36856    224.90098   -57864.258    57855.992    295.46757    36.151246 
147984000    286.81437    418.41187    341.98174   -57865.302     57870.67    76.430131    36.141274 
147988000     296.9131    323.77053    280.23558   -57896.838    57911.985    43.534949    36.137949 
147992000    267.18765    257.76688    180.23273   -57914.896    57932.002    77.534152    36.132723 
147996000     294.1009    469.93685    574.01819   -57944.737    57948.944   -104.08134    36.132017 
148000000    289.28439    369.10708    261.32358   -57937.128    57953.899     107.7835    36.149345 
148004000    269.61247    449.23721     242.2944   -57963.991    57977.483    206.94281    36.142673 
148008000    283.03901    383.86783    348.40867   -57989.238    57989.397    35.459158    36.143646 
148012000    285.16788       443.74    386.46225   -57971.273    57999.799    57.277751    36.146715 
148016000    281.91879    482.22155    251.55047   -57989.316     58007.14    230.67108    36.151907 
148020000    284.54358     399.1834    620.75599   -58002.634    57997.217   -221.57259     36.16201 
148024000    290.78158    315.57499    457.66754   -58009.504    58007.604   -142.09255    36.164258 
148028000    319.92778      462.099    299.13446    -58047.66    58033.078    162.96455    36.153424 
148032000    291.85898    491.54014    254.23924    -58074.84    58074.129    237.30091     36.15154 
148036000    296.15613    428.58951    309.68926   -58088.751     58087.85    118.90025    36.156528 
148040000    286.30219    352.85639    575.73559   -58107.827    58127.743   -222.87921    36.150558 
148044000    311.34629    314.49191    266.47495   -58138.618    58135.096    48.016958    36.152252 
148048000    283.51589    438.66509    310.92811   -58151.719    58166.496    127.73699    36.151499 
148052000    280.07202    442.93064    352.07245   -58169.263    58184.317    90.858199    36.149961 
148056000    276.24868     504.2636    289.88047    -58197.36    58197.784    214.38313    36.149495 
148060000    276.90392    387.78998     277.6287   -58183.429    58211.518    110.16128    36.160832 
148064000    321.08285    439.74024     241.1706   -58247.154    58245.266    198.56965    36.161217 
148068000    298.60866    347.15802    359.75858    -58257.14    58265.955   -12.600561    36.161486 
148072000    273.97847     396.1648    207.56276   -58275.975    58302.668    188.60204    36.160388 
148076000    293.91416    218.41929    173.75137   -58290.203    58309.701    44.667916    36.159624 
148080000    291.74323    342.48011    533.42566   -58318.592    58323.669   -190.94555    36.148008 
148084000    287.67872    255.15031    346.87501    -58331.03    58333.642   -91.724697    36.148874 
148088000    245.88757    237.95641    202.63133   -58326.364    58356.405    35.325088     36.15598 
148092000    262.10314    375.94061    267.77815   -58338.503    58360.839    108.16246    36.155867 
148096000    247.12136    259.28621    247.77245   -58358.204    58401.591    11.513761    36.158808 
148100000    267.55487    409.83818    555.54543   -58381.381    58385.259   -145.70725    36.163585 
148104000    292.17215    500.54012    287.27941   -58424.401    58428.952    213.26071    36.174669 
148108000    289.68502    309.56557     353.2937   -58437.023    58442.967   -43.728136    36.182146 
148112000      271.817    332.11163    231.14505   -58434.892    58463.667    100.96658    36.192707 
148116000    289.12924    337.19837    620.83129   -58480.951    58499.846   -283.63292    36.191201 
148120000    277.87067    301.10405    310.62412   -58503.798    58520.381   -9.5200767    36.190093 
148124000     282.8344    206.01761    305.73578    -58515.35    58530.081   -99.718169    36.183801 
148128000    288.54911    440.70398    286.71404   -58530.266    58539.702    153.98994     36.18743 
148132000    267.81797    570.44259    203.56727    -58540.13     58563.86    366.87531    36.184431 
148136000    261.98304    332.33459    200.64474   -58534.213    58571.225    131.68986    36.186682 
148140000    306.97441    708.08525    281.19818   -58571.498    58565.502    426.88707    36.195753 
148144000    277.07556    430.06582    369.78792    -58552.35    58569.837    60.277898    36.190066 
148148000    271.51613     164.9314     255.3106     -58569.3    58584.514   -90.379205    36.187047 
148152000    264.42516    365.11737    378.06654   -58589.471      58601.6   -12.949172    36.180057 
148156000    278.90601    358.37219    326.32429   -58603.831    58629.841      32.0479    36.180002 
148160000    293.75294    337.42224    348.90361   -58632.323    58637.431   -11.481367    36.188054 
148164000    289.48444    395.02568    425.04984   -58640.663    58648.877   -30.024162    36.178657 
148168000    302.82117    246.32909    220.73691   -58665.169    58659.526    25.592178    36.180611 
148172000    294.31044    302.42751    542.23513   -58688.506     58691.29   -239.80762    36.174615 
148176000    308.06952    355.91611    200.97148   -58704.905    58701.526    154.94463    36.170084 
148180000    289.06721    584.12915     418.2472   -58718.733     58718.32    165.88195    36.174683 
148184000    272.82207    303.00672    418.94073    -58710.28    58734.568     -115.934    36.174103 
148188000    274.58827    271.34092    308.55436    -58726.33    58747.594   -37.213442    36.175721 
148192000    285.15138    424.28407    296.89646   -58760.597    58780.456    127.38761    36.179339 
148196000    276.44396    330.85661     296.7892   -58782.369    58810.288     34.06741    36.178857 
148200000    268.39819    283.15065    577.80506   -58817.761    58820.544   -294.65441    36.168509 
148204000    295.37945    605.63108    383.31295   -58827.769    58840.052    222.31814    36.159776 
148208000    266.84055    295.17755    352.23621   -58826.579    58874.535   -57.058654    36.167965 
148212000    300.15785    586.56325    437.54415   -58883.042    58875.022    149.01911    36.167405 
148216000    290.02043    351.94544    502.55568   -58926.375    58926.998   -150.61024    36.172553 
148220000    274.09952    419.49485    212.50841   -58944.546    58964.586    206.98644    36.176651 
148224000    283.26626    288.35375    505.44773    -58953.21    58976.775   -217.09398    36.177564 
148228000    261.90599    321.62578    312.84038   -58972.019    58992.694    8.7853942    36.176928 
148232000    300.38129    442.22531    357.71259   -58994.689    59002.409    84.512715    36.170429 
148236000    290.92402    423.95683    221.87064   -59021.559    59035.157    202.08619    36.172722 
148240000    263.65062     244.3192    387.60925   -59048.444     59071.63   -143.29005    36.174813 
148244000    269.22298    483.63342    268.70644   -59055.972    59083.021    214.92698    36.178689 
148248000    262.71407    300.02935    176.90318   -59039.194    59068.868    123.12616    36.168208 
148252000    243.60879    283.68181    164.02859   -59036.037    59074.873    119.65322    36.171865 
148256000    308.81538    409.15995    213.74314   -59076.982    59080.384    195.41682    36.178945 
148260000     279.6232    300.15883    226.75317   -59099.726     59120.04    73.405666    36.173203 
148264000    273.35397    288.71368    319.44113   -59130.658    59152.644   -30.727459    36.174838 
148268000    292.94133    338.01712     254.8458   -59160.292    59165.759    83.171326     36.17364 
148272000    285.07574    430.45685    353.83821   -59175.771    59192.841    76.618633    36.179444 
148276000    276.33244    316.53344    329.73315   -59194.494    59223.059   -13.199712     36.17919 
148280000    283.67182    293.16874    227.53496   -59225.448    59219.201    65.633777    36.170138 
148284000    260.27913    394.72244    220.79706   -59194.575     59221.25    173.92538    36.193741 
148288000    303.14147    421.89269     539.7344   -59254.505     59247.54   -117.84171    36.190694 
148292000    317.94575     502.3505    490.93546   -59263.748    59275.501    11.415042    36.193546 
148296000    278.87809    325.43708    295.35678   -59287.544    59310.934    30.080307    36.186612 
148300000    283.25386    253.76048    324.19727   -59310.741    59311.146     -70.4368    36.194436 
148304000    286.85857    422.43265    259.10288   -59332.894    59341.255    163.32977    36.213222 
148308000    306.38241    572.19029    452.22251   -59362.711    59347.849    119.96778    36.214425 
148312000    325.40158     278.9844     366.1206     -59359.2     59351.49   -87.136198    36.216217 
148316000    310.96759    249.24982    253.22254   -59374.173     59360.82   -3.9727174    36.208023 
148320000    276.74378    365.80286    329.92397   -59386.883    59395.869    35.878899    36.200302 
148324000    276.58856    241.13202    239.02656    -59404.81    59422.111    2.1054621    36.207936 
148328000    291.37966    475.71929     281.4073   -59429.381    59438.438    194.31199    36.212968 
148332000    289.20297    324.87259    210.47986   -59476.506    59471.492    114.39273    36.215701 
148336000    303.00602    391.98824    275.43088   -59479.777     59483.71    116.55736    36.211991 
148340000    302.84244    378.47266    348.19781   -59497.984    59492.623    30.274848     36.20859 
148344000    281.14398    239.02455    222.13952   -59495.164     59520.73    16.885029    36.201206 
148348000    272.16035    354.06193    399.65219   -59515.561    59540.502   -45.590257    36.213531 
148352000      275.096     341.6426     411.1929   -59522.753    59553.497     -69.5503    36.211768 
148356000    263.51168    485.96153    285.63474   -59520.849    59540.701    200.32679    36.211415 
148360000    285.03417     305.1285    347.18815   -59546.981    59565.991   -42.059653    36.224127 
148364000    281.89997    382.77865     463.6868   -59565.071    59575.593   -80.908151    36.240829 
148368000    282.18556    402.06633    505.89654    -59569.38    59593.848   -103.83021    36.230452 
148372000    259.17893     311.1713     354.0721    -59563.79     59598.16   -42.900805    36.229698 
148376000    288.15719    477.24458    236.97982   -59563.924    59576.803    240.26476    36.230214 
148380000    263.60783    273.40681    316.25633   -59564.809    59598.157   -42.849511    36.234448 
148384000      276.753    208.38501    308.28187   -59585.606    59603.724   -99.896862    36.235739 
148388000    272.48715    351.06489     328.7567    -59600.62    59601.772    22.308184    36.231432 
148392000    298.99543    317.82095    249.79268   -59627.579    59635.973    68.028278     36.24528 
148396000    304.46551    323.11789    357.49151   -59631.169    59643.661   -34.373624    36.256111 
148400000    277.27801    365.37274     437.7013   -59665.952    59672.792   -72.328556    36.254161 
148404000    303.24884    421.25208     324.0012   -59705.542    59690.255    97.250875    36.237571 
148408000    261.70546    699.06026    373.95733   -59699.759    59730.694    325.10292    36.250566 
148412000    271.68118     550.2259    515.20841   -59717.172    59751.657    35.017481    36.246366 
148416000    295.61709    588.61316    288.26705   -59768.377     59767.53     300.3461     36.25068 
148420000    267.92247     458.3546    289.95044   -59762.237    59781.888    168.40416    36.261754 
148424000    292.34662    267.62502    350.10157   -59791.952    59794.559   -82.476552    36.252283 
148428000    277.22058    206.63717    291.57139   -59794.348    59819.568   -84.934225    36.252789 
148432000    277.52071    524.41856     206.6739   -59818.846    59804.788    317.74466    36.255532 
148436000    285.33648    287.51447    180.78486   -59815.388     59833.35     106.7296    36.262664 
148440000    267.56841    203.22543     309.7109   -59823.787    59858.739   -106.48546    36.258743 
148444000    313.32835    419.00105    397.18209   -59868.872    59853.868    21.818956    36.270274 
148448000     268.5664    422.03117     416.6662   -59869.874    59907.176    5.3649679    36.272494 
148452000    274.05443    327.17331    230.62038   -59921.008    59949.659    96.552926    36.264312 
148456000    277.65299    452.23079     339.1954   -59960.203    59975.751    113.03539    36.262526 
148460000    280.71108     445.9446    339.71243   -59983.953    60013.289    106.23217    36.269436 
148464000    283.11726    338.89417    361.75267   -60027.876    60052.792   -22.858491    36.262943 
148468000    280.85744    186.39752    255.67788   -60043.317    60062.139   -69.280366    36.254905 
148472000    293.95815    568.78747    511.85531   -60060.209    60060.643    56.932167    36.255935 
148476000    282.97141    321.10151    332.49372   -60066.352    60101.006   -11.392213    36.244413 
148480000    279.50112    333.94512    389.17164   -60093.594    60121.488   -55.226517    36.236313 
148484000    283.55371    612.89983    292.68933   -60128.168    60142.454     320.2105     36.24183 
148488000    286.56449    322.02936    347.95669   -60131.519    60147.103   -25.927327    36.245705 
148492000    280.30269    408.41193    300.70171   -60138.492    60159.943    107.71022     36.23941 
148496000    269.53304       284.26    376.24142   -60168.138    60204.779   -91.981413    36.249118 
148500000    290.22824    403.74122    505.19614   -60196.522    60206.182   -101.45493    36.250466 
148504000    296.75675    408.23197    251.07218   -60217.024    60225.317    157.15979    36.266045 
148508000    301.02595    246.89954    323.04199   -60235.031    60242.398   -76.142448    36.273012 
148512000    281.25696    316.63659    517.49419    -60237.15    60255.641    -200.8576    36.287305 
148516000    294.51063    327.37429    257.13296   -60269.236    60264.506    70.241333    36.286188 
148520000     303.4323    358.16829    223.08206   -60294.134    60287.102    135.08624    36.281477 
148524000    282.25061    328.85725    345.24891   -60302.401    60301.523   -16.391662    36.281771 
148528000    306.68145    522.78598    288.45492   -60303.579    60312.507    234.33106    36.288124 
148532000    257.48342    438.65496     234.7818   -60303.017    60336.008    203.87315    36.281526 
148536000    261.68581    554.33049    357.88102   -60314.728     60346.26    196.44947      36.2881 
148540000    274.09336    341.57659    319.72381   -60329.222    60357.515     21.85277     36.28388 
148544000    317.42138    379.25213    421.87911   -60377.423    60357.266   -42.626982    36.286598 
148548000    272.52556    399.83915    474.09389   -60368.303    60373.166   -74.254742    36.281061 
148552000    273.87623    302.88719    300.28936   -60402.687    60419.559    2.5978286    36.283475 
148556000    298.52675    513.57936    230.42497   -60417.179    60439.878    283.15439    36.279839 
148560000    276.22093     396.0039    448.65381   -60435.746    60441.752   -52.649912    36.272511 
148564000    269.54793    273.30083    369.37019    -60460.07    60482.813   -96.069365       36.271 
148568000    308.25831    177.18126    594.69791   -60506.583    60507.205   -417.51665    36.264692 
148572000     288.9455    464.85082    337.95439   -60522.896    60537.779    126.89643    36.265884 
148576000      276.809    363.58881    186.04533   -60562.778    60572.027    177.54347    36.263496 
148580000    244.41524    242.76373    290.37477   -60582.102    60621.894   -47.611037    36.264084 
148584000    276.45583    558.88227     309.6686   -60602.497    60628.058    249.21367    36.250443 
148588000    248.56322    289.28293    304.60067   -60632.352    60653.349   -15.317746    36.246235 
148592000     281.7092    221.62851    258.19618   -60634.514    60638.119   -36.567672     36.23516 
148596000    284.94218      279.586    358.55771   -60663.831    60672.488   -78.971712    36.222607 
148600000    263.62775    230.90904    381.82665   -60653.445    60684.958    -150.9176    36.218662 
148604000    296.29928    527.78348     387.5383   -60687.445    60695.722    140.24518     36.21599 
148608000    279.30534    343.77248    280.16386   -60695.368    60719.485    63.608613    36.215766 
148612000    286.00419    271.37482    419.62675   -60739.111    60734.571   -148.25193    36.211993 
148616000    299.61056    390.52656    313.99667   -60764.218    60776.549    76.529892    36.208598 
148620000    271.98519    200.90554     302.9292   -60765.441    60772.089   -102.02367    36.189856 
148624000    302.08581    323.63598    406.68269   -60775.443    60785.186   -83.046714    36.184547 
148628000    254.42833    196.78702    199.88439   -60763.712    60809.847   -3.0973727    36.185798 
148632000    252.31977    253.84026      205.801   -60783.805    60814.834    48.039259    36.175477 
148636000    273.73867    395.16479    348.00391   -60806.102    60836.013    47.160884    36.175609 
148640000    292.36114     378.5217    381.48984   -60846.465     60852.87   -2.9681367    36.175211 
148644000    286.22212    465.04668    358.81719    -60871.96    60885.213    106.22949    36.179045 
148648000    272.12193    241.67368    255.73953    -60887.17    60900.254   -14.065849    36.172496 
148652000    296.31492    449.21575    472.08384   -60912.265    60909.244   -22.868085    36.171248 
148656000    267.80726    215.85027    271.34726   -60927.282    60969.691   -55.496998    36.171351 
148660000    252.61295    516.61542    336.67875   -60952.017    60987.278    179.93667    36.167447 
148664000     285.3195    393.39101    363.20451   -60983.269    60977.427    30.186494     36.17409 
148668000    301.65668    175.56383    386.83841   -60972.036    60971.608   -211.27458    36.169204 
148672000     287.5676    332.10745    230.66855   -61003.417    61018.719     101.4389    36.174724 
148676000    293.15806    228.84872    431.59109   -61017.589    61020.693   -202.74236    36.168271 
148680000    304.39365    479.45466    238.14199   -61052.344    61066.953    241.31267    36.172352 
148684000    276.63179    435.17714    378.30832   -61031.039    61057.312    56.868815     36.15218 
148688000    280.81241    403.45662    342.85078   -61042.119     61069.73    60.605842    36.157472 
148692000    296.41421    227.37714    349.06517   -61088.156    61088.115   -121.68804    36.150978 
148696000    286.44772    351.30373    368.38089   -61100.119    61111.027   -17.077163    36.137826 
148700000    278.57351    496.69099    175.69085   -61118.797    61135.415    321.00014    36.135229 
148704000    284.68187    361.06922    248.21069   -61146.349    61153.418    112.85853     36.14312 
148708000    285.20645    317.24861    329.94341   -61157.273    61175.128   -12.694803    36.138665 
148712000    274.55124    306.93328    284.28706   -61191.564    61199.709    22.646225    36.137276 
148716000    289.17642    349.25897    168.16315   -61215.109    61232.185    181.09581      36.1284 
148720000    271.51458    371.61145    201.43097   -61229.797    61262.378    170.18048    36.130634 
148724000    271.90694    524.50923    465.70854   -61237.094    61269.545    58.800689    36.124912 
148728000     276.7581    273.95271    500.97516   -61266.171    61278.654   -227.02245     36.11547 
148732000    262.57156    164.68492     183.2709   -61236.063     61283.26   -18.585979    36.128915 
148736000    289.63523    342.76519    312.46006   -61255.349    61265.549    30.305124    36.128922 
148740000     280.5989    338.73977    472.12961   -61268.018    61289.559   -133.38984      36.1274 
148744000    265.28354    233.98391    359.43455   -61286.605    61318.492   -125.45065    36.127423 
148748000    296.54662    312.91722    170.55674   -61334.285    61339.262    142.36048    36.126886 
148752000    275.84856     323.7037    329.42916   -61341.753    61360.113   -5.7254547    36.116345 
148756000    293.68253    480.49721    329.32643   -61358.069    61373.564    151.17078    36.127296 
148760000    293.49298    491.91123    259.94393    -61377.23        61386     231.9673     36.13192 
148764000    321.24089    464.55225    314.84005   -61378.903    61387.109     149.7122     36.13873 
148768000    271.06912    285.40126    306.35882   -61388.508    61415.327   -20.957562    36.129642 
148772000     274.9385    347.04794    298.66227   -61435.381    61445.712    48.385669    36.126452 
148776000    294.97647      417.044    254.59593   -61460.809    61462.133    162.44807    36.115022 
148780000    293.65376    415.76389    464.26895   -61490.655    61499.851   -48.505068    36.127885 
148784000    261.69356    340.99721    307.18969    -61512.11     61532.06     33.80752    36.127828 
148788000    296.78859    543.87437    414.49996   -61546.676    61546.484    129.37441    36.129558 
148792000    288.18941    611.45396    291.87855   -61564.871    61564.888    319.57541    36.134478 
148796000    268.35911    374.16269    278.53852   -61570.859     61596.79    95.624168    36.131121 
148800000    270.11043    354.19213    268.01678   -61602.202    61615.568    86.175354    36.136864 
148804000    271.48823    539.81802    240.75997   -61622.585    61655.806    299.05806    36.139207 
148808000    270.71283    264.57635    380.08193   -61635.333    61648.868   -115.50557    36.140138 
148812000    313.41697    526.24175     302.1332   -61653.169    61645.442    224.10855    36.138195 
148816000    299.33529     355.6865      324.162   -61692.541    61699.602      31.5245     36.13586 
148820000    290.44771    212.13197    208.70193   -61683.842    61709.084    3.4300402    36.150542 
148824000    271.79782      284.004    319.92476    -61698.12    61715.443   -35.920766    36.143028 
148828000    277.57253    477.83567    258.35975   -61717.612    61735.888    219.47592    36.144551 
148832000    272.69926      395.809    389.21868   -61722.306     61747.47    6.5903198     36.14573 
148836000    289.44125    398.30804    282.07806   -61761.495    61773.696    116.22998    36.142318 
148840000    270.30539    277.59226    302.65008   -61740.322    61768.289   -25.057815    36.140566 
148844000    269.94075    421.82848    175.50812    -61762.58    61782.784    246.32036     36.14502 
148848000    289.78425    471.52069    469.51326   -61780.497    61782.495    2.0074236    36.133528 
148852000    284.57604    319.33536    290.93322   -61799.457    61817.407    28.402142    36.125815 
148856000    262.00701    307.33271    389.86214   -61824.513    61834.996   -82.529427    36.125147 
148860000    304.83621    369.00326    161.87605   -61869.687    61860.027    207.12721    36.133734 
148864000    306.97376    244.62546    315.22644    -61869.52    61864.222   -70.600977    36.125071 
148868000    292.39419     347.3348    379.93934   -61893.635    61889.926   -32.604541      36.1292 
148872000    267.42718    394.52644    343.84844    -61921.88    61931.249    50.678001    36.123829 
148876000    256.59286    421.75373    315.53996   -61942.112    61974.049    106.21378    36.120518 
148880000    255.97369    489.21326    245.77191    -61973.69    62016.008    243.44135    36.127472 
148884000    299.61223    303.19433    275.50847   -62042.974    62043.084    27.685857    36.112628 
148888000    284.26803    305.91751    341.04323   -62074.296    62089.119   -35.125722    36.115539 
148892000     312.1967    403.79175    409.87486   -62095.982    62099.998   -6.0831047    36.113828 
148896000    290.33139     324.6559    257.24317   -62115.965    62108.706    67.412731    36.111418 
148900000    277.77558    360.34063    428.05701   -62114.483    62133.757   -67.716379    36.112743 
148904000    284.72077    370.63206    250.74578   -62143.511    62167.806    119.88629    36.119668 
148908000    296.06174    202.65699    345.80886   -62171.461    62163.258   -143.15186    36.109486 
148912000    311.29933     374.2683    247.10465   -62196.849    62213.732    127.16365    36.113573 
148916000    269.03467    353.14958    436.15505    -62227.63    62237.678   -83.005471    36.118108 
148920000    303.79115    417.61261    192.66367   -62261.695    62261.058    224.94894    36.125192 
148924000    268.78671    340.68494    184.24299   -62273.713    62288.719    156.44195    36.116185 
148928000    263.15855    250.08932    318.89708   -62285.307    62303.236   -68.807764    36.108938 
148932000    274.60789     371.8113    347.14586   -62338.798    62346.574    24.665439    36.114485 
148936000    257.90072    314.15934    269.13552   -62356.409     62385.53     45.02382    36.117853 
148940000    281.04543    390.54938     505.5529   -62382.105    62398.929   -115.00351    36.123242 
148944000    273.44135     355.9423    400.42942   -62392.712    62408.306   -44.487126    36.126582 
148948000     268.6493    273.43015    273.84435   -62417.392    62424.326  -0.41420085    36.131379 
148952000    288.79072    440.73731    221.63358   -62443.454    62442.223    219.10373    36.132918 
148956000    270.86312    457.78287    238.69093   -62437.936      62467.4    219.09194    36.120321 
148960000    305.52631    412.22599    368.49205   -62494.044    62489.861    43.733939    36.119522 
148964000    261.98449    282.06438    325.59378   -62498.833    62516.943     -43.5294     36.11584 
148968000    278.29484    258.74862    302.67155   -62508.778    62513.693   -43.922926    36.121498 
148972000     284.0534    345.20897    278.96626   -62513.872    62518.116    66.242711    36.127118 
148976000    285.83939    330.59378    400.36238    -62529.27    62551.188     -69.7686    36.132402 
148980000     250.8495    287.04762    214.93873   -62534.533    62560.257    72.108895    36.134493 
148984000    275.15979    313.76986    420.71161   -62570.369    62602.857   -106.94175    36.135744 
148988000    260.28567    276.41215    318.60543   -62582.724    62607.803   -42.193272    36.121737 
148992000    300.02201    393.71524    315.22906   -62623.324    62627.217     78.48618    36.127228 
148996000      286.986    314.07602    246.12501   -62625.649     62638.87    67.951014    36.138463 
149000000     302.5036    526.44583     496.3018   -62645.979    62651.008    30.144033    36.137502 
149004000    295.82429    399.78334    175.86698   -62682.914    62681.671    223.91636    36.147387 
149008000    259.98749    246.92434    280.01613   -62701.512    62733.614   -33.091788    36.142477 
149012000    282.29387    190.03125    287.11739   -62745.679    62746.715   -97.086141    36.149134 
149016000    308.34082    548.81736    200.56329   -62754.749    62750.558    348.25407    36.158638 
149020000    271.34811    430.50861    308.53564    -62757.09    62767.909    121.97297    36.173068 
149024000    280.27894     506.7867    276.01557   -62781.437    62803.247    230.77113    36.184582 
149028000    249.76431      304.693    328.06488   -62822.666    62860.359   -23.371874    36.196113 
149032000    278.00262     305.3201    255.63853   -62832.588    62860.198    49.681565    36.195624 
149036000    295.57577    547.44169    667.95878   -62852.975    62867.195   -120.51709    36.194671 
149040000    275.06602     248.6597     324.2176   -62858.351    62880.727   -75.557903    36.184749 
149044000    269.25623    306.65038    248.11025   -62886.255    62902.841    58.540131    36.183696 
149048000    296.76867    246.75107    346.34118   -62921.862    62927.427   -99.590109       36.179 
149052000    284.45916     404.2248    185.87763    -62960.16     62951.58    218.34717    36.190609 
149056000    270.21639    265.09071    321.24372   -62950.269    62983.727   -56.153009    36.199179 
149060000    267.73873    446.78003    285.49541   -62974.836    62997.168    161.28462    36.202603 
149064000    279.13096    403.73079    401.38965   -62994.251    63005.625    2.3411383    36.208762 
149068000    272.31995     272.8484    319.68291    -62998.39    63020.073   -46.834506    36.199769 
149072000    292.41852    215.43167    331.69224   -63023.836    63024.922   -116.26057     36.19727 
149076000    288.68023    303.70286    356.82767   -63073.525    63073.631   -53.124819    36.190058 
149080000    284.21137     334.4098    313.56482   -63105.119     63101.13    20.844973    36.184928 
149084000    261.56554    239.68741    602.71225   -63101.075    63115.104   -363.02483    36.185478 
149088000    298.12929    408.42803     280.1045   -63132.669    63122.827    128.32353    36.179238 
149092000    272.67362    302.99789    349.58141   -63134.171    63148.026    -46.58352    36.183597 
149096000    274.97961    336.71117    386.25303   -63154.306    63172.445   -49.541855    36.198684 
149100000    300.16275    460.74734    383.82848   -63169.118    63171.877    76.918858    36.188842 
149104000    313.21872     422.0844    315.15923   -63205.103    63199.862    106.92517    36.178054 
149108000    318.77989    329.04658    423.42895   -63229.709    63220.858   -94.382371    36.178627 
149112000    294.53211    399.57786    469.19186   -63244.649    63253.884   -69.614002    36.175145 
149116000    292.80834    312.66592    351.46537   -63266.557    63272.273    -38.79945    36.169794 
149120000    317.85946    523.64448    237.53076   -63299.396    63305.318    286.11372    36.168486 
149124000    312.36905    344.31937    346.08521   -63345.755     63336.79   -1.7658353    36.169184 
149128000    272.45381    373.28054    253.52761   -63356.248    63388.943    119.75293     36.16951 
149132000    282.93195    187.60242    355.62752   -63395.988    63417.869   -168.02511    36.161472 
149136000    294.69745    188.75982    384.12444   -63421.334    63432.522   -195.36462     36.14905 
149140000    293.96584    321.35726    140.42974   -63447.737    63451.911    180.92752    36.162572 
149144000    329.68463    219.05721    220.52033   -63465.583    63455.091   -1.4631176     36.15021 
149148000    362.40802    489.52992    234.26732   -63511.033    63480.484     255.2626    36.157451 
149152000    291.81861    429.26521    372.43022    -63515.44    63514.856    56.834997    36.151907 
149156000    292.22902    390.80104    535.85854   -63548.009    63551.854    -145.0575    36.148209 
149160000    301.20233    243.53927    225.02461   -63562.087    63572.863    18.514658    36.153598 
149164000    233.64972    158.39669    380.41475   -63577.436     63608.73   -222.01807    36.145301 
149168000    272.48547    325.28493    340.99173   -63579.997    63602.715   -15.706799    36.136219 
149172000    287.93657    378.76708    418.05065   -63601.517    63627.452   -39.283567    36.125089 
149176000    247.96437    334.73736    289.90211   -63619.563    63655.534     44.83525    36.122031 
149180000    316.18247    309.14012    435.44931   -63670.992    63653.218   -126.30919    36.114565 
149184000    281.49945    382.83834    261.78425   -63665.849    63670.332    121.05408    36.111729 
149188000    277.37922    412.45676    329.98037   -63691.935    63710.974    82.476387    36.103557 
149192000    304.75966    504.93093    408.96254   -63703.805    63721.294    95.968396    36.107953 
149196000    333.39001    514.23893    423.23205   -63751.358    63730.994     91.00688    36.105872 
149200000    280.48747    377.48822    287.97109   -63755.141    63765.211    89.517129    36.113096 
149204000    281.68426    310.98717    268.81283   -63777.017    63791.657    42.174339    36.118637 
149208000    332.59089    785.52515    179.09317   -63810.592    63800.377    606.43198    36.119088 
149212000    286.12111    207.81993    348.20264   -63850.171    63843.628   -140.38271    36.124126 
149216000    299.64229     405.7192    310.58201   -63877.913    63877.013    95.137197    36.117686 
149220000    280.15468    426.88544    244.61005   -63887.511    63901.993    182.27539    36.112642 
149224000    281.11415    168.03386    239.92969   -63904.558    63913.344   -71.895832    36.108738 
149228000    307.53591    318.58344    369.08224   -63941.457    63931.634   -50.498798    36.104971 
149232000    270.99494     326.6747    344.68085   -63955.601    63976.414    -18.00615    36.103209 
149236000    249.30972    298.51936    405.24878   -63964.554      64014.8   -106.72942    36.093654 
149240000    280.35109    312.40071    401.41676   -63994.164     64002.77   -89.016053    36.091395 
149244000    285.61908    360.23433    334.99817   -64026.968    64033.791    25.236162    36.088296 
149248000     278.9849    365.34729    353.06959    -64020.74    64042.811    12.277704    36.088056 
149252000    243.74226    323.90516    346.97812   -64024.145    64060.229   -23.072964    36.094624 
149256000     309.4901    471.05997    334.03672    -64069.64    64070.192    137.02325    36.107874 
149260000    319.11472    389.45922    315.17658   -64084.564    64070.384    74.282642    36.105221 
149264000    289.65469    374.91064    431.51599   -64078.367    64087.809   -56.605352    36.099624 
149268000    274.09788    318.83146    278.65229   -64087.149    64112.548    40.179171    36.105752 
149272000    238.06406    297.91609    272.31948   -64095.396    64118.643    25.596614    36.102106 
149276000     282.6283    488.24288    354.39867    -64104.61    64129.416    133.84421    36.096149 
149280000    283.56949    248.92801    341.51901   -64135.001    64158.575   -92.591002    36.092509 
149284000    275.19314    372.74325    384.41274    -64172.34    64152.627    -11.66949    36.093266 
149288000    281.97432    250.68558    382.07501   -64171.693    64172.965   -131.38943    36.094105 
149292000     280.5833    415.02416    370.95395   -64195.627    64209.412    44.070213    36.099725 
149296000    302.27215     340.0716    266.07923   -64216.777    64225.162    73.992371     36.10842 
149300000    300.57179    309.78657    239.50377    -64237.86    64231.607      70.2828    36.103038 
149304000    280.52328    379.89578    173.17745   -64252.408    64272.106    206.71833    36.112539 
149308000    267.97241    245.06716    345.64878    -64247.34    64264.882   -100.58162    36.115321 
149312000    300.31011    335.55178    422.18741   -64269.162    64281.777   -86.635632    36.119778 
149316000    287.41658    377.61699    304.27971   -64309.576    64309.985    73.337285    36.122803 
149320000    288.88676    380.50271     385.3162   -64322.791    64338.672   -4.8134903    36.114747 
149324000    275.23636    453.34731    225.65858   -64327.428    64347.389    227.68872    36.103449 
149328000    260.70441    214.77144    263.26163    -64323.58    64356.272   -48.490192    36.107685 
149332000    278.80063    448.07546    183.43967   -64370.423    64390.137    264.63579      36.1124 
149336000     251.2382    210.14266    366.94343   -64396.769    64430.406   -156.80077      36.1073 
149340000    303.45246    477.77458    214.03835    -64440.31    64445.188    263.73624    36.117213 
149344000      292.249    317.50213    463.30732   -64471.702    64479.357   -145.80519    36.114444 
149348000    278.25008    375.95354    273.11252   -64489.319    64500.486    102.84102    36.114026 
149352000    278.17056    134.79105    355.93436   -64506.445    64533.331   -221.14331    36.115285 
149356000    292.63697    284.14446     380.3852   -64546.369    64559.534   -96.240738    36.130855 
149360000    273.55953     439.1896    500.99978   -64549.096    64556.109   -61.810177    36.141136 
149364000    266.41675    298.70239    243.44334   -64554.112    64589.157    55.259055    36.141802 
149368000    257.50623    496.45407    294.61885   -64583.653    64601.645    201.83522    36.144611 
149372000    274.89092    260.97887    530.86735   -64572.146    64605.869   -269.88848    36.143049 
149376000    266.00016    375.09164    339.84414   -64614.761    64645.944    35.247501    36.140646 
149380000    283.34979    557.52085    387.21675    -64660.78    64673.881    170.30411    36.145391 
149384000    295.77684    365.37324    357.83801   -64691.741    64702.179    7.5352354    36.142257 
149388000    287.25499    486.84871    409.83071   -64712.647    64727.886    77.017997    36.151634 
149392000    285.15608    493.67865    309.98585   -64725.686    64733.119     183.6928    36.165852 
149396000    280.44443    402.16987    493.98517   -64745.546    64756.359   -91.815297    36.165135 
149400000    264.16534    249.21226    318.88799   -64777.441    64783.746   -69.675734    36.165941 
149404000    264.11944    293.36466    269.04785   -64790.031    64829.345    24.316811    36.165127 
149408000    286.02903    462.23222    270.85595   -64817.918    64840.911    191.37627    36.164464 
149412000    257.30985    257.99721    395.50149   -64852.204    64893.849   -137.50428    36.170919 
149416000    270.48903    241.19359    169.19389   -64894.345    64909.408    71.999703     36.16398 
149420000    298.60234    464.88656    346.90064   -64914.885    64930.948    117.98593     36.16522 
149424000     265.4296    300.70197    210.38687   -64912.426    64958.594    90.315098    36.184175 
149428000    311.64714    342.80901    324.55461   -64977.323    64957.594    18.254402    36.186429 
149432000    299.74515    641.82679    469.32862   -64987.656    64996.578    172.49817    36.185296 
149436000    270.61919    653.92704     389.7315   -65003.746    65020.776    264.19554    36.189144 
149440000    262.96866    274.92897    247.11424   -65038.864    65070.952    27.814737     36.18114 
149444000    300.44653    281.41954    334.92317   -65052.363    65064.463   -53.503629    36.188578 
149448000    301.64728    300.77597    541.05122    -65071.74    65064.593   -240.27525    36.208529 
149452000    260.76664    243.91745    269.06502   -65070.969    65080.568   -25.147566    36.206223 
149456000    295.24409    280.48943    169.40988    -65086.38    65075.635    111.07956    36.213082 
149460000     271.4951    279.96231    421.76522   -65053.452    65076.593    -141.8029    36.204946 
149464000    267.89181    439.82133    395.32862   -65070.206    65081.688     44.49271    36.203955 
149468000    267.49974     307.1895    298.21676   -65067.027    65088.215    8.9727399    36.196776 
149472000    307.35195    396.14738    324.00017   -65085.395    65072.509    72.147205    36.206449 
149476000    278.25836    520.34888    277.94226   -65114.049    65135.517    242.40662    36.204783 
149480000    276.50607    337.52812    435.01877   -65090.716    65113.835    -97.49065    36.202742 
149484000    278.22812    236.97256    212.17245   -65115.237    65146.935    24.800107    36.193583 
149488000    298.50468    434.79604    361.58688   -65158.111    65151.862    73.209159    36.188679 
149492000    271.56453    408.57558     330.7587   -65167.661    65184.285    77.816882    36.185972 
149496000    266.48324     352.5063    236.03942   -65172.318    65190.578    116.46688    36.190295 
149500000    277.96517    610.03919    327.77083   -65180.674    65185.394    282.26835    36.186502 
149504000     245.7306    225.81363    300.92846   -65172.148    65207.797   -75.114832     36.17926 
149508000    261.42068    429.64631     241.2272   -65183.404    65211.465     188.4191    36.185423 
149512000    235.80203    329.04577    323.58492   -65168.822    65210.437    5.4608405    36.193039 
149516000    284.09935    335.27394    256.22154   -65195.784    65221.825    79.052393    36.193367 
149520000    286.18558    301.58077    417.38283   -65231.076    65235.473   -115.80206    36.185138 
149524000    309.12185    361.97956    485.90332   -65259.423    65253.647   -123.92376    36.193692 
149528000    280.99159    220.43579     312.6059   -65270.824    65296.828    -92.17011    36.192721 
149532000    261.38468    214.58785    236.55237   -65270.951    65307.624   -21.964511    36.183342 
149536000    304.47428    530.88424     226.5197   -65317.337    65313.413    304.36454    36.188821 
149540000      297.765    397.73111    181.41566   -65339.111    65354.586    216.31545    36.194437 
149544000    294.49731    356.38186    285.90814   -65338.661    65347.809     70.47372    36.192193 
149548000    324.71919    474.60168    256.92217    -65376.01    65355.068    217.67951    36.196237 
149552000    324.21085    385.73321    267.62672   -65382.111    65383.267    118.10649    36.193038 
149556000    265.86759    453.96048    311.77177   -65383.837    65425.785    142.18871    36.195332 
149560000    308.34624    455.97768     367.9159   -65442.372     65436.65    88.061778    36.202226 
149564000    254.60675    245.90433    288.59817   -65447.248    65478.242   -42.693847    36.201324 
149568000    306.52456    328.22175    405.40481   -65477.852    65499.827   -77.183064    36.201698 
149572000    295.12824    135.01078    279.36622   -65535.578    65534.946   -144.35544    36.199469 
149576000    273.34196    452.31613    237.48265   -65557.599    65581.391    214.83348    36.193929 
149580000    271.05381     329.3152    319.91925   -65561.582    65588.919    9.3959425    36.180958 
149584000    301.49804    372.99647    288.07335   -65611.851    65615.374    84.923114    36.190027 
149588000     275.5089    387.75529     331.2545   -65619.293    65641.836    56.500795    36.195604 
149592000    302.17532    521.66335    606.09338   -65630.455     65650.43   -84.430023    36.186937 
149596000    291.71471    393.96228    225.61068   -65673.225    65673.877    168.35159    36.181159 
149600000    287.01375    564.24565    491.38472   -65684.207    65702.244    72.860934    36.183069 
149604000    289.95257     306.5777    286.54095   -65702.782    65704.222    20.036757     36.18025 
149608000    288.90959    375.16887    337.77611   -65707.229    65727.339    37.392758    36.170519 
149612000    319.00094    410.31676    350.10541   -65749.489    65746.598     60.21135    36.174474 
149616000    263.99293    227.65944    276.71259   -65782.751    65810.171    -49.05315    36.174064 
149620000    276.72966    464.68113    201.45863   -65781.225     65814.98    263.22249    36.184495 
149624000    268.19665    267.55502    256.15083   -65798.468    65824.118    11.404192    36.176267 
149628000    299.10508    547.47026    321.25748   -65827.918    65829.208    226.21279     36.17484 
149632000    274.72749    194.99542    378.13365   -65826.281    65862.194   -183.13824    36.173881 
149636000    284.03409    374.06788    164.52884   -65879.005    65898.722    209.53904    36.186086 
149640000    289.60879    338.50771    532.81705   -65897.648     65909.69   -194.30933    36.185241 
149644000    292.82444    419.22889    332.57861   -65913.787    65922.207    86.650281    36.193506 
149648000    271.27096    151.88314    360.61064   -65933.426    65951.583    -208.7275    36.194755 
149652000       306.01    506.17479    422.32702   -65970.881    65976.883    83.847765    36.199783 
149656000    259.59616    435.04374    349.95493   -65977.263    66017.782     85.08881     36.21033 
149660000    269.68695    387.41514    385.64442   -65995.118    66027.285    1.7707194    36.205163 
149664000    261.32473    416.23766     271.3697   -66005.014     66026.03    144.86797    36.201798 
149668000    294.00786    527.43663    258.13506     -66046.3    66066.201    269.30157    36.198729 
149672000    267.82248    317.01184    314.18555   -66071.452    66069.541    2.8262882     36.20116 
149676000    260.25233    361.61893    450.03699   -66068.305    66084.718   -88.418058    36.187787 
149680000    302.74536    228.95901    245.03915   -66097.862    66086.464   -16.080144    36.185818 
149684000    312.07485    250.44603     442.8841   -66124.132    66131.797   -192.43807    36.186857 
149688000    272.98312    448.93619    84.417971   -66152.013    66144.157    364.51822    36.180267 
149692000    293.23649    326.21695    303.30204    -66159.19    66179.494     22.91491    36.182362 
149696000    276.88287    324.84741    297.73478   -66157.483    66175.424    27.112637    36.188629 
149700000    281.90462    246.66164    270.52724    -66165.47    66188.358   -23.865602    36.193657 
149704000    293.58738    346.95203    285.44653   -66181.377    66188.305    61.505503    36.192948 
149708000     300.5816    350.12722    520.23118    -66212.56    66207.291   -170.10396    36.194784 
149712000    300.29552    543.27359    323.81563    -66250.03    66256.948    219.45796    36.203273 
149716000     279.1947     228.5875    299.26419   -66253.382    66264.375   -70.676691    36.204805 
149720000    249.20609    401.84459    169.39121   -66259.222    66287.083    232.45338    36.201881 
149724000    251.77396    401.95113    370.79866   -66283.791    66297.254    31.152473    36.203044 
149728000    288.21419    419.04264    203.68987    -66297.41    66304.915    215.35278    36.215173 
149732000     270.2135    497.50928     282.7502   -66287.071    66306.413    214.75908    36.211276 
149736000    264.11784    360.75896    287.58012   -66290.889    66311.945    73.178849    36.212849 
149740000    282.62033    379.22127    346.61303   -66283.497    66296.071    32.608235     36.20711 
149744000    271.87355    419.98899    345.03458    -66278.47    66307.356    74.954415    36.211591 
149748000    280.45075    441.70626    209.82296   -66329.604    66346.722     231.8833    36.206163 
149752000    317.32927    297.27389    315.31771   -66351.524    66339.488   -18.043819    36.205944 
149756000    271.92956    311.14106    221.83637   -66374.084    66375.747    89.304684    36.205511 
149760000      279.359    260.90583    287.78266   -66388.789    66404.225   -26.876832     36.19408 
149764000    274.78323    306.78637    243.14667   -66413.631     66440.38    63.639693    36.200411 
149768000    256.54703    312.81434    366.70547   -66410.337      66444.6   -53.891124    36.203981 
149772000    267.41748    497.61673    246.34054   -66423.323    66449.358    251.27618    36.209815 
149776000    265.60216    347.55521    272.05925   -66437.594    66450.217    75.495956    36.204549 
149780000    285.86726    532.28426    282.58345   -66444.951    66459.041    249.70081    36.202059 
149784000     273.3739    426.51678    239.43198   -66449.919    66461.179    187.08481    36.195351 
149788000    299.28902    341.24144     409.7106   -66482.112     66472.14    -68.46916    36.198976 
149792000    271.18042    280.16389    219.90415   -66488.847    66509.301    60.259746    36.194705 
149796000    261.23106    270.24884    240.72842   -66496.063    66523.883    29.520415     36.19174 
149800000    276.23941    544.54216     346.4322   -66544.026    66567.181    198.10995    36.198615 
149804000    274.33682    436.60829    231.27051   -66563.974    66590.931    205.33779    36.199484 
149808000    257.32559    409.83955    274.03899   -66579.222    66625.333    135.80055    36.185408 
149812000     302.5888    338.21628    211.48553   -66627.081    66627.697    126.73075    36.198016 
149816000    304.45202    128.94029    358.71752    -66650.75    66662.286   -229.77722    36.216272 
149820000    283.06494    182.90781    323.31246   -66710.572    66726.177   -140.40464    36.198759 
149824000    271.30805     309.2818    349.13619   -66724.334    66742.066   -39.854385    36.202625 
149828000    276.91859    414.87244    338.66625   -66740.403    66756.322    76.206192    36.199685 
149832000    264.63632    363.69447     205.5966    -66768.73    66793.384    158.09787    36.195338 
149836000    299.35329    611.03516    238.86998   -66797.579    66813.755    372.16519    36.207042 
149840000    312.61623    401.14554    352.95538   -66841.439    66836.939    48.190161    36.204809 
149844000    261.36896    367.62377    403.99655   -66854.784    66863.012   -36.372776    36.198598 
149848000     297.4246    490.77722    195.37625   -66870.756    66890.013    295.40097    36.194584 
149852000    284.06002    402.68898    178.97919   -66888.274    66909.766    223.70978    36.191475 
149856000    293.93183    269.04493    295.97521    -66882.13    66902.902   -26.930279    36.186002 
149860000    280.35339    437.82428    220.50073   -66915.408    66939.619    217.32356    36.188772 
149864000    287.32934     403.4393    234.28298   -66944.571    66967.318    169.15632    36.190959 
149868000    274.84148     307.2986    543.02412   -66990.072    67010.212   -235.72552    36.195026 
149872000     272.2594    352.70218    273.98145    -67015.56    67026.553    78.720726    36.186775 
149876000    309.51206    565.53231    226.14172   -67043.897    67046.581    339.39059    36.184437 
149880000    246.87509    310.99178    295.06178   -67064.308    67085.118    15.929992    36.182305 
149884000    292.50192    219.84795    253.50115   -67105.675    67104.214   -33.653203     36.18605 
149888000    280.78278    193.57818    307.08657   -67119.136    67136.668    -113.5084    36.173172 
149892000    277.46569    394.32325    366.79632   -67145.453    67161.195    27.526927    36.167906 
149896000    243.07239    300.82113    284.87197    -67161.31    67183.974    15.949158    36.172729 
149900000    296.57542    331.13471    368.41304   -67223.565    67231.726   -37.278332    36.182624 
149904000    275.71695     256.5238     351.2022   -67236.411    67236.121   -94.678399    36.181886 
149908000    280.33249    335.37858     191.4528   -67254.872    67266.591    143.92577    36.173275 
149912000    279.18157    489.19591     319.0862   -67275.035    67281.836    170.10971    36.168375 
149916000    258.30984    342.13692    377.45891   -67292.207    67313.663   -35.321988    36.157316 
149920000    291.81776       425.45    224.45832   -67315.864    67322.893    200.99168    36.148881 
149924000    282.21356    303.77306    259.54903   -67319.691    67330.358    44.224028     36.15672 
149928000    273.13259    415.94821    250.85093   -67326.121    67339.832    165.09728    36.161034 
149932000    264.75915    552.71438    588.45768   -67339.378    67372.163   -35.743301    36.159114 
149936000    253.44936    343.36036    385.44275   -67340.406     67371.41   -42.082385    36.161681 
149940000    264.59879    412.15458    358.59982   -67361.653    67399.647    53.554756    36.158111 
149944000    283.05729    273.48452    250.65682   -67379.308    67411.394    22.827702    36.144561 
149948000    277.67995    313.61643    226.03743   -67413.353    67425.325    87.578998    36.150565 
149952000    291.08157    427.82459    291.51082   -67449.001    67465.131    136.31377    36.151998 
149956000    256.08744    214.06153    232.01428    -67442.96    67483.005   -17.952756    36.146698 
149960000    247.44832    204.75511    226.71181   -67441.041    67482.802   -21.956702    36.127668 
149964000    295.10589    224.55398    132.97507   -67483.226    67493.816    91.578915      36.1188 
149968000    266.90907    230.22549    285.59559   -67498.633    67516.305   -55.370105    36.115856 
149972000    285.25345    267.25134    299.32384   -67533.206    67549.087   -32.072498    36.114561 
149976000       267.61      301.676    300.57594   -67552.418     67586.69    1.1000524    36.106259 
149980000    291.77172    318.37782    228.87694   -67565.949    67580.505     89.50088    36.102835 
149984000      284.682    385.56679    379.68895   -67577.036    67581.948    5.8778368    36.099079 
149988000    266.70698    382.52039    336.00779   -67586.714    67617.786    46.512607    36.094407 
149992000    301.87975    317.81965    383.49236   -67619.599    67634.136   -65.672713    36.095978 
149996000    252.88094    518.19455    360.61732   -67624.383    67656.382    157.57723     36.09612 
150000000    283.10433    413.92922    364.70206   -67665.087    67682.833    49.227154    36.097918 
150004000    271.90796       323.52    378.26025    -67675.72    67706.345   -54.740247    36.096172 
150008000    260.56085    261.14045    372.85739   -67705.511     67737.24   -111.71694    36.103262 
150012000    286.90358    200.44893    238.46491   -67741.468    67745.537   -38.015982    36.094804 
150016000    267.92387    403.67538    252.99091   -67754.589    67781.089    150.68447     36.09423 
150020000    292.99852     309.0105    244.34583     -67786.3    67785.923    64.664671    36.097581 
150024000    271.77711    429.80745    233.70757   -67792.901    67822.736    196.09988    36.095388 
150028000    282.21077    371.81006    359.93605   -67827.969    67841.187    11.874006    36.106889 
150032000    263.05505    374.95614     182.8305   -67822.897    67860.174    192.12565     36.11374 
150036000    253.58858    237.02162    229.11145   -67840.168    67856.634    7.9101706     36.11318 
150040000     289.5805    403.24942    358.53267   -67865.556    67863.834    44.716751    36.116074 
150044000    281.04112    324.24751    293.59979   -67838.183    67844.371    30.647716     36.10712 
150048000    269.39797    262.27517     435.0038   -67840.382    67859.486   -172.72863    36.108584 
150052000    277.16004    384.63185    290.22304   -67869.645    67888.641    94.408809    36.104271 
150056000    313.59147    404.94588    367.05308   -67924.222    67916.302    37.892805    36.104113 
150060000    284.38044    436.60843     284.6571   -67910.495    67936.852    151.95133    36.094494 
150064000    311.60028     413.4602    239.52796   -67923.816    67931.133    173.93224    36.087081 
150068000    273.56466     267.1518     449.4129   -67941.529    67951.989    -182.2611    36.094182 
150072000    291.69386    334.32648    235.13849    -67956.31    67970.674    99.187992     36.10216 
150076000    295.62093    309.10291    283.38058   -67977.929    67978.891    25.722331    36.107632 
150080000    270.91537    388.01426    332.43185   -67994.613     68013.77    55.582407     36.10534 
150084000      297.794    454.92465    421.97582   -68008.182    68019.526    32.948829    36.098282 
150088000     275.5961    279.12172    198.67021   -68024.091    68041.705    80.451511      36.1041 
150092000     305.3659    443.45372    193.94957   -68063.149    68045.975    249.50415     36.10177 
150096000     280.4189     517.0489    335.15442   -68031.965    68059.386    181.89447    36.095955 
150100000    286.63411    333.78497    495.19474   -68042.094    68049.466   -161.40976    36.095007 
150104000    294.87923    716.23931    451.23308   -68092.106    68095.873    265.00624    36.096236 
150108000    269.97489    511.41043    327.86876   -68107.598     68130.62    183.54167    36.097992 
150112000    304.13564    331.77957    288.03484   -68140.875    68145.918    43.744725    36.090893 
150116000    254.18715    286.81859     327.0838   -68147.847    68180.812   -40.265213    36.092412 
150120000    261.64664    298.29488    370.50255   -68188.119    68191.578   -72.207671    36.086384 
150124000    297.95887    566.47031    391.35943   -68190.489    68211.277    175.11089    36.082537 
150128000     270.2625    271.79424    293.19936   -68205.758    68223.612   -21.405111    36.096094 
150132000    312.10571    352.74592    204.63978   -68259.803    68243.566    148.10615     36.09999 
150136000    281.97585    408.60287    230.09705   -68296.373    68308.577    178.50583    36.104293 
150140000    318.66825     445.5424    290.47251   -68334.118    68333.605    155.06989    36.106185 
150144000    277.37518    507.04566    444.18201   -68348.016    68377.193    62.863657    36.106757 
150148000    291.46687    306.05388    316.84816   -68366.447    68397.876   -10.794276    36.108427 
150152000    280.93372    213.24167    501.74059   -68384.117    68410.836   -288.49892    36.103126 
150156000    292.68383    271.78407    324.31851    -68422.25    68442.986   -52.534438    36.100632 
150160000     273.9618    272.59668    347.07728   -68459.314    68493.135   -74.480601     36.10995 
150164000    272.46333    300.25145    245.32827   -68506.631    68515.104    54.923179    36.115033 
150168000    288.27718    423.88956    459.82612   -68534.488        68536   -35.936564    36.119269 
150172000    275.12754    345.83143    370.66722   -68559.907    68588.488   -24.835784    36.117068 
150176000    291.22694    396.43874    158.27132   -68601.606    68615.353    238.16742    36.118249 
150180000    303.50195    422.00719    375.90587   -68618.282    68626.135    46.101323    36.125203 
150184000    256.27821     220.4582    175.18106   -68637.278    68667.452    45.277143    36.118038 
150188000    272.41609    361.13688    305.10237   -68672.155    68689.621    56.034506    36.123758 
150192000    278.54937    414.73697    186.51564   -68721.509    68740.204    228.22133    36.115273 
150196000    296.51547    372.18761    426.31211   -68746.237    68758.064   -54.124502    36.114414 
150200000     277.7935    396.84979    284.50208   -68776.363    68776.013    112.34771    36.111238 
150204000    263.53001    227.30323    324.25777   -68761.349    68787.846   -96.954541    36.101697 
150208000    249.12977    222.91084    207.53603   -68764.475    68806.783    15.374809    36.092357 
150212000    271.65969    293.19518     338.4524   -68790.754    68827.074   -45.257224    36.092962 
150216000    282.68534    306.80447    274.92524   -68816.306    68831.645    31.879223    36.089606 
150220000    282.04021    304.29126    208.05343   -68825.588    68853.972    96.237827    36.086589 
150224000    278.86484    316.56992    351.58242    -68867.13    68867.861   -35.012492    36.086774 
150228000    261.86482    362.62579    190.98711   -68848.895    68885.141    171.63867    36.080804 
150232000    264.31557    294.72267    406.08034   -68858.717    68884.405   -111.35767    36.081705 
150236000    272.02246    509.31563    345.70459   -68871.596    68898.548    163.61104    36.081219 
150240000    295.52501    374.55366     540.0254   -68888.384    68897.614   -165.47175    36.074566 
150244000    263.99513    273.52836    278.00244   -68926.545    68950.513   -4.4740821    36.079782 
150248000    273.66158    445.05657    263.25709    -68934.83    68946.284    181.79947    36.080639 
150252000    318.65432    633.34032    218.55236   -68956.975     68962.95    414.78796     36.08563 
150256000    259.15953    377.89384    615.58648   -68960.401    68991.224   -237.69265    36.079999 
150260000    293.22569    299.37703    240.68337   -69002.807    69004.797    58.693662    36.073172 
150264000     291.5134    377.45017    376.17808   -69025.857    69021.732     1.272089    36.071499 
150268000    283.61899    264.83192    262.71754   -69043.513    69055.998    2.1143809    36.071857 
150272000    305.98968    229.28666    325.34743   -69045.308    69048.068   -96.060765     36.07348 
150276000    287.60677    454.45577    275.33991   -69072.447    69089.507    179.11586    36.062764 
150280000    257.88381    414.61722     240.4584   -69101.289    69129.991    174.15881    36.065206 
150284000    274.54959    322.75799     156.4755   -69097.921    69123.261    166.28248    36.067602 
150288000    277.92411    314.64348     381.1005   -69119.482    69138.759   -66.457019    36.062448 
150292000    288.30063    461.02932    363.19221   -69141.891    69161.135    97.837115    36.064752 
150296000    303.39704    261.18303    324.07362   -69183.965    69192.711   -62.890586    36.057205 
150300000    269.99458    349.16716    341.44628   -69200.734    69216.693    7.7208745    36.060138 
150304000    298.15393    479.22356    187.62488   -69223.775    69228.226    291.59867    36.052816 
150308000    283.54813    420.35463    223.42275   -69244.682    69260.468    196.93188    36.068141 
150312000    307.52985    473.26478    456.13085   -69259.881    69259.017    17.133922    36.066192 
150316000    260.57207    431.70927    125.93623   -69285.362    69314.123    305.77303     36.07137 
150320000     291.1591    329.85377    342.30106     -69303.6    69297.127    -12.44729    36.069265 
150324000    306.90529    337.57238    391.48989   -69327.475    69312.095   -53.917511    36.062225 
150328000    289.92681    327.28253    351.19909   -69309.634    69326.286    -23.91656    36.064385 
150332000    268.81084    496.03966    439.31532   -69333.841    69354.595    56.724341    36.069144 
150336000    300.88947    381.78627    249.92469   -69358.077    69373.063    131.86158     36.07114 
150340000     259.9873    275.15753     152.7088   -69389.548    69412.333    122.44873    36.079478 
150344000    275.02341    220.26909    335.11863    -69399.31    69399.485   -114.84955    36.079596 
150348000    279.83435    393.84356    297.53959    -69413.96    69434.497    96.303966    36.085951 
150352000    270.59336    268.52223    267.47542   -69439.176    69481.941    1.0468159    36.083606 
150356000     274.5593    545.67055    513.49632   -69471.998    69502.949    32.174228    36.083921 
150360000    284.40487    229.70869    174.54864    -69514.87    69521.671    55.160057    36.083748 
150364000    274.71328    493.98427    375.22202   -69506.148    69518.174    118.76224    36.086716 
150368000    314.48977    269.65022    406.00046   -69523.219    69516.393   -136.35024    36.092556 
150372000     289.9864    283.92863    271.20305    -69535.19    69543.207    12.725587    36.078221 
150376000    262.79737     427.5772    248.39767   -69541.455    69571.411    179.17954    36.086268 
150380000    251.98879    277.58363    387.83731   -69561.324    69608.278   -110.25368    36.084674 
150384000    259.16434    399.96405    369.53442   -69588.202    69620.289    30.429631    36.083601 
150388000    263.71622    370.05237    323.31202   -69622.346    69645.941    46.740345    36.080386 
150392000    288.63461    505.17108    300.26411   -69643.745    69661.914    204.90697    36.071297 
150396000    262.94396    327.01419    292.04595    -69657.66    69687.566    34.968241    36.059544 
150400000    289.18154    302.77125    276.12205   -69707.174    69707.706    26.649199    36.056613 
150404000    263.95791    276.96396    274.66957   -69677.778    69719.166    2.2943821    36.066885 
150408000    265.27645    510.96133    215.59989   -69700.816    69734.158    295.36144    36.072231 
150412000    270.69322    259.04497    442.84394   -69730.976    69742.521   -183.79896    36.075626 
150416000     267.6439    474.23497    246.78239   -69731.183    69753.372    227.45258    36.078242 
150420000    312.31418    443.89349    580.66756    -69761.48    69754.505   -136.77407    36.082131 
150424000      318.812    477.43468    510.09908   -69777.437    69771.189     -32.6644    36.078465 
150428000     290.6624    297.03904    208.35433   -69791.967    69805.421    88.684707     36.07527 
150432000    259.36583      191.924    256.20256   -69773.035     69809.53   -64.278563     36.07503 
150436000    289.05756    390.70532    311.35143   -69806.049    69816.407    79.353891    36.072399 
150440000    272.13774    242.62659    206.16554   -69794.381    69808.348    36.461051    36.071075 
150444000    253.36288    325.93727     305.3262   -69802.423    69832.867    20.611069     36.07749 
150448000    262.24353    278.64002    375.42753   -69831.399    69856.039   -96.787511    36.077079 
150452000    283.61886    379.67793     289.4572   -69851.443    69874.179    90.220735    36.081112 
150456000    295.03613    294.86244    427.93399   -69862.043    69872.981   -133.07155    36.088615 
150460000    281.94465    361.74537    356.73112   -69893.051    69906.539    5.0142512    36.089835 
150464000     314.0318    429.89635    354.13554   -69922.692    69916.112    75.760814    36.095623 
150468000    285.23603    388.28995    319.98976   -69934.291     69951.09    68.300184    36.096794 
150472000    270.02653    263.21574    275.26407   -69943.249    69963.034    -12.04833     36.09731 
150476000    280.61314    355.92443    299.05532   -69981.964    69982.014    56.869112    36.096478 
150480000     251.0825    444.56207     242.1699   -69973.622    70006.345    202.39217    36.103745 
150484000    284.64162    374.77695    356.28929   -70032.949    70040.631    18.487657    36.099633 
150488000    291.41956    273.03347    218.26103   -70067.196     70077.97    54.772446      36.0959 
150492000    316.17694    462.51339    456.25533    -70084.28    70074.584    6.2580575    36.099766 
150496000     303.5114    297.34437     440.1324    -70127.16    70111.416   -142.78803    36.102461 
150500000    286.13035    361.11404    296.26642   -70115.349    70132.755    64.847617     36.09917 
150504000    298.60322     331.8367    212.96148   -70125.246    70146.128    118.87522    36.088735 
150508000    321.52971    309.48614    276.41516   -70168.805    70154.635    33.070975    36.086539 
150512000    270.90685    370.88542    253.50488   -70189.366    70199.916    117.38054    36.089053 
150516000     294.3683     427.9376    254.15764    -70198.36    70220.554    173.77996    36.091009 
150520000    270.29225    436.51007    347.41997   -70193.098    70229.295    89.090103     36.08721 
150524000    294.15532    257.87439    162.47071    -70232.83    70247.858    95.403682    36.076928 
150528000    298.10393    256.44486     396.3314   -70265.642    70270.119   -139.88654    36.081256 
150532000    293.13119    532.72575    185.12088   -70266.314    70295.532    347.60487    36.076046 
150536000    276.77764    498.42635    381.16542   -70279.035    70299.572    117.26093    36.070319 
150540000    275.86016     263.3378    453.38415   -70304.895    70323.491   -190.04635    36.064242 
150544000    286.21815    473.62304    376.70788   -70342.866    70346.019    96.915162    36.057958 
150548000    288.66607    239.32651    260.21992   -70354.453    70366.717   -20.893418    36.057421 
150552000    272.90101    352.93738    298.34907   -70375.675    70393.377    54.588307    36.059678 
150556000    280.95384    392.82659    328.60618   -70387.691    70402.909    64.220408    36.056008 
150560000    290.41025    217.85195    249.28364   -70414.284    70425.223   -31.431692    36.057128 
150564000    270.39081    401.89078    403.79144   -70441.568    70472.761   -1.9006609    36.055012 
150568000    271.56077    366.87484    369.83129   -70483.988    70481.047   -2.9564509    36.046738 
150572000    263.16208    326.59552    323.11243   -70494.334    70519.815    3.4830942    36.045438 
150576000    261.40061    284.71628    269.46741   -70522.435    70547.067    15.248866    36.045771 
150580000    254.22284    371.62923    230.84105   -70560.031    70592.961    140.78818    36.046467 
150584000    295.61576    469.43835    470.95889   -70609.558    70631.926   -1.5205468     36.03883 
150588000    270.20318    236.49335     204.0462   -70629.388    70645.103    32.447153    36.039872 
150592000    294.71954    462.99892     342.3116   -70644.629    70660.654    120.68732    36.040682 
150596000    275.27375     243.5663    248.60161    -70665.46    70685.293    -5.035311    36.038101 
150600000    307.06783    339.35766    526.57903   -70686.555    70684.485   -187.22136     36.04023 
150604000    264.48108    238.49875    417.99522   -70702.175    70722.107   -179.49647    36.036082 
150608000    304.15757    409.00721    288.09356   -70746.066    70743.914    120.91364    36.025274 
150612000    302.20919    390.60673    352.70719   -70763.655    70754.073    37.899539    36.027066 
150616000    271.52031    400.48367    155.31467    -70778.82    70784.131      245.169    36.032325 
150620000    259.75737    340.01865    201.52432   -70767.113    70804.478    138.49433    36.035573 
150624000    276.63341    209.85068    222.27804   -70788.131    70799.602    -12.42736    36.034298 
150628000    306.44171    582.69836     262.6882   -70801.979    70808.443    320.01016     36.04396 
150632000     290.5907    458.92477    256.13137   -70826.059    70853.949     202.7934    36.044343 
150636000    291.23905    403.80782    436.58492   -70856.523    70861.738   -32.777097    36.042569 
150640000    268.67208    357.05874    303.33075   -70849.113    70864.259    53.727995    36.040875 
150644000    297.91544    467.40051    176.82248   -70884.959    70889.393    290.57803    36.041105 
150648000    281.49203     324.4368    293.80814   -70894.614    70908.461    30.628661    36.040583 
150652000    306.55569    399.49202      347.039   -70916.563    70909.474    52.453021    36.038541 
150656000    288.14686    359.51493    203.12469   -70943.276    70934.053    156.39024    36.038979 
150660000    284.10841    321.55834    158.52347   -70964.906    70970.115    163.03487    36.037061 
150664000    288.50085    507.84807    397.26762   -70961.164    70987.422    110.58045    36.041429 
150668000    271.02631    267.77254     376.7466   -70977.531    70982.129   -108.97407    36.042964 
150672000    274.30761    170.97674    273.44888   -70972.143    71006.734   -102.47214    36.031431 
150676000    286.38978    331.69557    279.58577     -70974.1    70996.779    52.109794    36.045986 
150680000    305.96928    259.82224    288.97073   -70991.355    70997.321    -29.14849    36.044549 
150684000    272.92513    316.27418    350.61126   -70992.663    71022.113    -34.33708    36.044592 
150688000    330.19178    375.18373    376.97318    -71031.04    71033.763   -1.7894509    36.038598 
150692000    265.04599      342.525    225.32372   -71050.162    71078.693    117.20128    36.038298 
150696000    268.37622    381.31494    321.18503    -71076.24    71104.241    60.129912    36.039245 
150700000    279.33016    253.37532    246.33752   -71109.035    71117.494    7.0378003    36.024607 
150704000    303.13536    583.58293    424.79804   -71156.182     71143.18    158.78489    36.023659 
150708000    286.62735    331.04009    245.74102   -71162.977    71168.902    85.299065    36.022052 
150712000    276.31632    306.24475    260.40008   -71187.736     71198.93    45.844666    36.022687 
150716000    292.78818    470.25059    255.94648    -71197.61    71187.431    214.30411    36.015046 
150720000    269.67065    309.26475    316.20336   -71177.056    71198.363    -6.938613    36.016778 
150724000    296.09702    261.44572    395.54666   -71209.534    71219.151   -134.10094    36.009152 
150728000    284.31251    250.14637    277.22866   -71233.822    71253.893   -27.082288    36.008999 
150732000    275.97908    325.01174    488.67957   -71253.933    71257.588   -163.66783     36.00498 
150736000    281.73105    174.08503    332.39043   -71262.068    71290.705    -158.3054    36.001821 
150740000     295.1519    462.62784    389.07599   -71277.985    71302.074    73.551848    36.002877 
150744000    298.77518    472.57219    483.95896   -71297.385    71313.106   -11.386766    36.005104 
150748000    245.25284    408.09642    380.33763   -71317.525    71365.433    27.758793    36.003332 
150752000    269.97845     392.1622    166.36237   -71348.355    71362.328    225.79983    36.004094 
150756000    295.42384    343.45386    359.25452   -71364.559    71372.088   -15.800657    36.010686 
150760000    320.59064     423.3296    324.63267   -71418.028    71396.659    98.696928    36.007719 
150764000    265.90344     232.9398    243.37848   -71404.119    71444.905   -10.438673    36.007595 
150768000    280.94195    301.10035    429.68107   -71427.232    71458.291   -128.58072    36.011273 
150772000    257.80107    370.28121    363.09363   -71441.894    71472.723    7.1875794    36.006478 
150776000    263.95643    392.08975     415.9808   -71471.501    71510.754   -23.891056    35.997969 
150780000    282.42298    399.12679    307.10422   -71487.252    71499.357     92.02257    35.990781 
150784000    292.05689    314.60109     266.3803   -71499.929    71512.237    48.220797    35.988351 
150788000     253.1322    453.45174    248.50103   -71504.095    71539.031     204.9507    36.000136 
150792000    271.30275    479.61563    309.48786   -71514.976     71546.63    170.12777    35.994498 
150796000    259.03125    414.37435    343.40033   -71525.585    71557.778    70.974025    35.985681 
150800000    253.98416     352.7047    416.07636   -71532.134    71564.626   -63.371665    35.989369 
150804000     266.5126    481.90692    212.04417   -71565.853    71582.422    269.86275    35.995978 
150808000    263.18106    328.90137    481.17363   -71578.016    71594.778   -152.27226    35.992601 
150812000    285.06129    396.77998    436.20976   -71597.927    71617.868   -39.429774    35.996507 
150816000    297.34785     478.2449    464.02725   -71625.813    71637.393    14.217657    35.996008 
150820000    291.26159    219.67161    269.16443   -71659.968    71673.312    -49.49282    35.989903 
150824000    276.34735    378.17087    269.62232    -71668.58    71685.206    108.54855    35.984592 
150828000    289.53882    400.02491    373.99671   -71671.249    71664.044      26.0282    35.981368 
150832000    311.78903    535.51664    241.77882   -71679.886    71672.594    293.73782    35.973923 
150836000    275.91136    475.75046    294.01627   -71692.581    71705.069    181.73418     35.97642 
150840000    283.55204    381.58397    186.43023   -71703.223     71720.03    195.15374    35.981228 
150844000     281.1922    350.64303    288.98057   -71722.017    71731.413    61.662463    35.980274 
150848000    274.92946    271.52342    292.07525   -71726.539    71753.271   -20.551838    35.979716 
150852000    259.91964    376.88608    222.14544   -71735.682    71761.119    154.74064    35.972166 
150856000    287.16833    337.51058    371.77616   -71732.475    71769.824   -34.265583    35.969442 
150860000    277.63832    345.82459    574.53529    -71787.12    71792.056   -228.71071    35.969931 
150864000    281.59379    317.72189    217.00279   -71819.144     71828.74    100.71909    35.963662 
150868000    285.14084    219.11627    417.88816   -71822.092    71836.411   -198.77189    35.957671 
150872000    267.82518    351.80152    299.70888    -71837.21    71844.397    52.092644    35.978313 
150876000    282.23384    323.76218    345.94149   -71847.061    71849.197   -22.179315    35.971367 
150880000    270.93426    307.71435    317.79741   -71890.074    71907.578   -10.083057    35.972844 
150884000    291.30643    670.78357    293.04633   -71941.838    71955.543    377.73725    35.980185 
150888000    285.72661    236.39101    384.38646   -71959.736    71966.345   -147.99545    35.971058 
150892000    276.52202     449.3862    225.76074   -71981.736    72005.458    223.62546     35.96753 
150896000     298.8113    482.82499    404.32928    -72022.15    72029.513    78.495703    35.963253 
150900000    287.38882     346.1894     355.1245   -72067.493    72073.957    -8.935099    35.971913 
150904000    298.74558     513.4909    271.25039    -72092.96    72075.616    242.24051    35.976808 
150908000    286.21097    359.98827    229.18615   -72084.106    72090.222    130.80212    35.989037 
150912000    297.07042    404.94224    461.56968   -72072.894    72083.088   -56.627444    35.990502 
150916000    289.73966    302.73594    226.99656   -72108.469    72114.257    75.739378    35.998792 
150920000    296.32075    397.20929    250.43648   -72123.998    72132.045    146.77281    35.991456 
150924000    262.80352     366.8623    233.70765   -72125.105    72161.496    133.15465    35.991206 
150928000     309.4795    549.11078    344.87665   -72187.959    72192.114    204.23413    35.982043 
150932000    284.96893    285.43422    429.68211   -72219.437    72231.769   -144.24789    35.984184 
150936000    258.80607    532.01849    241.17768   -72207.345    72237.622    290.84081    35.978776 
150940000    288.31537    512.66933    307.09081   -72227.498    72234.804    205.57852    35.976831 
150944000    281.04316    264.46405    473.26042   -72240.569    72257.837   -208.79637    35.970482 
150948000    266.54416    370.45831    266.74769   -72254.719     72269.78    103.71062    35.971178 
150952000     266.9977    299.07308    371.43381   -72273.736    72293.667   -72.360738    35.978337 
150956000    286.38478    283.38059    423.33788   -72304.594    72312.475   -139.95728    35.985898 
150960000    295.88747    483.74568    323.73619   -72304.197    72321.747    160.00949    35.970608 
150964000    250.52072    251.92145    297.79083   -72282.865    72312.791   -45.869378    35.970906 
150968000    291.41083    415.13251    384.56711   -72310.139    72317.293    30.565399     35.97887 
150972000    259.52799    206.56282    371.47947   -72311.046     72338.67   -164.91665    35.968968 
150976000    269.98599    413.36162    264.40364   -72330.498    72353.813    148.95798    35.958221 
150980000    273.36392    434.74304    268.51365   -72366.093    72379.704    166.22939    35.953393 
150984000    263.43833    354.79377    272.19582    -72370.74    72398.256    82.597948    35.953294 
150988000    269.54421    468.09789    312.47283   -72392.339    72415.947    155.62506    35.953017 
150992000    265.75368    432.79878    260.92884   -72414.538    72462.672    171.86994    35.968895 
150996000     275.8612    428.21147    260.36855   -72414.351    72463.811    167.84293    35.968579 
151000000    270.71941    447.98822     398.5999   -72442.561    72464.146     49.38832    35.976323 
151004000    277.96173    361.53986    236.04423   -72462.811    72472.097    125.49563    35.979352 
151008000    306.33308    259.34186    346.71492   -72482.455    72466.789   -87.373059    35.984544 
151012000      281.616    628.51761    244.22915   -72510.218    72502.524    384.28846    35.989242 
151016000    326.87812    380.58119     485.5571   -72523.316    72503.478   -104.97591    35.982392 
151020000    307.87474    395.55923    489.36907   -72547.601    72545.356   -93.809839    35.983512 
151024000    308.32163    196.07259    273.72155   -72574.752     72580.67   -77.648957    35.992243 
151028000    273.13376    435.52913    241.06871   -72602.073    72633.575    194.46042    35.984837 
151032000     275.6313    438.73404    407.26858   -72621.341     72650.52    31.465468    35.981166 
151036000    290.23532    524.56154    466.05001   -72642.406    72665.183    58.511526    35.980022 
151040000    265.55051    344.65087    327.10637   -72646.488    72689.888    17.544503    35.977266 
151044000    277.11224    343.54243    382.24114   -72701.913    72711.114   -38.698702    35.978123 
151048000    253.10009    332.08718    184.81267   -72700.605    72741.542    147.27451     35.98348 
151052000    292.31891    340.50443     522.3267   -72719.832    72747.142   -181.82227     35.98859 
151056000    285.15884    309.14185    275.73364   -72741.857    72746.703    33.408213    35.995596 
151060000    292.75154    433.97772    333.29544   -72757.421    72778.288    100.68227    36.000231 
151064000    274.05535    369.14261    238.39344   -72787.641    72809.318    130.74917    36.006233 
151068000    290.39744    568.35868    212.46633   -72804.615    72815.137    355.89235    36.013674 
151072000    260.96441    473.18891    251.52007   -72821.954    72855.196    221.66884    36.028032 
151076000    284.23267    321.12246    280.35605   -72873.325    72890.993    40.766406    36.020672 
151080000    309.74776    353.65482    417.92364    -72902.14    72899.732   -64.268814    36.018448 
151084000    274.96051    443.08773    268.24046   -72890.324      72909.3    174.84726      36.0292 
151088000    307.21911    511.72301    363.26935   -72928.614     72942.17    148.45366    36.030636 
151092000    266.98022    261.46564    202.35425    -72950.64    72973.199    59.111388    36.029219 
151096000    300.59978    427.55173    212.15932   -72964.223     72952.36    215.39241    36.027517 
151100000    298.97147    525.10591     388.2274   -72970.666    72993.794    136.87851    36.029573 
151104000    304.18561    480.70644    151.31721   -73010.455    73006.098    329.38923    36.024606 
151108000    293.87816    303.13076    273.84302   -73029.555    73027.446    29.287745    36.021216 
151112000    306.41294    189.52602    258.67709   -73052.405     73056.97   -69.151063    36.009004 
151116000    296.15984    574.42265      282.538   -73076.004    73088.188    291.88465    36.005444 
151120000    259.93807    589.05953    358.83259   -73085.379    73120.249    230.22694    35.997538 
151124000    268.55783    352.86577    338.02551   -73112.698    73135.226    14.840252    36.001041 
151128000    263.72152     468.5756    250.17558   -73120.054     73149.28    218.40002    36.011159 
151132000    260.59222    337.73795    255.86873   -73134.402    73168.687    81.869218    36.010193 
151136000    275.76305    487.36273     269.7136   -73175.227    73188.662    217.64912    36.019037 
151140000    268.72284    355.59548    236.41746   -73197.042    73226.162    119.17802    36.017094 
151144000    293.71653    266.08857    263.66866   -73231.502    73242.456     2.419912    36.015759 
151148000    295.02677    337.63133    256.70729   -73286.081    73284.938     80.92404    36.016059 
151152000    275.60409      338.775     365.4812   -73266.115    73295.316   -26.706204    36.010822 
151156000    274.28393    301.03628    373.57004   -73267.767     73297.83   -72.533764    36.007474 
151160000    302.25846    481.00345    305.58483    -73341.93    73322.086    175.41862    36.005309 
151164000    259.27095    245.71805    309.34229   -73328.653    73365.112   -63.624237    36.000201 
151168000    271.76703    320.76643    262.16168   -73346.354    73384.997    58.604746    35.998226 
151172000    285.82993    304.56753    549.38396   -73392.337    73410.316   -244.81643     36.00183 
151176000      276.538    344.26719    463.99287    -73426.82    73450.036   -119.72568    36.000827 
151180000    299.75863    481.55728    300.35557   -73455.851     73460.98    181.20171    36.005035 
151184000    268.86946    303.29922    355.56828   -73454.572    73473.784   -52.269069    36.000689 
151188000    291.09329    505.57085    335.80886   -73487.619    73498.222    169.76198     36.00459 
151192000     268.0499    305.52756    374.73276   -73505.208    73520.072   -69.205198    35.990735 
151196000    270.01165    470.05812    247.22946   -73518.229    73539.795    222.82866    35.988533 
151200000    268.70567    392.26879    325.99748   -73531.689    73554.861    66.271305    35.993309 
151204000    299.63455    405.14123    300.42243   -73566.674    73568.481     104.7188    35.989722 
151208000    265.40891    328.88095    310.35152   -73577.915    73588.192    18.529437    35.992316 
151212000    306.76455    586.96032    176.61539   -73597.012    73576.727    410.34493    35.993838 
151216000    304.81632      211.562    400.41559   -73619.934    73611.441   -188.85358    35.994266 
151220000    268.53086    442.36752    263.92502   -73614.723    73636.514     178.4425    35.997609 
151224000    267.43365    411.46614    165.89359    -73613.19    73627.914    245.57255    35.996605 
151228000    262.44755     253.7521    249.47494   -73604.866    73626.547    4.2771626    35.990012 
151232000    284.91395    420.50337    544.88644   -73622.577      73619.7   -124.38307    35.991816 
151236000    280.58593    401.96886    325.07956    -73603.77    73629.199    76.889297    35.994796 
151240000    300.22919    367.73087    259.77508   -73630.901    73635.798    107.95579    35.993079 
151244000    255.27088    363.74038     215.5458   -73638.888    73661.917    148.19458    35.989755 
151248000      260.116    428.14783    240.29207   -73647.276    73668.083    187.85576    35.987257 
151252000    286.73243     350.1637    558.50959   -73668.637    73686.072    -208.3459    35.987947 
151256000    271.67095    340.77088    426.19891   -73702.964    73710.825   -85.428028    35.987589 
151260000    266.95799    589.67609    350.64052   -73735.307    73750.568    239.03558    35.986564 
151264000    288.40608    446.74525      397.877   -73734.536    73754.546    48.868245    35.983571 
151268000    309.63232    402.86281    384.45836   -73776.488    73775.792    18.404447    35.980752 
151272000    317.61447    621.47103    362.64645   -73790.283    73786.301    258.82458    35.985139 
151276000    287.19883    426.50299    156.59533   -73806.483    73808.544    269.90766    35.986828 
151280000     284.3691    317.96371    243.38642   -73821.253    73859.875    74.577294     35.99023 
151284000    313.52623    362.61295    228.16921    -73859.87    73859.666    134.44375    36.001203 
151288000    288.86578    470.00516    363.74998   -73872.184    73881.774    106.25518    36.009467 
151292000    276.56877    268.16081    312.51931    -73886.95    73893.294     -44.3585     36.01091 
151296000     256.9856    197.61186    424.54476    -73872.26    73900.702    -226.9329     36.01291 
151300000    276.89489    476.74884    237.00673   -73890.155    73911.022     239.7421    36.011003 
151304000    288.91476    455.50394    196.80277   -73935.806    73963.788    258.70116    36.007658 
151308000    298.63393    338.75883    386.29918   -73982.061    73994.307   -47.540346    36.004843 
151312000    316.05813    315.95074    331.15672   -74015.122     74018.28   -15.205983     35.98938 
151316000    292.86203    341.04093    271.02061   -74029.355    74033.566    70.020321    35.984866 
151320000    274.11393    409.08876    497.51721   -74035.847     74046.25   -88.428446    35.988228 
151324000     231.1139    408.56077    270.83551   -74035.584    74079.517    137.72526    35.985633 
151328000    265.72462    221.82409    221.45271   -74034.094    74069.211   0.37138034    35.988243 
151332000    283.40568    508.92226    352.66227    -74061.72    74076.823    156.25999    35.996279 
151336000    298.27999    263.54875    364.82177    -74070.04     74069.08   -101.27302    35.991859 
151340000    298.96383    389.14757    397.72225   -74097.284    74094.512   -8.5746821    35.994551 
151344000    309.25612     416.3346    324.76869   -74116.314    74101.031    91.565904    36.004221 
151348000    324.19271     634.7878     353.0759   -74126.078    74116.413     281.7119    36.005643 
151352000    265.03645    328.64737    359.53444    -74103.32    74131.502   -30.887071    36.012764 
151356000    264.87641    194.47965    291.08808   -74127.603    74158.095   -96.608436    36.004067 
151360000    272.01978    449.00369    311.19114   -74136.048    74158.574    137.81255    36.004022 
151364000    287.61129    526.16987    409.11632   -74137.004    74153.647    117.05355    35.999355 
151368000    291.21517     287.2315    363.74225   -74155.558    74173.904    -76.51075    36.003346 
151372000    282.96684    313.04191    571.06162    -74173.75    74176.473   -258.01971     35.99745 
151376000    280.25347    396.67041    245.98426   -74199.058    74196.067    150.68615    35.991651 
151380000    280.15061    447.01437    345.62648   -74204.126    74209.509    101.38789     35.99617 
151384000    269.53506    458.14193    288.67014   -74207.715    74207.757    169.47179    36.001939 
151388000    256.78732     239.2858    254.65042   -74198.041    74228.652    -15.36462    36.011008 
151392000    266.10755    440.72417    315.75953   -74240.743    74270.684    124.96463    36.016852 
151396000    244.20004      294.376    177.39767   -74275.255    74306.252    116.97832    36.017553 
151400000    307.44342    271.44097    475.62984   -74318.514    74327.361   -204.18887    36.013336 
151404000    276.02692    341.35613    295.44756   -74337.487    74358.266    45.908571    36.019313 
151408000    285.00743    304.23692    357.56238   -74379.807    74387.074   -53.325458    36.016644 
151412000    286.11179    438.13223    348.10335   -74427.627    74444.358    90.028879    36.010526 
151416000     302.6384    413.61911    236.01524   -74449.752    74447.323    177.60388    36.014699 
151420000    284.07656    548.15906    388.45573   -74460.851    74480.515    159.70333    36.025715 
151424000    310.20945    304.71524    339.44148   -74474.435    74484.327   -34.726241    36.021244 
151428000    262.89229    381.74558    233.70362   -74491.583    74509.294    148.04197    36.022887 
151432000    271.33089    333.69072    464.43048   -74487.741    74516.662   -130.73976    36.024559 
151436000    281.12013    450.92778     253.0309   -74497.209    74497.636    197.89688    36.025022 
151440000    273.17536    221.06052    159.11804   -74513.214    74520.135    61.942479    36.024072 
151444000    268.30304    250.80146    279.88508   -74515.134    74559.752   -29.083622    36.025891 
151448000    273.32972    365.85397    329.22583   -74543.278    74572.732     36.62814    36.027958 
151452000    304.57524    366.40485    355.12084   -74588.671    74574.602     11.28401    36.026079 
151456000     272.8398    397.77841    155.99977   -74607.488    74619.526    241.77864    36.033073 
151460000    276.55403    314.60057    177.62985   -74625.366    74646.294    136.97072    36.037402 
151464000    277.95938    356.40332    306.35225   -74661.355    74663.483    50.051074    36.039247 
151468000    294.32807    403.91096     338.2564   -74692.085     74702.33    65.654551    36.042812 
151472000    270.60274    268.07829    535.50761   -74713.313    74732.444   -267.42933    36.046727 
151476000    296.30337    511.79191    296.51329   -74733.321    74747.096    215.27861    36.055961 
151480000    281.82064    323.50816    323.70523   -74725.265    74735.092  -0.19707162    36.060519 
151484000    284.07378    347.72633    205.49583   -74745.476     74756.48     142.2305       36.063 
151488000    269.04417    269.78057    369.26484   -74757.216    74779.863   -99.484272    36.066587 
151492000    302.81562    733.10594    274.85629    -74807.32    74805.477    458.24965    36.068969 
151496000    245.31955    297.58984    316.12639   -74811.447    74837.435    -18.53655    36.077695 
151500000    253.20452    389.73344    261.27333    -74833.02     74841.78    128.46011    36.082575 
151504000     301.5179    349.99969    232.04206   -74850.823      74849.2    117.95763    36.086514 
151508000    300.93565    329.85478    385.82603    -74872.17    74880.264   -55.971257    36.084201 
151512000    309.31433    643.28245    379.70663   -74922.357    74922.399    263.57582    36.078705 
151516000    290.18238    300.39061    372.93248   -74916.779    74925.516   -72.541872     36.08691 
151520000    283.23826    303.07604    451.84391   -74957.477    74977.942   -148.76788    36.092715 
151524000    279.55028    412.53599    386.23183   -74990.331    75001.381    26.304165    36.094995 
151528000    287.80127     268.1465    352.02106   -75020.838    75038.088   -83.874558    36.088293 
151532000    288.22444    313.37162    297.95773   -75049.092    75064.574    15.413887    36.085304 
151536000    278.93582    264.89268    229.01974   -75046.804    75072.866    35.872939    36.092825 
151540000    276.26143     275.3639    332.84266   -75084.734    75096.934   -57.478757    36.078529 
151544000    270.74744    294.29474    388.17888   -75100.721    75126.263   -93.884141     36.07495 
151548000    302.57898    599.79259    334.65134    -75129.79     75132.01    265.14125    36.069706 
151552000    289.95718    586.48764    531.23008   -75146.819    75160.104    55.257555    36.065176 
151556000    278.82835    334.60435    300.20249   -75174.079    75185.664    34.401858    36.071484 
151560000    300.22476    358.17297    511.96084   -75181.301    75194.911   -153.78787    36.066914 
151564000    265.48317    278.60875    230.05039   -75194.927    75206.653    48.558359    36.060942 
151568000    279.38554    412.79831    223.79245   -75197.794    75224.215    189.00586    36.061322 
151572000    272.90585    465.32252    300.58106   -75223.387    75238.329    164.74146     36.06737 
151576000    299.42794    542.74574    333.38263   -75240.359    75268.416    209.36312    36.062462 
151580000    288.02125    335.16431     313.7191   -75258.354    75258.027    21.445206    36.074999 
151584000    245.77419    264.96973    360.70794    -75254.07    75287.004    -95.73821    36.062961 
151588000    277.93892    378.42368    194.74276   -75286.898    75293.904    183.68092    36.069528 
151592000    258.33532    355.90215    402.25942   -75300.987    75330.644   -46.357265    36.066659 
151596000    267.83942    407.33535    344.73033   -75359.217    75379.426     62.60502    36.065398 
151600000    251.13113    266.70392    257.00169   -75393.911      75428.5    9.7022325    36.065957 
151604000    273.14199    319.32663    315.50328   -75407.397    75417.925    3.8233485    36.062027 
151608000    271.43804    357.29585    213.80356   -75407.114    75413.805     143.4923    36.057863 
151612000    310.41451    435.37985    295.42481   -75427.696    75413.105    139.95504     36.06297 
151616000    302.49521    330.29944    137.25893   -75405.812      75432.6    193.04051    36.064706 
151620000    258.95224     210.7164    292.57172    -75421.56    75457.373   -81.855318    36.066964 
151624000    304.40004     264.1273    337.37772   -75468.234    75458.816   -73.250422    36.070771 
151628000    292.55088     320.6035    392.75737   -75475.061    75485.893    -72.15387    36.062879 
151632000    270.20758    386.31482     277.9412   -75484.997    75512.579    108.37361    36.069151 
151636000    274.90829     351.2265    221.81262   -75503.778    75529.253    129.41388    36.057699 
151640000    250.96877    291.60729    446.39662   -75513.284    75556.508   -154.78933    36.053049 
151644000    277.41471     480.6118    277.63072   -75559.035    75576.665    202.98107    36.047393 
151648000    260.38182     396.6268    236.36748   -75573.756    75590.052    160.25932    36.057877 
151652000     290.2619    316.73149     262.6218   -75585.652    75608.808    54.109688    36.064257 
151656000    274.57477    411.14157    308.59052   -75610.752    75618.392    102.55105    36.069543 
151660000    254.16074    222.95463    379.98577   -75609.013     75620.02   -157.03114    36.060889 
151664000    264.75168    404.81231    231.85062   -75638.347    75659.052    172.96169    36.064294 
151668000    273.41762    365.20614    221.12335   -75642.052    75679.567    144.08279    36.057435 
151672000    289.49857    516.10182    258.19379   -75669.089     75680.47    257.90804    36.074221 
151676000    285.73577    468.15524    360.69209   -75684.998    75700.425    107.46315    36.072343 
151680000    284.11754    322.15245     338.1532   -75701.305    75743.052   -16.000756    36.073912 
151684000    298.95477    411.13638    360.51025   -75726.433      75752.1    50.626131    36.079717 
151688000    310.14607    427.65667    563.03441   -75754.156    75753.419   -135.37773    36.077972 
151692000    288.23743     313.0997     380.3779   -75779.645    75776.113   -67.278204    36.088271 
151696000     286.2372    488.76395    540.62189   -75785.033    75790.842   -51.857942    36.088007 
151700000    295.78678    381.02772    301.20212   -75792.648    75788.808    79.825603    36.095447 
151704000    292.61528    520.18821    285.58051   -75779.787    75816.149     234.6077    36.097332 
151708000    271.65238    362.09522    396.97495   -75816.343    75832.531   -34.879735    36.098227 
151712000    243.22756    202.58402    367.52434   -75815.129    75848.133   -164.94033    36.097478 
151716000    259.48539    178.94527     398.9822   -75825.432     75839.41   -220.03693    36.098728 
151720000    275.13589    306.73446    233.45045   -75848.617    75856.495    73.284018    36.093418 
151724000    302.64082    386.59594    347.62803   -75890.389    75881.496    38.967917    36.092724 
151728000    226.53858    238.26318    223.94227   -75892.624     75938.03     14.32091    36.087238 
151732000    266.71569    346.52812    204.60867   -75912.535    75945.446    141.91945    36.088556 
151736000    248.04051    182.42537    181.76488   -75935.516    75974.049   0.66048582    36.101098 
151740000     288.2816    355.33914    340.50074   -75972.768    75984.613    14.838403    36.092599 
151744000    296.33602     376.1268    359.25902   -75996.219    76013.325    16.867779    36.097546 
151748000    276.02074    371.88989    299.22538   -76001.867    76018.908    72.664507    36.100546 
151752000    272.23779    248.61121    192.18866   -76003.738    76030.372    56.422548    36.107397 
151756000    273.25893    216.64688    307.08086   -76039.406    76056.073    -90.43398     36.11731 
151760000    267.02384    397.11021    347.89715   -76042.318    76065.176    49.213064     36.12442 
151764000    280.58958    361.15641    208.32669   -76086.144    76072.617    152.82971    36.124972 
151768000    311.83876    235.61299    305.34065   -76105.732     76104.77   -69.727659    36.119123 
151772000    294.81772    345.48833    365.24617   -76127.846     76127.15   -19.757831    36.123379 
151776000    287.90786    402.70956    590.38835   -76150.699    76146.042   -187.67879    36.118723 
151780000     268.5691    410.10753    304.52488   -76154.753    76185.089    105.58265    36.112229 
151784000    282.05468    219.20126    454.65769   -76170.882    76212.605   -235.45643    36.110578 
151788000     301.2335    252.28847    402.96724   -76226.261    76228.525   -150.67877    36.104866 
151792000    298.07608     477.4047    267.81651   -76239.957    76245.399    209.58819    36.113063 
151796000     271.8097    361.14996    446.97823   -76242.618    76278.832   -85.828271    36.110105 
151800000    264.18893    539.44608    393.67412   -76278.478    76309.178    145.77196    36.110256 
151804000    288.33421    339.36132    335.39543   -76303.438    76309.416    3.9658948    36.112416 
151808000    236.09322    556.49686    214.64714   -76339.773    76383.418    341.84973    36.112998 
151812000    270.96918    311.26617    275.11655   -76371.555    76390.907    36.149617    36.111565 
151816000    271.20884    474.22147    368.64279   -76400.563    76425.875    105.57868      36.1134 
151820000    277.62271    285.97678    158.87511   -76413.393    76445.848    127.10168    36.114081 
151824000    265.28061    171.36467    224.14733   -76432.703    76452.237   -52.782659    36.106227 
151828000    279.28835    204.31429    227.10343   -76420.197    76449.266   -22.789146    36.100348 
151832000    257.39795    271.67061      267.093    -76427.25    76469.511    4.5776129    36.097719 
151836000    256.80346    413.19976     291.6752   -76456.818    76473.211    121.52456    36.105687 
151840000    269.23921    322.04543    253.90005   -76454.632    76486.093    68.145381    36.105746 
151844000     282.4075    333.24529    375.90028   -76462.073    76493.594   -42.654988    36.103859 
151848000    276.92085    316.50998     218.0907   -76491.417    76510.477    98.419274    36.094665 
151852000    296.63351    359.74256    450.65856   -76498.825    76512.298   -90.915996     36.09663 
151856000    275.91249    419.91208    431.98317   -76493.645     76526.04    -12.07109    36.099772 
151860000      302.394     234.1664      144.434   -76538.535    76553.955    89.732395    36.112508 
151864000    287.43455    531.07817    367.75173   -76583.265    76581.438    163.32644    36.104506 
151868000    255.91054     254.7303    405.60696     -76584.1    76608.649   -150.87667    36.101756 
151872000    266.85651    255.36229     230.8875   -76599.341    76625.699    24.474785    36.099498 
151876000    264.26675    299.13595    439.14998    -76595.11    76627.529   -140.01403    36.097713 
151880000    267.93665    296.53705    153.50917   -76582.245      76614.2    143.02788    36.101713 
151884000    276.25105    342.34028    388.61094   -76607.722    76632.551   -46.270656    36.095242 
151888000     288.2027    177.06468    246.66934   -76641.658     76646.91   -69.604658    36.101409 
151892000    294.91061    388.87657    203.38329   -76674.479    76678.395    185.49328    36.099381 
151896000    261.93694    412.40343    241.40726   -76691.302    76717.565    170.99617    36.090024 
151900000     266.3304    248.46642    180.09767   -76711.397    76741.935    68.368748    36.086814 
151904000    296.99912    518.84015    288.54681   -76746.119    76757.834    230.29334    36.083883 
151908000    291.07829    397.80488    249.43787   -76756.234    76768.198    148.36702    36.078555 
151912000    285.05803    307.58639    316.82577   -76780.067     76788.04   -9.2393767    36.081347 
151916000    284.59637    293.22302     178.9331   -76800.533    76805.364    114.28992    36.094968 
151920000    266.68663    315.99037    382.46768   -76810.954    76835.406   -66.477308    36.099097 
151924000    267.71142    292.89654    290.11048   -76828.975    76853.755    2.7860621    36.097375 
151928000    278.12006    337.53786    314.57391   -76858.211    76878.696    22.963944    36.105942 
151932000     270.2994    169.69889    253.85193   -76873.014    76899.725    -84.15304    36.105576 
151936000    296.32785    311.66387    318.90258   -76903.043     76918.56   -7.2387076    36.111109 
151940000    287.50431    315.27143    303.51849   -76904.612    76909.794    11.752938    36.110524 
151944000    301.48232    221.57805    235.86034   -76943.727    76945.737   -14.282286    36.108308 
151948000    302.40373    375.86948     164.6994   -76976.549    76984.046    211.17008    36.112586 
151952000    285.51114    313.71734    263.05754   -76989.545    77001.061    50.659796    36.111031 
151956000    280.90942    394.30502    233.51566   -76986.875    77010.359    160.78936    36.100438 
151960000    293.51045    560.15013    251.26585   -77010.441    77034.197    308.88428    36.106757 
151964000    277.62095    240.15449    205.71184   -77031.471     77061.93    34.442655    36.105747 
151968000    266.41621    216.80153    220.78937    -77038.64    77069.557   -3.9878363     36.09412 
151972000    269.89148    281.80443     373.7853   -77053.874     77087.87   -91.980868    36.089613 
151976000    260.15237    121.88599    417.42835   -77052.782    77086.101   -295.54237    36.093542 
151980000    284.92426    378.62834    246.74578   -77070.034     77095.35    131.88256    36.097441 
151984000    319.17854    583.02655    220.69111   -77105.672    77103.327    362.33544    36.096255 
151988000    276.38365    256.19034    147.46044   -77116.581    77140.173    108.72991    36.096702 
151992000    296.27726    244.34763    323.20575   -77140.255    77156.636   -78.858117      36.0946 
151996000    310.72269    392.54723    273.48486   -77180.404    77178.189    119.06236    36.099897 
152000000    304.03586    319.71434    320.25812   -77214.421    77223.692  -0.54378255    36.098817 
152004000    271.54044    467.87089    322.41996   -77213.897    77245.141    145.45093    36.095615 
152008000    251.35207    303.47521    177.41964   -77250.555    77261.227    126.05558    36.104975 
152012000    284.51941    333.55466    337.65497   -77274.991    77290.001   -4.1003113    36.102759 
152016000    261.74989    432.47436    294.23889    -77273.18    77288.926    138.23547    36.101154 
152020000    280.91038    407.71163     268.8493   -77304.485    77323.704    138.86233     36.09995 
152024000    280.51211    280.14224    506.83433    -77307.85    77337.702   -226.69209    36.102221 
152028000    280.25138    212.02761    438.44604   -77345.963    77353.728   -226.41843     36.10484 
152032000    296.55664    280.26214    280.89135   -77361.858    77360.348  -0.62920783    36.108424 
152036000    309.60385    315.98076    369.68301   -77392.178    77387.289   -53.702253    36.109836 
152040000    305.81041    388.26605    410.21108   -77417.298    77413.239   -21.945039    36.113569 
152044000    320.63086    349.37426    452.09746    -77447.94    77427.531    -102.7232    36.121247 
152048000    315.78253    362.86805    362.07227   -77488.435    77462.392   0.79578482    36.124229 
152052000    285.97231    352.98732    394.24784   -77460.418    77483.217   -41.260512    36.128782 
152056000    311.17562     506.3357    214.31386   -77481.673    77503.403    292.02185    36.131008 
152060000    276.09273    387.23331    196.08052   -77491.065    77515.515     191.1528    36.132031 
152064000    288.03452    267.88524    179.09092   -77541.183    77538.308    88.794317    36.134288 
152068000    282.87737    298.91485    341.80587   -77558.734    77555.855   -42.891014    36.139896 
152072000    293.18536    394.41557    359.22183   -77586.227    77591.974    35.193738    36.142763 
152076000    266.04346    333.00147    327.77308    -77591.96    77617.653    5.2283885    36.152166 
152080000    299.39852    291.05094    409.72077   -77618.786    77622.714   -118.66983    36.152645 
152084000    282.60154    325.60285    439.08908   -77637.629    77644.036   -113.48622    36.146959 
152088000    296.76997    492.15706    198.54131    -77640.14    77669.146    293.61574    36.148361 
152092000    285.90831    321.66819    334.39565   -77678.883    77677.777   -12.727456    36.146986 
152096000    336.11384    467.95156    355.02192   -77725.926    77695.152    112.92963    36.150439 
152100000    289.24323     552.1983    429.93727   -77705.729    77710.258    122.26103    36.155991 
152104000     269.9311    539.25342    359.12032   -77711.923    77742.257     180.1331    36.143047 
152108000    315.24582     315.2379     315.4485   -77765.002     77756.94  -0.21059389     36.13601 
152112000    278.03537    320.63414    284.54721   -77784.081    77790.971    36.086929    36.133049 
152116000    304.69407    419.64953    232.71989   -77822.588    77833.208    186.92964     36.13889 
152120000    258.96851    283.34292    412.31969   -77843.423    77869.179   -128.97678    36.139564 
152124000    288.81598    500.14041      266.594   -77868.046    77886.739    233.54641    36.139549 
152128000    272.99936    417.91417    265.59118   -77888.772     77910.05    152.32299    36.141012 
152132000    300.98313    250.03144    428.73026   -77925.548    77920.455   -178.69882    36.146338 
152136000    262.93496    186.42822    260.40735    -77927.39    77938.344   -73.979132    36.135932 
152140000    265.82506    392.54998    250.99234   -77940.124    77977.636    141.55763    36.137633 
152144000     289.8804    303.61476     258.0471   -77990.278     77987.71    45.567664    36.140114 
152148000    263.90023    358.41842    410.34477   -78004.142    78020.159   -51.926341    36.142322 
152152000    279.28444    370.59857     271.3055   -78023.312    78018.044    99.293077    36.147243 
152156000    294.74835    384.31251    281.81973   -78030.784    78052.141    102.49278    36.154327 
152160000    268.31752    278.69773    306.73206   -78060.126    78072.067    -28.03433    36.154539 
152164000    272.73396    287.47013    278.96097   -78082.731    78095.811    8.5091557    36.151114 
152168000    250.95731    287.25026    285.96545   -78083.543    78106.525    1.2848062    36.152945 
152172000    286.68774    253.69535    339.01519    -78085.65    78104.327   -85.319838    36.148845 
152176000    260.14445    551.12916    268.52442   -78089.854    78122.656    282.60474    36.150018 
152180000    271.64077    335.25716    327.13875   -78100.372    78134.267    8.1184098    36.156234 
152184000    279.49021    398.24433    431.41837   -78144.769    78159.464   -33.174035    36.140588 
152188000    263.25242    212.13211    354.98683   -78154.159    78171.502   -142.85472    36.136369 
152192000    271.33478    468.97002    420.79745   -78174.402    78198.346    48.172571    36.133172 
152196000    260.42486    281.69941    235.96041   -78203.478    78234.266    45.739003     36.13323 
152200000    290.19943    516.20711    375.35835   -78219.333    78237.352    140.84876    36.135056 
152204000    274.05571    396.31527    302.82106   -78229.697    78269.407    93.494206    36.133511 
152208000    286.24629    324.27802    206.15693   -78283.075    78300.404     118.1211    36.132806 
152212000    283.61574    390.44029    254.90083   -78322.225    78319.961    135.53946    36.136982 
152216000    285.97954    309.19642    219.81659   -78368.869    78370.275    89.379827    36.143112 
152220000    252.50454    379.23028    302.70974   -78354.052    78392.803    76.520533    36.148802 
152224000    256.18416      346.331    242.18696   -78365.031    78404.359    104.14404    36.150437 
152228000    281.77114    294.00109    343.07022   -78401.524    78411.286   -49.069132    36.153817 
152232000    278.07255    364.63398    419.70398   -78408.034    78440.605   -55.069998    36.153397 
152236000    253.64011    449.56074    303.65672   -78418.259    78471.706    145.90402    36.152349 
152240000     286.6206    632.75325    353.63022   -78480.374    78484.401    279.12303    36.151577 
152244000    284.90019    487.14744    346.31955   -78492.424    78512.415    140.82789    36.146255 
152248000    285.58003     365.3006    352.48198    -78516.74    78536.081    12.818619    36.142752 
152252000    307.25431    346.00969    417.40925   -78541.262    78534.934   -71.399566    36.146366 
152256000    298.32485    430.86431    459.62426   -78594.793    78590.032   -28.759944    36.142384 
152260000    294.31696     470.7104    181.20692    -78616.46    78619.711    289.50348    36.151194 
152264000    256.29964    363.05817     207.9787   -78619.109    78650.278    155.07948    36.148688 
152268000    283.33755    319.27318    304.09281   -78647.101    78655.736    15.180366    36.150014 
152272000    300.09482    400.40096    188.94041   -78676.779    78683.564    211.46055    36.152985 
152276000    275.63265    444.60394    277.11004   -78665.836    78688.047     167.4939    36.152457 
152280000     321.0952    406.59115    153.33938   -78688.887    78683.202    253.25176    36.156859 
152284000    292.55128    281.38581    377.49758   -78722.868    78703.468   -96.111771    36.160076 
152288000    302.81673    371.67572    312.59388   -78728.331    78728.715    59.081837    36.161241 
152292000    281.31815    324.65951    349.22591   -78740.743    78754.793   -24.566398    36.157616 
152296000    268.55235    476.63225    381.68762   -78743.055     78761.36    94.944633    36.158607 
152300000    281.77281    239.31161    354.91871   -78779.183     78793.79    -115.6071    36.163587 
152304000    284.70359    244.77777    378.09904   -78802.175    78805.956   -133.32127    36.164137 
152308000    293.94769    313.79083    338.52273   -78828.417    78833.184   -24.731896    36.166898 
152312000    310.15587    424.20347    367.76218   -78840.382    78847.134    56.441298    36.159731 
152316000    303.19221    381.14906    318.16164   -78851.529    78861.042    62.987413     36.15938 
152320000    267.98128    470.37656    265.62884   -78879.925    78896.704    204.74771     36.15458 
152324000    292.00566    435.57218    422.21772   -78908.696    78923.545    13.354456    36.139799 
152328000     267.1392    354.31528    331.33148   -78915.223    78946.689    22.983795    36.134007 
152332000    274.05236    287.41857    372.93646   -78954.092     78975.13   -85.517892     36.12984 
152336000    298.85091    197.99005    167.22766   -78973.235    78984.328     30.76239    36.124935 
152340000    286.06056    550.90305    518.84691   -78995.212    78990.679    32.056136    36.123373 
152344000    330.00443    344.45607     442.5038   -78991.642     78986.83   -98.047731    36.123819 
152348000    300.67862    231.87471     370.8758   -79018.288    79022.949   -139.00109    36.107913 
152352000      282.905      523.281    259.31006   -79022.508     79038.75    263.97094    36.113412 
152356000    260.64373    242.42312    213.65487   -79036.699    79072.576    28.768249    36.119383 
152360000    277.96275    376.24638    163.62194   -79081.981    79096.251    212.62445     36.12333 
152364000    285.84241    341.62746     323.9764   -79103.563    79105.354    17.651061    36.116956 
152368000    303.71383    441.42817    371.65939   -79133.722    79124.844    69.768781    36.110865 
152372000    281.14199    490.51857    355.31958   -79133.815    79166.083    135.19898    36.105432 
152376000    310.42354    563.96335    344.96589   -79216.838     79187.18    218.99746    36.112843 
152380000     284.4082    393.09681    377.55081   -79205.287    79218.387    15.546005    36.111721 
152384000    285.58918    437.30173    448.90191   -79215.471    79235.058   -11.600176    36.108089 
152388000    289.70065    341.06077    339.00736   -79243.953    79249.824    2.0534052    36.110487 
152392000    248.42416    264.41661    303.43274   -79223.515    79255.439   -39.016124      36.1129 
152396000    297.98068    510.03844    181.28863    -79266.02     79268.72    328.74981     36.12178 
152400000    274.57501    294.88291    379.23238   -79253.047    79267.611   -84.349477    36.121504 
152404000    304.64176    157.60638    306.58485   -79279.015    79292.073   -148.97848    36.115202 
152408000    295.70099    497.82786     493.2113   -79298.084    79302.295    4.6165594    36.117647 
152412000    268.46143    316.14036      234.105   -79322.506    79344.603    82.035356    36.123049 
152416000    269.32783    382.37089    286.77379   -79335.396    79372.001    95.597096    36.136407 
152420000    286.16915    303.53414    458.31796   -79352.206    79372.319   -154.78382    36.146172 
152424000     281.7396    268.49097    233.74724   -79391.639    79403.421    34.743724    36.146382 
152428000    275.39366    375.80024    230.05957   -79440.512    79457.466    145.74067    36.151215 
152432000    262.94383    225.46973     202.9446   -79448.901    79462.939    22.525127    36.153233 
152436000    254.91118    242.68569    286.66143   -79436.211    79473.139   -43.975744    36.155156 
152440000    258.77076    310.25468    232.45911   -79479.788    79504.576    77.795565    36.152274 
152444000    303.95006    482.03295    477.36005   -79512.796    79523.042    4.6728996    36.152462 
152448000    268.31745    217.26665    380.17577   -79541.298    79577.146   -162.90912    36.158688 
152452000     277.7372     401.6365    382.38925    -79567.75    79598.467    19.247254     36.15567 
152456000    288.97727    497.39257    242.19354   -79578.086    79599.627    255.19903     36.15694 
152460000    270.11422     330.4916    277.34421   -79576.064    79614.334    53.147385    36.154268 
152464000    283.96679    263.80877    304.50655   -79611.535    79611.481   -40.697786    36.152289 
152468000    315.03209    432.38696    359.46517   -79646.345    79618.997     72.92179    36.142982 
152472000    296.58154    408.06915    490.33114   -79648.626    79663.026   -82.261995    36.128732 
152476000    271.65142    449.80475    452.93839   -79655.736     79680.89   -3.1336407    36.130723 
152480000     289.9699    559.35417    512.51778   -79653.753    79678.614     46.83639    36.133927 
152484000    292.38645      260.515    353.80151   -79693.381    79706.562   -93.286516    36.140689 
152488000    277.39271    412.77827    260.33165   -79693.644    79721.053    152.44662    36.143737 
152492000    261.57741    306.90907    413.20228   -79713.044    79732.711   -106.29321    36.139857 
152496000    267.92944    357.83184    433.55284   -79727.428    79762.074   -75.720998    36.135819 
152500000    303.45929    497.74132    677.58949   -79749.929    79763.415   -179.84817    36.135527 
152504000    292.99953    379.36332    267.67651   -79785.871    79797.254    111.68681    36.127747 
152508000    293.43332     438.9547    293.27713   -79817.941     79814.24    145.67757    36.133757 
152512000    274.11995    333.11487    138.12168   -79814.597    79850.372    194.99319    36.137505 
152516000    291.60877    469.98419    410.82565   -79855.482    79855.234    59.158537    36.135092 
152520000     284.6857    722.57282     474.3045   -79882.768    79914.098    248.26832     36.14025 
152524000    322.92057    457.53179    416.36871   -79920.124    79911.463    41.163086    36.150944 
152528000     263.1313    269.26739    556.94485   -79924.728    79949.775   -287.67746    36.145484 
152532000    279.43795    394.63448    285.43403   -79969.837    79991.881    109.20045    36.147129 
152536000    281.85036    412.50295    482.02288   -80007.086    80010.033    -69.51993    36.145477 
152540000    289.76999    328.54341    284.46704   -80037.557    80040.611    44.076369    36.143225 
152544000    309.06605    407.92845    347.93119   -80074.111    80068.568    59.997262    36.146342 
152548000    292.55027    480.17132    207.42243   -80087.793    80104.021    272.74889    36.159549 
152552000    300.19559    455.87507    405.91377   -80122.347    80130.685    49.961301    36.152343 
152556000    268.81094    446.59738     410.4468   -80128.812    80168.116    36.150577    36.159685 
152560000    259.53559    255.59752    301.98057   -80129.566      80163.2   -46.383049    36.154638 
152564000    307.43739    449.12229    380.90891   -80169.461    80176.222    68.213377    36.154182 
152568000    290.69207    384.24519    287.84109   -80180.239    80211.432    96.404097    36.152642 
152572000    266.01561    325.54946    457.88423   -80201.418     80223.14   -132.33476    36.151615 
152576000    281.77349    200.45815    290.56834   -80224.562    80246.506   -90.110192    36.154038 
152580000    298.90332    284.72232    381.87471   -80254.562    80262.838   -97.152383    36.146949 
152584000    292.47449    411.45589    427.42309   -80272.171    80290.234   -15.967202    36.139499 
152588000    294.81563    618.95756    247.61214   -80289.569    80312.857    371.34542    36.143806 
152592000     277.2978    448.03711    305.68568   -80328.129    80338.955    142.35143    36.142376 
152596000    301.58683    363.52815    213.92795   -80347.758    80350.641    149.60019    36.152371 
152600000    287.11236    267.62074    441.35646   -80358.318    80361.449   -173.73573    36.154161 
152604000    274.32412    572.31674    382.04334     -80392.6     80397.88     190.2734    36.150418 
152608000    266.25361    331.09128     407.8209   -80420.462      80435.3   -76.729627    36.146392 
152612000    289.40123    332.21514    438.62505   -80456.992    80477.095   -106.40991      36.1399 
152616000    279.54199    303.85774    235.47352   -80486.112    80520.339    68.384221     36.14334 
152620000    300.32605    219.19361    288.61236   -80512.659    80517.674    -69.41875    36.135194 
152624000    276.57872    245.50728    304.57609   -80525.309    80529.533   -59.068801    36.129439 
152628000    258.85577    348.15825    352.24162   -80554.724     80558.83   -4.0833757     36.13184 
152632000    273.32568    222.52021    303.18389   -80559.154    80583.709   -80.663686    36.136164 
152636000    275.72433    481.96783     281.1816   -80582.059    80604.055    200.78623    36.144059 
152640000    271.83736    345.89434    244.23933   -80601.186    80640.485    101.65501    36.149164 
152644000    255.42659       395.37    338.07477   -80610.562    80648.859    57.295225    36.146411 
152648000    252.29198    252.04658    369.82297   -80612.039    80651.646    -117.7764    36.142955 
152652000    273.64378    333.73142    182.33535   -80631.706    80653.907    151.39606    36.139971 
152656000    294.31169    329.27739    246.53868   -80657.787    80679.309     82.73871    36.147114 
152660000    298.18817    264.39669    434.26175   -80683.778    80696.739   -169.86507    36.145662 
152664000    291.23312    432.13575     299.5396   -80705.413    80721.473    132.59615    36.138482 
152668000    327.31707    645.12267    396.82338   -80720.487    80701.988    248.29929    36.135774 
152672000    278.32759    430.75271    342.33477   -80763.684    80775.292    88.417934    36.129574 
152676000    273.98267    307.73931    256.51922   -80786.224    80805.801    51.220087    36.128201 
152680000    273.31195    554.98517    241.82818   -80808.311    80835.451    313.15698    36.122624 
152684000    274.90961    343.24801    282.80994   -80835.197    80845.897     60.43807    36.115907 
152688000    295.55534    323.74603       506.76   -80823.444    80847.435   -183.01398    36.115252 
152692000    305.58983    452.53423    419.85115   -80861.733    80858.835    32.683086    36.114727 
152696000    291.19072    317.53695    285.63805   -80886.657    80892.628    31.898891    36.118729 
152700000    284.84229    529.10078    233.89596    -80893.58    80912.976    295.20482    36.122276 
152704000     281.6986    348.60212    501.31114   -80928.381    80933.457   -152.70902    36.126429 
152708000    310.75408    301.53231    320.28082   -80945.649    80938.131   -18.748512    36.118274 
152712000     277.4283    343.17114     233.7696   -80939.956    80962.607    109.40155    36.120117 
152716000    290.67926     276.0245    393.90108   -80969.783    80978.596   -117.87657    36.111123 
152720000    290.70998    369.56468     248.0037   -80980.344     81003.36    121.56098    36.123201 
152724000    289.09906    317.96659    221.66131   -80992.791    81019.584     96.30528    36.120435 
152728000    309.40945    703.83344    308.33597   -81024.507    81013.575    395.49747    36.120646 
152732000    296.76567    268.04915    175.79494   -81052.598    81053.563    92.254209    36.124102 
152736000    271.77391    381.14804    238.63281   -81056.251    81078.319    142.51523    36.118155 
152740000    274.59789    349.48686    337.11907   -81064.673    81074.524    12.367792     36.11228 
152744000    290.23015    242.20345    456.46299   -81076.058    81098.868   -214.25954    36.104637 
152748000    280.27875    422.16241    520.43371   -81095.543    81131.238   -98.271294    36.108426 
152752000    301.20256    486.03578    314.15975   -81132.668    81124.659    171.87603    36.103972 
152756000    278.04174    343.06699    348.68763   -81125.611    81153.291   -5.6206364    36.115107 
152760000    255.25155    329.48285    275.21179   -81150.561    81186.579     54.27106    36.118211 
152764000    294.00757    198.31434    502.39292   -81192.752    81194.574   -304.07858    36.114273 
152768000     260.0522    339.02059    375.81396   -81214.296    81221.013   -36.793374    36.110202 
152772000    280.18993    374.16639    202.95915   -81226.053    81234.989    171.20724    36.113821 
152776000    305.86473    398.02402    305.61486   -81270.259    81270.719    92.409156    36.117303 
152780000    261.87317    269.99239    224.91518   -81292.041    81308.562    45.077208    36.116246 
152784000    279.84407     292.4008    237.72043   -81298.132    81317.801    54.680374    36.114069 
152788000    290.28537    297.87955    371.42345   -81320.721     81337.52   -73.543904    36.114468 
152792000    263.08785    347.80903    481.56517   -81336.519    81349.207   -133.75614    36.116332 
152796000    280.16096    411.16139    262.40367   -81329.894    81359.924    148.75773     36.10959 
152800000     279.4852    192.52903    275.04221   -81381.889    81387.081   -82.513184     36.10361 
152804000      278.389    534.36401    270.09939   -81390.866     81404.42    264.26462    36.103467 
152808000    294.02342    441.16569    367.54289   -81399.882    81395.479    73.622792    36.106434 
152812000    274.78377    356.43948    389.25943   -81391.811    81413.412   -32.819945    36.099293 
152816000     268.2501    381.53361    411.12602   -81422.687    81442.859   -29.592408     36.09478 
152820000    272.54029    437.43793    325.75213   -81471.582    81491.993     111.6858     36.09715 
152824000     268.5005     443.3819    389.49369   -81468.535    81493.596     53.88821    36.088717 
152828000     260.4116    395.24039    401.03361   -81517.339    81539.273   -5.7932213    36.094028 
152832000    282.23234    556.54495    296.17619   -81546.276    81568.903    260.36876    36.096748 
152836000    317.62068    568.36839    384.42801   -81563.388     81568.77    183.94038    36.090287 
152840000    285.03443    504.51247    284.76819   -81574.692    81577.466    219.74428    36.089341 
152844000    265.95315    214.66141     496.7605    -81588.38    81618.523   -282.09908    36.086684 
152848000    269.21167     292.3139    282.97152   -81623.859    81631.721    9.3423817    36.090742 
152852000    263.09826    349.13739    383.84235   -81642.664    81670.365   -34.704953      36.0886 
152856000    274.57647    304.91176     357.9737   -81662.393    81686.484   -53.061937    36.080387 
152860000    264.87285    313.87001    311.92132   -81686.537    81702.772    1.9486924    36.079745 
152864000    295.96221    364.17354    356.93245   -81707.724    81719.168     7.241094    36.075721 
152868000    290.91421    538.76952    275.20214   -81715.305    81732.624    263.56738    36.078976 
152872000    269.69438    292.06917    279.60046   -81710.383    81725.428    12.468711    36.083371 
152876000     274.0257    378.97079    260.33429   -81736.218     81758.65    118.63649     36.08011 
152880000    275.94131    396.06841    223.74726   -81758.271    81787.287    172.32115    36.082299 
152884000    273.31297    411.77486    243.15318   -81775.731    81793.801    168.62169    36.075397 
152888000    271.15438    253.27424    371.58294   -81789.544    81817.555    -118.3087    36.076249 
152892000    304.14025    382.61082    229.21513   -81824.712    81838.707    153.39569     36.07888 
152896000    297.43283    419.94409    285.70675   -81824.201    81834.928    134.23733     36.07916 
152900000    255.10476    250.27611    417.23314   -81832.573    81850.045   -166.95704    36.082759 
152904000     284.9936    206.83993    262.05575   -81842.848    81855.884   -55.215823    36.086361 
152908000     271.4405    353.63968    293.92031   -81865.291    81884.231    59.719373     36.08915 
152912000     266.8808     464.5914    288.02578   -81869.238    81910.997    176.56562    36.085922 
152916000    270.58348    405.99735     257.6446   -81905.595    81925.408    148.35274    36.082019 
152920000    288.66443    304.99929    448.72194    -81917.84    81926.159   -143.72265    36.072864 
152924000    289.45465    418.71472    242.60097   -81927.757    81952.798    176.11375    36.089534 
152928000    289.19835     459.1248    270.75522   -81953.497    81969.414    188.36957    36.083307 
152932000    290.08881    398.29558    453.37616   -81991.016    82005.965   -55.080581    36.090263 
152936000    261.29493    409.68235    309.94897   -82004.318    82040.064    99.733376     36.09002 
152940000    265.57963    289.21742     279.9564     -82034.6    82075.957    9.2610232    36.095381 
152944000    262.97878    286.71134    547.26828   -82046.294     82086.06   -260.55693     36.08923 
152948000    243.27445    243.20377    163.69542   -82060.843    82099.197    79.508349    36.089827 
152952000    279.70046    390.72424    195.76177   -82073.868     82098.27    194.96248    36.087146 
152956000    281.46741    231.40461    240.32868   -82087.033    82102.001   -8.9240666    36.082839 
152960000    280.41655    249.30126    303.53873   -82088.943    82105.963   -54.237478    36.082216 
152964000    300.48081    421.75985    338.05087   -82159.987     82149.15    83.708978    36.081205 
152968000    310.57412    428.04656    396.06851   -82165.705    82163.584    31.978044    36.077771 
152972000    272.52973    243.28218    380.25756   -82172.765    82198.645   -136.97538    36.083531 
152976000     263.6568    332.55444    333.74944   -82163.709    82197.714   -1.1950027    36.084524 
152980000     274.2516    404.22117    328.31366   -82187.501    82218.237    75.907519    36.089026 
152984000    305.30757    553.03773     290.3884   -82234.669    82231.924    262.64933    36.085911 
152988000    276.10103    342.07216    194.73579   -82233.229    82260.888    147.33637    36.081739 
152992000    257.51468    536.30635    331.03138   -82261.715    82296.565    205.27497    36.077032 
152996000    260.29551    259.19221    235.82561   -82286.092    82314.115    23.366599    36.079728 
153000000    273.96039     438.0215    316.07215   -82308.543    82333.628    121.94935    36.075803 
153004000    239.56836    300.11693    456.76978   -82324.634    82374.197   -156.65286    36.083514 
153008000    288.59839    529.59163    260.46286   -82356.695    82367.121    269.12877    36.089812 
153012000    293.48867    348.33865    441.18248   -82385.068    82386.091   -92.843835    36.081095 
153016000    289.05217    491.70891    155.45759   -82402.627    82425.659    336.25132     36.08115 
153020000    297.63695    416.07899    507.73896    -82434.27    82449.629    -91.65998    36.084928 
153024000    290.29451    730.01364    373.19182   -82467.812    82474.938    356.82181     36.08982 
153028000     271.2716    225.10043    139.10064   -82478.351     82507.03    85.999791    36.094791 
153032000    290.53265    489.92638    398.31626   -82520.341    82537.326    91.610124    36.089329 
153036000    276.26266    313.36188    185.75186    -82550.12    82574.013    127.61002    36.092134 
153040000    314.74536    327.87153    242.40201    -82566.08    82584.768    85.469519    36.111653 
153044000      271.796      482.454    324.55517   -82557.643    82588.654    157.89884     36.11742 
153048000    273.15189    194.14019     542.4901   -82603.929     82619.71    -348.3499    36.117342 
153052000    294.90764    428.03244    281.43325   -82629.108    82641.318    146.59919    36.111413 
153056000    258.99224    389.39709    301.88732   -82642.619    82663.276    87.509769    36.125012 
153060000    288.70665    253.81545    375.12656   -82667.299    82672.534   -121.31111    36.126846 
153064000    288.87966    241.99812    329.89256   -82687.026    82709.001   -87.894442    36.125853 
153068000    280.87466    281.89635    321.87411   -82711.615    82729.284   -39.977765    36.126384 
153072000    253.87699    370.39201    105.11713   -82729.941    82760.337    265.27488    36.130237 
153076000    273.99826    460.92639    459.28182   -82760.783     82793.33      1.64457    36.122813 
153080000    290.40094    326.71193    246.66615   -82812.948    82831.559    80.045772    36.131129 
153084000    299.45924    534.04962    239.35515   -82847.025    82834.637    294.69447     36.13039 
153088000    304.61813    470.22267    405.38982   -82870.662    82874.335    64.832854    36.139915 
153092000    284.88655    279.47466    318.75838   -82874.437    82886.275   -39.283727    36.156906 
153096000    281.80296    531.04307    284.27047   -82906.769    82904.595    246.77261    36.157638 
153100000    294.93311    261.17643      373.841   -82908.985    82918.307   -112.66457    36.158117 
153104000    269.20746    247.80732    214.57056    -82904.51    82930.084    33.236762    36.166001 
153108000    286.18264    264.43931    391.73619   -82932.966    82943.513   -127.29688    36.159491 
153112000    281.49546    438.28333    304.67016   -82948.175    82951.607    133.61317    36.162441 
153116000    273.35985    337.89477    235.63599   -82961.526    82984.645    102.25878    36.170063 
153120000    301.63588    163.70645    374.27328   -82999.248    83004.723   -210.56684    36.165669 
153124000    287.81508    271.48237    319.18681   -83025.915    83015.812   -47.704437    36.166193 
153128000    300.28184    451.60348    359.75294   -83028.401    83039.029    91.850538    36.160354 
153132000    308.83777    202.76718    350.95458    -83039.68    83059.642    -148.1874    36.160704 
153136000    269.35763    433.25892    147.47921   -83061.289    83093.549    285.77971    36.160508 
153140000     285.9235    191.54957    319.52577   -83063.948    83075.109   -127.97621    36.154127 
153144000    289.35374    390.44338    174.36554   -83077.115    83094.741    216.07785    36.154054 
153148000    301.78745    565.49763    370.28938   -83100.187    83127.376    195.20825      36.1615 
153152000    291.69583     310.3258    343.83081   -83100.602    83118.575   -33.505015    36.159887 
153156000    302.79055    550.54857    312.19141     -83125.5    83109.066    238.35716    36.167887 
153160000    268.67814    458.20262    239.45131   -83118.575    83153.168    218.75131    36.167202 
153164000    296.92778    361.27592     268.9746   -83128.424    83146.064    92.301321    36.177524 
153168000    305.76493    277.18761     235.0788   -83169.412    83187.749    42.108812    36.170158 
153172000    259.22598    260.31312    192.55446   -83169.874    83196.809    67.758666    36.170037 
153176000     274.6994     312.2136    487.21429   -83198.673    83226.988   -175.00069    36.171361 
153180000    294.87144    653.95622    348.10047    -83246.57    83253.493    305.85575     36.17013 
153184000    288.28764    800.79069    214.29315   -83287.656    83278.279    586.49753    36.169185 
153188000     265.7352    226.85134    391.67862   -83326.216    83313.092   -164.82728    36.157985 
153192000    303.39059    342.31524    361.67727   -83324.057    83345.694   -19.362036     36.16263 
153196000    294.73723    369.92183    244.01123   -83350.443    83361.482     125.9106    36.160617 
153200000    286.49146    380.88943    239.24782   -83376.591    83379.787    141.64162     36.16656 
153204000    281.09478    403.43451    213.21626   -83389.118    83401.799    190.21825    36.172217 
153208000    281.24073    400.00571    187.34432   -83398.702    83429.924    212.66139    36.175279 
153212000    303.28067    404.06003    460.51694    -83450.82    83439.516   -56.456913    36.171096 
153216000    298.83124    497.46968    494.13359   -83458.775    83459.498    3.3360834    36.174545 
153220000    282.48914    387.73951     263.1903   -83479.052    83489.615    124.54922    36.176495 
153224000    265.37112    514.46442    169.09133    -83484.55    83511.017    345.37308    36.187319 
153228000    301.62542    433.84846    346.31189   -83499.579    83512.603    87.536567    36.182522 
153232000    301.66765    267.49571    271.66107   -83509.056    83513.017   -4.1653626    36.177652 
153236000    268.17777    271.45046    284.75334   -83504.543    83536.411   -13.302881    36.181348 
153240000    336.73915    386.64407    345.63368   -83537.529    83523.821    41.010395    36.169666 
153244000    286.47712    531.53666    271.87054   -83530.597    83538.886    259.66612    36.169024 
153248000    293.20375    350.24676    558.85507   -83560.326    83570.603   -208.60831    36.171078 
153252000    264.22436    379.67891    459.88016   -83584.708    83592.825   -80.201249    36.160911 
153256000    302.43308    351.51418    365.58915   -83603.085    83612.386   -14.074976    36.158892 
153260000    269.58542    375.83645    462.45087   -83626.946     83655.72   -86.614413    36.151458 
153264000    251.47684     346.9702    192.28662   -83632.491     83662.03    154.68358    36.148728 
153268000     273.7329    671.99049    296.97793   -83641.479        83666    375.01256    36.152141 
153272000    271.96839    448.21699    267.11661   -83638.319    83665.612    181.10038    36.157487 
153276000     311.9954    333.53952    262.12172    -83656.45    83664.782    71.417799    36.155642 
153280000    259.16775    472.28307    297.40656   -83674.148    83705.836    174.87651    36.158855 
153284000    277.82806    304.54318    179.48315   -83706.246    83720.846    125.06004    36.163494 
153288000      279.906    199.62953    287.75195   -83708.815    83739.389   -88.122423    36.157741 
153292000    292.57034    313.33696     358.2605    -83751.01    83752.845   -44.923541    36.153691 
153296000    271.46446     366.6169    428.55508   -83752.981    83782.484   -61.938177    36.144696 
153300000    275.47586    317.19571    391.56859   -83787.877    83803.753   -74.372881    36.138642 
153304000      273.597     316.5292    289.89289   -83792.881    83822.437    26.636305    36.132057 
153308000    280.49495    358.71312    339.09714   -83820.628    83852.236    19.615977    36.136521 
153312000     300.2249    340.91894    274.69661   -83846.992    83849.634    66.222331    36.136493 
153316000    306.62111     388.3288    318.50149   -83857.452    83858.294    69.827306     36.13693 
153320000    271.10999    297.17742    239.20106   -83859.231    83881.362    57.976361    36.140472 
153324000    279.61339    506.79529    408.26215   -83909.264    83926.061    98.533137    36.146998 
153328000    265.01568    201.38277    505.89683   -83936.928    83954.586   -304.51406    36.158833 
153332000    273.84364    436.28793    248.06477    -83955.66    83982.269    188.22316    36.160614 
153336000     299.7822    304.07835    316.30196   -83978.425    83978.105   -12.223608    36.156936 
153340000    288.17183    308.91682    261.39387   -83970.566    83989.281    47.522951    36.158019 
153344000    310.91751    252.57074    361.84586   -84015.217    84023.532   -109.27512    36.157636 
153348000    264.86037    288.86559     305.4913   -84040.783    84057.621   -16.625704    36.157359 
153352000    281.43808    460.02463     362.6714    -84071.09     84066.24    97.353226    36.156169 
153356000    276.25524     302.4055    278.74631   -84066.748    84091.469    23.659193    36.152901 
153360000    292.57229    258.25676     268.2378   -84107.922    84122.355   -9.9810439    36.154474 
153364000    311.72824    227.10687    447.01283   -84168.985    84151.393   -219.90597    36.151899 
153368000     280.7103    347.52896    398.27369   -84152.097    84152.905   -50.744722    36.157171 
153372000    265.85493     295.1186    396.83366    -84150.74    84174.288   -101.71506    36.153192 
153376000    276.69416    410.30438    308.12902    -84186.81    84208.067    102.17535    36.158504 
153380000    273.91399    504.33162     340.0203   -84202.366    84239.363    164.31132    36.154206 
153384000    275.21599     391.5757    301.95738   -84223.395     84231.11     89.61832    36.149939 
153388000    263.98401    241.02532    204.45679   -84251.763    84252.753    36.568534    36.148279 
153392000    269.57567     372.4899    343.41823   -84248.507     84269.78    29.071669    36.150969 
153396000    265.65278    326.66433    207.68089   -84272.332    84281.336    118.98344    36.154203 
153400000    284.07276    238.40534    210.60828   -84261.323    84279.442    27.797056    36.154099 
153404000    292.51418    513.30304    435.73666   -84288.204    84283.151    77.566375    36.158947 
153408000    299.69095    342.94247    186.20953   -84313.294    84319.511    156.73294    36.160494 
153412000    286.98507    393.76581    327.63704   -84326.038    84339.426    66.128766    36.156735 
153416000    254.91999    401.65915    303.81746     -84348.1    84378.299    97.841691    36.143448 
153420000     312.4387    362.19815    455.58067   -84360.044    84372.828   -93.382517    36.142152 
153424000    284.74657    361.19265     197.9005   -84368.897     84381.86    163.29215    36.147854 
153428000    263.45845    361.22205    159.04579   -84397.399     84427.15    202.17626    36.153958 
153432000    265.18174    398.86129    189.53713   -84389.331    84430.439    209.32416    36.150489 
153436000    258.81453    290.23663    263.70779   -84430.436    84456.492    26.528841    36.152068 
153440000    278.48283    287.07408    283.97554   -84437.732    84439.933    3.0985361    36.152009 
153444000    241.60576    296.32955    270.12175   -84450.249    84472.015    26.207806     36.15428 
153448000    292.82213    392.86354    234.21799   -84467.882      84493.8    158.64555     36.16323 
153452000    252.84722    410.41992     283.7197   -84488.188    84515.421    126.70022     36.15287 
153456000    270.13679    348.96375    245.46522   -84525.315    84548.573    103.49853    36.148284 
153460000    264.75716    236.99414    384.84795   -84557.576    84585.414   -147.85381    36.148309 
153464000    302.06706    395.73717    352.02192   -84583.321    84588.954    43.715248    36.153663 
153468000    291.18009    491.93901     348.2712   -84609.881    84620.458    143.66781     36.15649 
153472000    297.97124    404.98686    193.43498   -84630.257    84648.821    211.55188    36.161187 
153476000    274.97064    220.73494    296.35019   -84621.705    84650.605    -75.61525     36.16691 
153480000    270.49209    525.05325    294.08688   -84665.245    84693.464    230.96637    36.163219 
153484000     262.6161    342.52723    160.32892   -84680.845    84721.994    182.19831    36.158377 
153488000    266.68928    421.86947    343.33468   -84691.109    84737.539    78.534785    36.155524 
153492000    303.84722    330.14682     239.7996   -84741.049    84760.248    90.347222    36.152379 
153496000    286.50127    388.77965    339.29676   -84772.499    84792.632    49.482889    36.151895 
153500000    275.99597    265.33715    343.03101   -84777.612    84807.516   -77.693863    36.156467 
153504000    265.79463     321.5904    378.75718   -84794.829    84829.305   -57.166779    36.156988 
153508000    294.16867    494.62554    310.75457   -84840.878    84826.574    183.87097    36.155571 
153512000    282.46018      303.006    392.20469    -84855.19    84861.739   -89.198695    36.151574 
153516000    327.43254    274.58106    352.61186   -84883.125    84873.622   -78.030795    36.158572 
153520000     257.0658    326.07014    303.62092   -84879.514    84922.571    22.449224    36.150927 
153524000    267.13691    341.06425    292.45132   -84893.281    84923.061    48.612925    36.152318 
153528000    285.00957    307.19182     376.2643   -84919.195    84933.951   -69.072479    36.156732 
153532000    275.25668    459.59769    202.44512   -84953.453    84962.307    257.15257    36.164562 
153536000    311.70217    315.54836    319.18743   -84975.169    84971.317   -3.6390629    36.171924 
153540000     275.0252    297.15383    371.04896   -84968.178    84990.698   -73.895124    36.172213 
153544000    278.18837    493.38868    257.88784   -84997.496    85024.557    235.50084    36.179109 
153548000    275.29198    278.47814    408.51121   -85004.278    85044.351   -130.03306    36.178003 
153552000     295.2919    577.56396    460.41422   -85051.957    85055.044    117.14975    36.181125 
153556000    286.25295     537.2334    194.90671   -85067.983    85063.137    342.32669    36.187264 
153560000    262.62321    219.74053    315.36267   -85061.947    85083.792    -95.62214    36.182004 
153564000    279.14697    330.89634    502.10142   -85092.565    85117.339   -171.20508    36.183812 
153568000    260.52469    247.07223     277.2317   -85116.368    85156.609   -30.159463    36.180252 
153572000    275.42255    343.49585    292.24289   -85133.446    85149.767    51.252964    36.179683 
153576000    275.06166    264.61261    314.92039   -85179.843     85167.96   -50.307787    36.184901 
153580000    271.12034     513.2011    460.02958    -85153.78    85188.381    53.171515    36.180842 
153584000    274.71071    301.58607    335.72545   -85186.441    85206.064   -34.139383    36.179737 
153588000     251.0546     208.0329    246.92262   -85217.546    85233.598    -38.88972    36.176339 
153592000    320.80213    355.43495    426.36307   -85260.705    85243.259   -70.928114    36.169191 
153596000    284.51636    516.15503    170.17528   -85247.203    85261.353    345.97975    36.168678 
153600000    280.45173    244.27914    275.02437   -85259.184    85270.928    -30.74523    36.162951 
153604000    280.67874    353.94968    172.99227   -85277.665    85305.482    180.95741    36.169339 
153608000    315.96335    373.05487    422.83733   -85319.442    85316.411   -49.782464    36.173981 
153612000    289.35896    351.59795    252.20015   -85340.357    85342.562    99.397806    36.180853 
153616000     293.2846    235.38779    390.88318   -85341.784    85348.333   -155.49539    36.177544 
153620000    253.59617    342.01966    264.46583   -85353.549    85377.357    77.553838    36.177403 
153624000    269.13925    379.67303    287.85724   -85367.219    85393.522    91.815795    36.180215 
153628000    256.73648    277.49668    372.11338   -85375.044    85404.537   -94.616702     36.18402 
153632000    269.47705    412.43483    196.90198   -85385.314    85417.768    215.53285     36.18628 
153636000     282.4712    267.50794     542.7445   -85410.654    85422.959   -275.23656    36.184843 
153640000    292.27117    382.66541     252.5104   -85440.636    85453.087    130.15501    36.190832 
153644000    305.24591    340.30896    465.13071   -85449.102    85458.305   -124.82175    36.189215 
153648000    283.35959    310.42425    299.11809   -85465.342    85471.026    11.306157    36.193078 
153652000    254.70615    318.12901    298.61203   -85472.194    85509.637    19.516974    36.186821 
153656000    294.02039     362.0008     283.9512   -85500.338    85513.677    78.049604    36.189037 
153660000    288.80458    437.17387    427.17524   -85502.038     85522.36    9.9986377      36.1852 
153664000    282.45035    327.38113    288.15088     -85520.5    85545.918    39.230251    36.186749 
153668000    283.29799    378.74065    435.65127   -85556.207    85585.292   -56.910623    36.192257 
153672000    261.96533    242.50012    507.12324   -85578.388    85635.239   -264.62312    36.191194 
153676000    301.07556    731.24368    336.33476   -85632.452     85639.28    394.90892    36.181622 
153680000    287.64377    210.20648    283.81826   -85652.524    85673.311   -73.611779    36.183987 
153684000    301.14542    453.36701    393.22907   -85684.352    85673.563     60.13794    36.191244 
153688000    283.55639    367.64214    317.88416    -85683.27     85694.77    49.757979    36.192077 
153692000    267.53486    501.72383    242.06214   -85697.544    85725.678    259.66169    36.196267 
153696000    263.83388    253.10747    406.26185   -85702.245    85727.522   -153.15439    36.197267 
153700000    294.63886    224.85049    286.19393   -85719.863    85733.934   -61.343438    36.201519 
153704000     267.9004    257.96332    268.56312   -85734.814    85772.632   -10.599804    36.195808 
153708000    271.00482    373.89364    349.28121   -85760.562    85769.662    24.612429    36.193931 
153712000    268.91505    204.39383    400.26543   -85742.353    85785.555    -195.8716    36.198451 
153716000    273.59871     237.6375    301.71063   -85771.966     85779.77   -64.073132    36.198283 
153720000    304.96925    288.59562    449.81364   -85784.594    85802.635   -161.21803    36.197277 
153724000    264.26935    237.21736    327.72983   -85807.387    85826.348   -90.512471     36.19021 
153728000    295.00187    509.61827    520.28038   -85827.855    85833.703   -10.662109    36.184005 
153732000    280.35467    502.65604    395.17867   -85848.918    85873.025    107.47737    36.188242 
153736000    265.99063    321.77845    414.26532   -85867.947    85899.387   -92.486873    36.187855 
153740000    248.66771    210.24288    339.43175    -85881.43    85920.201   -129.18887    36.180935 
153744000    274.52034    277.58043    396.78462   -85897.137    85929.432   -119.20419     36.17886 
153748000    283.21246    378.13278    298.44527   -85917.081    85938.733    79.687512    36.190513 
153752000    291.13882     485.3848    415.05378   -85944.516    85957.579    70.331016    36.186827 
153756000    279.39573    299.43412    394.18963   -85979.768    85977.853   -94.755506    36.177157 
153760000    276.81055    256.49244    213.53165   -85988.282    85994.334    42.960791    36.183928 
153764000    284.47444    403.43123    218.84959   -85990.189    86011.648    184.58164    36.177359 
153768000    270.54282    319.43883     380.2028   -86009.868    86027.915   -60.763969    36.181344 
153772000    268.69071    234.87651    223.16315   -86020.551    86060.116    11.713361    36.183209 
153776000     288.5632    522.19516    328.57824   -86058.309    86058.841    193.61693    36.189527 
153780000    261.59413    467.64008    343.71617    -86080.26    86101.472    123.92391    36.188085 
153784000    283.12077    526.21045    317.01316   -86108.948    86127.167    209.19729     36.19527 
153788000    279.41773    295.79774    303.74083   -86124.166    86139.698   -7.9430955    36.195796 
153792000    263.15319    402.60346       247.15   -86135.479     86174.49    155.45346    36.187942 
153796000    276.83896     350.1594    396.29617   -86157.026    86186.678   -46.136766    36.188145 
153800000     258.1548    216.51395    271.26962   -86174.586    86215.252   -54.755663    36.186792 
153804000    303.21121    534.07162    317.28427   -86224.944    86235.688    216.78735    36.182922 
153808000    270.75577    427.84561    196.03148   -86221.959    86262.314    231.81413    36.184797 
153812000    286.02557     482.6324    267.68694   -86284.107    86283.731    214.94545    36.181419 
153816000    304.99093    401.22575    313.16142   -86321.983     86322.29    88.064326    36.174659 
153820000    305.79072     350.3415    404.42881   -86326.997    86325.258   -54.087309    36.168638 
153824000    297.36818    378.53918    541.29698   -86348.214    86362.152    -162.7578    36.165582 
153828000    279.12249    371.57737    222.09088   -86364.862    86368.777    149.48649     36.16426 
153832000    287.47952    444.79388    211.85899   -86391.327    86398.556    232.93489    36.155312 
153836000    280.08881    232.27131    215.91082   -86405.044    86419.878    16.360487    36.149811 
153840000    301.07314    492.78506    320.64019   -86431.769    86427.638    172.14487    36.148122 
153844000    272.81772    169.36875    261.76701   -86456.789    86473.067   -92.398257    36.140184 
153848000    261.54765    527.10219    384.30864   -86489.064    86510.774    142.79356    36.136407 
153852000    278.98563    417.09707    280.25107   -86528.329    86537.656      136.846    36.140395 
153856000    271.49084     267.5341    291.46542   -86510.217    86539.223   -23.931324    36.141387 
153860000    291.82456    421.16613    417.37975   -86542.878    86565.614    3.7863842    36.142568 
153864000    278.24966    206.81404    452.66032   -86573.884    86605.044   -245.84629     36.13747 
153868000    286.60157    466.14141    463.90442    -86609.32    86619.246    2.2369878    36.138428 
153872000    276.66614    415.28672    305.32796   -86635.415    86649.143    109.95876    36.136926 
153876000    274.27878    330.83822    364.06351   -86631.387    86657.676   -33.225285    36.141848 
153880000    270.14604    298.16216    131.34981   -86640.461    86694.261    166.81236    36.146004 
153884000    269.91325    364.05443    206.18552   -86695.242    86706.179    157.86891    36.151361 
153888000    293.28928    230.01484    411.16043   -86726.628    86727.785   -181.14558    36.150935 
153892000    300.27874    353.20284    314.70431   -86748.655    86765.645    38.498527    36.150277 
153896000    309.22473    339.86773    705.33858   -86772.043    86784.378   -365.47084    36.142102 
153900000    284.78014    397.60286    386.47581   -86795.461    86816.978     11.12705    36.145967 
153904000    303.71623    420.23304    443.93617    -86827.91    86825.909   -23.703138    36.148316 
153908000    279.51476    344.83481    356.40071   -86834.653    86830.296   -11.565896    36.142454 
153912000    318.74449    421.66855    298.81815   -86834.436    86838.332     122.8504    36.148925 
153916000    269.41899     257.0942    367.37831   -86852.695    86879.429   -110.28411    36.146411 
153920000          296     464.5215    428.00306   -86883.825    86894.963    36.518441    36.146599 
153924000    288.37002    614.46521    425.01785   -86889.217    86910.448    189.44735    36.150363 
153928000    301.09476    286.80062    604.88959    -86917.21    86931.374   -318.08897    36.149549 
153932000     297.3084    224.11618    423.25382   -86936.524    86941.857   -199.13764    36.153194 
153936000    290.89497    366.09366    185.04525   -86971.183    86978.222     181.0484    36.157719 
153940000    275.28214    561.56023    404.74506    -86957.96    86992.601    156.81517    36.163729 
153944000    251.59698    290.14825    342.69002   -86968.329    87009.988   -52.541772    36.163133 
153948000    280.66654    365.00475    426.81269   -86998.684    87011.289   -61.807947    36.158891 
153952000    285.92775    413.89329    255.93415    -87002.37    87031.509    157.95915    36.155656 
153956000    257.39215     384.8011    302.30933    -87032.36    87050.387    82.491772    36.157521 
153960000    280.61776    334.63024     409.5759   -87059.609    87083.821   -74.945655     36.16367 
153964000    274.27244    503.65659    363.36449   -87074.988     87096.18    140.29211    36.166976 
153968000     305.1261    453.23678    446.35971   -87127.464    87113.414    6.8770647     36.17199 
153972000      303.662    264.65297    394.96206   -87132.931     87132.92   -130.30909    36.177495 
153976000    278.42874    397.89366    234.89206   -87133.588    87155.079     163.0016    36.189771 
153980000    278.53186    420.03796    376.01969   -87150.978    87162.017    44.018275    36.183734 
153984000     292.3212    377.13235     330.3757   -87180.763    87203.782     46.75665    36.184328 
153988000    287.92833    265.28014    335.86451   -87198.445    87206.342   -70.584374    36.179316 
153992000    255.94084    313.55966    366.27871   -87210.548    87245.031   -52.719052    36.180283 
153996000    282.50169    192.41745    414.78784   -87216.942    87240.075   -222.37039    36.170535 
154000000    278.78248    268.82984    261.23731   -87260.305    87271.785    7.5925279    36.175562 
154004000     279.6862    355.21458    196.36942   -87272.792    87302.386    158.84516    36.174486 
154008000    280.61585    433.71303    552.07457   -87301.884    87329.099   -118.36154    36.167193 
154012000    264.02856    403.94139    238.99801   -87300.807    87328.892    164.94338    36.164466 
154016000     255.0937    379.79502    417.57809   -87348.125    87383.367   -37.783067    36.164511 
154020000    281.89757    214.92101    331.67795   -87376.245    87395.606   -116.75694    36.158027 
154024000    262.56627    438.37143    340.69148   -87393.976    87401.738    97.679955    36.151596 
154028000    254.17774    317.20437      380.687   -87377.615    87403.347   -63.482631      36.1481 
154032000    270.72902    252.28509    336.28895   -87417.377    87442.917    -84.00386    36.154478 
154036000    293.44156    375.72564    430.35351   -87454.921    87460.442   -54.627866    36.148279 
154040000    275.19933     253.3419    578.11281   -87459.642    87451.081   -324.77091    36.147776 
154044000    304.88417    386.25695    342.19281   -87491.465    87493.081    44.064145    36.153372 
154048000    281.08627    230.02834    358.59955   -87489.648    87514.855   -128.57121    36.145513 
154052000    289.95192    543.67139    203.58337   -87534.668    87544.188    340.08802    36.148661 
154056000    283.69582     384.3092    330.31709   -87549.436    87564.976    53.992109    36.139506 
154060000    294.71512    249.43773    356.40535    -87573.38    87562.978   -106.96762     36.13331 
154064000    274.78489    270.49303    269.31595   -87593.465    87595.561    1.1770781    36.124401 
154068000    292.09143    309.01991    205.45538   -87597.845    87600.805    103.56454    36.114129 
154072000    286.06498    343.08618    321.01217   -87630.968    87650.588    22.074004    36.114425 
154076000    305.97651    236.64174    255.56694   -87653.769    87651.543     -18.9252    36.116754 
154080000    286.55526    348.37681    296.76724   -87650.264    87670.357    51.609565    36.115589 
154084000    287.47113    324.23478    266.97917   -87683.095    87698.588    57.255607    36.109722 
154088000    309.01589    521.95492    261.00658   -87727.747    87716.256    260.94834    36.113589 
154092000    291.19016    580.06972    338.72707   -87737.763    87747.213    241.34264    36.106206 
154096000    238.83947    470.57183    241.05492   -87726.064     87771.79    229.51691     36.11019 
154100000    260.67081    351.08262    184.41634   -87761.329    87795.777    166.66627    36.111059 
154104000    292.04049    338.80872    344.85971   -87777.427    87806.902   -6.0509857    36.115947 
154108000     275.8936    135.83765    219.37976   -87795.003     87813.97    -83.54211    36.112575 
154112000    310.27816    662.74236    361.68775   -87819.046    87829.936    301.05461    36.123304 
154116000    281.59451    332.26225     324.2052    -87823.17    87827.801      8.05705    36.118756 
154120000    293.28978    390.03493    297.63074   -87834.394    87846.564    92.404191    36.118999 
154124000    299.54101    278.70746    238.26638   -87879.796    87892.992    40.441084    36.124558 
154128000    296.57711    323.04667    286.64191   -87905.268    87905.996    36.404762    36.129112 
154132000    273.60832     316.3463    190.49349   -87903.421    87931.692    125.85281    36.123096 
154136000      287.946    402.35574     277.7269   -87928.476    87935.684    124.62884    36.122128 
154140000    296.20484    188.80282    147.50235   -87941.922     87939.16    41.300468    36.121843 
154144000    292.54942    298.69895    356.00923   -87959.041    87967.615    -57.31028    36.125707 
154148000      265.167    271.98987    220.63561   -87971.483    87988.762    51.354265    36.121654 
154152000    289.81644    355.19579    334.48583    -88009.64    88023.039    20.709966     36.12832 
154156000    274.77758    260.41876    280.53771   -88045.728    88052.001   -20.118952    36.129356 
154160000    289.05185    378.39164    427.44672    -88074.05    88071.971   -49.055088    36.128041 
154164000    294.66199    391.01781    375.37783   -88070.877    88089.578     15.63998    36.134069 
154168000    288.80995    440.47195    182.23231   -88108.164    88112.718    258.23965    36.129216 
154172000    280.74917    282.05703    243.64822   -88122.896    88121.857    38.408805    36.127385 
154176000    291.86032    299.38648    236.39588   -88153.387    88147.825    62.990604     36.12775 
154180000    291.65321    239.91861    327.57083   -88182.481    88182.524   -87.652222    36.126415 
154184000    262.18296    182.58646    264.51711   -88184.005    88211.415   -81.930641    36.121765 
154188000    275.42969    273.28991    263.51128   -88216.596    88227.313    9.7786343    36.119677 
154192000    292.07105    382.78837    362.41797    -88240.97    88249.708    20.370399    36.123242 
154196000    260.75356    319.10862    221.86893   -88255.364    88278.161    97.239691    36.117017 
154200000     285.8789    223.63754    261.90775   -88269.917    88297.903   -38.270209    36.129646 
154204000     286.6237    220.28248    386.19445   -88297.869    88307.491   -165.91198    36.130648 
154208000    312.05728    363.34294    290.47303   -88346.671    88334.084    72.869919    36.124926 
154212000    298.14278    464.46473    303.35441   -88351.304    88363.697    161.11033     36.12157 
154216000    266.29161    468.50587    183.96649    -88382.42     88401.35    284.53938    36.119131 
154220000    275.37229    305.00939    319.48878   -88394.388    88421.056   -14.479382     36.11823 
154224000    249.97654    289.62452    389.28755   -88393.475    88423.029   -99.663032    36.116428 
154228000    260.02412    272.15693    512.36755   -88414.101    88450.517   -240.21063    36.114952 
154232000     243.6633    221.28178    197.50059   -88410.791    88451.684    23.781194    36.115443 
154236000    246.49957    424.37804     319.7911   -88402.654    88451.109    104.58694    36.121579 
154240000    247.72495    295.15166    280.10461    -88428.57    88458.483    15.047053    36.123793 
154244000    271.51324    371.32226    323.02053   -88467.935    88482.205    48.301726    36.130991 
154248000    305.21244    408.81189    304.53454   -88496.781    88498.512    104.27735    36.127719 
154252000      282.234    513.38496    279.76294   -88512.162    88517.674    233.62202    36.126801 
154256000    281.04263    161.91844    363.31413    -88524.06    88538.223   -201.39568    36.131194 
154260000    321.33959    386.55567    456.51487   -88535.805    88521.628   -69.959196    36.139231 
154264000    294.16562    627.95572     496.7909   -88532.089    88549.352    131.16482    36.141191 
154268000    276.26693    466.10228    329.95182   -88554.545     88578.78    136.15046    36.147917 
154272000    281.97409    338.34004     292.0622   -88557.047    88578.782    46.277843    36.142941 
154276000    243.30218    290.59415    164.37777   -88563.607    88597.901    126.21637    36.149773 
154280000    270.45612    347.39484     339.0425   -88597.986    88610.504    8.3523449    36.150379 
154284000    302.11653     482.4972      336.121   -88644.519    88649.769     146.3762    36.146127 
154288000    288.96622    208.61062    313.36944   -88683.697    88689.483   -104.75882     36.14444 
154292000     283.6232    219.51941    565.50249   -88696.566    88694.315   -345.98308    36.144387 
154296000    306.58364     617.7311    194.54143   -88709.869    88720.072    423.18967    36.138469 
154300000    310.96221    267.05413    335.72504     -88743.1    88734.985   -68.670914    36.136691 
154304000    336.47012    480.55045    266.02242   -88780.165    88749.914    214.52803    36.133873 
154308000    294.64513    434.18108    414.06424   -88781.802     88795.08    20.116843    36.129999 
154312000    272.17863     274.0805    417.69356   -88809.578    88828.819   -143.61306    36.127084 
154316000    284.81246    368.66246    263.46036   -88844.174    88850.243     105.2021    36.132231 
154320000    309.30362    234.35458    211.52445   -88872.977    88869.767     22.83013    36.138846 
154324000    286.38818    385.98754    315.59534   -88892.276    88901.096    70.392204     36.13431 
154328000    292.81937    411.63771    395.56381   -88910.526    88929.889    16.073895    36.127685 
154332000    271.29486    286.22567    308.94773   -88917.091    88954.865   -22.722056    36.129609 
154336000    282.97781    358.67151    299.99652   -88958.851    88975.226    58.674995    36.128925 
154340000    272.71594    280.48424    441.32687   -88959.298    88995.015   -160.84263    36.125011 
154344000    274.52035    247.96948    395.73172   -88983.069    89015.216   -147.76224     36.12484 
154348000    272.95021    499.66444      267.698   -89003.794    89028.621    231.96644    36.125534 
154352000    287.77826    420.20054     327.3415   -89019.989    89038.089    92.859046    36.122363 
154356000    275.92387    472.66668     292.4083   -89033.926    89044.065    180.25838     36.12239 
154360000    279.34458    200.85123    350.56109   -89039.966    89056.107   -149.70986    36.127796 
154364000     281.2006    299.26387    390.12457   -89054.696    89058.971   -90.860699    36.131187 
154368000    280.70598     296.8878    440.39402   -89066.273    89079.697   -143.50622    36.130668 
154372000    293.40895    263.32064    293.58506   -89089.052    89104.285   -30.264424    36.129535 
154376000    277.21499    261.51251    206.53061   -89126.516    89142.213    54.981897    36.128631 
154380000    309.42118    519.90296    264.03632   -89160.551    89154.345    255.86665    36.120367 
154384000    263.91399    271.18919    207.28523   -89177.859    89200.372    63.903956    36.116303 
154388000    301.14495    406.47435     203.3759   -89188.787    89196.125    203.09844    36.121161 
154392000    260.49223    526.63809    321.73324   -89227.016    89247.449    204.90485    36.124465 
154396000    258.60619    230.20111    368.79228   -89246.622    89278.279   -138.59117    36.118582 
154400000    289.27999    311.90683    279.04625   -89267.198    89288.702    32.860577    36.111293 
154404000    293.44192    308.11711    511.22121   -89290.093    89317.228    -203.1041    36.110779 
154408000       281.96    428.71183    286.09592   -89310.237    89339.682    142.61591     36.10137 
154412000    295.38194    472.22877    237.22103     -89337.1    89350.458    235.00774    36.091904 
154416000    297.60233    337.50591    178.46012   -89385.813    89386.391    159.04579    36.091507 
154420000    265.83605    290.42231    477.86499   -89399.678    89424.865   -187.44268    36.087744 
154424000    286.56502    409.90746    233.74885   -89424.918    89449.547    176.15862    36.082482 
154428000    273.20314    404.24817    309.32032   -89439.655    89476.251    94.927851    36.079007 
154432000    285.48524    490.08233    251.64219   -89482.858    89486.934    238.44014    36.074319 
154436000    264.88733    264.71913    452.77541    -89490.92    89523.443   -188.05628    36.071411 
154440000    256.43386    364.18998    179.49116   -89505.971    89531.336    184.69882    36.067442 
154444000    297.62813    486.33529    324.44743   -89521.393    89523.105    161.88786    36.066634 
154448000    283.33273    473.95768    296.05563   -89550.844    89567.685    177.90206    36.071296 
154452000    296.83127    356.95659    371.34946   -89594.983    89619.747   -14.392866    36.071561 
154456000    307.57022    388.79464    365.51097   -89629.662    89646.606    23.283667     36.08184 
154460000     302.1664    427.63811    307.67677   -89684.961    89681.019    119.96134    36.078132 
154464000    310.47409     481.1035    448.53559   -89703.294    89700.106    32.567909     36.07187 
154468000    303.88082    273.17063    252.44489   -89730.514    89727.965    20.725742     36.07162 
154472000    313.48307    229.57267    254.03808   -89741.868    89742.891    -24.46541    36.067438 
154476000    291.29674      651.942    274.08895   -89738.025    89737.589    377.85304      36.0672 
154480000    294.83088    258.60835    360.47313   -89734.887    89741.882   -101.86478    36.071001 
154484000    274.88751     502.8694    276.73643   -89761.203    89773.818    226.13296    36.074786 
154488000    294.60556    420.24587     288.2413   -89785.834    89784.336    132.00457    36.072162 
154492000     289.4775    173.16472    354.88998   -89829.348    89835.232   -181.72526    36.063548 
154496000    309.72519    439.07515    562.53338   -89832.595    89835.688   -123.45823    36.063223 
154500000    267.64098    263.89165    273.52186   -89849.773    89885.501   -9.6302021    36.058362 
154504000    277.01478    297.47539    265.40873   -89876.282    89890.662    32.066667    36.052199 
154508000    291.53389    468.78402    474.24637    -89902.18    89911.234   -5.4623523    36.061772 
154512000    264.58851    266.58198    335.79827    -89904.48     89942.53   -69.216292    36.061657 
154516000    269.48349    365.92038    205.78132   -89921.926    89961.694    160.13906    36.070438 
154520000    256.37132    275.24663    277.03169   -89950.107    89987.608   -1.7850636    36.075195 
154524000    276.38857    419.61605    379.50609   -89977.892    90003.837     40.10996    36.070468 
154528000     266.7501    387.03785      159.949   -90015.815    90039.913    227.08885    36.067791 
154532000    287.22509    365.14217    438.93151     -90014.7    90028.121   -73.789341    36.058221 
154536000    285.67865    198.10648    575.77996   -90046.203    90061.522   -377.67348    36.058442 
154540000    307.75387    291.55911    361.45343   -90078.373    90083.881   -69.894326    36.054289 
154544000    267.41246    403.64709    296.21551   -90110.785     90112.39    107.43158    36.056611 
154548000    296.06674    450.26951    404.95655   -90135.797    90125.059    45.312957    36.058063 
154552000    291.77264    389.94119     281.6623    -90168.61    90185.569    108.27889    36.051494 
154556000    277.03204    314.10442    351.25124   -90174.292    90190.228   -37.146824    36.042339 
154560000     303.5705    353.60508     299.0448   -90222.815    90214.816    54.560275    36.035213 
154564000    301.37324    381.62225     300.4494   -90213.619    90231.272    81.172856     36.03504 
154568000    265.38311    516.04818     337.3644   -90226.101     90241.86    178.68378    36.035478 
154572000    294.46775     467.5986    264.97623   -90234.962    90250.058    202.62236    36.045558 
154576000    280.74336    375.49451      290.499   -90232.447    90233.934     84.99551    36.036663 
154580000    288.17688    359.74992      454.388   -90247.625    90254.582   -94.638078    36.034878 
154584000     311.0275    268.97403    230.65101   -90280.236    90289.983     38.32302     36.03631 
154588000    263.79572    401.70945    240.03559   -90282.437    90320.125    161.67386    36.041008 
154592000    282.45925     293.6235    325.03768   -90297.265    90326.863   -31.414185    36.047871 
154596000    266.19359    359.46261    342.16944   -90289.319    90325.624    17.293172    36.052702 
154600000    281.46618    361.04594    469.39765   -90308.612    90335.922   -108.35171     36.05062 
154604000    283.13248    326.64987    437.70711   -90350.417    90353.806   -111.05725    36.044561 
154608000    279.34489    367.75458    331.53181   -90369.493    90393.161     36.22277    36.039357 
154612000    274.68966    412.33932     356.6523   -90376.108    90410.191    55.687013     36.04481 
154616000    264.31578     371.6628    218.05745    -90383.11    90414.022    153.60536    36.045625 
154620000    267.31854    366.15428    418.80831   -90412.859    90443.247   -52.654033    36.044762 
154624000    290.28672      584.231     245.2393   -90430.809     90447.79    338.99171    36.042634 
154628000    256.14884     516.9114    311.86868   -90452.669    90467.701    205.04273    36.041019 
154632000    287.50497    378.67406    222.59372   -90471.898    90472.397    156.08033    36.045899 
154636000    265.46299    295.00616    333.84678   -90471.176    90482.834   -38.840624     36.04121 
154640000    294.03336    374.31951     421.7076   -90491.161    90498.995   -47.388092    36.039337 
154644000    269.85375    331.05002    554.33815   -90507.665    90524.648   -223.28812    36.038311 
154648000    267.39015    516.18648    301.14404   -90540.487    90567.443    215.04245    36.044183 
154652000    291.22901    190.50672    451.05826   -90580.703    90593.199   -260.55154    36.037115 
154656000    271.01685    337.63701    264.69509   -90609.551    90634.872    72.941924    36.038148 
154660000    295.23321    357.64225    514.55709   -90622.177    90649.062   -156.91484    36.025573 
154664000    293.08996     496.0983    394.50716   -90650.817    90665.923    101.59114    36.020246 
154668000     295.8246    388.25692    206.85014   -90676.643    90684.301    181.40679    36.015387 
154672000    316.69327    409.01287    299.64031   -90718.546    90704.237    109.37257    36.011142 
154676000    279.74414    408.94178    319.14035   -90722.558    90732.026    89.801421    36.008386 
154680000    270.50975    247.67967    312.74185   -90746.211    90761.109   -65.062179    36.016593 
154684000    322.27648    418.41474    216.01292    -90791.99    90789.919    202.40182    36.013334 
154688000    298.57518    165.72522    376.36367   -90815.909    90815.057   -210.63845    36.010577 
154692000     308.5455    370.04886    492.98178   -90848.626    90861.539   -122.93292    36.005604 
154696000    268.27613    369.03568    259.11484   -90864.872    90897.592    109.92085    36.004516 
154700000    281.41172    334.74674     340.2441   -90886.157    90907.509   -5.4973556    36.004195 
154704000    257.81088    317.67166    391.46743   -90872.991    90898.424   -73.795774    35.997278 
154708000    274.41872    267.50283    325.68034   -90881.522    90906.243    -58.17751    36.002027 
154712000    268.57876    265.24523    420.14466   -90888.492    90911.565   -154.89943    35.994227 
154716000    250.82739     215.5627    439.71491   -90905.936    90931.531   -224.15222    35.986072 
154720000    290.92996    402.17477    245.87024    -90951.72    90957.951    156.30453    35.996877 
154724000     276.4879    430.69495     251.2664   -90981.268    90992.785    179.42854    35.999171 
154728000    288.83268    444.35257    443.46039   -90997.484    91004.368   0.89217754    36.000368 
154732000    262.53778    229.25139    338.71976   -90990.152    91026.363   -109.46837    35.999502 
154736000    281.04695    500.12449    364.93312   -91001.645    91007.365    135.19137    35.992182 
154740000    255.48349     237.0511    221.55764   -90997.643    91029.263    15.493455    35.997478 
154744000    281.52414    365.65208    188.42119   -91040.288    91063.435     177.2309    35.995475 
154748000     274.2263    343.51094    277.36605    -91069.22     91061.08    66.144889    35.988715 
154752000    272.32949    309.39541    293.24046   -91075.553    91098.539    16.154955    35.990232 
154756000    259.60652    312.56865     384.8597   -91098.134    91128.083   -72.291042    36.000506 
154760000    294.45744    409.76318    217.97803   -91106.786    91132.645    191.78515    36.003109 
154764000    278.90246    478.69798    219.61465   -91130.388    91148.966    259.08333    36.008629 
154768000    297.65099    269.05215    195.26179   -91161.801    91164.592    73.790362    36.010535 
154772000    248.41828    326.57222     267.1331   -91150.262    91183.184    59.439123    36.004308 
154776000    320.19603    597.76414    649.52709   -91174.925    91175.841   -51.762954    36.010482 
154780000    267.99931    228.53512    340.43127   -91209.698    91234.262   -111.89615    36.008023 
154784000    286.89039    189.02221    295.75868    -91235.89    91249.562   -106.73646     36.00493 
154788000     292.6007    313.12061    306.98853   -91253.319    91263.935    6.1320771    35.996948 
154792000    266.62675    304.74568    348.70961   -91258.033    91298.032   -43.963928    36.000689 
154796000    248.56998    253.66907    361.98469   -91277.831    91319.799   -108.31562    36.002548 
154800000    288.46192    411.82579    372.48183   -91312.085    91320.572    39.343962    36.001498 
154804000    294.90468    344.76126    437.24074   -91321.213    91350.853    -92.47948    36.006912 
154808000    290.79435    444.83079    191.58179   -91372.116    91367.337      253.249    36.014331 
154812000    301.01364    379.81843    314.39644   -91387.776    91398.838    65.421998    36.016115 
154816000    260.09421    303.23104    147.22566   -91392.355    91438.275    156.00538    36.014142 
154820000    269.75572    410.68025    437.67094   -91422.566    91441.625    -26.99069    36.025514 
154824000    281.53963    416.07233    181.66808    -91432.07    91459.375    234.40426    36.016185 
154828000    269.95128    367.49444    198.75658   -91439.665    91473.746    168.73786     36.01848 
154832000     284.2805     251.0289    303.32888   -91489.563    91504.226   -52.299984    36.021562 
154836000     254.5573    380.47606    292.87012   -91500.686    91520.768    87.605946    36.021736 
154840000    288.73384    394.57692    216.47841   -91525.914    91537.861    178.09852    36.017906 
154844000    296.00521    436.47445    191.70064   -91525.483    91544.848    244.77382    36.021324 
154848000    284.27905    446.76057     244.1757    -91546.27    91565.074    202.58487    36.019527 
154852000    255.87012    248.37998    377.10422   -91548.257     91570.02   -128.72424    36.014439 
154856000    270.75869    413.50806     229.7555   -91580.513    91595.069    183.75256    36.020663 
154860000     268.1683    392.03891     440.6535   -91596.717    91630.422   -48.614594    36.013852 
154864000    266.80985    301.45263    168.79837   -91617.549    91639.474    132.65426     36.01349 
154868000    290.61834    401.97425    334.77839   -91611.225    91637.337    67.195852    36.017993 
154872000    290.58716     183.5924    225.48151    -91653.51    91656.322   -41.889106    36.025373 
154876000    283.21816    478.40179    446.76165   -91661.403     91674.76    31.640147    36.016168 
154880000    277.13263    311.77902    375.45085   -91689.001    91701.481   -63.671833    36.012031 
154884000    277.85186     467.9169    345.35324   -91714.911    91718.367    122.56366    36.008175 
154888000    251.18151    320.72455    386.17602   -91710.534     91762.26   -65.451477      36.0185 
154892000    297.04645    539.28404    278.22716   -91742.515    91765.958    261.05688    36.016664 
154896000    244.97466    511.30282    276.78107   -91746.565    91796.043    234.52175    36.019713 
154900000    254.17083    425.94852    340.56678   -91762.024    91806.757    85.381735    36.020375 
154904000    270.48898    297.21709    328.53591   -91813.949    91833.732   -31.318822    36.020092 
154908000    283.03554     304.5023    220.16247   -91833.378    91847.567    84.339832    36.020071 
154912000    286.20088    279.11842    264.07864   -91876.327    91898.039    15.039782    36.016645 
154916000    255.15727    295.52989    403.58932   -91900.726    91934.258   -108.05944    36.012132 
154920000    235.28101    366.91329     219.1221    -91932.18    91978.468    147.79119    36.012905 
154924000    267.05574    383.13687    186.76061   -91960.506    91980.985    196.37625    36.014329 
154928000    235.53208     492.0938    225.22089   -91977.035    92010.016    266.87292    36.016144 
154932000    289.49628    317.90128    327.47239   -92020.431    92019.326   -9.5711056    36.017427 
154936000    268.64934    427.68195    480.91894    -92048.93    92063.002    -53.23698    36.012331 
154940000    298.05232    270.29967    398.87047   -92098.971    92096.072   -128.57079     36.01077 
154944000    286.03126    356.62508    241.50086   -92116.677    92116.787    115.12422    36.007556 
154948000    299.78732    457.91491    259.67289   -92122.074    92129.653    198.24202    36.006872 
154952000     286.9565    484.70481    372.63505   -92102.449    92129.871    112.06975    36.008835 
154956000    301.05548    404.43362    308.02021   -92118.413    92136.611    96.413407    36.009547 
154960000    271.44961    333.39679    300.82279   -92148.125    92156.402    32.574004    36.005754 
154964000    281.35652    309.29625    250.33741    -92180.69    92185.589    58.958838    36.004382 
154968000    299.72431    530.79982    347.37038    -92221.69    92215.799    183.42944    36.012044 
154972000      297.418    494.97653     366.6991   -92233.837    92240.305    128.27744    36.004597 
154976000    284.32358    357.70983    340.61325   -92258.809    92264.726    17.096577    35.996212 
154980000    292.37664     281.3626    357.60974   -92279.201    92290.139   -76.247139    35.995052 
154984000    280.10451     384.9313    324.63474   -92290.103    92327.609    60.296565    35.988447 
154988000    288.29207     402.5366    438.75326   -92318.009    92324.353   -36.216656    35.995061 
154992000    260.92782    206.36196    286.43537   -92308.729     92354.92   -80.073404    35.993987 
154996000    267.99599    386.88999    234.12059   -92333.972    92377.147     152.7694    35.995631 
155000000    280.90065    331.29094    388.86666   -92358.975    92386.826   -57.575729    35.997692 
155004000    278.30143    331.15821    251.70005   -92411.954    92439.069    79.458158    36.002515 
155008000    243.01259    295.04978     200.2705    -92405.17    92460.068    94.779273    35.999082 
155012000    303.30503    322.83803    295.24376   -92442.473    92462.422    27.594272    36.007009 
155016000    284.79301     189.5205    323.54861   -92454.745    92468.791   -134.02811    36.014977 
155020000    255.84254    348.69523    162.29349   -92464.866    92501.616    186.40174    36.010938 
155024000    314.66242     554.6563    271.51112   -92481.045    92481.736    283.14518    36.009027 
155028000    306.83928    425.71176    385.10843   -92485.439    92481.318    40.603337    36.006068 
155032000    269.90038    422.21207    340.00346   -92487.357    92511.167    82.208605    36.006404 
155036000    271.87817    448.35678    147.86855   -92509.607    92513.909    300.48824    36.004361 
155040000    285.25177     492.0874    372.62411   -92518.314    92545.825     119.4633    36.003375 
155044000    241.75898    367.61728    283.68376   -92534.544    92578.105    83.933515    36.002843 
155048000    274.82358    491.48728    304.05571   -92547.473    92572.077    187.43157    36.000332 
155052000    272.77615    396.38517    459.52013   -92580.654    92589.884   -63.134967    36.000252 
155056000    290.70339    336.49622    417.07123   -92613.164    92611.573   -80.575005     35.99864 
155060000    251.21218    328.92501    370.27332   -92605.321    92648.734   -41.348301    35.999682 
155064000    305.70068    421.89166    371.63646   -92633.093    92647.161    50.255195    35.997845 
155068000    296.26682    364.00673    459.84262     -92673.3    92666.083   -95.835896    35.996331 
155072000    279.07092    429.56204    353.94181   -92679.702    92694.645    75.620239    35.997981 
155076000     295.0805    247.16431    334.40679   -92707.124    92708.015    -87.24248    35.988988 
155080000    301.97289    233.31312    364.94348   -92712.355    92718.096   -131.63036    35.991393 
155084000    267.11225    416.90068    305.47283   -92750.116    92755.866    111.42784    35.981764 
155088000     296.8968    380.21484    328.48322   -92775.961     92790.66    51.731625     35.98286 
155092000    281.73504    561.12047    288.39288       -92797    92825.382    272.72759    35.985712 
155096000    286.07858    539.10679    456.82543   -92822.077    92839.427    82.281356    35.989147 
155100000    268.54309    419.71577    224.26034    -92860.68    92881.198    195.45542    35.994884 
155104000    286.56499    453.55559    319.82943    -92865.12    92888.226    133.72616    35.986156 
155108000    282.05614    234.90855    309.93539   -92879.939    92899.327   -75.026842    35.984841 
155112000    263.34839    320.30796    242.57337   -92901.253    92925.491    77.734588    35.986991 
155116000    269.33412    402.36324    411.63009   -92954.802    92965.641   -9.2668533    35.990533 
155120000    277.08541    242.08287    335.40465   -92963.509    92999.091   -93.321783    35.988134 
155124000    287.21783    333.32232    425.17869   -92989.462    92999.118    -91.85637    35.986657 
155128000    282.67894    252.15129    250.80404   -93030.962    93038.011    1.3472558    35.986979 
155132000    276.20402    334.26694    242.26634   -93045.889    93066.711    92.000601    35.989189 
155136000    289.46925     337.1226    306.55698   -93065.166    93076.944    30.565627    35.986688 
155140000    288.66114    434.34504    203.75919    -93076.06    93092.079    230.58585    35.986283 
155144000     268.9827    239.85407    286.31539   -93071.898    93106.655   -46.461323    35.987483 
155148000     264.0125    310.72361    218.61437   -93097.357    93127.562    92.109238    35.996606 
155152000     252.0336      281.844    281.61785   -93107.901     93128.77   0.22614928    35.998673 
155156000    290.53159    431.88431    451.06958   -93129.757    93129.572   -19.185264    35.996383 
155160000    286.11379    219.40337    508.29482   -93140.037    93165.234   -288.89145    35.990986 
155164000    253.86307    278.71957    240.55852   -93175.617    93206.063    38.161049    35.991906 
155168000    292.95992    277.21525    186.31415    -93197.83    93206.019    90.901091     35.99709 
155172000    273.58856    431.71185     238.2583   -93209.376    93217.041    193.45355    35.996194 
155176000    299.03548    272.47892    465.07884   -93242.089    93246.695   -192.59992    35.992012 
155180000    263.42585    284.52374      321.422   -93275.174    93286.422   -36.898266    35.984226 
155184000    265.43661    201.09627    302.13511   -93304.986    93316.116   -101.03884    35.983774 
155188000    287.75568    295.55372    356.13171   -93309.331    93321.592   -60.577993    35.981456 
155192000     296.7717    232.21053    400.38969   -93339.603    93345.069   -168.17916    35.985061 
155196000    290.21626    233.23596    415.55308   -93365.531    93370.472   -182.31712    35.981031 
155200000    299.88608    190.34626    417.62283   -93395.045    93417.227   -227.27657    35.973977 
155204000    299.94551     497.4912    218.75364   -93426.687    93422.174    278.73756    35.976183 
155208000    291.35485    445.58426    233.22552   -93429.522    93436.877    212.35873    35.972981 
155212000    281.81065    311.32121    329.21928   -93441.687    93451.892   -17.898069    35.969497 
155216000     270.5772    227.36013    390.11493   -93447.214    93474.475    -162.7548    35.968999 
155220000    283.41889    427.20868    369.40803   -93460.729    93476.994    57.800648    35.970348 
155224000    320.31668     366.0984    459.24646    -93505.12    93486.572   -93.148063    35.973561 
155228000    264.17264    218.07108    404.09624   -93511.494    93541.898   -186.02516    35.967458 
155232000    270.40477    297.68699    306.86496   -93513.123    93541.333   -9.1779698    35.975509 
155236000    274.67803    412.87316    274.60435   -93539.946    93563.452    138.26881    35.971029 
155240000    269.30766    397.03992    195.26927    -93540.56    93578.735    201.77065    35.966115 
155244000    293.42496    257.43079     330.0358   -93574.402    93577.123   -72.605004    35.968948 
155248000     261.0585    299.97267    326.58019    -93570.17    93605.983   -26.607511    35.975746 
155252000    283.03044    481.44694    345.35281   -93612.246    93618.472    136.09413    35.973103 
155256000    300.40429    429.47771    521.36548   -93652.619    93642.386   -91.887768    35.970811 
155260000    274.52937    279.07158    286.31217   -93673.341    93692.266   -7.2405906    35.968003 
155264000    236.49105    333.99253    269.56324   -93673.933    93733.403    64.429292     35.96569 
155268000    286.64793    289.80632    193.45732   -93700.825    93718.795    96.348999    35.966773 
155272000    286.98226    402.13118     338.7518   -93733.508    93737.149    63.379381    35.966281 
155276000    290.03617    478.08233    403.56396   -93761.925    93771.055    74.518371    35.963723 
155280000    287.63237    179.38797    244.99594   -93799.407    93796.634   -65.607972    35.965891 
155284000     282.2041    231.63613     172.3716   -93807.504    93826.004    59.264532    35.968309 
155288000    283.63521    396.13775    431.45679   -93822.104    93840.169   -35.319043    35.968757 
155292000    317.89889     303.1603    306.30784   -93849.489    93831.197   -3.1475387    35.963491 
155296000    293.17326    345.36334    203.15927   -93838.074    93833.026    142.20406    35.965096 
155300000    308.83681    386.79711    230.40126   -93854.077    93852.847    156.39586    35.966383 
155304000    317.37546    568.39794    266.66656   -93876.238    93863.369    301.73138    35.964625 
155308000    286.21438    509.29366    470.34978   -93842.042    93862.932    38.943883    35.956775 
155312000    312.45668     306.0358    523.87509   -93871.622    93884.464   -217.83929    35.954015 
155316000    283.46463     347.9965    325.06313   -93894.169    93891.863    22.933369    35.962483 
155320000    269.24897     515.1612    240.92777   -93910.074    93945.412    274.23343    35.965273 
155324000    260.82116    511.49958    378.18414   -93911.038    93961.654    133.31544    35.960039 
155328000    297.48556    363.82751    522.34871   -93936.218    93947.602   -158.52119     35.95309 
155332000    289.84224    453.68916    177.69778   -93948.845    93974.712    275.99137    35.956983 
155336000     303.9248    282.45981    359.54854   -93968.865    93976.627   -77.088727    35.966434 
155340000    301.03305    338.32135     343.7792   -93984.887    93982.817   -5.4578498    35.969772 
155344000    277.42284    350.05681    204.85157   -93980.067    94003.865    145.20525    35.970936 
155348000     271.1186    281.40554     358.0924   -93994.524    94015.718   -76.686861    35.978293 
155352000     285.3188    537.14009    375.77945   -94032.181    94041.386    161.36064    35.973077 
155356000    313.73159    561.05402    261.74888   -94052.709    94061.574    299.30513    35.982354 
155360000    299.00912    540.14041    233.05543   -94060.183    94060.383    307.08498    35.986086 
155364000    283.18342    469.62494    339.61575   -94076.406    94086.896    130.00919    35.987622 
155368000    282.47658    529.05802     361.4974   -94114.557    94117.471    167.56063    35.994421 
155372000    280.16149    416.91027    464.34198   -94135.336    94143.515   -47.431716    35.989712 
155376000    279.13463    274.26145    306.60048    -94172.51    94183.273   -32.339031      35.9886 
155380000    307.85824    397.16691    306.42547   -94218.087    94204.974     90.74145    35.987397 
155384000    298.83885    292.99195    332.32642   -94233.449    94245.945   -39.334464    35.989312 
155388000    255.40595    318.40842    140.56027   -94261.131    94283.158    177.84815    35.989921 
155392000    282.93784    330.53401    302.13455   -94286.592    94290.744    28.399466    35.990109 
155396000    264.72935    366.64066    198.50031   -94271.971    94301.262    168.14035    35.994542 
155400000    314.95445     382.0309    446.40363   -94313.525    94323.669   -64.372734    35.990468 
155404000    269.14328    485.81848    206.65292   -94330.095    94333.868    279.16556    35.988102 
155408000    280.87727     303.4863    408.00201    -94351.79    94373.491   -104.51571    35.989751 
155412000    284.08475    313.20276    309.99297   -94374.273    94394.406    3.2097929    35.979992 
155416000    274.94054    433.41394    440.65944   -94390.669    94408.072   -7.2455044    35.985349 
155420000    303.80413    285.42137    292.62005   -94403.099    94398.379   -7.1986831    35.982557 
155424000    290.15788    282.76041    233.62522   -94410.844    94416.142    49.135186    35.981527 
155428000    310.61921    316.33498    447.07737   -94429.487    94420.017   -130.74239    35.975132 
155432000    278.71696     360.9502    277.64511   -94416.536    94443.063     83.30509    35.976589 
155436000    284.48312    293.57389    290.78615    -94475.48    94476.068     2.787738    35.972466 
155440000    304.62716    360.48408    448.99484   -94476.112    94496.021   -88.510757    35.970083 
155444000    280.20559    496.61853    320.36332   -94490.772    94503.245    176.25521    35.974017 
155448000    288.39639    469.30966    342.86809   -94521.949     94523.94    126.44157    35.973766 
155452000    268.43863    386.39825    259.94949   -94549.984    94566.892    126.44876     35.97834 
155456000     271.8679     248.6766     278.7423   -94562.483     94604.86   -30.065702    35.973911 
155460000    282.77588    282.21295    281.81547   -94574.294    94602.967   0.39747719    35.976301 
155464000    270.34912    507.96852    195.53635   -94600.371    94632.827    312.43217    35.970071 
155468000    273.93113    489.34379     411.7311   -94617.877    94646.067    77.612688    35.964528 
155472000    264.50171    334.56751    147.94357   -94653.126    94676.817    186.62394     35.96067 
155476000    281.24444    524.16228    285.08917   -94705.222    94701.524    239.07311    35.970082 
155480000    279.41609    299.96848    486.88215    -94715.99    94722.608   -186.91367    35.965314 
155484000    307.71134    374.94223    460.31068    -94744.98     94757.16   -85.368447     35.96524 
155488000    272.42579    344.77043    230.01352    -94774.92    94806.976    114.75691     35.95856 
155492000    299.58556    368.15571    277.06484   -94826.583    94830.919     91.09087     35.95222 
155496000    272.98429    238.21937    256.56025   -94838.821    94864.798   -18.340878    35.942147 
155500000    271.69029    325.19074    245.11984   -94878.506    94919.197    80.070898    35.937623 
155504000    285.11915    405.33681    317.39722   -94899.577    94917.528    87.939592    35.935764 
155508000    264.34995    181.10796    209.00268   -94914.669    94946.611   -27.894719    35.935061 
155512000    316.30903    498.28953    386.43431   -94963.593     94933.65    111.85523    35.928496 
155516000    267.80791    248.19714    215.95963   -94950.976    94977.132    32.237513    35.926783 
155520000    269.01493     370.7183     347.3505   -94958.015    94979.491    23.367801    35.919811 
155524000    301.55094    508.99818    165.80532   -94977.437    94991.707    343.19286    35.928008 
155528000    296.55797    325.74704    285.09655   -94986.974    94989.214    40.650491    35.927568 
155532000    290.28912    303.93309    347.26871   -95015.786    95028.885   -43.335615    35.926836 
155536000    252.50948    331.54933    212.79652    -95022.39     95054.93    118.75281     35.92266 
155540000    254.70962    288.79557     318.7577   -95042.518    95080.727   -29.962131    35.918296 
155544000    258.01078    182.34453    284.76075   -95056.386     95093.23   -102.41622    35.914368 
155548000    304.80477    369.45941    130.11631   -95097.101     95113.94     239.3431    35.916903 
155552000    269.67106    402.64354    235.66235   -95140.353    95166.037    166.98119    35.918656 
155556000    285.67107    595.75975    190.89967   -95169.375    95185.682    404.86008    35.923425 
155560000    261.32999    230.29801    393.13333   -95166.484    95212.616   -162.83532      35.9238 
155564000    274.88822    360.61274    419.92042   -95215.625    95222.177   -59.307685    35.928264 
155568000    279.15826    465.70286    291.05787   -95217.717    95238.166    174.64498    35.931701 
155572000    304.30725    571.30279    423.61473   -95263.393    95271.948    147.68806    35.931173 
155576000    280.56572    264.48227    256.00139    -95286.89    95295.926    8.4808793    35.928336 
155580000    308.56838    478.99106    560.66155   -95304.947    95307.367   -81.670492      35.9284 
155584000    287.46591    365.39816    271.36533   -95314.715    95323.258    94.032831    35.930633 
155588000    275.92666    203.85652    216.15293   -95350.967    95364.718   -12.296408    35.933632 
155592000    258.24035    327.94137    340.92082   -95376.534    95404.225   -12.979444    35.929154 
155596000     257.8637    257.07614    224.85767     -95391.2    95404.006    32.218474    35.934264 
155600000    261.74312    296.98368    233.65118   -95412.612     95448.24    63.332504    35.931936 
155604000    236.73252    270.37931    172.68959   -95442.834    95480.672    97.689721    35.929069 
155608000    297.93601    281.57386    319.63982   -95482.287    95477.795   -38.065966    35.924489 
155612000     256.4257    493.78108    335.48097   -95483.621    95519.198    158.30011     35.92831 
155616000    285.39136    357.43098    391.95317   -95530.436    95551.618   -34.522187    35.936217 
155620000    289.73567    408.40412     219.2256   -95568.895    95585.342    189.17852    35.941097 
155624000    286.98274    170.67955    382.42586   -95573.388    95581.228   -211.74631    35.936063 
155628000    261.13816    351.57778    238.92941   -95549.205    95591.738    112.64837    35.931233 
155632000    284.47691    362.70184    479.16062   -95563.184    95563.555   -116.45879    35.926138 
155636000    298.40811    446.50628     270.2578   -95562.112    95575.469    176.24847    35.929222 
155640000    318.33737    451.00471    302.45559   -95587.034    95584.295    148.54912    35.931139 
155644000    289.63059    239.81384    178.86788   -95616.442    95628.344    60.945964    35.932132 
155648000    282.61074    471.37464    283.19662   -95636.243    95651.759    188.17802    35.940141 
155652000    297.84747     458.4796    352.66288   -95655.676    95642.487    105.81672    35.938164 
155656000    270.22573    320.90365    271.76115   -95658.153    95668.914     49.14249    35.937796 
155660000    297.30729    482.65592    284.07938   -95675.522    95679.226    198.57654    35.940394 
155664000    284.24092    251.60137    385.93107   -95696.667    95729.955    -134.3297    35.937401 
155668000    279.02308    274.55795    352.18787   -95716.258    95727.943   -77.629929    35.926525 
155672000     295.7629    248.66169    289.95238   -95729.301    95734.703   -41.290692    35.924454 
155676000    251.72658    236.04261    372.27165    -95719.54    95747.584   -136.22904    35.924599 
155680000     284.4918    356.32664     288.7575   -95746.957    95768.606    67.569144    35.928434 
155684000    270.78279    265.71224    470.74305   -95782.028    95787.786   -205.03082    35.935062 
155688000    280.37138    367.35112    414.18789   -95801.028    95801.861   -46.836775    35.927408 
155692000    260.23514    284.26459    321.00944   -95801.068    95810.792   -36.744854    35.917682 
155696000    280.18302     228.4395     363.8954   -95840.081    95841.771    -135.4559    35.914079 
155700000    297.41586    465.03299    446.13678   -95850.662    95876.517    18.896209    35.909547 
155704000    273.32664    293.13678    472.33147   -95882.459    95893.573   -179.19468    35.912377 
155708000    299.27151    428.34377    371.71841   -95898.376    95909.301    56.625365    35.910324 
155712000    243.97401    253.91072    162.49455   -95884.424    95939.415    91.416166    35.913775 
155716000    285.36267    389.37835    318.67169   -95918.508     95955.31    70.706659     35.91247 
155720000    261.54047    349.86901    313.31913   -95920.077    95970.621    36.549889    35.910942 
155724000    272.41932    230.80301    200.39953   -95945.388    95985.379    30.403481    35.906701 
155728000    296.43391    361.27711    309.17264   -95977.328    95976.732    52.104466     35.91033 
155732000    280.93576    216.40469    245.57888   -95984.346    96009.399   -29.174189    35.909496 
155736000    258.84465    430.28569    244.64592   -96013.181    96031.535    185.63976    35.905742 
155740000    287.61222    342.27536    408.84413   -96018.361    96029.529   -66.568772    35.905321 
155744000    287.76015    435.76874    463.23974   -96052.038    96061.905      -27.471     35.90149 
155748000    273.01396    364.27448    258.76447   -96072.152    96084.836       105.51    35.902769 
155752000      236.947     307.2796    206.42065   -96067.941    96123.022    100.85895    35.902338 
155756000    284.41714    468.14074    434.30467   -96111.337    96132.222    33.836061    35.905306 
155760000    280.94126    234.07301    343.87927   -96145.359    96149.763   -109.80627     35.90036 
155764000    298.33064    398.31976     305.9578   -96165.282    96162.788    92.361961    35.897456 
155768000    289.68124    344.96428    378.54186   -96177.634    96188.317   -33.577583    35.890267 
155772000    291.12644    454.29738    381.51475   -96214.921    96206.757    72.782631    35.887995 
155776000    293.01817    396.21546    276.45939   -96189.594    96208.199    119.75607    35.893249 
155780000    273.79563    300.02912    428.00102   -96211.559    96232.335    -127.9719     35.90404 
155784000    295.04626      438.346    261.86092   -96256.587    96255.096    176.48508    35.904727 
155788000    298.50246    532.33899    424.96818   -96273.583    96269.582     107.3708    35.902654 
155792000    282.82054    266.46434    424.78074   -96311.735     96310.92    -158.3164    35.907448 
155796000    298.15218    377.34377    508.55288    -96336.36    96352.524   -131.20911    35.900584 
155800000     264.0817    374.58035    210.33189   -96347.571    96378.645    164.24845     35.90216 
155804000    288.28032    383.57342    314.41287   -96370.922    96388.319     69.16055    35.902244 
155808000    257.79378    159.89767    458.20166   -96386.517    96413.184   -298.30399    35.901791 
155812000    302.97667    356.54984    455.00284   -96429.066    96414.301   -98.452996    35.902582 
155816000    255.38058    285.72239    240.48897   -96412.728    96446.223    45.233416    35.895054 
155820000    319.58799    404.97327    233.51083   -96444.294    96429.911    171.46244    35.901107 
155824000    316.26814    538.43582     387.1227   -96437.867    96437.616    151.31312    35.901533 
155828000    265.94712    200.05383    439.70649   -96439.948    96482.731   -239.65266    35.898046 
155832000    291.78679    454.87119     266.1482   -96486.965      96491.3    188.72299    35.898011 
155836000    257.12959    430.83204     311.3762   -96488.488    96514.756    119.45585    35.899118 
155840000    277.84583    446.21695    267.75946   -96497.876    96526.789    178.45749    35.898017 
155844000     309.2373    384.69192    544.62377   -96525.081    96524.687   -159.93185    35.901936 
155848000    273.66122    471.09989    321.17934   -96531.219    96547.139    149.92055    35.894992 
155852000    291.06598    298.09738    207.17305   -96554.627    96574.219    90.924334    35.893168 
155856000    266.30004    215.22386    247.86973   -96576.084    96605.848   -32.645874    35.891778 
155860000    279.61865    278.51627    292.00795   -96619.728    96646.176    -13.49168    35.889477 
155864000    274.88615    401.07308    298.33281   -96636.061    96687.835    102.74027    35.880224 
155868000    276.13425    420.88329    384.78336   -96707.069    96705.941    36.099938    35.889612 
155872000    270.37758    453.68207    323.32835   -96742.312    96746.894    130.35373    35.888978 
155876000    290.39674    343.71734    366.21758   -96768.109     96767.25   -22.500248    35.888814 
155880000    305.22218    297.38592    329.32524    -96758.12     96774.21   -31.939322    35.887683 
155884000    268.81123    339.78423    303.74668   -96793.328     96798.68    36.037556     35.88585 
155888000    303.91509    444.92273    519.04839   -96804.058    96825.235   -74.125662    35.888216 
155892000    305.56495    413.82401    467.76031   -96850.616    96834.148   -53.936297     35.88704 
155896000    283.60419    433.03051    416.23061   -96835.286    96860.244    16.799894    35.882915 
155900000    277.28877    182.74663    306.91613   -96852.381    96877.887    -124.1695     35.89317 
155904000    303.99912    558.12643    456.09304   -96885.492    96874.723    102.03339     35.89852 
155908000    316.90441    417.31178     605.6635   -96885.837    96867.385   -188.35172    35.902236 
155912000    294.94459    228.02334    434.67202   -96897.467    96899.439   -206.64868    35.897018 
155916000    285.78204    403.64724    336.20811   -96892.507    96906.958    67.439131    35.903991 
155920000    289.63661    436.90757    373.42107   -96912.698    96929.506    63.486501    35.911515 
155924000     297.2742    354.12844    367.84163   -96924.069    96942.589   -13.713199     35.91466 
155928000    292.10743    441.99829    345.96058   -96953.762    96959.663    96.037708    35.905206 
155932000    276.24018    274.88077    285.92903   -96948.979    96992.716   -11.048257    35.906434 
155936000    260.58227    434.69275    425.87286   -96981.335    96986.608    8.8198889    35.902416 
155940000    296.02844    370.28337    250.40666   -97007.779    96991.892    119.87671    35.900535 
155944000    288.65179    415.40632    280.44061   -96994.114    97003.548    134.96572    35.901479 
155948000    275.93672    259.97931    326.24249   -96990.857    97012.408   -66.263179     35.89993 
155952000    305.87759    287.47541    433.10072   -97038.054    97025.807   -145.62531    35.903663 
155956000    293.39842    462.83252    343.87786   -97037.812    97060.605    118.95466    35.903228 
155960000    279.33757    379.19958    296.28162   -97058.655    97072.919    82.917954     35.90309 
155964000    277.18173    282.88882    400.53112   -97061.751    97070.802    -117.6423    35.903806 
155968000    279.03749    367.59943    196.17655   -97081.008    97086.572    171.42288    35.909639 
155972000    294.03779    407.33972    422.30088   -97110.279    97109.256   -14.961161    35.913555 
155976000    304.41849    494.47068    403.95329   -97130.519    97152.911    90.517393    35.906984 
155980000    255.96698    206.74691    226.25754   -97159.039    97167.446   -19.510629    35.904707 
155984000    261.55377    341.61876    202.23813   -97180.637    97201.506    139.38064    35.905271 
155988000    280.52452    257.54206    429.78978   -97194.293    97214.316   -172.24771    35.907511 
155992000    289.81816    303.27593    366.02942   -97226.445    97240.502    -62.75349     35.91179 
155996000    291.35489     321.5172    220.52759   -97247.413    97270.831    100.98961    35.908937 
156000000    322.33373    481.95185    417.49545   -97289.144    97271.269    64.456401    35.908311 
156004000    338.49055    405.76799    430.65466   -97301.347    97291.501   -24.886669    35.908306 
156008000    322.44133     321.9122    279.73436   -97318.798    97302.597    42.177849    35.902405 
156012000    296.76983    351.32026    333.21775   -97345.467    97329.025    18.102511    35.900893 
156016000    295.96988    199.76257    371.40618   -97369.304    97363.117   -171.64361    35.895108 
156020000    300.05407    450.17591    200.39659   -97389.487     97408.36    249.77931    35.902117 
156024000    279.42818    311.67771    381.32955   -97403.895    97404.491   -69.651842    35.906549 
156028000    296.72515    527.35059    354.32787   -97419.087    97427.754    173.02273    35.901761 
156032000    259.85739    240.90974    220.82599   -97409.962    97460.279    20.083749    35.905536 
156036000    309.58015    224.08412    404.46207   -97451.042    97461.212   -180.37795    35.904879 
156040000    277.44173    470.96968    299.84115   -97475.251    97471.527    171.12854    35.912844 
156044000    309.46074    416.94309    392.22569   -97469.621    97468.827    24.717393    35.909763 
156048000    258.28629    242.58738    407.65722   -97456.635     97483.96   -165.06984    35.900524 
156052000     291.3485    341.93751    326.28401   -97501.674    97518.027    15.653501    35.904259 
156056000    261.54786    293.10245    152.15941   -97527.081    97550.918    140.94305     35.90062 
156060000    276.74217    294.76621    319.00318   -97561.439    97582.034   -24.236975    35.899362 
156064000    264.36444    287.01536    304.90852   -97576.459     97613.05   -17.893158    35.904319 
156068000    300.47443    236.89058    431.58182   -97637.031    97645.837   -194.69124     35.89862 
156072000    275.52674    447.62112    450.10495   -97640.525     97671.13   -2.4838311    35.897459 
156076000    299.66667      262.562    393.20836   -97661.508    97675.368   -130.64636    35.893638 
156080000    290.06738    690.55774    351.68038   -97701.226    97711.941    338.87736    35.889407 
156084000    238.14534    313.10071    290.71953   -97696.823    97741.742    22.381182     35.88453 
156088000    279.43889    472.80436     321.1514   -97742.336    97760.931    151.65296     35.88687 
156092000    282.50426    185.24892    309.96897   -97765.752    97776.806   -124.72005    35.887875 
156096000    264.52203    411.09856    193.53413   -97794.087    97815.971    217.56443    35.890784 
156100000    260.82085    292.76694    478.60135     -97807.2    97837.413   -185.83441     35.89154 
156104000    269.42595    333.03304    340.52746   -97862.249    97875.546   -7.4944152    35.896166 
156108000    302.34669     451.0033    320.55424     -97877.6    97869.049    130.44906    35.894109 
156112000    333.05455    414.86596    433.87766   -97895.557    97890.617   -19.011696    35.898042 
156116000    281.63246    379.99606    151.70303   -97901.813    97907.177    228.29303    35.901743 
156120000    283.18535    343.94602    269.51424   -97910.754    97921.607    74.431778    35.897685 
156124000    274.70226    299.28624    281.47884   -97923.666    97941.958    17.807397     35.89735 
156128000    264.23123    507.71073    405.78113   -97924.646    97952.687     101.9296    35.898199 
156132000    272.98385    237.88339    292.08504   -97935.473     97970.86   -54.201651    35.905906 
156136000    281.86001    419.38343    199.41845    -97958.83    97972.554    219.96497    35.903535 
156140000    263.57956    251.79258    259.30533   -97972.446     98006.93   -7.5127512    35.909928 
156144000     282.7005    236.38361    365.26132   -97996.343    98010.771    -128.8777    35.912101 
156148000     263.2453    375.67298    327.04662   -98011.768     98039.86    48.626367    35.920098 
156152000    264.48405    252.94025    409.41626     -98024.2    98050.513     -156.476      35.9257 
156156000    270.83112    327.30473    321.39811   -98038.517     98068.49     5.906625    35.920452 
156160000    295.98967     529.8067    350.33723   -98087.534    98095.441    179.46947    35.920596 
156164000    273.55666    238.40972    336.63156   -98107.056    98130.544   -98.221841    35.916744 
156168000    274.28793    455.97875    282.68215   -98101.549    98145.932     173.2966    35.921055 
156172000    271.16279    363.34327    304.32105   -98146.704    98174.564    59.022227    35.919538 
156176000    275.63694    256.09357    247.50096   -98197.139    98218.386     8.592608    35.907408 
156180000    279.76272    359.41735    337.96464   -98210.504    98223.807    21.452709    35.912108 
156184000    294.67588    334.35714    232.68693   -98216.594     98249.93     101.6702    35.911708 
156188000    299.10889     342.6329    176.47302    -98258.51    98285.211    166.15988    35.917417 
156192000    272.84142    399.85485    337.24895   -98284.778    98301.756      62.6059    35.921005 
156196000    312.96224     434.5244     469.6813   -98281.832    98293.319   -35.156906    35.919864 
156200000    313.19506    255.88674    281.42838   -98290.837    98290.472   -25.541642    35.923869 
156204000     270.5074    278.48188    391.26169   -98295.138    98328.351   -112.77981    35.924437 
156208000    297.94655    309.57378    167.55322   -98339.017    98355.836    142.02056    35.926819 
156212000    284.85605    429.94752    466.62983   -98342.346    98373.813   -36.682311    35.933039 
156216000    275.54945    177.53982    300.41223   -98366.227    98396.971   -122.87241    35.931021 
156220000    262.55013     396.2899    371.47824   -98409.392    98444.083     24.81166     35.92353 
156224000    258.10563    408.57749    301.31549   -98404.395    98444.517    107.26199    35.926336 
156228000    281.21031    251.41956    298.18246   -98407.981    98428.551   -46.762905    35.932183 
156232000    292.51575    313.43986    298.69359   -98446.054    98458.665    14.746267    35.932614 
156236000    320.84677    634.58182    370.67027   -98475.643    98467.057    263.91155      35.9435 
156240000    316.18267    422.33669    288.66979   -98470.366     98466.34     133.6669    35.948191 
156244000    252.62192    241.52305    482.95237   -98450.435    98498.246   -241.42932    35.948768 
156248000    270.11584    282.66527    352.75106    -98478.46    98511.575   -70.085785    35.946015 
156252000    303.41766    454.43049    166.42409   -98519.828    98520.849    288.00639    35.943356 
156256000    293.61656    289.55933    254.23928   -98514.074    98527.314    35.320042    35.944563 
156260000    288.29358    405.41758    310.52143   -98521.937    98536.024    94.896147    35.944622 
156264000    252.18477    287.01228     533.3704   -98521.563    98551.388   -246.35812    35.947686 
156268000    298.42629    469.85177    348.83987   -98547.517    98565.528     121.0119    35.945124 
156272000    280.14545    252.16294    219.01613   -98581.164    98581.622    33.146811    35.944345 
156276000    272.64636    582.88641    408.86422   -98605.996    98620.244     174.0222    35.939037 
156280000     277.4775    399.08542    533.01651    -98605.84     98631.97   -133.93108    35.941661 
156284000    304.35047    516.10178     348.5637   -98616.952    98622.551    167.53808    35.953948 
156288000     269.2017    362.68809    289.44396   -98616.382    98645.354    73.244133    35.951185 
156292000    288.61675    342.91718    367.67341   -98638.157     98651.22   -24.756229    35.953713 
156296000    287.60454     217.9043    329.86312   -98649.811    98652.868   -111.95882    35.954065 
156300000    276.40887    255.61671    273.97104    -98667.01    98679.399   -18.354329    35.958954 
156304000    298.48985    427.33383    320.60809   -98682.909    98681.233    106.72573    35.956577 
156308000    287.63533    388.92547    132.98389   -98698.906     98702.77    255.94158    35.952226 
156312000    285.68506    599.52235    227.39762     -98732.4    98731.694    372.12474    35.956682 
156316000    273.40047    211.26297    162.37005   -98754.695    98754.163    48.892922    35.958141 
156320000    294.11383    268.72599    164.77027   -98787.597    98788.972    103.95572    35.953477 
156324000    295.64006     430.5947    232.25017   -98799.242    98820.729    198.34452    35.952838 
156328000    266.67817    213.14052    308.12726   -98822.389    98837.454   -94.986748    35.949425 
156332000    280.64249    423.13947    297.02754   -98849.753    98868.443    126.11193    35.953901 
156336000    297.05619    279.66579    312.82803   -98864.583    98886.546   -33.162238    35.954935 
156340000    311.53639    454.45866    424.40432   -98900.789    98895.993    30.054345    35.952545 
156344000    293.18406    412.94285    312.89801    -98950.78    98939.959    100.04484    35.954345 
156348000    333.05974    368.98778     411.3477   -98943.585    98942.527   -42.359922    35.954602 
156352000    282.82194    376.72519    347.28616   -98959.903    98966.516    29.439025    35.957597 
156356000    270.53005    486.46215      286.485     -98961.2    98968.494    199.97714    35.960378 
156360000    270.98293    215.89583    242.73227   -98976.084    98991.273   -26.836441     35.96376 
156364000    263.02898    490.67121    258.23395   -98992.466    99005.391    232.43726    35.959175 
156368000    276.89182    383.43677    298.11177   -99013.424    99044.295    85.325001    35.962828 
156372000    285.06007    296.20658    286.69829   -99038.204    99057.283    9.5082927    35.962219 
156376000    289.36415    302.20765     143.3773    -99057.59    99069.468    158.83035    35.961646 
156380000    303.43892    449.89486    278.13415    -99065.16    99066.342    171.76072    35.971115 
156384000    279.46395    359.38409    511.62377   -99046.658    99063.885   -152.23968    35.967242 
156388000    279.88736    331.49835    375.60861   -99077.291    99090.692   -44.110266    35.961211 
156392000    259.70658    445.29722    102.61039   -99083.221    99118.335    342.68684    35.966764 
156396000    257.38608    305.41532    327.13817   -99111.431     99134.82   -21.722846    35.958274 
156400000    290.91643     354.0615    298.42392   -99154.321     99152.47    55.637575    35.959437 
156404000    309.09612    417.34324    292.52273   -99158.195    99173.738     124.8205    35.962587 
156408000    264.99304    338.94152    346.97222   -99172.079    99189.483   -8.0307043    35.960104 
156412000     294.3954    342.18214    526.58177   -99180.966    99188.792   -184.39963    35.967319 
156416000    280.96413    325.54161    241.67016   -99182.669    99194.262    83.871448    35.957997 
156420000    268.47581     380.8993    346.73331   -99164.496    99190.904    34.165995     35.95921 
156424000    277.64838    336.90884    302.04191   -99187.565    99221.353    34.866931    35.958811 
156428000    282.08986    249.58669    471.09068   -99229.277     99232.32     -221.504    35.958185 
156432000    289.56199    324.93475    386.01822     -99264.4    99260.085   -61.083466    35.953656 
156436000    304.29107    360.87501      409.535   -99273.678    99279.956   -48.659988    35.960313 
156440000    289.46724    631.80854    368.32749   -99280.595     99302.03    263.48105    35.955022 
156444000    274.62134    270.29418    229.13159   -99309.485    99331.148    41.162596    35.955653 
156448000    283.37733    236.16181    426.13935   -99306.924    99329.738   -189.97755    35.954872 
156452000    309.22247    505.43686    354.65376    -99374.56    99361.647     150.7831    35.959579 
156456000    283.14371    429.73833    234.91859    -99390.68     99406.43    194.81973    35.961867 
156460000    265.65638    404.94086    331.47138   -99427.965    99443.802    73.469481    35.959784 
156464000    321.33239    432.79591    485.78971   -99460.876    99444.551   -52.993801    35.958182 
156468000    300.44327    456.77465    342.00271   -99489.992    99483.189    114.77193      35.9594 
156472000    312.90132    382.80928    207.46231   -99510.296    99495.944    175.34697    35.953269 
156476000    296.33915    237.84248    186.79545   -99538.794    99533.435    51.047029    35.952154 
156480000    286.43556     346.9336    236.51789   -99562.663    99593.478    110.41571    35.956745 
156484000    261.64616    291.29595    387.71675   -99596.881    99621.153   -96.420799    35.949333 
156488000    281.72547    340.92839    298.35076   -99625.594     99629.01     42.57763    35.956352 
156492000    297.28595    359.14713    222.07737   -99630.792    99642.286    137.06976    35.951271 
156496000    300.12891    573.59789    378.69004   -99670.261    99648.646    194.90785    35.952243 
156500000    280.52151    344.15569    293.68461   -99674.993     99691.58    50.471082    35.951754 
156504000    286.17488     515.5676    325.22989   -99695.504    99705.693    190.33772    35.944991 
156508000    275.24722    338.36577    305.07446   -99709.281    99731.901    33.291311    35.946237 
156512000    319.77157    469.80371    405.95054   -99754.511    99722.507    63.853167    35.951214 
156516000    300.36289    508.86383    329.14529   -99755.435     99751.89    179.71854    35.949076 
156520000    275.06237    317.62615    185.29988   -99767.364    99790.739    132.32626    35.950604 
156524000    273.13696    277.99177    342.56684   -99810.267    99814.368   -64.575077    35.954421 
156528000    289.20208    439.78147    429.58667   -99831.392    99846.162    10.194806    35.952228 
156532000    286.43268    396.73335    277.81696   -99846.771     99865.42    118.91638    35.952862 
156536000    280.89111    420.58569    458.35615   -99877.523    99888.321   -37.770466    35.947025 
156540000    279.32592    481.84622    335.70177   -99902.445    99919.996    146.14445    35.947347 
156544000    286.48869    327.57789    459.53538   -99920.157    99942.009   -131.95749    35.949765 
156548000    285.10859    363.09269    321.17386   -99937.421    99955.835    41.918834    35.949514 
156552000    253.82256    374.44464    231.52561   -99949.935     99988.85    142.91903    35.948948 
156556000    284.18972    193.92191     428.6799    -99998.13     100017.3   -234.75799    35.945205 
156560000    264.95611    566.07465     272.2337   -100021.66    100055.88    293.84096    35.947701 
156564000    299.27171    315.83123    350.63978   -100044.82    100049.23   -34.808542    35.948989 
156568000    300.98137     458.2795    496.53322   -100090.14    100081.29   -38.253722    35.941552 
156572000    298.76879    295.77026    267.52828   -100138.09    100133.17    28.241981    35.938318 
156576000    309.42889    555.38197    277.33529    -100183.5    100173.45    278.04668    35.936526 
156580000     281.3691    177.59037    443.71062   -100187.83    100199.08   -266.12025    35.939378 
156584000    271.70159    350.05369    367.19888    -100219.3    100244.29   -17.145194    35.933128 
156588000     267.9021    508.66818     262.5224   -100254.28    100283.32    246.14578    35.936634 
156592000    274.81318    267.77169    198.80476   -100291.66    100315.64    68.966927    35.937367 
156596000    289.01706    169.09757     399.1537   -100324.01    100320.73   -230.05613    35.936013 
156600000      284.969    552.13309    273.52152   -100328.08    100338.02    278.61158    35.936833 
156604000    285.69362    473.55211    401.84423   -100356.73    100367.19     71.70788     35.93224 
156608000    326.66859    451.77776    346.90474    -100402.3    100392.65    104.87301    35.929906 
156612000    278.36912    408.87604    162.62999   -100418.04    100436.26    246.24604    35.942443 
156616000     262.2508    409.33293    307.59499    -100407.8     100447.6    101.73794    35.940903 
156620000    302.29656     584.3101     418.9306   -100428.17     100431.6     165.3795    35.938259 
156624000    298.96878     262.8789    313.01508   -100457.91    100474.42   -50.136174    35.927995 
156628000    253.76008    438.66883    381.13117   -100472.04    100505.03    57.537652    35.924124 
156632000    264.66645    249.82187    218.68438   -100509.71    100544.74    31.137488    35.921766 
156636000    245.08578    244.60409    168.75183   -100533.32    100562.14    75.852261    35.919119 
156640000    276.17603    364.01887    251.60395      -100555    100577.49    112.41492    35.914839 
156644000     293.2011    540.38919    419.43158   -100580.11    100601.54    120.95761    35.920674 
156648000    277.03672    684.71076     241.9655   -100607.97    100619.51    442.74525    35.926927 
156652000    299.04263     439.2105    338.84807   -100635.08    100645.67    100.36243    35.936784 
156656000    273.15175    252.96466    299.30049   -100663.72    100665.05    -46.33583    35.953622 
156660000    296.91462    170.31834    474.67646   -100675.11    100672.29   -304.35812    35.954711 
156664000    274.27944    381.44506    215.30981    -100672.1    100689.96    166.13525    35.956489 
156668000    285.26052    303.44223    493.64209   -100675.16    100692.13   -190.19986    35.951937 
156672000    282.01218    321.88366    296.86818   -100695.19    100710.71    25.015482    35.954679 
156676000    272.33408    197.55382    396.98789   -100720.62    100724.61   -199.43406    35.955529 
156680000    272.02602    529.09937    371.69152    -100722.7    100735.53    157.40785    35.954775 
156684000     288.3091    550.76906     317.0467   -100744.38    100747.12    233.72235    35.957346 
156688000    298.12951     306.4083    351.80661   -100761.83    100765.63   -45.398304    35.962742 
156692000    293.34896    163.71581    228.83897    -100780.6    100778.83   -65.123158    35.960281 
156696000    256.99821    241.65874    217.18829   -100791.42    100825.29    24.470449      35.9524 
156700000    285.98291    349.35057    349.25396   -100805.87     100829.3   0.09661024    35.961623 
156704000    304.21142    334.46934    444.36268    -100826.8    100826.61   -109.89334    35.964537 
156708000    279.58164    369.41721    346.69191   -100826.42    100837.41    22.725299    35.962001 
156712000    257.19452    347.21015    539.48506   -100815.22    100844.89   -192.27491    35.957761 
156716000     310.0007    666.80301    300.98234   -100857.44     100859.4    365.82067    35.959685 
156720000    294.23623    333.39071    293.93958   -100877.44    100879.06    39.451133    35.963693 
156724000    269.57546    574.81429    236.00929   -100902.98    100902.63      338.805    35.967032 
156728000    276.07308    411.19918    237.54784   -100920.11    100943.36    173.65134    35.966949 
156732000    299.51317    408.69862    371.47237   -100955.34    100968.35    37.226248    35.961878 
156736000    291.78063     271.3607    229.88873   -100971.49    100994.16    41.471972    35.962067 
156740000     287.2837    407.82025    385.73296   -101011.35    101025.73    22.087286    35.965818 
156744000    282.08038    536.32846    209.97308   -101039.94    101064.53    326.35539    35.971114 
156748000    296.89724    439.64835    319.64013   -101076.25    101070.82    120.00823    35.970167 
156752000    323.22148    312.62376    280.22841   -101096.89    101101.46    32.395351    35.965061 
156756000    310.25274    418.56879    429.70757   -101106.41    101101.78   -11.138777    35.965029 
156760000    315.10941    609.79436    298.04013   -101122.92    101128.52    311.75422    35.966988 
156764000    284.04975    311.48166    405.36537      -101136    101136.45   -93.883711    35.971739 
156768000    286.15931    344.76391    341.71698   -101146.66    101163.78    3.0469292    35.964837 
156772000    257.01524    337.85151    311.43628   -101183.61    101207.17    26.415233    35.967283 
156776000    268.87465    297.46737    252.41883   -101217.11    101244.87    45.048536    35.967896 
156780000    271.75809     343.4512    279.60434   -101227.77    101262.38    63.846858    35.971217 
156784000    281.32822     312.2301    384.70739   -101240.38    101261.84   -72.477294    35.971246 
156788000    275.83659    302.22043    283.31678   -101265.94    101287.42    18.903649    35.975877 
156792000    279.93927    333.21264    137.93531   -101271.59    101295.32    195.27733    35.984199 
156796000    269.24738    427.89667    336.93956   -101274.72    101287.78    90.957108    35.980243 
156800000    286.53468    364.29332     433.8966   -101285.19    101293.14   -69.603278    35.982396 
156804000    253.02307    240.26482      266.766   -101297.17    101327.19   -26.501182    35.973273 
156808000    267.76586    217.07152    407.41599   -101323.17     101338.7   -190.34447    35.971944 
156812000    293.02326     244.6782    457.50286   -101367.97    101355.09   -212.82466      35.9787 
156816000    271.01207    254.69742    521.29103   -101375.75    101387.31   -266.59361    35.976104 
156820000    280.08414    202.71801    284.71286   -101390.11    101409.24   -81.994855    35.972267 
156824000    279.29374    241.80594    390.42125    -101410.3    101426.15   -148.61531    35.978956 
156828000    283.31934      432.839    291.33531   -101414.11    101440.62    141.50368    35.968465 
156832000    265.05107    188.05698    459.45196   -101449.55    101462.47   -271.39499    35.966671 
156836000    300.74865    475.12481    404.02101   -101467.24    101472.75    71.103801    35.975543 
156840000    282.58517    414.05703    223.66804   -101479.83    101478.43      190.389    35.972242 
156844000    314.57627    235.41896    335.63468   -101515.26    101508.87   -100.21572    35.968586 
156848000    319.70601    362.95242    418.08464   -101572.22    101551.78   -55.132218    35.962775 
156852000    298.80456    523.54747    313.87697   -101597.59    101580.12     209.6705    35.960526 
156856000    296.03411    357.18813     392.7982   -101601.94    101612.83   -35.610075    35.955264 
156860000    275.20418    306.75974    247.21208   -101619.37    101662.71    59.547659    35.957327 
156864000    285.27891    272.17132    495.23029   -101663.25    101665.68   -223.05897    35.965052 
156868000    305.45791    351.76664    211.74385   -101700.23    101701.48    140.02279    35.962095 
156872000    272.07541    324.63004     272.8889   -101729.18     101745.9    51.741146    35.966994 
156876000    270.66011    307.84319    242.44433    -101746.4    101780.44    65.398865    35.963558 
156880000    269.43676    356.12443    345.24959   -101752.64    101769.85     10.87484    35.965235 
156884000    260.62063    227.63512    202.03923   -101760.35    101791.28    25.595888    35.968168 
156888000    282.31369    223.86088    434.44737    -101818.9    101824.21   -210.58649    35.973069 
156892000    280.71243    371.49908    286.07126   -101839.99    101852.89    85.427823    35.977932 
156896000    301.22418    276.93045    297.26786   -101863.62    101852.48   -20.337408    35.981818 
156900000    269.93309    213.76771    397.72794    -101861.5    101884.45   -183.96024    35.980946 
156904000    286.00439    367.15168    376.37204   -101871.46    101878.27     -9.22036     35.97695 
156908000    269.48066    507.83315    289.31292   -101881.01    101895.67    218.52023    35.982445 
156912000    265.39568    305.35743    224.94593   -101888.96    101920.25    80.411502    35.988677 
156916000     250.0749    296.23911    405.69176   -101896.77    101935.85   -109.45264    35.985893 
156920000    293.67275    307.37841    853.44391   -101923.64    101935.84   -546.06549    35.978705 
156924000    253.97643    354.05453    282.63096   -101946.48    101980.93    71.423573    35.981715 
156928000    261.64514    303.50956    274.31763   -102003.59    102025.01    29.191929    35.982725 
156932000    294.66108    353.56189    197.56639   -102042.68    102052.64    155.99551    35.981909 
156936000    260.60474    377.13593    303.65629   -102040.23    102059.94    73.479644    35.978469 
156940000    270.29539    304.19153    500.09972   -102035.88    102067.47   -195.90819    35.976516 
156944000    279.69092     197.7027    476.11932   -102050.28    102070.99   -278.41662    35.977214 
156948000    290.09362    375.36365    513.79575   -102053.29    102065.13    -138.4321    35.980497 
156952000    294.31501    408.06887     281.3721   -102057.24    102072.66    126.69677     35.97329 
156956000    283.75504    370.38736    506.74957   -102070.27    102075.25   -136.36221    35.976087 
156960000    282.28323     440.3369    202.51771    -102095.8     102093.8    237.81919    35.973492 
156964000    301.35452    439.89313    331.12693   -102099.91    102101.38     108.7662    35.973051 
156968000    286.36578    255.06852    531.22172   -102095.85    102123.89    -276.1532    35.966898 
156972000    292.52912    381.10524    180.35817   -102135.26    102142.88    200.74707    35.960361 
156976000    296.04822    254.46142    202.28936   -102149.13    102167.24    52.172064    35.959421 
156980000    284.46021    367.76938    303.48825   -102159.16    102172.61    64.281131    35.957757 
156984000    295.93457    225.64898    611.98971   -102169.53    102182.71   -386.34073    35.960315 
156988000    280.78066     370.2164    197.18229   -102187.77    102213.88    173.03412    35.957981 
156992000    268.75975    283.04792    274.18546   -102215.31    102230.45    8.8624522    35.951239 
156996000    292.51641     298.2034    238.15454   -102243.87    102234.31    60.048863    35.946996 
157000000    302.65645    297.97328    515.50226   -102257.52    102240.68   -217.52898    35.946694 
157004000     260.7479    217.42228    220.20164   -102250.45    102268.65   -2.7793658    35.946283 
157008000    273.50285    362.77553    254.03159    -102267.9    102282.22    108.74394    35.943764 
157012000    277.47762    284.16728    289.89416   -102284.27    102302.97   -5.7268836    35.943087 
157016000    294.35232    301.68911     453.9418   -102300.06    102317.29   -152.25269    35.949575 
157020000    313.61187     435.6759    377.43013   -102341.74    102331.74     58.24577    35.946095 
157024000    279.51831    217.31181    298.24904   -102342.44    102365.48   -80.937238    35.945535 
157028000    284.28153    243.23034    301.04812    -102370.6    102377.15   -57.817788    35.939236 
157032000    267.90286     399.6232     257.3514   -102389.84    102405.27     142.2718    35.944554 
157036000    265.07347     296.6831    434.01288   -102391.09    102422.19   -137.32979    35.942627 
157040000    259.60228     418.4127    324.07007   -102409.82    102436.91    94.342632    35.941966 
157044000    276.49218    236.61542    264.87464   -102433.47    102460.96    -28.25922    35.940323 
157048000     314.0773    376.46879    468.57657   -102467.93    102464.13   -92.107778    35.945304 
157052000    283.23552     293.5005    314.49541   -102471.16    102485.78   -20.994907    35.946518 
157056000      268.536    244.70079    389.10401   -102501.85    102506.36   -144.40322    35.941963 
157060000    292.18725    295.67785    281.68438   -102507.14    102533.73    13.993467    35.946112 
157064000    251.17047    268.44363    239.59567   -102531.22     102568.5    28.847961    35.947926 
157068000    287.62057    427.34999    262.47153   -102548.65    102568.14    164.87846    35.949993 
157072000    249.74917    341.61719    277.86933   -102568.32    102593.65    63.747853    35.948732 
157076000    273.52411    432.70539    213.14874   -102617.73    102625.69    219.55665    35.944679 
157080000    284.52522    202.05462    413.61727    -102625.4    102639.22   -211.56264    35.945257 
157084000    298.00621    448.84338    199.80277   -102649.96    102641.69    249.04061    35.946857 
157088000    294.98398    473.19515    353.98148   -102669.22    102657.52    119.21367    35.952761 
157092000    291.67288    414.82706    341.77076   -102675.34    102684.91    73.056298    35.954683 
157096000    259.52248    407.93236    345.90318   -102660.52     102697.9    62.029176    35.956345 
157100000    304.52573    709.43855    540.21584   -102683.98    102689.51    169.22271    35.954811 
157104000    289.59902    282.67616    356.21077   -102706.67    102709.88   -73.534612    35.948621 
157108000    293.44451    468.76676     346.9095   -102736.76    102743.83    121.85726    35.948467 
157112000     296.9765    546.31672    372.57277   -102758.97    102768.82    173.74394    35.945197 
157116000    302.85923    282.13726    483.51863   -102780.99     102795.8   -201.38138    35.943232 
157120000    275.81793    344.34917    471.38611   -102814.84    102845.97   -127.03693     35.94295 
157124000    288.52521    384.56951    460.44595    -102861.1    102862.49   -75.876446    35.947008 
157128000    257.48679    342.76291    290.88063   -102881.09    102910.71     51.88228    35.943307 
157132000    298.52369    493.35476    302.63442   -102923.29    102921.72    190.72034    35.946351 
157136000    305.63725    328.32215    348.82025   -102929.72    102920.56   -20.498103    35.946552 
157140000    272.75971     346.6827    317.53548   -102940.92    102970.01    29.147219    35.946894 
157144000     292.9003    243.46951    281.51167   -102974.06    102959.55   -38.042161     35.95968 
157148000    286.00887    432.55928    421.09842   -102997.27    102992.22    11.460865    35.954068 
157152000    302.83626    201.12697    262.29401   -103023.72    103035.15   -61.167047    35.954468 
157156000    274.21531    379.33487    212.39811   -103029.54    103061.33    166.93676     35.94814 
157160000    282.24865    408.78196    314.95337   -103055.07    103069.18    93.828595    35.948942 
157164000    260.89129    372.57242    229.82618   -103085.72    103122.91    142.74624    35.949146 
157168000    284.92663    511.86087    486.67131   -103103.92    103126.26    25.189564     35.94326 
157172000    254.51642    310.47038    356.35603   -103115.64    103125.42   -45.885648    35.944455 
157176000    285.66604    329.46567    362.30314   -103132.15    103140.82   -32.837473    35.945154 
157180000    269.07705    302.87613    228.05541   -103144.78    103160.97    74.820724    35.942803 
157184000    292.84425    421.86531    302.87056   -103165.84    103183.59    118.99474    35.946039 
157188000    277.69428     152.1951    329.71828   -103175.59    103194.63   -177.52319    35.950279 
157192000    293.96344    220.98839    309.63709   -103211.11     103221.4     -88.6487    35.950215 
157196000    269.36611    406.63196    321.65042   -103260.83    103271.54    84.981534     35.95025 
157200000    277.03516    442.23438    263.73192   -103295.32    103314.71    178.50246    35.950709 
157204000    286.14641    299.71559    155.53933   -103323.71    103330.74    144.17626     35.95342 
157208000    290.15249    336.51209    399.09377   -103330.04    103328.85   -62.581684    35.957351 
157212000    314.41055    301.57565    392.92951   -103350.53    103350.79   -91.353859    35.961297 
157216000    290.13019    381.37401    397.83493   -103375.08    103373.31   -16.460915    35.963466 
157220000    253.40803    287.48728    227.56117   -103376.02    103420.32    59.926109    35.960708 
157224000    279.47122     376.4998    379.57356   -103395.56    103423.52   -3.0737658    35.958341 
157228000    312.95467    433.13021    430.76691   -103440.46    103437.74    2.3633045     35.95587 
157232000    283.12899    404.41594    185.69619   -103468.37    103483.33    218.71976     35.95158 
157236000    313.33554    401.27076    391.53033   -103477.66    103490.68    9.7404251    35.948687 
157240000    305.35835    306.24881     204.9412   -103491.96    103503.68    101.30762    35.942736 
157244000    272.80666    237.77135    283.63789   -103516.22    103534.25   -45.866537    35.942937 
157248000    277.58501    359.48901    227.85319   -103541.87    103548.94    131.63582    35.944277 
157252000     295.9795    517.90028    307.41844    -103575.1    103569.32    210.48184    35.945152 
157256000    301.50324    357.28782    352.95757   -103580.64    103588.76    4.3302513    35.946821 
157260000    283.36268    314.25167    449.65636   -103578.22     103581.5   -135.40469    35.941143 
157264000     283.7512    305.64476    223.30745   -103589.56    103609.44     82.33731    35.936783 
157268000    258.92035     177.1135    351.40888   -103617.29    103621.94   -174.29538     35.93534 
157272000    271.99925    400.24421    238.34986   -103624.79    103639.89    161.89435    35.938638 
157276000    277.30234    357.75957    229.46901   -103652.36    103675.18    128.29056    35.945203 
157280000    281.84087    208.01652    344.61058   -103652.56    103685.08   -136.59405    35.945816 
157284000    271.51629    325.12855    397.23967   -103677.08    103703.62   -72.111126    35.941975 
157288000    321.47704    477.93383    499.60352   -103711.11    103708.93   -21.669696    35.936547 
157292000    286.42948    459.68395    357.35556   -103691.42    103721.35    102.32839    35.934702 
157296000    276.30632    284.25549    249.26074   -103717.25    103754.87     34.99475    35.937806 
157300000    280.49071     455.0188    402.07165    -103736.5    103745.08    52.947152    35.940208 
157304000    296.77029    268.39945    463.28864   -103754.47    103760.24   -194.88919    35.941293 
157308000    291.28957     212.4573    273.29463   -103777.53    103791.27   -60.837332    35.935082 
157312000    299.92397    420.76438     320.5783   -103807.98    103804.59    100.18608    35.942072 
157316000     282.5381    510.21679    244.02597   -103804.06    103807.35    266.19082     35.93907 
157320000    303.94914    320.09294     269.9414   -103815.79    103821.67    50.151541    35.938615 
157324000    276.78813    343.64381    638.30102   -103851.62    103844.47   -294.65721    35.939797 
157328000    304.10033     316.8058    419.68296   -103866.17    103865.69   -102.87716    35.944956 
157332000     288.4381    253.70528    235.18958   -103877.84    103898.14    18.515695    35.948021 
157336000    282.60669    369.85978    467.08525    -103901.4    103918.46   -97.225468    35.945515 
157340000    266.61798    269.91145    308.84289   -103911.61     103942.8   -38.931442    35.942205 
157344000    280.27374    430.93645    399.89366   -103952.94    103967.14     31.04279     35.93791 
157348000      278.977    194.70441    221.42448    -103976.9    103992.22   -26.720073    35.936646 
157352000    270.52628    609.36914    349.78522   -104005.25    104015.77    259.58392    35.936252 
157356000    302.34845    511.84087    311.83434   -104029.26    104035.38    200.00653    35.938179 
157360000     295.5995    491.78822    248.61107   -104061.67    104051.11    243.17715    35.941483 
157364000     270.1066    573.05893    274.34831   -104051.69    104091.62    298.71061    35.942023 
157368000    274.57618    332.87521    372.97525   -104051.35    104089.94   -40.100034    35.944204 
157372000    270.02022    263.24254    338.85649   -104098.68    104116.06    -75.61395     35.94294 
157376000    279.96418    362.23217    328.87403   -104129.17    104147.91    33.358136    35.946665 
157380000    278.02972    456.00887    368.36739   -104167.45    104187.82    87.641475    35.950431 
157384000     301.7779    472.67417    281.66555   -104201.57    104199.24    191.00862    35.948028 
157388000    268.23908    220.60468    189.42661   -104218.89    104232.48    31.178074    35.954662 
157392000     267.5923    217.62864    350.18126   -104245.94    104277.71   -132.55262    35.951381 
157396000    267.84989    328.80193    318.79632   -104274.51    104291.27    10.005611    35.953718 
157400000     279.5201     416.2495    429.70559   -104305.49    104305.32   -13.456083    35.944586 
157404000    290.91877     396.8032    270.80245   -104326.15    104338.72    126.00075    35.946221 
157408000    282.67337    315.62166    332.75832   -104350.78    104366.55   -17.136663    35.945336 
157412000    260.29869    329.77527     403.3008   -104362.09    104391.43   -73.525529    35.941244 
157416000     269.1707    385.37447    313.66936   -104396.67    104397.42    71.705114     35.93905 
157420000    268.29014    325.47769    171.45137   -104382.77    104415.51    154.02632    35.949154 
157424000    261.82257    402.16822    295.23101   -104414.88    104435.34    106.93722    35.947006 
157428000    269.36192    245.73114    315.23156   -104449.85     104471.3   -69.500415    35.946537 
157432000    282.06467    378.90147    413.79826    -104458.6    104466.23   -34.896783    35.947639 
157436000    279.77199     281.2603    479.77013   -104476.41    104495.82   -198.50983     35.94104 
157440000     259.5199    311.81293    122.74184   -104462.93    104484.45    189.07109    35.936177 
157444000    270.79623    215.70473    253.62465   -104485.38    104526.43   -37.919926    35.942329 
157448000      251.659    329.22742    292.78479   -104507.12     104542.5    36.442633    35.946785 
157452000    290.67754    381.94987    285.69558   -104537.48    104544.75     96.25429    35.952132 
157456000    285.91573    271.43282    512.30786   -104551.52    104579.71   -240.87504    35.951634 
157460000    263.23424    271.28283    346.97153   -104570.95    104601.08   -75.688697    35.951086 
157464000    291.52802    278.89614    345.05693   -104587.77    104605.28    -66.16079    35.951696 
157468000    278.53428    513.31199    340.39856   -104613.45    104629.59    172.91343     35.94507 
157472000    279.13183    367.63209    207.93214   -104631.28    104636.65    159.69995    35.950009 
157476000    263.88689    323.68509    324.66434   -104654.16    104667.99  -0.97925148    35.954039 
157480000    289.35647    419.92277    326.68341   -104640.19    104675.67    93.239364    35.958324 
157484000    291.90455    357.58923    300.89829   -104662.38    104687.82    56.690934    35.962045 
157488000    284.58888    206.75296     365.0856   -104691.65    104710.85   -158.33264    35.962791 
157492000    304.69567    531.86469    395.30746   -104760.79     104743.6    136.55723    35.964839 
157496000    297.37722    184.99827    478.27493   -104759.53    104772.14   -293.27667    35.959484 
157500000    330.62907    386.97377    345.59438   -104819.31    104800.67     41.37939    35.960998 
157504000    285.80434    326.99873     469.1884   -104829.28    104847.49   -142.18967    35.961248 
157508000     272.0073    216.19094    352.53594   -104853.61    104855.69   -136.34499    35.962097 
157512000    285.74474    312.92472    337.25505   -104877.72    104883.34   -24.330336    35.957251 
157516000     296.5128    328.83722    316.18648   -104893.06       104900     12.65074    35.951888 
157520000    289.22155    357.31683    429.36833   -104892.93    104919.16   -72.051505    35.950429 
157524000    263.32255    234.01939    230.68487   -104919.85    104944.52    3.3345162    35.951759 
157528000    302.64705    242.94587    403.78726   -104936.61    104946.72   -160.84139     35.94736 
157532000    279.25783     481.5325     380.8753   -104946.42     104966.9     100.6572    35.962529 
157536000    278.52828    264.25106    206.21947   -104968.74    104984.81    58.031586    35.968668 
157540000    285.33949    288.13688    202.50546    -104975.4    104992.66    85.631424    35.967952 
157544000    298.12917     295.5146    323.74965   -105001.98    105011.24   -28.235048    35.971632 
157548000    285.65918     619.2262    307.58643   -105023.87    105042.14    311.63978    35.974153 
157552000    249.12599    337.18232    214.17079   -105045.02    105090.79    123.01153    35.983889 
157556000    295.34077    314.22352    323.54595    -105071.8    105072.74    -9.322431    35.980873 
157560000    314.80044    495.39611    224.39555   -105084.34    105071.19    271.00056    35.973671 
157564000    279.47455    388.62056    309.05082   -105086.28    105107.28    79.569739    35.973208 
157568000    281.43602    264.01544    355.17382   -105120.63    105144.57   -91.158374    35.979878 
157572000    287.49911    255.48474    360.77426   -105129.61    105159.19   -105.28953    35.974219 
157576000    293.10595    386.39181     267.6131   -105122.04    105154.97    118.77871    35.974346 
157580000     272.0737    309.03485    383.82186   -105131.54    105163.68    -74.78701    35.966744 
157584000    257.53001    333.32738     276.6597   -105151.29    105188.48     56.66768    35.974902 
157588000    274.10675    305.87258    311.46785   -105156.87    105199.03   -5.5952695    35.971061 
157592000    329.41672    298.37583    254.38512   -105205.83     105186.8     43.99071     35.98039 
157596000    256.77504    405.05696    297.28039   -105221.06     105241.5    107.77657    35.984655 
157600000    278.51408    199.32307    191.00285   -105266.43    105289.33     8.320218    35.988787 
157604000     285.5488    378.53777    291.54504   -105270.53    105288.67    86.992732    35.994467 
157608000    279.30271    477.68445    300.00389   -105290.04    105287.89    177.68056    35.998178 
157612000    263.32685     385.0145    199.00655   -105305.29    105340.38    186.00795    35.995438 
157616000    311.27168    370.01306    193.93515   -105325.61    105344.45    176.07791    36.000839 
157620000    292.99459    451.44576    404.42677   -105356.94     105342.2    47.018985     36.00503 
157624000    284.65473    397.07495    169.82748   -105387.58    105388.31    227.24747    36.013745 
157628000    255.04493    481.88104    238.27353   -105405.45     105450.8    243.60751    36.019832 
157632000    334.55504    408.94112    312.15116   -105475.68     105464.5    96.789958        36.02 
157636000    300.50707    303.15118     421.7663   -105467.95    105483.45   -118.61512    36.018796 
157640000    303.98079    530.38854    320.33705   -105507.99    105516.68    210.05149    36.029878 
157644000    290.79622    448.16912    273.19849    -105527.6    105537.99    174.97064    36.035847 
157648000    269.77725    486.51688    231.80959      -105551    105547.87    254.70728    36.035305 
157652000    297.04084    320.03012     436.4724   -105582.31    105579.41   -116.44228    36.025395 
157656000    295.47072    514.68879    234.10294    -105594.1    105611.02    280.58585     36.02457 
157660000    277.72975    426.08345    244.84077   -105615.88    105629.81    181.24268    36.018999 
157664000      278.492    363.21964    273.62993   -105618.97     105644.5    89.589712    36.014848 
157668000    257.50035    390.76426    263.97576   -105626.06    105660.92     126.7885    36.010749 
157672000    277.32625    372.49545    212.02342   -105661.39    105675.85    160.47203    36.005468 
157676000     258.0561    153.79071    192.07094   -105667.74    105700.28   -38.280229     36.00189 
157680000    296.00301    333.53878    427.99742   -105701.87    105712.41   -94.458633    35.995336 
157684000    271.57428     457.6248    450.60557   -105695.38     105725.1    7.0192303    35.990248 
157688000    258.46654     246.1441    285.68989   -105707.49    105738.01   -39.545792    35.984998 
157692000    313.84068    151.52795    439.93738   -105754.15    105753.56   -288.40942    35.987682 
157696000    279.45491    399.71322     252.7573   -105778.59    105793.63    146.95592    35.987556 
157700000    275.52076    468.09605    281.20362   -105778.56    105803.36    186.89243    35.991033 
157704000     303.0587    380.05118    467.41647   -105814.75    105815.27   -87.365283    35.985658 
157708000    267.00274    362.84109    492.11639   -105820.09    105848.99    -129.2753    35.989091 
157712000    263.93595    194.11768    273.93125   -105843.52    105861.58    -79.81357    35.984815 
157716000    291.39729     599.6528    313.58011   -105879.27    105892.33    286.07269    35.988163 
157720000    243.56545     329.2866    277.92756   -105889.71    105929.31    51.359044    35.984363 
157724000    306.63078    269.95557    475.94632   -105912.56    105928.38   -205.99075    35.982947 
157728000    309.96855    350.53344    215.20223    -105936.3    105920.37    135.33121    35.985982 
157732000     258.5495     364.6767    353.80557   -105937.25    105953.93    10.871136     35.98434 
157736000    328.20546     239.6711    251.81737      -105962    105954.29   -12.146266    35.974565 
157740000    265.55325    457.93793    192.21693   -105976.69    105979.41      265.721    35.980509 
157744000    272.98276    236.27716    143.76236   -105959.22    106007.89    92.514799      35.9915 
157748000    305.17808    374.80578    349.03793   -105993.92    105993.56    25.767845    35.987654 
157752000    274.06402    237.18017    256.89806   -105980.51    105991.73   -19.717892    35.989239 
157756000      277.337      293.975    409.88456   -106002.69    106001.81   -115.90956    35.984671 
157760000     287.2743    366.33691    257.43007   -106009.89    106008.85    108.90684     35.98742 
157764000    282.02077    140.31679    347.14732   -106021.78    106054.23   -206.83054     35.99183 
157768000    278.38654    279.72234    256.27654   -106034.82    106058.74      23.4458    35.989239 
157772000    299.69039    410.61135    391.75293      -106043    106067.77    18.858423     35.98476 
157776000     272.8028    349.99172    277.28171   -106055.28    106072.52     72.71001    35.989595 
157780000    270.22017    211.75377     425.5478   -106068.48    106068.34   -213.79403    35.997235 
157784000    273.47134    344.75071    216.13433   -106068.58    106091.67    128.61638    35.999619 
157788000    289.75926    420.58614    215.35586   -106105.57     106117.9    205.23028    36.001937 
157792000    253.40947    280.09283    162.70621   -106106.07    106130.19    117.38662    36.004463 
157796000    296.79187    264.17959    195.88315   -106129.99    106133.87    68.296443    36.005665 
157800000    258.84148    303.85989    236.90968   -106125.75    106171.79    66.950209    36.002007 
157804000    282.50474     353.5667    190.89365   -106166.23    106174.08    162.67306    35.998592 
157808000    284.13055    391.45866    304.09133   -106194.27    106222.13    87.367333    35.994072 
157812000    271.04375    385.29272    220.77842    -106212.9    106246.58    164.51431    35.996394 
157816000     307.8705    718.43218    404.02308   -106255.68    106261.57     314.4091    36.001291 
157820000    309.49079    233.26558    339.10145   -106327.67    106315.12   -105.83587    36.005423 
157824000    288.82176    209.23988    328.79101   -106321.68    106334.88   -119.55113    36.011175 
157828000    301.34597    303.93771    238.39987   -106334.12    106326.06    65.537839    36.009409 
157832000     285.3115    248.35591    315.32647   -106348.37    106363.48   -66.970563    36.013671 
157836000    331.16752     353.5446    524.68221   -106359.94    106337.37   -171.13761    36.012245 
157840000     260.9563     300.1072    116.78171   -106342.91    106368.74    183.32549    36.007803 
157844000     281.6591     484.1323    259.71315   -106369.98    106398.15    224.41915    36.011465 
157848000    277.81168    176.68238    491.93827   -106381.72    106395.55   -315.25588    36.017653 
157852000    298.29347    277.70046    203.45939   -106387.73    106387.18    74.241072    36.014332 
157856000    270.60166     243.1836    300.17069   -106415.84     106415.2     -56.9871    36.008763 
157860000    306.69128     566.4239    276.81958   -106469.39    106466.87    289.60432    36.007999 
157864000    252.55707    286.96669    317.64365    -106462.6    106502.11   -30.676969    36.008367 
157868000    278.71605    397.18375    231.16102   -106471.55     106511.2    166.02273    36.011893 
157872000    263.52493    422.83011    204.88015   -106516.59    106550.98    217.94996    36.012715 
157876000    269.84575    530.67222    252.36084   -106546.75    106584.25    278.31138    36.016169 
157880000    310.73967    290.09304    348.63765   -106595.02    106599.87   -58.544613    36.012871 
157884000    279.45091    364.73861    273.10739    -106621.2    106628.89     91.63122    36.017618 
157888000    313.71932    284.42246     227.2222   -106642.25    106655.05    57.200261    36.015273 
157892000    288.76706    247.34689    453.84895   -106669.76    106685.61   -206.50206    36.017946 
157896000    290.19043    235.11429    384.88492   -106648.69    106672.59   -149.77062    36.012402 
157900000    297.01132    317.32465    245.26797   -106680.91    106670.13    72.056685    36.010666 
157904000    313.68174     594.3091    338.34926   -106713.49    106714.81    255.95985    36.014039 
157908000    271.11234    311.22986    308.71459   -106735.39    106746.82    2.5152654    36.006145 
157912000    297.27656    400.24833    252.82704   -106765.17    106763.07    147.42129    36.008978 
157916000    301.61593    505.13919    237.45078    -106781.6     106778.7    267.68841    36.010793 
157920000    307.63943    509.59499    212.69595   -106813.87    106807.15    296.89903    36.011857 
157924000    284.66292     313.8007    299.19546   -106835.32    106861.15     14.60524    36.012781 
157928000    292.01452    657.85099    399.98901   -106854.09    106872.46    257.86197    36.018722 
157932000    253.04371    329.82437    522.81738   -106858.95    106887.51   -192.99301     36.01695 
157936000    285.12475    381.71452    236.64989   -106894.65       106913    145.06463    36.016872 
157940000     286.3304    282.78364    304.56986    -106916.5    106921.01   -21.786219    36.014109 
157944000    297.65135    380.29053    598.69308   -106940.46    106942.05   -218.40256    36.005751 
157948000    257.61561    199.64637    376.05556    -106937.6    106950.24   -176.40919    36.007917 
157952000    245.22951    271.81735     379.9007   -106947.81    106979.52   -108.08335    36.000935 
157956000    275.61391    298.83882    499.46359   -106945.88    106961.72   -200.62477     36.00286 
157960000    276.36614    403.17241    333.94429   -106964.38    107004.22    69.228122    36.006164 
157964000    299.90359    228.74269    386.94609   -106975.98    106987.12   -158.20341    36.002719 
157968000    298.39871    458.05789    333.90745   -106983.06    106978.86    124.15044     36.00008 
157972000    275.34875    251.77991    248.21761   -106996.79    106982.77    3.5623042    36.000231 
157976000    291.48439     471.9727    365.32699    -106999.6    107001.78    106.64571    36.001173 
157980000    312.32154    272.18828    501.52003   -107011.96    107006.36   -229.33174    36.000746 
157984000     299.1699    400.66307    338.64668   -107028.44       107015    62.016396    35.999375 
157988000    301.98895    439.18661    188.72437   -107026.27    107034.28    250.46225    36.002038 
157992000    274.41443    420.15795    422.13379   -107043.79    107076.96   -1.9758437    36.000473 
157996000    264.02123    338.36406    277.51739   -107042.47    107080.49    60.846674    36.006483 
158000000    263.81511    221.32571    230.53711   -107084.18    107100.29   -9.2113956    36.000966 
158004000    296.91576    257.42201     313.7101   -107101.76    107093.05   -56.288085    36.002894 
158008000    261.26446    483.81644    225.47602   -107104.93    107118.33    258.34042    35.999207 
158012000    293.43678    452.71324    341.21104   -107127.96    107150.33     111.5022    36.005126 
158016000    278.60826    502.77724    227.90068   -107113.01    107138.88    274.87656    36.002465 
158020000    278.13167    500.59012    302.61473   -107128.18    107149.54    197.97539    36.001831 
158024000    288.25724    455.46784    254.37986   -107138.99    107166.39    201.08799    36.000298 
158028000    251.01307    301.25109    172.71967   -107149.61    107177.25    128.53142     35.99767 
158032000    259.96642     329.6666    326.47217   -107178.99    107195.22    3.1944243    36.001196 
158036000    304.00968    534.22673    167.47423   -107189.63     107201.2     366.7525    35.998959 
158040000    289.90654    259.41323    301.26102   -107173.49    107200.84   -41.847795    36.000474 
158044000    266.61259    341.64324    388.07759   -107173.57    107209.48   -46.434353    35.997705 
158048000    286.44991    252.03565     419.0028   -107196.33    107208.06   -166.96714     35.99391 
158052000    273.81844    319.24755    106.62581   -107193.15    107206.49    212.62174    35.991137 
158056000    291.71082    387.42987     175.4916   -107221.44    107239.02    211.93827    36.000805 
158060000     262.2506    348.07063    289.29796    -107228.3     107260.3    58.772669    35.999767 
158064000    281.66827    370.34187    443.17088   -107258.96    107268.85    -72.82901     35.99123 
158068000    269.76993    319.28573    240.42595   -107256.22    107274.22    78.859777    35.993909 
158072000     290.7988    486.15103    378.36625   -107309.49    107317.65    107.78478    35.993089 
158076000    289.05967    460.10617     171.6198   -107328.02     107346.6    288.48637    35.991593 
158080000    305.03954    636.28152     303.9833   -107330.84    107339.61    332.29822    35.985174 
158084000    273.30591    316.37933    283.23566   -107311.93     107349.8    33.143672     35.98539 
158088000    288.49412     413.6422    521.33513   -107327.02    107345.07   -107.69293    35.986481 
158092000    288.50565    313.70933    267.78885   -107324.97    107353.84    45.920476    35.988363 
158096000    294.18046    349.31464    412.27098   -107377.36    107364.55   -62.956345    35.987666 
158100000    309.77524    584.22598    336.13945   -107388.86    107383.19    248.08653    35.985262 
158104000    290.71276    443.46867    405.06404   -107406.15    107417.61    38.404626    35.986022 
158108000    270.57646    219.51224    381.00714    -107398.4    107412.81    -161.4949    35.982577 
158112000    313.11627    348.49803    191.05103      -107445    107456.83      157.447    35.983083 
158116000    281.87417    323.51791     310.4503    -107434.1    107465.66    13.067607    35.983264 
158120000    284.38533    274.89805      281.725   -107430.42    107442.85     -6.82695    35.983782 
158124000     279.4399    330.32249    361.53629   -107439.24    107441.48   -31.213798    35.985026 
158128000    276.02455    287.12965    263.09384   -107424.27    107471.62    24.035807    35.985304 
158132000    283.39529    468.42567    338.50141   -107476.96    107473.86    129.92425    35.982809 
158136000    268.83174    307.07377    235.33501   -107507.01    107517.88     71.73876    35.988458 
158140000    280.85548    476.86415    459.33109   -107523.98    107538.24    17.533061    35.991368 
158144000    271.90901    199.62254    216.23465    -107548.3    107575.55   -16.612109    35.992538 
158148000    269.06964    248.29309     249.8755   -107580.58    107601.17   -1.5824069    35.993339 
158152000    257.43379    343.02643    308.25919   -107596.25    107616.11    34.767242    35.993114 
158156000    289.78861    591.19697    420.75327   -107599.19     107610.8     170.4437    35.994896 
158160000    286.88762    436.77213    430.35431   -107629.94       107635    6.4178191    36.002155 
158164000    291.57749    549.46887    221.79621   -107663.95    107665.56    327.67265    36.005849 
158168000    266.76222    484.39166    217.76895   -107665.68     107691.8    266.62271    36.006038 
158172000    252.47527    302.76075    326.65609   -107701.26    107739.07   -23.895339    36.003576 
158176000    290.51101    361.08555    283.33347    -107733.1    107729.96    77.752073    36.006563 
158180000    286.70985    346.83197    406.46661      -107741    107753.23   -59.634639    36.008002 
158184000    274.11486    477.26445    327.92362   -107777.16    107785.79    149.34082    36.006822 
158188000    272.09451    302.81543    265.44006   -107790.91    107813.19    37.375374    36.005233 
158192000    269.45621    443.72034    349.51081   -107783.16       107823    94.209533    36.005654 
158196000    256.38659    314.51588    196.36373   -107812.87       107852    118.15215    36.001193 
158200000      295.912    306.44133    355.17222   -107837.54    107837.02   -48.730888    35.999601 
158204000     269.6694    409.89437    215.72623   -107814.23    107842.44    194.16814    36.000206 
158208000    307.73013    354.34156    475.19361   -107850.52    107841.45   -120.85206    35.999547 
158212000    271.20282    247.85185    276.31133   -107857.99    107867.18    -28.45948    36.002508 
158216000    288.08702     273.2525    287.74844   -107870.36    107887.93   -14.495941    36.003563 
158220000    311.15187    572.60226    331.84655    -107893.6    107889.52    240.75571    36.004651 
158224000    283.04028    265.35389    363.89484    -107902.6    107895.74   -98.540959    36.007239 
158228000    276.74384    315.70496     330.3382   -107917.35    107947.48   -14.633247     36.00834 
158232000    286.65759    343.50536    283.45229   -107941.81    107948.42     60.05307     36.01168 
158236000     306.6364    610.34832    323.95724   -107964.93     107979.1    286.39108     36.01088 
158240000    287.60194    384.75041    312.71533   -108018.43    108026.64    72.035088    36.012451 
158244000    293.69746     330.9878    293.96177   -108022.18    108033.65     37.02603    36.012032 
158248000     292.9781    398.11561    300.84347   -108065.52    108057.08    97.272137    36.012039 
158252000    292.44894    518.78202    293.93624   -108067.11    108096.94    224.84578    36.017007 
158256000     250.8559    329.74931    239.97947   -108066.37    108113.96    89.769847    36.011928 
158260000    270.94518    301.72349    332.88385   -108072.29    108108.36   -31.160364    36.014836 
158264000    289.43891    431.87931    271.13327   -108092.96    108113.41    160.74605    36.011013 
158268000    279.05545    235.88432    196.78392   -108115.72    108131.11    39.100404    36.007675 
158272000    268.03613    442.59708       149.03   -108127.59     108155.9    293.56708    36.008721 
158276000    276.58793    237.77227    274.46527   -108139.62    108175.19   -36.692996    36.014166 
158280000    287.74933    336.42238    331.93998   -108180.07    108195.37    4.4823989    36.012198 
158284000    305.38174    429.84614    361.27608   -108215.12    108218.14    68.570067    36.016524 
158288000    318.39983    409.38437    438.67769   -108217.52    108213.87   -29.293314    36.028195 
158292000    265.16439    355.37803     328.7228   -108212.32    108230.14    26.655233    36.026816 
158296000    275.88548    303.51513    365.10081   -108227.87    108244.88   -61.585674    36.023233 
158300000    266.64334    301.21375    406.48465   -108228.94    108253.28    -105.2709    36.019952 
158304000    300.74412    289.38515    320.46011   -108235.24    108257.19   -31.074957    36.018835 
158308000     249.5801    228.43539    325.61304   -108250.06    108293.33    -97.17765    36.026354 
158312000    272.85363    334.59179    278.62741   -108296.58    108312.42    55.964382    36.027802 
158316000    286.11495     490.2245     363.9019   -108338.55    108334.68     126.3226    36.029849 
158320000    275.33906    388.64782    252.10366   -108352.07     108374.6    136.54415     36.02936 
158324000    267.35212    249.12216    326.23421   -108373.35     108388.4   -77.112052    36.031228 
158328000    302.71208    401.79207    423.53454   -108388.93    108397.73   -21.742466    36.033348 
158332000    282.40767    452.10015    306.32114   -108391.91    108413.01    145.77901    36.034892 
158336000    296.84277    368.59838    363.83419   -108402.83    108421.08     4.764192    36.029388 
158340000    284.31071    344.06218    274.14248   -108431.81    108428.38    69.919706     36.03134 
158344000    273.46246    241.82223    202.47657   -108440.63    108467.62    39.345667    36.033268 
158348000     313.3558    310.25533      294.058   -108487.27    108488.14    16.197331    36.037785 
158352000    304.97822    255.53774    473.69607   -108499.91    108519.09   -218.15834    36.043126 
158356000    288.38788    366.35488    466.89623   -108510.63    108540.19   -100.54135    36.042059 
158360000    290.36434    302.63842    307.12133   -108524.42    108554.93   -4.4829181    36.041789 
158364000    289.50479    217.29161    278.77903   -108558.07    108570.25   -61.487419     36.03457 
158368000    281.78432    278.60805    268.15475   -108561.07     108566.6    10.453303    36.034395 
158372000    259.37824    217.54093    296.05243   -108572.04    108588.34   -78.511495    36.030686 
158376000    263.68669    329.18136    258.39397   -108570.52    108587.38    70.787385    36.027463 
158380000    292.86717    354.44583    285.54469   -108592.43    108601.49    68.901146    36.029186 
158384000    257.20992    152.88742    362.54949   -108614.29    108642.05   -209.66207    36.030991 
158388000    285.81877    213.78725    489.57244   -108636.66    108674.58    -275.7852    36.034215 
158392000    267.13498    228.60895    271.59856   -108656.59    108685.18   -42.989616     36.03772 
158396000    280.41143    321.72745    379.78836   -108693.75    108708.73   -58.060908    36.038162 
158400000    273.93974    234.68102     316.0501   -108707.18    108734.55   -81.369082    36.041287 
158404000    277.72761    412.66663    336.31558   -108732.59    108747.71     76.35105     36.03192 
158408000    283.31916    327.29945    291.25695   -108752.55    108757.71      36.0425    36.030601 
158412000    296.69514     253.8406    266.13792   -108761.91    108768.76   -12.297316    36.030143 
158416000    275.37699    377.03975    279.80895   -108788.78    108794.74      97.2308    36.023492 
158420000    311.46966    347.09895    434.78622   -108810.46    108808.36   -87.687267    36.027546 
158424000    296.88751    382.71428    497.38531   -108811.32    108826.62   -114.67103    36.030672 
158428000    320.00153    384.85196    382.46065   -108848.48    108831.05    2.3913087    36.033185 
158432000    273.02864    547.72567    341.16445   -108858.48    108879.23    206.56122    36.040058 
158436000     265.1399    402.47562     296.6071   -108881.28    108925.93    105.86852     36.03725 
158440000    265.04201    391.67916    236.10873   -108904.19    108942.94    155.57043    36.042113 
158444000     278.6179    467.81923    326.91433   -108918.66    108956.92     140.9049    36.046998 
158448000    251.13001    413.36464    236.24798   -108957.12    108988.89    177.11666    36.049649 
158452000    259.20992    222.00621    282.20831    -108981.3    109013.87   -60.202101    36.047772 
158456000    265.17173    333.48355    327.80053   -109014.72    109038.16    5.6830167     36.04942 
158460000    263.06949    241.09327    331.83454   -109038.97     109071.9   -90.741276    36.049221 
158464000    297.88568    549.22396    392.17875   -109083.07    109073.08    157.04521    36.053296 
158468000    268.61306    252.86619    370.25641   -109103.07    109114.11   -117.39022    36.053552 
158472000    297.00968    316.84577    233.25184   -109140.12    109138.83    83.593935    36.054568 
158476000    302.27525    281.98853    320.32825   -109149.47    109160.63   -38.339725    36.057754 
158480000     265.0654    442.97376     354.3538   -109163.45    109188.11    88.619957    36.052209 
158484000    261.20679     564.2763    420.89457   -109202.67    109237.17    143.38173    36.052848 
158488000    303.04569    302.91266    400.22019   -109237.86    109251.13   -97.307536      36.0481 
158492000     290.2325    336.45394    378.97435   -109244.33    109253.45   -42.520402    36.049268 
158496000    264.11583    377.19269    472.15067   -109240.22    109281.75   -94.957986    36.050408 
158500000     295.3897    262.85254    210.88413      -109248    109271.22    51.968413    36.043194 
158504000    271.47795    408.48622    274.36431   -109241.14    109273.02    134.12191    36.037161 
158508000    284.93334    294.95864     420.9358   -109234.89    109255.49   -125.97715    36.032238 
158512000    306.58888    395.46445    452.47958   -109253.79    109260.46   -57.015131    36.032782 
158516000    285.46226    356.87552    345.89297    -109270.1    109289.99    10.982543    36.034978 
158520000    281.15706    271.59455    285.08169   -109296.81    109305.53   -13.487148    36.033045 
158524000    278.54436    350.18112    290.81647   -109311.95    109346.65    59.364653    36.033608 
158528000    295.29821    502.65579    370.40492    -109356.6    109371.94    132.25087    36.037727 
158532000    312.34414    325.78789    218.37912   -109379.19    109381.69    107.40877    36.046619 
158536000    279.63398     285.2998    210.29581   -109396.18       109427    75.003989     36.04213 
158540000    291.46975    361.09223    248.41965   -109430.19    109440.39    112.67258    36.039004 
158544000    264.41149    482.65565    477.16605   -109450.36    109453.26     5.489602     36.03698 
158548000    303.55567    253.45929     327.2777   -109449.01    109460.91   -73.818404    36.028228 
158552000    303.86746    364.14471    228.68975   -109453.19    109459.95    135.45496    36.031581 
158556000    276.06207    299.88222    458.98145   -109465.79    109490.12   -159.09924    36.038288 
158560000    290.81768    627.98138    296.63972   -109504.97    109536.37    331.34166    36.035631 
158564000    265.80371    271.26902    219.02606   -109534.06    109571.29    52.242962     36.03584 
158568000    287.17486    266.41639    346.20015   -109584.08    109601.46    -79.78376    36.036088 
158572000    311.00719    286.67715    396.13921   -109620.88    109616.22   -109.46206    36.034495 
158576000    304.60485    292.30631    337.51354   -109654.58       109639   -45.207232    36.033698 
158580000     278.5378    449.82025    331.08151    -109688.9    109706.26    118.73874    36.036534 
158584000    263.21648    280.51705    268.37221   -109699.58    109731.43    12.144846    36.039646 
158588000    284.27325    382.14972    339.05652   -109735.74    109748.93     43.09319    36.036061 
158592000    281.82799    262.51922    281.05114   -109764.17    109789.09   -18.531915    36.041088 
158596000    297.77552    339.93281    280.90173   -109787.73    109813.59    59.031079    36.043924 
158600000    264.90584    518.10102     292.0809   -109806.35    109836.47    226.02012    36.047209 
158604000    286.13917    453.81083    420.97971   -109844.21    109857.71    32.831122    36.046425 
158608000    283.07197    478.81253     511.6035   -109849.93    109853.31   -32.790969     36.04227 
158612000    297.63426    469.24161    248.43598   -109888.11    109882.47    220.80563     36.04161 
158616000     298.7062    296.10856    248.44888    -109898.4    109904.54    47.659679    36.040537 
158620000    248.00014    370.47691    165.61419   -109897.08    109931.65    204.86272    36.040207 
158624000    304.44569    507.91011    373.47253   -109952.12    109956.62    134.43758    36.040322 
158628000    274.71461    352.19987    428.47553   -109941.46    109972.01   -76.275663    36.041854 
158632000    265.51304    313.76028    428.36228   -109963.82    109974.72     -114.602    36.043576 
158636000    305.75758    349.21481    261.45978   -109996.99    110013.02    87.755034    36.035119 
158640000    289.25881    345.77275    270.66626   -110043.99    110056.18    75.106495    36.028404 
158644000     285.2539    305.25559    157.40586   -110080.79     110081.7    147.84973    36.023379 
158648000    281.05974    345.72016    355.51157   -110078.86    110102.14   -9.7914115    36.029551 
158652000    285.63502    404.71925    218.42021   -110111.72    110142.72    186.29904    36.029526 
158656000    285.93879    359.37916     458.7473    -110134.1    110147.34   -99.368134    36.040369 
158660000    256.55045    266.74622    303.86416   -110155.62    110175.12    -37.11794    36.038095 
158664000    284.11362     559.1718    158.54556   -110221.27    110225.46    400.62625    36.041784 
158668000    275.36344    357.71438    313.54899   -110210.12    110227.41    44.165391    36.044199 
158672000    321.14065    500.85857    278.32604   -110269.76    110262.36    222.53253    36.041173 
158676000    255.04392     226.0675    190.93699   -110265.73    110313.07    35.130512     36.04298 
158680000     301.3221    345.46426    380.07019   -110290.33    110298.84   -34.605931     36.04174 
158684000    295.35795    475.51773    470.73962   -110325.11    110328.36     4.778106    36.041768 
158688000    273.22723    299.78783    260.99888   -110337.98    110367.16    38.788948    36.038477 
158692000    251.14298    309.10784    357.84922   -110370.47    110393.31   -48.741379    36.035753 
158696000    307.38557     313.1107    318.77491   -110415.28    110414.13   -5.6642105    36.034515 
158700000    287.90646    317.50488    284.16704   -110433.11     110442.7    33.337832    36.031919 
158704000    284.40215    439.35794    335.83964   -110431.38    110451.88     103.5183    36.033535 
158708000    287.20363    250.61333    351.48141   -110448.89    110467.13   -100.86808    36.036534 
158712000    287.13262    206.65577    408.16866   -110463.63     110481.5   -201.51288    36.037628 
158716000    259.18713    291.23151    269.88205   -110494.71    110524.56    21.349461    36.035406 
158720000    283.52737    272.57051    299.01994   -110533.44    110531.45   -26.449428    36.032845 
158724000    281.64142    265.89602    295.48888   -110541.86    110555.48   -29.592858    36.037397 
158728000    278.77471    224.13907    328.58584   -110538.24    110554.96   -104.44677    36.034034 
158732000    284.95562    244.42126    405.26638   -110543.44    110550.38   -160.84512    36.039692 
158736000    267.04986    221.53123    291.17319   -110551.03    110579.15   -69.641955    36.040691 
158740000    299.37433    434.52064    449.69652   -110600.87    110613.96   -15.175881    36.036268 
158744000    245.50204    350.16371    196.25911   -110625.47    110654.46     153.9046     36.03678 
158748000    337.82737    266.64675    267.07326   -110653.03    110640.88  -0.42651477    36.038448 
158752000    317.04902     380.4394    282.64059   -110672.27     110656.1    97.798812    36.039779 
158756000    302.23073    467.32394    330.79733    -110672.7    110683.98     136.5266    36.034864 
158760000    275.18457    183.93703    327.75222    -110663.1    110694.51   -143.81518    36.029883 
158764000     290.0661    380.84385     185.5924   -110693.53    110700.76    195.25146    36.035574 
158768000    294.54335    555.80366    351.70892   -110699.47    110716.95    204.09475    36.038347 
158772000    279.14127    550.57413    246.93986   -110734.94    110744.21    303.63427    36.039047 
158776000    300.40003    343.59916    406.16123    -110757.2       110755   -62.562071    36.035076 
158780000    280.88496     256.5629    298.97693   -110798.29    110821.77   -42.414033    36.038359 
158784000    316.39106    323.05835    317.38104   -110844.65       110842    5.6773115    36.039828 
158788000    303.53856    512.96145    304.53964   -110850.91    110860.59    208.42181    36.042754 
158792000    294.12086    410.56564    304.05553   -110853.28    110851.42    106.51011    36.045725 
158796000    279.95833    330.90812    243.70445   -110865.61    110884.47    87.203673    36.047163 
158800000    309.42699    328.04386    160.16362   -110905.27    110902.63    167.88024    36.047125 
158804000    273.80354    289.88116    390.63579   -110922.23    110943.29   -100.75463    36.045784 
158808000     268.5813    260.08302    337.91098   -110940.92    110963.13   -77.827964    36.040727 
158812000     279.6302    493.99367    326.39648   -110966.39    110976.71    167.59719    36.041119 
158816000    304.04638    488.81801    399.46394   -110962.45    110982.46    89.354064    36.044619 
158820000    298.44424    216.34505    362.66957   -110970.01    110996.35   -146.32452    36.038115 
158824000    305.08792    354.78254    292.19597   -111013.01    111016.33    62.586576    36.039382 
158828000    294.58175    300.67834    279.24508   -111040.43    111057.99    21.433255    36.039781 
158832000    296.46409     204.7625    496.60051   -111099.86     111109.6   -291.83802    36.031735 
158836000    287.17143    403.07426    360.69082   -111135.53    111128.03    42.383439     36.03138 
158840000    287.85209    536.57499    419.60713   -111143.63     111151.9    116.96787    36.032186 
158844000    304.49712     278.0663    363.75795   -111145.42    111151.52   -85.691651    36.028407 
158848000    278.60985    225.91633    220.04662   -111146.85    111164.19    5.8697125    36.027667 
158852000    281.17117    435.69384    485.99504   -111157.32    111165.92   -50.301203    36.025632 
158856000    282.87905    465.97101    335.24435    -111161.4    111173.86    130.72667    36.021411 
158860000    258.13449    300.93486    327.02492   -111164.26    111190.88   -26.090059    36.019695 
158864000    301.00263    381.06787     269.3886   -111178.26    111181.24    111.67927    36.020557 
158868000    273.61555    506.85936    393.02888   -111178.13    111205.52    113.83048     36.02188 
158872000    278.01002    341.86801    341.72965   -111215.72    111213.02    0.1383591    36.019716 
158876000    274.78668    272.09708    318.59784   -111226.37    111236.47   -46.500762    36.012667 
158880000    291.07084    435.23096     362.4215   -111243.76    111266.85    72.809455    36.008814 
158884000    312.58079    269.87411    604.74925   -111254.43    111243.54   -334.87515    36.011523 
158888000    307.30167    180.34714    380.43688   -111251.52    111260.35   -200.08973    36.010126 
158892000    274.72001    238.18588    369.36928   -111263.85    111275.51   -131.18339    36.013782 
158896000    285.76647    402.72374    460.56443   -111282.14    111297.04   -57.840688    36.013701 
158900000    296.87864    446.87824    335.14106   -111306.06    111308.59    111.73718    36.013171 
158904000    272.60613    328.38117     262.4084   -111316.76    111343.36    65.972767    36.011195 
158908000    274.45644    439.36147    405.70117   -111331.04    111358.18    33.660302    36.018708 
158912000    258.89844    289.15648     196.2502   -111349.37    111377.31     92.90628    36.021281 
158916000    300.43171    417.63463    234.21271   -111391.27    111393.48    183.42192    36.024307 
158920000    269.42297    255.32318    375.18927   -111400.46       111419   -119.86609    36.025269 
158924000     289.2571    392.50889    462.05385   -111417.82    111436.65   -69.544962    36.016328 
158928000    307.94782    332.60153    567.24998   -111454.52    111452.11   -234.64845    36.020929 
158932000    276.45365    534.92672    281.75045   -111468.14     111489.3    253.17627    36.022479 
158936000    286.36913    439.46536    206.34631   -111489.02    111505.55    233.11905    36.021719 
158940000    287.24159    328.79408    225.27622   -111495.28    111523.18    103.51786    36.022216 
158944000    281.55047    391.37311    292.16455   -111519.18    111549.72    99.208566    36.022837 
158948000    279.65089    212.52064    259.34952   -111533.53    111539.12   -46.828875    36.022013 
158952000    314.11367     277.3549    216.25238   -111567.77    111556.04    61.102521    36.024685 
158956000    266.99379    228.44455    424.00882    -111582.3    111597.98   -195.56427    36.022722 
158960000    289.96869    302.28433    378.22729   -111599.75    111622.11   -75.942966    36.022375 
158964000    281.91105    339.82779    327.21883   -111630.52     111637.1    12.608956    36.019677 
158968000    276.52677    332.44682     213.2954   -111666.68    111674.16    119.15142    36.020122 
158972000    319.70335    413.88496    459.75031    -111688.4    111683.41   -45.865347    36.024672 
158976000    311.05173    244.31738    286.93726   -111713.04    111724.41   -42.619876    36.026224 
158980000    280.89484    269.78184    218.17611      -111734    111771.38    51.605727    36.023506 
158984000    291.82591    311.52908    376.59372    -111777.5    111781.47   -65.064634    36.018214 
158988000    268.44711    342.04148    289.24953   -111789.32    111811.93    52.791948    36.013574 
158992000    328.62009    327.96123    320.64516   -111824.59    111825.05    7.3160774    36.011649 
158996000    280.62489    286.59296    509.26813   -111830.69    111844.09   -222.67517     36.00837 
159000000    284.78473    281.87446    215.53342    -111859.7    111876.93    66.341032    36.008624 
159004000    317.83589    568.28042    380.73059    -111888.4    111886.85    187.54982    36.001531 
159008000    278.14908    265.82999    284.15054   -111905.82       111914   -18.320556    35.999977 
159012000    244.36069    205.43301    95.565564   -111907.73    111943.54    109.86744    35.996064 
159016000    295.09168    314.10814    386.43524   -111932.88    111938.81   -72.327105    35.995452 
159020000    305.54542    406.82597    164.86671   -111957.82    111966.72    241.95926    36.004727 
159024000    270.79936    317.39487    418.91961   -111998.38    112006.36   -101.52474    36.007867 
159028000    282.08449    464.83985    282.59545   -112026.07    112033.13     182.2444    36.005006 
159032000    285.87315    228.87277    305.22524    -112022.5    112047.34   -76.352469    36.002867 
159036000     282.1279    306.51507    361.23024   -112027.75    112046.02   -54.715162    36.002057 
159040000    286.08053     281.0655    374.17014   -112050.97    112050.36   -93.104636    36.000444 
159044000     293.0242    414.20505    217.57289   -112070.98    112084.86    196.63216    35.998442 
159048000     287.5873     205.5262    367.67622   -112083.55    112121.99   -162.15002    36.002046 
159052000    270.28074    183.86824    367.16368   -112102.71    112144.31   -183.29544    35.995926 
159056000     251.0823    445.02322    224.96563   -112140.96    112174.46    220.05759    35.994326 
159060000    282.82103    244.74135    352.80137   -112136.83    112159.48   -108.06002     35.99164 
159064000    292.31916    536.67568    402.53687   -112153.39    112149.77    134.13881    35.989313 
159068000    284.41366    322.39386    502.48074   -112157.62    112179.09   -180.08688    35.986965 
159072000    320.15866    402.37247    562.15696   -112182.81    112191.64   -159.78449    35.993659 
159076000    289.06348    466.71182     317.8891   -112191.72    112198.58    148.82272    35.993388 
159080000    265.02659    313.57261    379.04714   -112186.28    112227.12   -65.474528    35.998441 
159084000     292.4671    358.85678    355.44706   -112220.31     112234.5     3.409714    35.994824 
159088000    278.92224    550.43263    241.02253   -112229.59    112253.72     309.4101    35.996728 
159092000    248.03593    189.14989    339.29597   -112237.19    112280.51   -150.14609    35.999873 
159096000    272.95623    364.81246    404.54037   -112262.92    112288.12    -39.72791    35.999341 
159100000    272.29248    267.82737    256.57057   -112242.16    112275.67    11.256798    36.002216 
159104000    270.69558    216.56636    252.31268   -112257.43    112288.45   -35.746315    36.005778 
159108000    291.71107    457.98809    427.22316   -112284.58    112293.56    30.764929    36.004196 
159112000    296.85578    330.79966    531.69552   -112293.33    112314.22   -200.89586    36.005973 
159116000     299.3755    572.81243    383.83418   -112326.27    112350.77    188.97826    36.007773 
159120000    264.90071    418.88572    261.00237   -112356.58    112382.31    157.88335    36.004993 
159124000    332.12139    344.20019    534.44147   -112402.24    112386.28   -190.24129    36.001293 
159128000    304.29169    298.57949    267.55378   -112419.46     112426.3    31.025707    36.004612 
159132000    307.49188    587.33075    375.76004   -112436.63    112429.03    211.57071    35.997297 
159136000     284.5693    270.89706    230.58996   -112433.84    112454.13    40.307093    36.005917 
159140000    307.39701    395.61163    167.21189   -112473.59    112450.32    228.39975    36.008273 
159144000    290.83435    265.13806    409.55957   -112468.92     112482.5   -144.42151    36.004539 
159148000    279.62322    430.17325    166.70043   -112495.71    112517.86    263.47283    36.004548 
159152000    263.49585    386.00816    263.98398   -112493.92    112530.65    122.02417    36.001759 
159156000    294.59598    185.63615    314.55089   -112520.81    112518.88   -128.91474     36.00375 
159160000    293.62465    362.80769    313.72654   -112537.32    112552.68    49.081148    36.001507 
159164000    328.49477    481.96218    540.42142   -112563.43    112557.71   -58.459244    35.998102 
159168000    306.14095    469.01341    314.15371   -112583.26    112572.86     154.8597    36.000392 
159172000    314.05721    302.88861    289.75476   -112602.03    112601.03    13.133847    35.996948 
159176000    273.97335    346.74851    301.08221   -112617.77     112633.8    45.666298    35.998307 
159180000    300.44763    418.19736    429.91346   -112641.44    112662.97   -11.716099    35.993429 
159184000    274.64304    320.27134    521.87154   -112659.86    112671.29    -201.6002    35.990089 
159188000    276.06316    246.98897    277.28522   -112636.36    112675.97   -30.296246    35.991271 
159192000    267.82831    261.07223    305.53236   -112652.95     112691.6   -44.460133    35.994629 
159196000    262.89008    431.30963    252.22255   -112678.28    112701.93    179.08709    35.989718 
159200000    309.74785     298.4272    334.65073   -112711.99    112712.25   -36.223535    35.994848 
159204000    250.26264    186.73683    344.85308   -112717.14    112748.92   -158.11625    36.000176 
159208000    273.22866    412.31343    211.36841   -112726.98    112757.72    200.94502    36.002868 
159212000    298.74691    476.66205    512.71699    -112765.1    112769.02   -36.054939    35.996418 
159216000    311.52993    302.83766    309.92946   -112789.98    112800.51   -7.0918035    35.998795 
159220000    328.05157    253.35412    334.04288   -112808.83    112806.44   -80.688758    35.994775 
159224000    301.29973    384.79846    559.23551   -112814.29    112817.72   -174.43705    35.989595 
159228000    287.54806    508.77965    243.32388   -112851.18    112852.05    265.45576    35.982525 
159232000    306.01321    551.97112    155.22124    -112862.2    112859.46    396.74988     35.98781 
159236000    299.04976    415.18244    259.40146   -112854.47    112874.16    155.78099      35.9931 
159240000    269.79523    422.68979    415.78832   -112871.53    112891.49    6.9014637    35.994914 
159244000    283.46449    303.89156     346.5535   -112882.13    112895.75    -42.66194    35.994865 
159248000    326.11485    354.15263    395.97754   -112889.52    112887.16   -41.824906    36.002345 
159252000    293.93118    95.499393    323.70688   -112903.76    112912.68   -228.20749    35.997837 
159256000    271.49713    398.07331     395.8461   -112900.18    112946.28    2.2272042    35.998828 
159260000    306.90603    453.65435    410.85817   -112934.28    112937.49    42.796181    35.992315 
159264000    284.64484    379.69264    375.65922   -112952.42    112965.85    4.0334137    35.992088 
159268000    290.01475    250.62933    282.97752   -113000.97    113006.54   -32.348188    35.989398 
159272000    291.51275    444.17096    232.48144   -113014.89    113020.85    211.68952    35.994824 
159276000    259.48998    302.29225    317.24721   -113011.62    113035.04    -14.95496    35.993493 
159280000    262.99222    386.78094    173.79852   -113024.15    113057.73    212.98242    35.995604 
159284000    268.36132    449.36685    286.48563   -113043.36    113064.36    162.88122    36.000689 
159288000    273.12736    431.73074    364.20317   -113051.27    113083.43    67.527567    35.998832 
159292000    269.02297     369.6473    406.15087    -113053.2    113093.96   -36.503569    35.995665 
159296000    258.28533    386.41282    373.30518   -113076.33    113119.02    13.107633    35.989554 
159300000    285.35605    498.81108    302.06137   -113099.99       113106    196.74971    35.992485 
159304000    287.51063    309.24254    328.62163   -113096.29    113113.81   -19.379084     35.99007 
159308000    309.46769    504.14584     225.0703   -113131.05    113158.65    279.07555     35.99775 
159312000    278.43168    253.81597    313.34265   -113156.79    113172.35   -59.526687    35.992456 
159316000    253.87727    350.38994    250.59047   -113174.03    113197.47    99.799473    35.992452 
159320000    273.96247    282.87683    348.18637   -113195.78    113217.97   -65.309537     35.98668 
159324000    281.20085    250.41266    367.97222   -113246.83    113261.83   -117.55956    35.985468 
159328000     284.2078    302.98453    344.09882   -113276.46     113285.2   -41.114286    35.981269 
159332000     294.3989    538.23496    280.53567   -113299.47    113312.42    257.69929     35.98734 
159336000    276.84928    238.81175    267.40675   -113310.49    113320.72   -28.595001    35.986008 
159340000    263.62901    386.45196     316.1734   -113320.62    113361.19    70.278559     35.98674 
159344000     265.4331    372.71672    262.60458   -113382.58    113414.63    110.11214    35.987293 
159348000    292.62554    273.51047    219.43063   -113412.15    113420.03    54.079841    35.983497 
159352000    289.39633    448.13485    333.42692   -113432.88    113460.71    114.70793    35.981074 
159356000    265.53765    417.71552    267.09149   -113413.92    113463.99    150.62404    35.989172 
159360000    250.02066    276.67806    353.80038   -113442.03    113471.35   -77.122318    35.976466 
159364000    273.08577    363.87367    334.00355   -113474.32    113491.53    29.870121    35.974074 
159368000    318.11237    333.88448    438.84798   -113524.78    113509.89    -104.9635    35.972479 
159372000    293.58078    282.87031    234.58976   -113533.76    113532.75    48.280548    35.969245 
159376000    281.15916    403.32303     365.8502   -113548.28    113577.73    37.472837      35.9646 
159380000    271.31987    194.84033    380.97358   -113599.01    113624.62   -186.13324    35.958494 
159384000    276.12098    234.78679    247.28999   -113597.39    113617.66   -12.503194     35.95784 
159388000    265.53495    523.21512    543.33789   -113605.45    113636.22   -20.122763    35.958787 
159392000    274.10735     410.1328    385.74259   -113612.29    113638.35     24.39021    35.958198 
159396000     282.0282    168.00697    305.16946   -113637.53    113657.77   -137.16249     35.96145 
159400000     273.6762    346.03871    410.24608    -113655.6    113686.03   -64.207372    35.964428 
159404000    294.59058    310.45765    394.45784   -113698.16    113723.87   -84.000191    35.967769 
159408000    256.85519    294.84048    226.13632   -113733.54    113775.26    68.704156    35.972046 
159412000    276.49225    276.70063    311.80079   -113764.27    113785.09   -35.100155    35.970162 
159416000    271.84821    618.13078    281.49858   -113773.14    113785.17     336.6322    35.973296 
159420000    319.32154    385.18314    601.31274   -113788.47    113784.21    -216.1296    35.974247 
159424000    283.29132    353.25311    259.09984   -113785.79    113800.32    94.153266    35.977177 
159428000    267.08076    241.42708    205.86036   -113802.27    113820.26    35.566722    35.972834 
159432000    289.48603    128.93854     347.1668   -113815.41    113826.78   -218.22826     35.97532 
159436000    283.11273    244.30716    375.70181   -113869.53    113874.44   -131.39464    35.973624 
159440000    279.55579    351.55277    239.76729   -113890.42     113915.9    111.78548    35.969467 
159444000    274.33023    319.41164    230.54547   -113897.11    113919.26    88.866167    35.970468 
159448000    310.14293     229.5024    244.19855   -113905.46     113909.6   -14.696147     35.96605 
159452000    274.11699    405.18382    484.57071   -113925.56    113939.33   -79.386892    35.960987 
159456000    272.87148    230.29352    282.44525   -113948.94    113984.37   -52.151729      35.9642 
159460000    295.20687    318.21898     347.2363   -113980.45    113989.56   -29.017321    35.967257 
159464000    297.32169    412.54928    323.99087   -114014.74    114003.06    88.558408    35.973175 
159468000    265.43463    209.98464    430.42936   -114009.06    114030.53   -220.44472    35.973136 
159472000    267.31238    328.36221    217.62966   -114008.08    114029.82    110.73256    35.972618 
159476000    266.75743    240.61944    390.71856   -114028.27       114066   -150.09912    35.970369 
159480000    291.34433    210.86079    371.59517   -114081.37    114090.91   -160.73439    35.967871 
159484000    280.47717    445.15541    165.88769   -114104.31     114128.5    279.26773    35.964667 
159488000    299.64661    496.01262    459.92813   -114114.02    114129.79    36.084486    35.962932 
159492000     272.2067    220.18567    295.66653   -114101.78    114125.32   -75.480862    35.966506 
159496000    283.16604    265.62221    341.32864   -114114.59    114130.19   -75.706426    35.966783 
159500000    268.30274    230.40134    200.71613    -114117.8     114140.5    29.685201    35.974816 
159504000    276.45146    264.32592     251.9628   -114143.18    114162.68    12.363115    35.979171 
159508000    289.10237    226.27738    263.60848   -114146.46    114166.18   -37.331095    35.985027 
159512000    292.44946    465.77767    279.80489   -114190.55    114201.69    185.97278     35.98241 
159516000    290.85351    294.36057    452.45465   -114184.31       114205   -158.09408    35.989214 
159520000    294.18235    347.25632    201.79311   -114191.08    114213.96    145.46322    35.991361 
159524000    293.29987    290.61531    366.72986   -114214.26    114215.52   -76.114551    35.986275 
159528000    267.44919      297.141    229.35272   -114211.51    114233.88    67.788275    35.990398 
159532000    289.08002    297.84977    193.12839   -114229.55    114248.54    104.72138    35.985042 
159536000      312.237    561.77994    441.92468   -114248.47    114266.84    119.85526    35.982712 
159540000    273.11732    420.21001    313.27305   -114266.92    114289.24    106.93696    35.987816 
159544000      274.595    369.36429    201.10559   -114278.37    114287.54     168.2587    35.987248 
159548000    277.19166    306.46927    478.10839    -114299.8    114302.37   -171.63912    35.982498 
159552000    289.11031    502.35596    332.53877   -114309.64    114334.52    169.81719    35.986147 
159556000    272.64604       298.25    201.05535    -114302.2    114347.93    97.194652    35.989179 
159560000    301.47003    471.52795    370.24669   -114332.27    114337.24    101.28125    35.992045 
159564000    311.70527    395.96562     430.5399   -114322.07    114327.54   -34.574273     35.98636 
159568000    301.90866    543.98142    266.42874   -114322.02    114332.49    277.55268    35.996073 
159572000    304.20432    354.55874    301.38175   -114335.35    114358.76    53.176982    35.994129 
159576000    273.89429    409.71614    315.63251   -114353.43    114391.13    94.083635    35.994481 
159580000    256.86512    262.94902    364.90556   -114369.65    114401.12   -101.95654    35.992171 
159584000    318.12198    525.73635    382.72612   -114397.67    114418.78    143.01023    35.990503 
159588000    283.64631    446.50909    279.93617   -114413.07    114446.88    166.57292    35.989095 
159592000    263.18972    456.71303    347.86267   -114429.06    114467.02    108.85036    35.981777 
159596000    282.28492    379.12829    311.17278    -114433.3    114450.38    67.955504    35.983506 
159600000    278.41072     257.5181    434.48099   -114462.49     114484.9    -176.9629    35.979163 
159604000    290.10387    516.46031    571.60198   -114469.88    114495.51   -55.141669    35.982995 
159608000    295.95691     231.4802    322.47561   -114481.46    114494.89   -90.995419    35.984306 
159612000    274.52703    325.45142    374.44185   -114492.93    114521.68    -48.99043    35.986332 
159616000    267.09556     318.0723    467.53366   -114506.94    114535.66   -149.46136    35.984753 
159620000    296.29912    524.18021    253.56432    -114530.8    114538.98    270.61588    35.982604 
159624000     274.6734     239.2351    517.56882   -114542.84    114573.72   -278.33372    35.978562 
159628000    286.38573    194.12541    228.31068   -114571.31    114577.52   -34.185272    35.970545 
159632000    310.29705    358.60229    303.09831   -114587.92    114602.07    55.503974    35.970674 
159636000    270.57813    541.51006    310.58559    -114611.2    114624.33    230.92448    35.973591 
159640000    283.23409    404.09347    258.41972   -114636.05    114648.43    145.67375    35.975688 
159644000    277.65365    326.23253    367.07484    -114659.6    114668.99    -40.84231    35.978546 
159648000    300.58939    426.62318    217.90993   -114681.33    114709.02    208.71325    35.978136 
159652000    285.87386    312.28571    246.22817   -114707.92    114728.98    66.057539    35.973563 
159656000    301.40733    407.33559     213.1349   -114735.88    114740.52     194.2007    35.972211 
159660000     290.3308    434.95536    346.66436   -114749.91    114763.87       88.291    35.979587 
159664000    281.25377    280.49236    327.39649   -114769.98    114791.16   -46.904139    35.974799 
159668000    300.87869    403.82163    346.73924    -114790.9    114798.96    57.082392    35.981633 
159672000    318.44694    364.94906    360.70891    -114820.5    114820.24    4.2401502    35.988154 
159676000     289.0281    419.04058    432.35389    -114834.1    114840.43   -13.313301    35.989542 
159680000    317.22631     395.2802    523.05127   -114851.11    114848.59   -127.77106     35.98573 
159684000    271.76191     311.3226    134.71456   -114861.58    114888.36    176.60804    35.980578 
159688000    281.42613    274.72138    163.71465   -114881.14    114883.83    111.00674    35.982264 
159692000    281.70868    335.03113    599.56856   -114893.63    114903.77   -264.53744    35.983899 
159696000    270.83815    287.59395    212.82814   -114878.39    114905.78    74.765814    35.986828 
159700000    265.40286      265.475    351.07817   -114926.07    114952.94   -85.603169     35.98313 
159704000      268.027    516.48521    237.86949   -114929.01    114971.77    278.61572    35.985146 
159708000    269.99454    223.47839    392.50139   -114959.17    114983.21     -169.023    35.979342 
159712000    272.75341    342.74092    367.41939   -114989.97     114995.1   -24.678474    35.974413 
159716000    269.23888    212.45711    250.40182    -115013.5    115036.05   -37.944707    35.976521 
159720000    314.91628    448.02548    306.22302   -115072.51    115054.23    141.80246    35.983073 
159724000    326.23329     353.3372    327.07524   -115092.17    115075.13    26.261961    35.978181 
159728000    283.90905    439.79098    232.38862   -115096.61    115118.37    207.40236    35.980513 
159732000    296.98417    422.67389    350.97007   -115129.07    115134.78    71.703819    35.987997 
159736000    303.51053     472.2814    467.56943   -115133.34    115143.07    4.7119684    35.995093 
159740000     237.2583    353.61727    257.09947   -115104.89    115167.51    96.517797    35.995266 
159744000    278.08334    495.43522    215.17069   -115127.38     115158.4    280.26452    35.997606 
159748000    274.66057    292.52336    375.64744   -115134.54    115155.74   -83.124078    36.001786 
159752000    244.52332       143.32    393.97716   -115140.24    115158.99   -250.65716    35.998343 
159756000    265.61744    182.49972    208.55894   -115146.13    115183.45   -26.059218    35.994044 
159760000    264.38411    446.56913    269.38668   -115158.79     115204.4    177.18245    35.997228 
159764000    259.87968    278.93972    239.16727   -115184.61    115216.85    39.772449    35.992409 
159768000    271.28193    291.25181    222.33831   -115170.92    115213.46    68.913501    35.996384 
159772000    279.41897    316.74939    326.76854   -115205.95    115219.85   -10.019149    36.001253 
159776000    285.17811    375.22114    262.35542   -115225.89    115249.22    112.86572    36.002525 
159780000     273.7491    343.84959    158.34805   -115241.45     115266.5    185.50154    35.999595 
159784000    287.29202    361.57796    275.54267    -115270.2    115286.72    86.035297    35.999445 
159788000    287.73828    677.39786    426.47267   -115283.45    115296.99    250.92519    35.998641 
159792000     287.1337    503.88497    353.30491   -115305.44    115315.47    150.58006    36.002339 
159796000    257.84327    321.51151     275.3379   -115318.83    115349.16    46.173617    36.006632 
159800000    261.65581    226.24391    205.82745   -115337.86    115371.79    20.416464    36.010877 
159804000    261.77332    544.46193    253.11096   -115334.68    115384.02    291.35097    36.014723 
159808000    279.78916    222.54438    324.84624   -115387.04    115396.51   -102.30185    36.016402 
159812000    288.48844    358.08976    330.65071   -115396.62    115406.07    27.439052    36.015197 
159816000    307.54399    624.15738    422.45401   -115407.23    115413.81    201.70337    36.012984 
159820000    281.14961    358.86994    388.90287   -115415.18    115430.09   -30.032932    36.016799 
159824000    297.78321    531.02439    354.17744   -115431.01    115441.86    176.84695    36.016414 
159828000    289.44438     335.6302    366.97035   -115442.89    115474.66    -31.34015    36.011933 
159832000    275.39367    562.47389    356.25697   -115467.18    115486.02    206.21692    36.014584 
159836000    299.85644    378.86233    394.89777   -115498.08    115511.99   -16.035437    36.013861 
159840000    252.71985    420.53113     371.3382   -115522.29    115556.86    49.192931    36.011628 
159844000     294.5018     277.6947     275.1999   -115533.53       115547    2.4948008    36.011231 
159848000     282.7266    352.82869    156.63174      -115546    115572.36    196.19695    36.017731 
159852000    242.53066    280.33201    288.10423   -115571.69     115600.5    -7.772216    36.022752 
159856000    282.24655    359.10502    271.53006   -115577.89    115603.05    87.574965    36.026106 
159860000    277.57705    367.53535    401.34267   -115583.06     115606.1   -33.807313    36.022945 
159864000    305.85505    464.93323    404.68276   -115618.28    115637.11    60.250466    36.027157 
159868000     291.9831    305.64095    341.20977   -115620.42    115651.93   -35.568822    36.027609 
159872000     299.2571    395.66856    385.38555   -115657.97    115664.94    10.283006    36.030117 
159876000    279.05905    386.79055    325.17925   -115664.99    115699.69    61.611307    36.031219 
159880000    261.26606    225.06698    324.79087   -115672.33    115702.28   -99.723888    36.029726 
159884000    280.26671    370.84178    475.89849   -115673.31     115717.8   -105.05672    36.027107 
159888000    267.24985    195.77114    238.33367   -115712.66    115757.83   -42.562529    36.028395 
159892000    277.58579    388.83911    280.59141   -115734.02    115758.51     108.2477    36.028355 
159896000    253.07207     268.7263    233.88366   -115741.88    115778.48    34.842636    36.031936 
159900000    286.44593     340.2365    310.20961   -115770.12    115787.43    30.026894    36.027477 
159904000    256.06981    320.66498    246.78582   -115782.78    115807.95    73.879164    36.026123 
159908000    295.03786    256.34087    388.81884   -115809.26    115836.18   -132.47797    36.023466 
159912000    287.84978    382.99102    330.01303   -115813.72    115839.04    52.977994    36.025662 
159916000    278.61903    361.43474    246.27994   -115827.84    115833.91     115.1548    36.026676 
159920000     279.1365    477.17595      401.314   -115823.17    115834.21    75.861946    36.030779 
159924000     269.9178    411.01951    308.17517   -115830.48    115871.76    102.84434     36.03291 
159928000    293.64618    446.87194    242.14653   -115858.49    115877.42    204.72542    36.035567 
159932000    300.45575    373.07035    378.36568   -115888.77    115893.75   -5.2953248    36.034571 
159936000    290.23795    383.79617    333.83022   -115921.54    115929.67     49.96595    36.037495 
159940000    305.97962    413.25149    275.82408   -115926.16    115929.25     137.4274    36.043141 
159944000    292.83072    351.76857    258.89506   -115926.99    115947.84    92.873509     36.04363 
159948000    288.37836    438.45348    224.92513    -115967.3    115974.05    213.52834    36.043994 
159952000    302.80779    375.98429    197.60737   -115993.23    116015.02    178.37692    36.049083 
159956000    244.87314    369.06993    177.98159   -115989.38    116044.56    191.08833    36.048537 
159960000    272.59256    503.11454    224.25979   -116015.41    116039.68    278.85476    36.049764 
159964000     314.9753     365.1077    390.27192   -116066.28    116070.03    -25.16422    36.056224 
159968000    295.31615     354.6251    447.38053    -116100.5    116083.71   -92.755428    36.051898 
159972000    274.48193    418.50599    270.53854   -116077.07    116107.46    147.96746    36.053059 
159976000    285.13966    390.82669    258.51452   -116122.61    116141.93    132.31217    36.045215 
159980000    292.09194    264.48186    396.26092   -116150.91    116170.49   -131.77905     36.04713 
159984000    282.39859    247.20534    431.64913   -116181.33    116188.36   -184.44379    36.041295 
159988000    291.02404     316.1544    283.77994      -116189    116199.58    32.374463    36.034312 
159992000    269.23803    228.60477    362.77014   -116190.75    116202.32   -134.16537    36.030218 
159996000     264.8739    302.30985     354.8297   -116193.85    116232.34   -52.519845    36.028432 
160000000    283.65255    475.66327     204.1481    -116217.6     116237.9    271.51517    36.030898 
160004000    289.98937    271.60934    408.17203    -116228.5    116248.68   -136.56269    36.034174 
160008000    281.19498    411.52081    420.09803   -116249.75    116278.78   -8.5772167    36.029985 
160012000    285.60084    396.21054    253.69135   -116285.35    116309.51    142.51919    36.026255 
160016000    300.75839    388.19455    283.62657   -116317.48    116335.33    104.56799    36.025994 
160020000    264.97082    230.56056    410.17495   -116311.07    116339.44   -179.61439    36.031733 
160024000    283.70642    356.03963    365.42347   -116340.53    116345.39   -9.3838379    36.034254 
160028000    287.57096    412.59114    393.90297    -116321.6    116349.98    18.688168    36.036893 
160032000    293.05533     395.3584    338.80529   -116333.96    116349.65    56.553115    36.038844 
160036000    263.42487    257.38899    212.40457   -116332.52    116374.53    44.984423    36.041558 
160040000     310.2438    505.88185    333.82692   -116397.65    116390.91    172.05493    36.045974 
160044000    266.55063    373.27635    338.42209   -116415.66    116441.18    34.854255    36.041537 
160048000    274.19161    252.14794    239.82052    -116460.2    116482.87    12.327418    36.034244 
160052000    269.35626    427.40616    385.69048   -116496.73     116516.1    41.715679    36.029884 
160056000    283.06043    299.59491    308.56059   -116509.42    116513.98   -8.9656824    36.028284 
160060000    272.67869    210.17762    359.14451   -116487.74     116525.2   -148.96689    36.034551 
160064000     282.3643    433.94241    384.52041   -116519.64    116536.53       49.422    36.040055 
160068000    300.04972    529.62612    479.62253   -116545.48    116560.62    50.003591    36.036646 
160072000    288.98287    152.91497    413.29318   -116578.53    116584.76   -260.37821    36.038646 
160076000    300.74488    380.75749    327.89906   -116599.59     116614.1    52.858429    36.038754 
160080000    273.08381    252.16835    245.79654   -116609.93    116626.82    6.3718095    36.034643 
160084000      306.896    348.34346    250.08429   -116615.76    116611.95    98.259172    36.033489 
160088000    327.44894    272.68036    435.98356   -116623.14    116616.98   -163.30319    36.033638 
160092000     270.1558    471.34109    361.78327   -116634.84    116647.25    109.55782    36.035612 
160096000    294.42884    449.09551    422.07229    -116651.2    116649.93    27.023223    36.032569 
160100000    279.42737    219.11718    317.58113   -116661.21     116686.4   -98.463951    36.026796 
160104000    272.45105    306.68043    444.72355   -116690.69    116726.76   -138.04313    36.021919 
160108000    273.42011    386.77753    350.23405   -116737.53    116764.86    36.543483    36.019829 
160112000     295.8208    231.16878    324.36642      -116762    116772.58   -93.197638     36.01977 
160116000    283.91268    397.56028    312.07506   -116769.99    116802.51     85.48522    36.015431 
160120000     305.0457    400.23756    211.21767    -116821.7    116831.39    189.01989    36.021631 
160124000    277.50778    360.32907     308.4353   -116843.33    116872.29    51.893766    36.018132 
160128000    253.83314    302.77685    211.35664   -116864.25    116894.31    91.420212    36.023888 
160132000     275.8187    383.78585    194.67796   -116873.07    116898.44    189.10789    36.024101 
160136000    274.38082    423.39529    152.66751   -116885.65    116927.08    270.72778     36.02906 
160140000    294.89792    399.25256    358.11601   -116903.16    116924.78    41.136549    36.026644 
160144000    317.67627    215.31267    568.53343   -116919.19    116927.71   -353.22076    36.027024 
160148000    278.70649     193.7137    389.25873   -116948.11    116973.59   -195.54502    36.029478 
160152000    292.17095    488.03833    208.26012   -116983.68    117004.98    279.77822    36.030765 
160156000    300.02117    232.83698    323.12232   -117004.64    117021.57   -90.285338    36.031685 
160160000    289.93268    348.42428    446.81363   -117043.63    117050.06   -98.389344    36.030909 
160164000    305.97503    419.47555    255.46929   -117067.35    117052.46    164.00625    36.039874 
160168000    279.66279    228.75362    275.02992   -117071.55    117082.97   -46.276297    36.045328 
160172000    284.92928    303.11654    344.16107   -117098.49     117110.3   -41.044526    36.047765 
160176000    290.62279    321.57997    185.35136   -117106.03    117107.68    136.22861    36.053062 
160180000    261.24958    219.62699    427.30648   -117089.58    117118.72    -207.6795    36.050216 
160184000    303.72613    312.33109    484.53993   -117103.89    117107.91   -172.20884    36.045618 
160188000    289.68243    263.36629    448.05857   -117112.66    117127.47   -184.69228    36.044421 
160192000    277.24294    220.47338    398.30094   -117110.61    117142.01   -177.82756    36.043116 
160196000    299.30278    319.68365    359.23656   -117136.96    117148.47   -39.552909    36.041622 
160200000    275.34082    209.33576    249.88238   -117144.12    117172.45   -40.546626    36.045417 
160204000    255.43789    340.16052    320.05457   -117164.87    117199.63    20.105948    36.045314 
160208000    299.82123    334.45957     474.4528   -117204.85    117217.78   -139.99322    36.038343 
160212000    283.99293    185.16451    466.49629   -117239.15    117264.34   -281.33178    36.037823 
160216000    246.81742    178.05183    388.27435   -117244.44    117279.58   -210.22252    36.033459 
160220000     297.3197    391.14981     428.0572   -117289.15    117301.77   -36.907389    36.032471 
160224000    256.73505    254.64899    444.10526   -117301.73    117319.19   -189.45627    36.028967 
160228000    283.79444    419.33825    304.62316   -117298.41     117308.1    114.71509    36.032635 
160232000    263.72358    548.00162    399.79708   -117271.28    117291.57    148.20454    36.036625 
160236000     299.4277    184.19372    523.42761   -117281.07     117291.3   -339.23389     36.03048 
160240000    277.47746    228.16636    185.89449   -117313.56    117336.18    42.271874    36.035339 
160244000    284.29829    271.03103    434.84234    -117340.9    117351.62   -163.81131    36.029764 
160248000    297.00897    408.39763    367.37331   -117373.51    117362.22    41.024317    36.029117 
160252000    301.94646    227.60243     522.0469   -117377.09    117380.11   -294.44446    36.027079 
160256000    299.39411    475.29298    472.51148   -117403.22    117407.99    2.7815022    36.034445 
160260000    286.25223    485.51971    390.13238   -117424.71    117438.84    95.387328    36.032556 
160264000    280.94952    562.51539    190.49865      -117454     117465.4    372.01674    36.034266 
160268000    279.78982    239.46795    249.46138   -117474.47    117481.09   -9.9934331     36.03283 
160272000    298.17518    384.22727    262.57729   -117499.45    117506.69    121.64998    36.030676 
160276000    277.57114    216.73001    397.41664   -117511.12     117538.7   -180.68662    36.027656 
160280000    303.93893    302.12203    473.73533   -117542.63    117542.29    -171.6133     36.02235 
160284000    287.84934    360.54915    311.60588   -117552.43    117576.95    48.943263    36.023861 
160288000    265.20348      390.565    351.14316   -117581.67    117611.84     39.42184    36.024607 
160292000    290.40503    322.97402    311.39184   -117610.22    117621.42    11.582187    36.022707 
160296000    299.91044    229.78227     161.4243   -117643.52    117633.24    68.357976    36.023294 
160300000    263.00911    278.14006    293.47652   -117656.41     117669.7   -15.336463    36.020061 
160304000    285.60534    389.80216    242.02436   -117705.62    117713.22    147.77779    36.026782 
160308000    295.14663    244.95221    225.59775   -117728.03    117743.75    19.354464    36.022592 
160312000    300.59902    312.25874    251.84473   -117767.96    117771.04    60.414009    36.023096 
160316000    299.23552    506.82395    265.87985   -117776.47    117786.29     240.9441    36.016512 
160320000    295.85744    369.58987    277.54079   -117775.47    117781.27    92.049087    36.023189 
160324000    301.67024    355.21138    423.63671   -117793.34    117807.62   -68.425333    36.022355 
160328000    296.07008    298.64496    433.39704   -117813.65    117819.82   -134.75208    36.015111 
160332000    295.13848    360.53847     201.3778   -117833.24    117846.88    159.16067    36.015133 
160336000    263.12167    345.03048    358.45995   -117857.89     117905.6   -13.429471    36.016575 
160340000     285.9128    192.71932    315.15782   -117899.69    117921.62    -122.4385     36.01632 
160344000    298.47781    316.19332    345.33065   -117926.19    117913.73   -29.137323    36.014529 
160348000    296.96282    417.18131    346.48536   -117922.25     117932.9    70.695956    36.026187 
160352000    271.98026    349.45457    159.06569   -117937.12    117959.66    190.38888    36.026323 
160356000    258.26924    196.86873    197.54288   -117953.43    117979.77  -0.67414548    36.026129 
160360000     287.4448     244.1434    314.49441   -117969.42    117989.37   -70.351008    36.022681 
160364000    288.64376    348.89174    326.58629   -118007.93    118017.53    22.305452    36.025975 
160368000    262.77658    240.04006    422.66957   -118002.43    118025.14   -182.62951    36.020654 
160372000    297.59574    416.83999    342.66064   -118043.34    118047.47    74.179356    36.027781 
160376000     277.6437    395.48896    265.47641   -118039.95    118055.22    130.01255    36.025367 
160380000    283.61874    428.72901    436.17181   -118061.37    118083.81   -7.4427949    36.026009 
160384000    267.67537    455.87311    255.84678   -118075.73    118107.44    200.02633    36.028698 
160388000    287.92688    436.23494    354.26371   -118119.47    118127.32     81.97123    36.028435 
160392000    269.41378    505.02449    237.99513    -118115.4    118139.71    267.02936     36.02523 
160396000    295.85172    279.66717    300.63635   -118142.54    118145.75   -20.969171    36.026794 
160400000    293.23288    589.55893    352.63633   -118138.78     118155.4     236.9226     36.02221 
160404000    292.46859    287.91386    243.35995   -118162.92    118169.71    44.553909     36.02673 
160408000    286.25231    302.90958    317.85991   -118191.93    118200.62    -14.95033    36.021851 
160412000    271.34377    227.68847    330.47835   -118208.37    118235.21   -102.78988    36.017369 
160416000    274.85296    336.18059    473.70766   -118228.88    118250.13   -137.52707    36.018393 
160420000    285.59717    451.42879    333.57235   -118255.43    118267.43    117.85643    36.020785 
160424000    262.13617    338.00637    284.33639   -118260.69    118284.39    53.669979    36.019754 
160428000    293.91277    368.74622    373.36382   -118282.07    118304.85   -4.6175976    36.018928 
160432000    251.38794    426.50358    302.62105   -118281.64    118335.78    123.88253    36.018227 
160436000    258.78695    490.98413     150.4363   -118291.87     118337.6    340.54782    36.019624 
160440000    313.84086    533.34759     474.8798    -118327.2    118328.12     58.46779    36.021299 
160444000    281.92965     488.6765     241.2449   -118327.71    118335.06     247.4316    36.021228 
160448000    291.75593    326.36654    185.65778   -118323.43    118341.28    140.70876    36.018493 
160452000     284.1126    309.31192    292.19375   -118331.01    118353.99    17.118163    36.024233 
160456000    296.08641    405.83149    336.79565   -118347.39    118355.74    69.035838    36.025493 
160460000    305.75392    265.58894    330.16709   -118367.85    118374.95    -64.57815    36.030914 
160464000    287.09448    415.05509    341.51051    -118372.8    118396.09    73.544587    36.026269 
160468000    282.94547      265.292    303.32467   -118396.53    118426.31   -38.032671    36.034238 
160472000    280.06752    351.30072    327.03805    -118416.8    118446.63     24.26267    36.032801 
160476000    281.19288    210.81196    184.70369   -118443.23    118456.37     26.10827      36.0289 
160480000     278.1337     447.0595    274.21535   -118458.04    118474.58    172.84415    36.029157 
160484000    259.92962    492.52418    304.50254   -118481.55    118512.81    188.02164    36.030465 
160488000    299.42343    317.30318    208.70601   -118504.64    118505.28    108.59717     36.02246 
160492000    304.00972    375.05862    432.20644   -118500.63    118515.24   -57.147813    36.023093 
160496000    278.82903    243.77579    192.93493   -118525.38    118534.34    50.840856    36.025752 
160500000    310.73261    492.38053    467.86103   -118545.84    118550.44    24.519494    36.021375 
160504000    279.29209     364.2698    301.12425   -118556.62    118565.97    63.145552    36.028121 
160508000    268.66716    257.21358    443.46618   -118567.02    118581.17    -186.2526    36.031758 
160512000    269.18438     373.8037    271.18861   -118574.36    118591.57    102.61509    36.025253 
160516000    289.00082    323.01667    230.77696   -118592.33    118603.74    92.239712    36.022762 
160520000    284.52012    255.97551    280.36171    -118616.9    118629.88   -24.386206     36.02215 
160524000    300.13148    427.36878    396.60635   -118671.33    118668.69     30.76243    36.027361 
160528000    276.36387    357.52363    216.78555    -118681.5    118711.71    140.73808    36.030794 
160532000    271.16519    260.85886    311.23274   -118700.81    118713.14    -50.37388    36.027789 
160536000    296.28702    298.04201     480.5904   -118728.68    118741.89   -182.54839    36.029768 
160540000    277.44105    199.79422     297.1744   -118740.05     118764.7   -97.380177    36.025036 
160544000     294.0434      352.105    218.82151   -118774.22    118761.24    133.28349    36.023864 
160548000    273.76035    388.48353    391.60714   -118765.59    118779.12   -3.1236084    36.022907 
160552000    302.46905    243.39597    248.38799   -118790.21    118798.12   -4.9920197     36.01821 
160556000    288.88858     144.0514    342.91139   -118786.79    118813.18   -198.85999    36.012288 
160560000    311.41194    264.93602    470.43394   -118824.81    118805.56   -205.49792     36.01402 
160564000    304.13216    316.12861    370.84677    -118844.3     118853.5   -54.718152    36.014787 
160568000    286.54258    403.87405    218.45436    -118843.8    118839.34    185.41969    36.014298 
160572000    300.87966    360.20476     230.7748   -118836.31    118851.41    129.42996     36.01499 
160576000     276.2087    232.89967    294.99404   -118866.27    118884.86   -62.094369    36.016875 
160580000       276.01     288.3998    298.20418   -118891.08    118915.72   -9.8043847    36.014549 
160584000    270.91294    259.17003    376.47702   -118900.56    118939.74   -117.30699      36.0107 
160588000    309.24866    379.08751    365.20245   -118950.62    118943.14    13.885061    36.009855 
160592000    293.14886    371.40737    354.15882   -118946.09    118948.78    17.248548    36.004733 
160596000    291.47689    383.78603    536.59677   -118963.07    118988.05   -152.81074    36.005333 
160600000    281.80758     424.8106    160.22864   -119011.48    119013.37    264.58196    36.008395 
160604000    288.35781    314.95324    336.09547    -119008.1    119012.28   -21.142232    36.008524 
160608000    274.35557    434.85184    180.55426   -119017.25    119044.08    254.29759    36.015087 
160612000    291.48309     410.1747    243.21541   -119031.43    119055.89    166.95928    36.015401 
160616000    268.95829     352.3757     314.4289   -119024.95    119052.18    37.946798    36.014023 
160620000    287.76788    225.24672    463.78971   -119024.61    119039.46   -238.54299    36.015728 
160624000    274.09307    456.09246    320.75585   -119048.75     119063.7     135.3366    36.011647 
160628000    289.42817    391.88604    170.23053   -119067.72    119104.78    221.65551    36.015987 
160632000    295.91225    427.36318    358.11142   -119097.64    119112.08    69.251757    36.019447 
160636000    276.72259    312.68174    375.74134   -119097.79    119139.42   -63.059602    36.025211 
160640000     306.9191    503.52656    267.73424   -119161.86    119177.75    235.79232    36.030404 
160644000     257.0226    472.91657     234.6582    -119178.8    119201.68    238.25837    36.025911 
160648000     257.3007      413.836    267.86327   -119216.21    119243.98    145.97273    36.025068 
160652000    280.61259    288.85685    287.10007   -119223.79    119248.72    1.7567809    36.019826 
160656000    284.81501    585.66121    344.93484    -119241.7    119253.27    240.72637    36.019182 
160660000    280.30084    420.13604    321.13866   -119273.21    119289.18    98.997377    36.019961 
160664000    269.09922     467.4589    179.02069   -119272.15    119308.48    288.43821    36.021632 
160668000    290.30684    376.64675    407.99995   -119311.24    119330.38   -31.353192    36.024943 
160672000    259.65597    492.38021    320.21254   -119322.12       119356    172.16767    36.031275 
160676000    284.16368    527.48639    227.54574   -119320.33    119357.06    299.94064    36.029106 
160680000    271.02034    237.77084     403.5102   -119313.13    119330.11   -165.73936    36.024056 
160684000     278.9664      267.527    517.56638   -119329.72    119339.97   -250.03938    36.021595 
160688000    293.25837    286.72269    293.18407    -119338.6    119356.95   -6.4613813    36.017078 
160692000    280.23907    553.17303    251.62313   -119364.61    119376.33     301.5499    36.020199 
160696000    308.24419    419.08228    240.08648   -119405.53    119398.95     178.9958    36.018996 
160700000    252.33336    184.77464    340.78026   -119371.05    119419.74   -156.00563    36.023628 
160704000    286.83136    224.33646    348.77924   -119414.48    119430.75   -124.44278    36.023035 
160708000    301.65366    401.10722    279.07409   -119438.16    119432.64    122.03313     36.02407 
160712000    305.49361    337.69459    423.74693   -119470.06    119461.53   -86.052345    36.030195 
160716000    291.13274    430.20228    339.82989   -119500.17    119519.93    90.372397    36.026243 
160720000    288.56552    487.40849    305.05287    -119532.2    119540.03    182.35561    36.028175 
160724000    282.97599    296.93168    334.52313   -119571.34    119576.62   -37.591452    36.026621 
160728000    283.11242    393.86968    489.05306   -119608.66    119635.62   -95.183377    36.025709 
160732000    290.54004    253.59096     261.2708   -119633.99    119639.97   -7.6798441      36.0287 
160736000    295.62954    341.89459    242.36896   -119657.63    119653.88     99.52563    36.031687 
160740000    294.58204    356.36057    241.55045   -119687.38    119706.97    114.81012    36.033895 
160744000    290.24484    367.12586    326.42548   -119746.12    119768.87    40.700377    36.037264 
160748000    288.82441    317.74609     338.8543   -119785.33    119793.89   -21.108204    36.035477 
160752000    290.22346    342.65284    224.76975   -119812.58    119823.18    117.88309      36.0398 
160756000    280.49272    236.80109    195.39719   -119821.19    119835.82    41.403904     36.03991 
160760000    268.90724    394.29425    254.29692   -119813.88    119834.94    139.99733    36.037453 
160764000    295.94135    364.79676    234.62417   -119864.36    119857.69    130.17259    36.036665 
160768000    287.52455    336.71988    378.36161   -119868.63    119884.24   -41.641722    36.034158 
160772000    288.90007    516.87796    362.64477   -119895.09    119894.86    154.23319    36.035865 
160776000    289.30955    475.46195     388.6204   -119924.68    119921.97    86.841551    36.034551 
160780000    281.29897    246.50833    435.65623   -119929.15    119928.09    -189.1479    36.033455 
160784000      265.907    386.10972    326.55273   -119941.01    119965.83    59.556992    36.036379 
160788000    306.68394    322.95494    279.95598   -119974.23    119980.53    42.998958    36.038926 
160792000    296.14431     327.1819    485.31502   -120002.72    120004.93   -158.13311    36.035544 
160796000    296.73788    575.93542    269.37668    -120008.3    120001.54    306.55874    36.041991 
160800000    272.09845    326.24709    322.30059   -120032.24     120043.3    3.9465011    36.049682 
160804000    275.76341    145.72868    292.86182   -120051.09    120071.78   -147.13315    36.050994 
160808000    270.30819    379.89932    268.46298   -120063.98    120090.12    111.43635    36.054109 
160812000    309.94625     439.4658    194.04106   -120102.48    120112.74    245.42474    36.058574 
160816000    314.05873    305.89441    268.05205   -120128.68    120125.97    37.842364    36.059699 
160820000    296.22093    384.22081    354.75584    -120138.5     120145.1    29.464972    36.056435 
160824000    267.60121    322.29531    348.53735   -120144.34    120168.71   -26.242043    36.057091 
160828000    276.70895    420.06191    253.57309   -120167.53    120178.61    166.48883    36.058783 
160832000    269.97843    254.28098    337.64865   -120178.13     120200.7   -83.367674    36.057291 
160836000    302.42165    538.70099    253.48368   -120209.55    120234.39     285.2173    36.065321 
160840000    318.64647    504.57077     437.7835   -120213.28    120217.15     66.78727    36.067238 
160844000    297.70525    490.27844    443.26306   -120228.19    120227.62    47.015376    36.072516 
160848000    335.85329    424.36958    503.12645   -120262.69    120251.25   -78.756866    36.073359 
160852000    306.72561    391.77076    454.38702   -120274.11    120262.24   -62.616259    36.068846 
160856000       269.84    532.92551    137.62034   -120284.08    120293.38    395.30517      36.0696 
160860000    286.76676    440.71083    395.64405   -120300.64    120322.06    45.066787    36.071842 
160864000     267.1403    373.07056    352.83481   -120311.06    120332.18    20.235746    36.073191 
160868000    252.94047    282.20046    443.79683   -120324.53    120369.16   -161.59637    36.072424 
160872000    282.40566    472.79262    317.65246   -120345.52       120384    155.14016    36.071822 
160876000    275.28996     394.2866     153.7078   -120386.65    120423.09    240.57879    36.069059 
160880000    287.08631    218.69263    328.73876   -120394.77     120402.9   -110.04613    36.068437 
160884000    313.81225    283.09913    277.89326   -120428.55    120442.59    5.2058722    36.070892 
160888000    271.00395    209.54894    271.59232   -120426.11    120459.37   -62.043382    36.072063 
160892000    261.44874    385.63174    307.08128   -120471.19    120506.52    78.550458    36.073745 
160896000    274.64039    385.37382    162.33727   -120496.16    120520.21    223.03655    36.072012 
160900000     289.8079    361.76906    228.30785   -120532.88    120541.95    133.46121    36.072755 
160904000    256.61235    280.47955    192.38645   -120541.46    120567.21    88.093103    36.072791 
160908000    241.91209    336.73839    299.19991    -120538.5    120582.14    37.538483    36.067267 
160912000    300.22464    444.51428    310.68274    -120570.7    120579.45    133.83154     36.07076 
160916000     276.4857    240.21607    197.74301   -120568.96    120599.12    42.473056    36.073813 
160920000    290.86409    391.75913    444.59794   -120608.89    120615.36   -52.838809    36.077984 
160924000    275.03106     410.8999     308.9289   -120632.84     120648.5      101.971    36.081626 
160928000    258.67711    294.63024    404.08412   -120641.12    120677.45   -109.45388    36.081773 
160932000    298.75447    320.28921    443.51007   -120658.32    120670.37   -123.22085    36.079059 
160936000    283.64301     293.3331     303.9234   -120676.46     120686.7   -10.590308    36.083634 
160940000    264.25188    419.80149    170.42499   -120690.99    120724.02    249.37649    36.081632 
160944000    309.12744    209.70322    431.73776   -120694.01    120696.96   -222.03454    36.079234 
160948000    297.13431    453.24061    281.67984   -120714.76    120722.54    171.56078     36.08303 
160952000    251.96619    442.79541    288.98564   -120724.34    120759.72    153.80977    36.083586 
160956000    301.15705    409.89039    413.61628   -120729.13    120751.33   -3.7258925    36.083151 
160960000     266.7743    231.28334    616.21415   -120731.15    120755.45   -384.93081    36.084439 
160964000    279.08081    453.90003    311.41743   -120748.81    120788.17     142.4826    36.087502 
160968000    320.80978    477.76938    430.40046   -120787.85    120792.59    47.368917    36.088256 
160972000     282.1397    307.79678     455.2702   -120785.11    120800.73   -147.47343    36.090152 
160976000     288.9976    348.10535    353.93002   -120804.34    120810.32   -5.8246669    36.089059 
160980000    257.28787    178.29581    212.23605   -120810.25    120850.51   -33.940238    36.084169 
160984000     289.2197    352.06449    322.03803    -120851.2    120880.94    30.026454    36.081769 
160988000    308.92648    310.13997    371.19994   -120890.33    120893.68   -61.059974     36.08497 
160992000    284.85263    387.65013    340.44686   -120913.85    120940.14     47.20327    36.084092 
160996000    298.42016    511.93301    348.41021   -120942.06    120959.54    163.52281    36.083381 
161000000     291.2724     246.0504    243.93984   -120952.26    120960.51    2.1105624    36.084963 
161004000    280.27588    415.81593    295.99384   -120970.51     120996.9    119.82209    36.085915 
161008000    282.60807     427.5183    452.27615   -120996.04    121009.01   -24.757842    36.084542 
161012000    275.67302    266.37042    332.19849    -120998.2    121022.51   -65.828071    36.081443 
161016000    285.72389    483.46069    445.57003   -121012.43    121025.44    37.890658    36.083668 
161020000    252.53631    390.09683    183.89475   -121007.69    121061.01    206.20208    36.080371 
161024000    260.03439    403.91986    346.60583   -121046.41    121088.23    57.314029    36.077491 
161028000     283.1965    276.03026     309.4683   -121075.37    121099.13   -33.438044    36.076548 
161032000    281.56284    227.55362    284.66435      -121098    121123.35   -57.110737    36.074978 
161036000    267.36465    497.07838     296.5321    -121108.1    121140.21    200.54628    36.075609 
161040000    299.87943    408.60209    188.54404   -121147.78    121145.26    220.05805    36.079984 
161044000    300.64205    476.69821    380.54983    -121179.1    121190.28    96.148381    36.084275 
161048000    287.89715    631.74844    161.30033    -121199.1    121199.43    470.44811     36.09109 
161052000    289.91435    434.14471    483.49637    -121196.5    121209.07   -49.351657    36.089133 
161056000    312.92426    235.82052     376.1282   -121214.77    121216.92   -140.30767    36.089943 
161060000    299.53901     407.3119    350.00933   -121241.69    121253.48    57.302569     36.08775 
161064000    286.71635    267.86174    232.72139   -121225.87    121247.76    35.140346    36.088227 
161068000    288.08224    246.80587     258.4145   -121256.84    121275.28   -11.608634    36.085265 
161072000    277.46142     307.7036    292.75838   -121274.85    121290.39    14.945222    36.094355 
161076000    262.06818    313.60301    182.73318    -121282.8    121324.77    130.86983    36.095812 
161080000    280.34823     420.2104    304.21842   -121336.02    121341.93    115.99198    36.099104 
161084000    262.46761    396.08422    307.23304   -121331.18    121356.22    88.851182    36.100395 
161088000    260.19689    646.50954    262.44258    -121355.3    121374.66    384.06696    36.103756 
161092000    303.01114    469.58892    302.72422   -121396.86    121393.52     166.8647    36.102104 
161096000    305.82706    305.90353    454.13208   -121410.86    121404.57   -148.22856    36.099363 
161100000    302.65119    469.86137    322.95755   -121421.04    121433.66    146.90382      36.0961 
161104000      306.555    329.61788    330.91766   -121458.66    121466.11   -1.2997874    36.095099 
161108000     252.0942    281.51654    204.03494   -121456.71    121510.98      77.4816    36.093718 
161112000    274.81877    242.11593    336.14426   -121488.14    121510.84   -94.028332    36.095574 
161116000    268.64929    306.41245    422.03123   -121490.01    121531.74   -115.61878    36.090458 
161120000     262.9377    499.70573    494.66689   -121508.42    121528.03    5.0388383    36.085382 
161124000    282.86501     373.1618    288.85806   -121522.76    121538.92    84.303735    36.085175 
161128000    297.18959    371.78184     452.7997   -121541.94    121550.23   -81.017859    36.082225 
161132000    316.33553    522.70209    295.81762   -121574.21    121576.59    226.88447    36.085501 
161136000    284.66064    373.77341     246.6596   -121591.75    121606.09    127.11381    36.081349 
161140000    270.32527    327.55865    244.86814    -121595.3    121625.68    82.690513    36.082305 
161144000    294.96158    379.79202    437.91474   -121597.39     121603.2   -58.122721    36.075864 
161148000    274.61964    544.20866    212.37796   -121629.77    121664.35    331.83069    36.080344 
161152000    283.48828    569.99851    515.84101   -121632.06    121656.86    54.157497    36.077272 
161156000    286.19455     271.0544    415.98347   -121677.98    121692.51   -144.92907    36.080608 
161160000    301.86943    286.85065    310.00558   -121690.58    121704.62   -23.154933    36.080866 
161164000    280.12526    275.27172    276.63383   -121694.01    121708.44    -1.362113    36.081937 
161168000    289.48123     465.8611    395.82413   -121697.51    121705.06    70.036966     36.08521 
161172000    293.36671    268.74124    328.09701   -121723.23    121740.73   -59.355762    36.083673 
161176000    273.03365    299.90879     496.4646   -121745.81       121786   -196.55581    36.080123 
161180000     283.0742    306.01701    354.53652    -121770.1    121788.76   -48.519505    36.076401 
161184000    277.12705    371.83846    330.16262   -121799.24    121813.91     41.67584    36.080414 
161188000    311.66261    330.55056    205.06511   -121844.37     121838.9    125.48545    36.077541 
161192000    281.48493    373.71011    306.48138   -121868.11    121874.33    67.228726    36.075654 
161196000    289.10446    475.73933     256.1227   -121896.69    121904.57    219.61663    36.076098 
161200000     292.4751    199.24682    258.73149   -121921.86     121920.9   -59.484663    36.070342 
161204000    273.84291    302.07632    399.02762    -121914.4    121947.58   -96.951299    36.070301 
161208000     257.5012    248.23692    393.20945   -121936.46    121974.34   -144.97253      36.0674 
161212000    272.97974    342.03605    336.57912   -121963.88     121979.9    5.4569279    36.065015 
161216000    255.92714    366.66268    366.96889   -121945.52    121998.89  -0.30621714    36.061295 
161220000    286.87615    447.82483    286.18364   -121968.21    122002.62    161.64119    36.062974 
161224000     291.3447    450.44553    221.01449   -121993.77    122001.38    229.43104    36.071364 
161228000    286.02335    270.99244    395.81164   -121989.47    122007.28    -124.8192    36.067162 
161232000    303.11198    429.42466    339.17463   -122008.92    122020.78    90.250028    36.067551 
161236000    293.04823    336.57372    329.04153   -121992.14    122012.81    7.5321811    36.069141 
161240000    269.21055    408.27563    498.19743   -121999.19    122037.88   -89.921804    36.068945 
161244000    252.53293    304.67559    164.74296   -122017.25    122056.67    139.93264    36.071441 
161248000    287.22214     293.9928    263.78065   -122019.96    122049.92    30.212147     36.06475 
161252000    282.76019    467.94469    349.34435   -122034.52    122072.01    118.60034    36.059161 
161256000    279.30245    240.98067    321.13657    -122054.2       122071   -80.155897    36.063031 
161260000    257.23686    461.82972     303.9355    -122080.4    122111.78    157.89421    36.068589 
161264000    285.47627    473.91728    467.32408   -122087.89    122125.83     6.593202    36.072296 
161268000    304.16719    465.85375    332.49481   -122125.23    122144.19    133.35894    36.069089 
161272000    301.48301    398.35013    471.05161   -122157.95    122167.75   -72.701483    36.072133 
161276000     266.8396    252.73139    284.60835   -122153.65    122186.93   -31.876963    36.076992 
161280000    256.86026     433.2258    210.41319   -122154.22    122189.65    222.81261    36.077387 
161284000     284.6239    252.63971    188.51979   -122193.36    122219.41    64.119919    36.085327 
161288000    273.45972    367.92106    419.43139   -122223.48    122248.97   -51.510327     36.08133 
161292000    300.39146    338.48119    514.45372   -122256.36    122282.01   -175.97252     36.08068 
161296000    288.90921    381.87489    402.53826   -122279.91    122296.45   -20.663369    36.080293 
161300000    275.59707    543.84739    456.82015   -122294.44    122326.23    87.027242    36.076893 
161304000    268.31011    322.66033     281.4641   -122316.47    122341.76    41.196233    36.078901 
161308000    264.20902    233.38319     106.0772   -122356.54    122400.63    127.30598    36.080071 
161312000    253.21565     437.9899    324.45244   -122373.25    122419.88    113.53746    36.074622 
161316000    265.73225    526.21032    217.46921   -122402.98    122442.83    308.74111    36.075115 
161320000    299.60169    410.48315    353.88656   -122446.28    122453.07    56.596594    36.076087 
161324000    283.62847    325.91753    264.08231   -122461.96    122470.28    61.835218    36.077389 
161328000    240.50234    341.99165    259.54553   -122439.42    122492.97    82.446122    36.078128 
161332000    294.02057    284.43085     267.7367   -122460.08    122471.28    16.694153    36.076076 
161336000    266.98964    163.50243    206.74288   -122456.93    122490.34   -43.240442    36.073835 
161340000    277.60735    334.52601    176.21714   -122478.23     122516.1    158.30887    36.069707 
161344000    292.11514    710.89445    348.53064   -122507.38    122520.38    362.36381    36.069573 
161348000    274.40357    358.77635    143.08347   -122544.42    122570.79    215.69288    36.072429 
161352000    318.50939    401.99042    260.03674   -122574.15    122563.65    141.95368    36.067521 
161356000    282.10741     177.5198    227.04054    -122572.2    122596.82   -49.520745    36.068554 
161360000    260.32236    206.94273    315.91366    -122565.3    122601.32   -108.97093    36.065975 
161364000    285.56889    201.87948    310.46306    -122586.4    122622.56   -108.58358    36.067332 
161368000    282.83099    320.43897    336.35799   -122601.64    122636.75   -15.919021    36.067687 
161372000    269.39282    423.29784    379.95555   -122638.85    122663.24    43.342289    36.068925 
161376000    266.33051    429.24649     201.2583    -122652.2    122672.86     227.9882    36.071675 
161380000    280.88078    707.97686    385.16976   -122662.71    122688.82     322.8071    36.069128 
161384000    262.97091     323.7011    571.72547   -122674.04    122722.62   -248.02438    36.072281 
161388000    275.28359    306.63988    318.04508   -122700.81    122734.99   -11.405199    36.068739 
161392000    282.93761      185.235    418.65303   -122732.27    122766.28   -233.41803     36.06697 
161396000    280.36677    466.15715    229.67416   -122772.58    122796.26    236.48299    36.067579 
161400000    269.05025    409.02098     285.0619   -122768.46    122800.81    123.95908    36.072278 
161404000    282.58195    196.37137    331.00286   -122793.42    122828.77    -134.6315    36.067092 
161408000    278.36289    253.86521    295.11835   -122824.05    122851.34   -41.253146    36.072237 
161412000    283.74682    280.94026    252.79845   -122841.76    122853.56    28.141803    36.074555 
161416000    282.74453    259.93578    334.52632    -122835.7    122844.31   -74.590543     36.07497 
161420000    280.85973    356.53974    262.46209   -122845.03    122860.98     94.07765     36.07072 
161424000    278.41329    338.93768    419.18578   -122866.52    122883.41   -80.248095    36.067633 
161428000    274.88339    387.63153    176.58786   -122896.36    122915.54    211.04368     36.06577 
161432000    279.19559    444.78511    334.52072   -122918.31    122940.59    110.26439    36.061633 
161436000    279.09339    454.97853    283.32084   -122954.59    122963.95    171.65769     36.06489 
161440000    261.41617       390.01    398.32875   -122961.67    122993.82   -8.3187482    36.063357 
161444000    275.44564    591.20466    408.36773   -123016.02    123021.88    182.83693    36.065284 
161448000    316.47764    340.27966    511.20393   -123042.97    123038.27   -170.92426    36.066286 
161452000    282.18721    311.03906    494.64259   -123054.99    123062.67   -183.60353    36.064425 
161456000    291.76884      378.229    240.21063   -123069.49    123085.25    138.01837    36.060927 
161460000    310.43652    314.59299    438.26787   -123077.44     123061.6   -123.67489    36.063733 
161464000    277.07121    329.87572    380.29894   -123080.78    123085.61   -50.423219    36.058698 
161468000    310.46272    383.68418    288.61661   -123116.92    123089.84    95.067567    36.060778 
161472000    298.57948    361.02911     378.7432   -123132.13    123135.61   -17.714094    36.062873 
161476000    269.87839    217.01338    416.66123   -123156.87     123157.9   -199.64785    36.063297 
161480000    303.49973    541.90724    378.74875   -123156.86    123148.11    163.15849    36.062926 
161484000    272.75633    405.07785    213.02723   -123150.83    123186.68    192.05062    36.065783 
161488000    288.74844    283.79579    503.00767   -123197.07    123218.02   -219.21188    36.075277 
161492000    279.33792    294.77431    271.92183   -123220.01    123234.66    22.852488    36.069395 
161496000    261.76884    240.17946    316.70286   -123233.33    123257.41   -76.523396    36.069187 
161500000    272.88984    326.75861    370.09504   -123245.57    123272.96   -43.336431    36.078085 
161504000    243.03721    286.97669    318.19739   -123268.65    123324.47   -31.220694    36.074836 
161508000    256.08764    310.34895    362.36053   -123299.75    123337.49   -52.011577    36.081725 
161512000     276.0199    301.16554    241.22804   -123336.92    123359.67      59.9375     36.08679 
161516000    286.14545    340.58444     540.3578   -123340.82    123378.13   -199.77336    36.086027 
161520000    271.91202    296.40102    304.04257   -123368.07    123388.49   -7.6415528    36.081105 
161524000    272.15682    233.66964    251.93258   -123397.18    123405.87   -18.262944    36.079757 
161528000    271.47538    295.29454     459.0261   -123406.68    123452.75   -163.73156    36.076681 
161532000    285.75647    307.89549    355.88897   -123440.88    123462.44   -47.993477    36.073701 
161536000    276.24439    315.77534    308.17942   -123458.03     123476.9    7.5959156    36.070772 
161540000    266.76773    241.84913    270.16027   -123488.06    123500.86   -28.311134    36.068219 
161544000    275.26488    463.94959     233.5712   -123518.59    123534.67    230.37839    36.072924 
161548000    258.05728     293.5785    272.02691   -123535.81    123565.94     21.55159    36.076022 
161552000    273.34815    285.92291    436.67784   -123550.14    123591.29   -150.75492    36.078509 
161556000     298.0248    437.99358    366.53113   -123566.65     123590.1    71.462452    36.077067 
161560000    278.52603    325.95049    402.90818   -123601.68    123623.27   -76.957698    36.072795 
161564000    295.90062    382.26029    245.78292   -123635.37    123644.81    136.47737    36.074011 
161568000    294.23908    291.50525    373.02234   -123621.67    123645.83   -81.517093    36.070612 
161572000     251.3649    228.10636    333.99241   -123632.49    123666.57   -105.88605    36.073088 
161576000    296.35998    508.04248    336.01414   -123663.51     123701.9    172.02834    36.072813 
161580000    284.65588    237.42867    297.08969    -123696.8    123727.96   -59.661027    36.066977 
161584000    260.13277    223.72077    204.51332   -123719.36    123753.24    19.207449    36.074546 
161588000    308.98137    428.44288    424.40381   -123744.07    123754.61    4.0390733    36.068383 
161592000    285.94128    468.73749    239.96908   -123752.87     123789.1    228.76841    36.068094 
161596000    287.34755    275.69988    290.50625   -123770.11    123798.26   -14.806363    36.062897 
161600000    283.33825    489.53357    337.41841    -123805.2    123812.01    152.11516    36.068386 
161604000     258.7921    237.50646    207.20064    -123815.7    123852.26    30.305822    36.067824 
161608000    278.12148    312.34786    259.87123   -123854.35    123871.68    52.476635     36.06877 
161612000    304.29605    414.48529    451.48579   -123907.33    123899.53   -37.000503    36.068316 
161616000    302.04077    243.16599    438.72886   -123916.32    123920.32   -195.56287    36.067465 
161620000    310.73279    439.19695    525.94972   -123936.49    123939.25   -86.752776    36.070035 
161624000    292.72557    417.88449    349.86175    -123965.2    123967.22     68.02274    36.074395 
161628000    286.69574    385.18774    318.74837   -124004.38    124020.81    66.439371    36.074595 
161632000    254.18047    353.11463    384.57663   -124016.29    124046.61   -31.461998    36.073922 
161636000    311.18153    425.36492    356.00926   -124037.54    124035.55    69.355659    36.069226 
161640000    300.71563    398.13704    336.41893   -124067.35     124068.8    61.718108    36.065444 
161644000    300.27327    478.78881     234.0259   -124096.36    124115.22     244.7629     36.06576 
161648000    292.66063    326.90259    426.89198   -124114.73    124132.28   -99.989386    36.064466 
161652000    269.11784    378.08988    292.54711   -124153.11    124195.16    85.542767    36.065334 
161656000     249.4206    514.98711    251.88021   -124172.49    124213.46     263.1069    36.062875 
161660000    274.56678    585.26349    366.14491   -124186.57    124216.84    219.11859    36.067772 
161664000    301.40493    400.16833    526.54432   -124184.37    124221.35   -126.37599    36.065929 
161668000    286.52822    478.17348    593.09576      -124203       124222   -114.92227    36.063479 
161672000    275.57615    367.50729    192.93176   -124213.95    124253.16    174.57553    36.062874 
161676000     283.4744    350.64031    205.70927   -124233.08    124240.28    144.93104    36.063277 
161680000    281.92926    461.33933    383.87907    -124255.4    124272.14    77.460261    36.061517 
161684000    306.22871    486.92444    305.98654   -124301.02    124298.01    180.93789    36.062698 
161688000    270.39332    184.90324     306.9881   -124298.33     124328.5   -122.08486     36.06333 
161692000    265.38415    360.81442    292.04604   -124329.54    124357.95     68.76838    36.067785 
161696000    273.80796    271.86424    309.94106   -124356.54    124381.16   -38.076818    36.067605 
161700000    280.28384    253.27244    298.92034   -124380.24    124395.86   -45.647892    36.069411 
161704000    283.04386    295.96418    217.25133   -124409.81    124423.12    78.712844    36.066464 
161708000    307.21923    380.69148    361.32692   -124435.36    124431.24    19.364561    36.071831 
161712000    305.87055    302.40819    388.16082   -124478.33    124465.76   -85.752628    36.068906 
161716000    300.70053    364.74283      379.623   -124487.82    124499.57   -14.880166    36.074169 
161720000    304.68903    232.60546    433.82283   -124520.99    124513.31   -201.21737     36.07271 
161724000     287.8871     264.3296    300.83394   -124547.81    124543.91   -36.504343    36.077892 
161728000    304.16949    475.46271    267.61634   -124560.12    124564.96    207.84637    36.076119 
161732000    275.46479    457.98024    323.43491   -124564.93    124597.38    134.54533    36.076301 
161736000    285.06076    302.30456    418.85644   -124553.99    124585.27   -116.55188    36.072434 
161740000    252.38806     346.9434    249.42276   -124578.18    124618.49    97.520636    36.070361 
161744000    290.69032    261.01864    385.88056   -124603.97    124635.72   -124.86192    36.066924 
161748000    289.08587    349.90908    368.78574    -124666.2    124686.97   -18.876654    36.073385 
161752000    288.86136    289.82975    168.60045   -124688.29    124696.12     121.2293     36.07838 
161756000    307.91471    266.85433    407.13898   -124736.55    124728.99   -140.28464    36.083064 
161760000    298.68549     497.8005    355.30224   -124753.97    124750.47    142.49826    36.089593 
161764000    271.76601    267.06217    323.55565    -124738.7    124770.46   -56.493482    36.093041 
161768000    280.16099    347.47918    298.47201   -124760.58    124781.69    49.007165    36.094406 
161772000    274.02036    395.34557    446.54326   -124798.57    124813.81   -51.197689    36.092678 
161776000    298.26493    441.39922     257.2989      -124815    124817.63    184.10031     36.09641 
161780000    304.32192    354.27353    250.97242   -124818.83    124839.11     103.3011    36.094819 
161784000    301.89667    382.54881    235.35958   -124870.06    124889.42    147.18923     36.09423 
161788000    252.67567    389.58993    253.45436   -124862.94    124908.61    136.13557    36.097817 
161792000     271.8078    439.34192    356.32097   -124870.69    124900.33    83.020946    36.092577 
161796000    293.26779    361.93516    570.99173   -124886.98    124907.95   -209.05657     36.09032 
161800000    316.66488    408.66917    469.69066   -124959.08    124940.61   -61.021487    36.092515 
161804000    308.71258    173.32312    412.81051   -124963.23    124977.05   -239.48739    36.095536 
161808000    293.08423    483.61595    357.30154   -124968.33    124992.84     126.3144    36.094029 
161812000    302.93895    558.03347    219.90784   -124996.03    125023.87    338.12563    36.093893 
161816000    299.16686    232.89003    320.52415   -125027.46    125013.42   -87.634127    36.094201 
161820000    303.33144    352.55905    286.06092   -125015.42    125034.83    66.498134    36.094035 
161824000    290.06905    321.24805    289.15714    -125051.4     125050.2    32.090909    36.094676 
161828000    276.29017    229.12496    195.15819   -125037.99    125048.49    33.966767    36.091159 
161832000    290.19829    306.64598    437.54256   -125050.39    125062.36   -130.89658    36.086982 
161836000     256.9134    257.57545    195.20497   -125079.51    125101.57    62.370479    36.088691 
161840000    314.32028     485.2895    289.57253   -125110.97    125124.65    195.71697    36.089061 
161844000    301.92983    327.67807    365.79168   -125144.44    125155.48   -38.113607    36.083225 
161848000     304.8167    416.43032    412.83084   -125141.85    125158.26    3.5994881    36.085553 
161852000    289.54166    328.16229    151.53977   -125185.06    125204.88    176.62252    36.091748 
161856000    277.96251    379.37224    442.91375   -125203.27    125228.79   -63.541516    36.089598 
161860000    287.76001    221.58188    278.98769   -125237.36    125251.68   -57.405815    36.086364 
161864000    308.79854    377.51738    405.45678   -125259.27    125254.62   -27.939397    36.088894 
161868000     272.7046    383.00584    402.38645   -125217.03    125251.77   -19.380612    36.088435 
161872000    255.73654    212.28839    382.63411    -125207.8    125251.34   -170.34571    36.091446 
161876000    290.83775    188.56069    372.31013   -125238.12    125256.84   -183.74944    36.092059 
161880000    288.74387    383.98326    435.05705   -125261.55    125262.05   -51.073797    36.090214 
161884000    278.14217    374.38554    232.29103   -125257.13    125273.84    142.09451    36.092816 
161888000    274.62565    219.69608     352.1944   -125249.99     125270.2   -132.49831    36.092939 
161892000    277.20863    271.35963    319.02951    -125270.1    125282.61   -47.669878    36.094902 
161896000    288.56855     398.4957    353.16004   -125298.04    125313.17    45.335655    36.096218 
161900000    295.16494    307.10217    281.52375   -125327.99    125339.28    25.578416    36.094958 
161904000    254.92187    373.92556    344.36671   -125359.77    125394.58    29.558848    36.098114 
161908000    262.77626    339.27118    345.03549   -125359.48    125406.55   -5.7643086    36.098374 
161912000    267.14998    435.50374    187.73727    -125395.4    125425.67    247.76648    36.099949 
161916000    282.04238    466.27232    421.36415   -125404.73    125413.52    44.908163    36.102638 
161920000    280.93555    321.84503    244.62559    -125446.1    125463.37    77.219432    36.102015 
161924000    297.12088    366.91035    336.63512   -125469.68    125482.66    30.275227    36.098213 
161928000    280.14017    258.85232    332.64938   -125479.16    125502.18    -73.79706    36.098505 
161932000    287.03708    377.96351    291.80702   -125516.85     125528.8     86.15649    36.092491 
161936000    276.72018    276.05569    178.56064   -125522.66    125540.25    97.495045    36.094658 
161940000    296.83679    474.97779    340.85078   -125569.77    125557.63    134.12701    36.090261 
161944000    299.80913     453.4421    178.51532   -125584.56    125601.11    274.92679    36.094069 
161948000    316.23011    500.74819    390.14819    -125612.2    125610.27        110.6    36.097726 
161952000     289.5916    408.32729    325.29399   -125621.77    125630.55    83.033299    36.099559 
161956000    300.33334    229.38252     381.2544   -125646.43    125662.94   -151.87188    36.098932 
161960000    289.90324    331.86519    441.77271   -125662.92    125689.35   -109.90752    36.099947 
161964000    280.10784    496.74818    482.51359   -125674.33     125688.8    14.234584    36.101146 
161968000    271.14936    171.07979    314.91085   -125700.77    125704.79   -143.83106    36.099975 
161972000    300.19478    333.10707    481.77332   -125716.17    125743.28   -148.66625      36.1005 
161976000    280.89588     609.6609    277.75352   -125743.46    125770.03    331.90739    36.103302 
161980000    262.74264    284.76753    290.63131   -125751.49    125771.88   -5.8637835    36.103743 
161984000    277.78018    379.99955    456.40356   -125766.67     125796.6   -76.404006    36.105258 
161988000    269.22928    250.15196    400.08867   -125779.96    125803.66   -149.93671    36.101627 
161992000     254.7787    304.61253    462.15993   -125827.51    125868.97    -157.5474    36.103271 
161996000    274.78119    420.26208    378.15208   -125838.78    125867.27    42.110003    36.108117 
162000000    287.96766    332.40028    203.68096   -125891.56    125915.34    128.71932    36.101023 
162004000    297.00068    423.72009     247.1351   -125910.58    125928.54    176.58498    36.096991 
162008000    291.23559    310.04606    383.84815    -125921.6    125921.71   -73.802096    36.094678 
162012000     283.0181    636.72671    234.84932    -125926.6    125947.25    401.87739    36.093905 
162016000    275.55272    412.15335    292.65781   -125963.73    125989.78    119.49555    36.097749 
162020000    275.28636    338.83291    374.92007   -125986.76    126013.02   -36.087161    36.095139 
162024000    297.49124    397.16522    278.09775   -126021.12    126018.43    119.06748     36.09665 
162028000    286.33277     519.8522    488.58297   -126026.62    126038.77    31.269227    36.098188 
162032000     275.3222    462.45909    332.78669   -126021.56    126061.09    129.67239    36.102654 
162036000    269.39913    298.42893    446.11901   -126017.34    126066.16   -147.69008    36.104953 
162040000    281.94843    529.37226    444.13604   -126043.42    126075.25    85.236216     36.10555 
162044000    277.10667     277.5148    438.80161   -126047.92     126082.6   -161.28681    36.105186 
162048000    259.46933    322.08731    420.32848   -126062.74    126082.91   -98.241169    36.106179 
162052000    318.43422    346.59846    375.43963   -126095.62    126087.01   -28.841168    36.104475 
162056000     298.7719      277.292    370.52763   -126096.59     126130.1   -93.235624    36.106553 
162060000    285.10948    337.96312    342.14206   -126104.82    126133.26   -4.1789424    36.103609 
162064000    273.52258    394.28354    325.75779   -126125.79    126141.05    68.525746    36.102499 
162068000    268.73142    330.06472    283.24352   -126131.36    126146.53    46.821202    36.106653 
162072000    269.87546     295.3157    227.44564   -126148.22     126170.8    67.870062     36.10292 
162076000    273.12423    334.92984    333.01904   -126150.72    126186.14    1.9108035    36.095869 
162080000    295.02148    325.08539     282.5686   -126171.58    126183.71    42.516787    36.092933 
162084000    310.52435    399.75949    255.90934   -126196.05    126198.38    143.85015    36.093424 
162088000    306.55951    237.35627    634.89448   -126201.22    126200.65    -397.5382    36.086981 
162092000    268.96857    389.90349    234.06379   -126192.01    126228.24     155.8397    36.090084 
162096000    295.36115    153.26493    307.20872   -126193.38    126216.22   -153.94379    36.090834 
162100000    283.02433    302.18254    553.43432   -126228.15    126240.45   -251.25178    36.089756 
162104000    267.23857    407.47823    326.92861   -126241.33    126259.22    80.549627    36.092545 
162108000    307.57711    248.51128    267.87731   -126267.02    126288.48   -19.366035    36.092896 
162112000    289.59862    390.23681    242.92853   -126316.67    126315.22    147.30828    36.088291 
162116000    253.62825    361.86464     168.3915   -126310.27    126364.15    193.47314    36.084888 
162120000    281.61365    355.92407    282.37747   -126336.94    126372.75      73.5466    36.085242 
162124000    272.78847    408.96629     271.0282   -126369.27    126403.23    137.93809    36.087071 
162128000    282.33309    417.31046    281.55845   -126420.42    126425.69    135.75201    36.086295 
162132000    267.47868    396.93735     195.4976   -126442.71    126463.83    201.43975    36.087885 
162136000    260.94318    229.11296    167.41891    -126451.1    126496.48    61.694054    36.088622 
162140000    244.66514    371.81954    454.90605   -126494.87    126516.77   -83.086512    36.089309 
162144000    280.02486    321.68093    338.61605   -126508.07    126521.21   -16.935122     36.09305 
162148000    275.14365    608.09157    253.22315   -126518.93    126533.36    354.86842    36.095883 
162152000    314.59608    316.48676    398.80375   -126545.63    126545.91   -82.316989    36.097028 
162156000    308.25154    436.45616    351.40682   -126550.39    126549.15    85.049338    36.097664 
162160000    285.85486    378.47859    230.42176    -126532.7    126555.08    148.05683    36.100374 
162164000    306.51794    325.41774    282.70608    -126554.1    126554.22    42.711656    36.097025 
162168000    291.55653    270.10697    289.27582   -126555.07    126584.06   -19.168855    36.094675 
162172000    314.64433    258.72624     367.7399   -126576.54    126592.67   -109.01367    36.098015 
162176000    239.55781    269.14779    260.26004   -126578.14    126634.27    8.8877494    36.095364 
162180000    294.48374    279.21695    266.04336    -126616.3    126624.58    13.173583    36.092843 
162184000    282.97392    463.78091    345.44648   -126641.44    126669.86    118.33443    36.091499 
162188000    258.68021    162.06191    152.20655   -126666.55    126698.42    9.8553632    36.090042 
162192000     323.4366    439.47458    353.87047   -126724.87    126728.62    85.604113    36.088855 
162196000    296.09179    304.14813    252.19874   -126722.03    126742.42    51.949385    36.087057 
162200000    317.31945    341.27691    259.33194   -126757.04    126758.04     81.94497    36.090195 
162204000    269.30783    303.15363     283.2333   -126770.33    126790.03    19.920336     36.08726 
162208000    304.32198    412.62622    312.43813   -126803.85    126817.98    100.18809    36.091151 
162212000    265.31891    313.02432    313.98048    -126809.4    126848.89  -0.95616422    36.088199 
162216000    264.70834    214.12464    274.19633   -126836.89     126867.3   -60.071694    36.092224 
162220000    290.85406    399.13081    427.31862   -126863.74    126879.61    -28.18781    36.093707 
162224000    277.91775    358.03799    346.73122   -126893.24    126919.85    11.306764    36.090389 
162228000    294.76904    389.87818    367.62253    -126949.4    126950.82    22.255648    36.089154 
162232000    303.86231    332.51097    248.30743   -126974.82    126991.84    84.203538    36.086877 
162236000    260.94764    233.14458    316.07395   -126988.57    127021.58    -82.92936    36.084975 
162240000    263.33354    292.89662    197.63798   -127002.95    127030.18     95.25864    36.085671 
162244000    270.17208      248.779    248.10463   -127006.41    127060.55   0.67437117    36.084636 
162248000    300.27766    293.53567    374.39241   -127045.07    127053.83   -80.856742    36.084905 
162252000    295.22604    289.09873    293.99699   -127058.98    127079.07   -4.8982582    36.083531 
162256000    289.30557    333.27013    358.08225    -127096.3    127099.33   -24.812126    36.088261 
162260000    287.54707    241.89529     304.9387   -127130.46    127129.54   -63.043408    36.087265 
162264000    280.52295     409.2145    302.53286   -127130.58    127143.96    106.68164    36.092154 
162268000    299.13889    246.75912    587.86522   -127153.36    127145.37    -341.1061    36.089766 
162272000    283.95064    320.75637    224.76346   -127181.01    127203.37    95.992904    36.096161 
162276000    272.41364    348.35746    318.20911   -127198.95    127217.15     30.14835    36.098344 
162280000    252.05094    368.51059    249.53916   -127198.05    127233.53    118.97142    36.100704 
162284000     272.0679    233.23835    474.33919   -127194.68     127244.5   -241.10084    36.102289 
162288000     300.5608    464.85228    316.42579    -127235.1    127249.85    148.42648    36.102328 
162292000    300.94008    479.41764    259.98588   -127276.37    127268.76    219.43176    36.095882 
162296000    274.57186    438.60257    417.76193   -127291.02    127309.47    20.840636     36.09555 
162300000    305.50028    363.00282    318.22192   -127317.06    127333.58    44.780898    36.093812 
162304000    274.84829     465.6012    399.15259   -127331.55     127327.2    66.448612    36.093202 
162308000    277.42339    430.78375    333.72761   -127344.62    127366.59    97.056136    36.095331 
162312000    279.70839    249.00337    348.43538   -127372.34    127397.23   -99.432006    36.095189 
162316000    309.48418     460.8808    724.34169   -127401.68    127412.74   -263.46089    36.091288 
162320000    265.80384    262.26467    399.98946   -127377.95    127392.09    -137.7248    36.090717 
162324000    244.37621    279.22133     404.1126   -127369.37    127419.29   -124.89128    36.091403 
162328000    287.95993    345.19974    384.71645   -127371.25    127404.08   -39.516711    36.082707 
162332000    297.51692    343.53744    333.53551   -127407.41    127414.91    10.001928    36.084262 
162336000    252.58132    483.42092    270.11764    -127424.2    127458.62    213.30328    36.086704 
162340000    271.96856    272.98922    211.21262   -127459.74    127497.34    61.776599    36.091015 
162344000    266.47812    252.12613    344.73687   -127455.54    127495.99    -92.61074    36.086618 
162348000    272.86543    401.10046    311.56295   -127453.76    127493.64    89.537506    36.082776 
162352000    298.42235    391.75913    347.27083   -127498.47    127528.55    44.488293    36.075192 
162356000    279.41724    403.46669    554.13339    -127509.1    127538.23    -150.6667    36.074823 
162360000    242.85225    221.21859    213.57336   -127517.99    127573.93    7.6452288    36.073098 
162364000    299.43256    377.12978    410.12073   -127571.97    127577.94   -32.990947    36.070559 
162368000    284.10376     361.4341    264.38353   -127561.67     127582.6     97.05057    36.068319 
162372000    250.19348    389.94529    310.21083   -127567.88    127616.09    79.734458     36.06681 
162376000    266.65067    372.14687     228.4038   -127601.74     127644.5    143.74307    36.064597 
162380000    282.38245    331.51153    259.05245   -127664.01    127682.53    72.459083    36.063234 
162384000    266.60742    347.42123    288.58811   -127696.98    127716.03    58.833111    36.065538 
162388000     265.9101    212.15483    258.46807   -127704.85    127734.39   -46.313239    36.064698 
162392000    286.90677    432.60377    424.73993    -127724.5    127733.22    7.8638477    36.067426 
162396000     308.9156    653.45218    317.65339   -127748.38    127762.24    335.79879     36.07069 
162400000    294.86708    410.71222    242.19007   -127770.14    127786.03    168.52215    36.070698 
162404000    285.04512    372.86686    264.34064   -127793.26    127798.98    108.52622    36.068689 
162408000    291.99652    493.19702    440.80059    -127806.9    127811.05     52.39643    36.068297 
162412000    291.04222     238.0518    351.21029   -127802.66    127827.73   -113.15849    36.062253 
162416000     262.5149    256.37086    159.89638   -127820.35    127865.99     96.47448    36.067364 
162420000    240.57455    388.10771    320.47901   -127820.02    127868.04      67.6287     36.06392 
162424000    280.73392     255.7586    322.56504   -127870.48    127870.47   -66.806436    36.063188 
162428000    288.98376      423.111    375.02841   -127871.86    127895.29    48.082595    36.070392 
162432000    310.65731    499.88919    329.34598   -127908.76    127914.55    170.54321    36.074889 
162436000    296.16041    230.25809    368.65826   -127938.48    127939.75   -138.40018    36.068629 
162440000    245.60608    539.11476    398.05503    -127940.2    127984.56    141.05973    36.065247 
162444000    294.58556    261.91698    332.04326   -127954.92    127990.59    -70.12628    36.066682 
162448000    322.94677    537.20856    202.23359   -127999.88    127984.56    334.97497    36.073212 
162452000    280.31415    448.93808    280.73694   -128012.52    128019.49    168.20114    36.072429 
162456000     262.0087    317.33403    257.64291   -127998.95     128048.7    59.691124     36.07688 
162460000    277.02753    299.47326    243.02439    -128016.8    128038.48     56.44887    36.077924 
162464000    310.77768    230.90087    378.72152   -128041.47    128055.33   -147.82065     36.07649 
162468000    280.43455    209.84899    440.65632   -128051.39    128075.73   -230.80733    36.072065 
162472000     275.1827    419.40963    225.48926   -128065.79    128101.03    193.92037    36.076041 
162476000    279.87414     373.6476     357.7316   -128097.12    128117.82    15.916004    36.077451 
162480000    251.28814    187.95247    178.79277   -128106.99     128139.3    9.1596939    36.079492 
162484000    273.60128    330.05774    182.28619   -128148.61    128179.05    147.77154    36.078715 
162488000    317.49242    437.29257    335.34616   -128200.47    128214.56    101.94641     36.08257 
162492000    279.37823    400.53702    286.44849   -128205.77    128226.98    114.08853    36.082377 
162496000    284.69817    140.21852    343.55713   -128214.34    128244.02   -203.33861    36.081336 
162500000    305.81382    192.62333    345.95666   -128244.26    128255.83   -153.33333    36.084428 
162504000      291.258    393.21119    359.79319   -128233.04    128239.23    33.417994    36.082906 
162508000    290.55867    502.38808    260.99058   -128267.17     128285.7     241.3975    36.080504 
162512000    290.84242    419.11039    260.99618   -128306.55    128306.03    158.11421    36.074888 
162516000    302.78063     382.5534    334.14526   -128331.85    128349.42    48.408138    36.076406 
162520000    308.02488    479.95466    417.92655   -128377.15    128391.79    62.028109    36.075336 
162524000    283.01004    152.68854    232.27269   -128389.06    128425.13   -79.584148    36.076359 
162528000    278.45078    485.16739    380.13355   -128417.61     128444.3    105.03385    36.074036 
162532000    253.24862    361.78791    331.80159   -128396.01    128445.34    29.986328    36.074369 
162536000    248.33933    210.15467    443.37602   -128414.38    128444.48   -233.22135    36.072853 
162540000    314.41623    286.43575    531.07696   -128473.31    128446.16   -244.64121    36.070324 
162544000    280.50504    237.73538    257.48478   -128477.03    128494.77   -19.749402      36.0678 
162548000    289.80945    301.56036    319.24358   -128502.64    128501.29   -17.683222    36.074794 
162552000    271.00156    356.73195     332.3637   -128482.62    128511.19    24.368246    36.073522 
162556000    302.56701    351.61005     430.9753      -128513    128517.71   -79.365244     36.06818 
162560000    269.74803    427.57831    193.96069   -128506.31    128537.01    233.61762    36.066091 
162564000    254.09825    190.62661    380.33223   -128545.02    128557.17   -189.70562    36.064981 
162568000    279.15367    422.10213    336.54387   -128571.62    128599.51    85.558261    36.066119 
162572000    266.13707    224.64669    193.31906   -128589.82    128620.02    31.327634    36.067697 
162576000    294.60473    461.21423    279.24043   -128610.42     128618.8    181.97379    36.076111 
162580000    286.38897    467.54867    353.41776   -128626.13    128644.25    114.13091     36.07777 
162584000    265.21078      478.898    352.63745   -128653.23    128676.88    126.26055     36.07438 
162588000    272.15598    201.24232    378.00291   -128667.37    128702.93   -176.76059    36.069957 
162592000    291.35617    417.84555    350.87588   -128700.09    128725.04    66.969669    36.072522 
162596000    305.54643    484.83843    410.58352   -128731.18    128748.02    74.254912    36.073354 
162600000    269.20762    279.22631    188.95549   -128736.59    128760.56    90.270813    36.079044 
162604000    318.21561    359.45157    347.91958   -128756.22    128748.88    11.531986    36.084906 
162608000    281.63845    346.29335    328.74007   -128758.13    128770.22    17.553273    36.084013 
162612000    284.01586    351.13442    351.54258   -128787.74    128802.55  -0.40815896    36.086547 
162616000    295.46236    264.08571    190.64963   -128796.89    128809.88    73.436088    36.086485 
162620000    280.25564     512.9339    250.33984   -128827.51    128849.44    262.59406    36.091681 
162624000    264.99827    201.49985    281.17871   -128868.82    128892.33   -79.678859    36.089301 
162628000    261.19596    213.81097    289.07769   -128903.83    128927.36   -75.266721     36.09145 
162632000    268.80458    213.33134    123.80546   -128919.94     128958.8    89.525883    36.087868 
162636000    303.29359    494.67164    454.20878   -128949.09    128967.99     40.46286    36.089303 
162640000    280.55105    321.94167    319.40908   -128957.46     129003.6    2.5325933    36.089017 
162644000    266.12748    229.15028    444.47493   -128975.24     128999.9   -215.32465    36.093419 
162648000    285.69599    387.65472    312.33991   -128997.77    129039.92    75.314815    36.091442 
162652000    263.02711    455.04712    304.26337   -129004.78    129054.59    150.78375    36.089422 
162656000    331.45725    209.22072    385.41387   -129060.02    129061.41   -176.19315    36.088466 
162660000    299.40222    245.57618    244.50757   -129050.24     129061.9    1.0686149    36.086591 
162664000     274.8549    464.78318    257.20134   -129067.28    129079.72    207.58184     36.08059 
162668000    296.83116    223.06865    292.18079   -129077.81    129089.65   -69.112139    36.074652 
162672000    309.46305    386.85895    275.09115   -129102.48    129089.28    111.76781    36.073882 
162676000      268.087    235.18381    366.86853   -129103.93     129136.1   -131.68472    36.074579 
162680000    268.67852    299.03389    358.94681   -129107.68    129133.71   -59.912921    36.079925 
162684000     272.4895    438.63869    400.12242   -129127.17    129153.13    38.516274    36.082043 
162688000    274.45014    316.86555    304.43205   -129136.69    129168.32    12.433503    36.077562 
162692000    247.78787    287.60557     238.6817   -129156.87    129209.46    48.923866    36.076595 
162696000    307.36826    483.10918    411.77929   -129210.28    129200.23    71.329889    36.074067 
162700000      277.879    294.27933    239.14776   -129203.92    129240.77    55.131565    36.072741 
162704000    304.74469     351.5797    538.64954   -129207.89    129218.96   -187.06984    36.073771 
162708000    301.63173    150.05988    198.46164   -129229.61    129232.56   -48.401765    36.073817 
162712000    274.99724    263.37312    340.65202   -129228.46    129267.41   -77.278896    36.072439 
162716000    285.53338    243.50069    242.20632    -129268.9     129281.2    1.2943775     36.07466 
162720000    314.44796    343.55357    486.36255   -129295.85    129305.76   -142.80898    36.076815 
162724000    264.69765    199.72569    456.76625   -129343.76    129353.12   -257.04055    36.075938 
162728000     300.2617    460.61582    484.03892   -129381.37    129398.77   -23.423104    36.081196 
162732000    289.63475    355.34379    343.92234   -129409.97    129420.45    11.421456    36.078025 
162736000    273.29006    253.46783    423.58208   -129436.83    129456.35   -170.11426    36.076682 
162740000    285.23646    489.45787    316.58921   -129453.44    129497.07    172.86866    36.071223 
162744000    255.33176    246.25791    257.04752   -129481.69     129524.5   -10.789609    36.071558 
162748000    266.53252     385.6857    309.89005   -129521.63    129562.03     75.79565    36.071971 
162752000     272.4835    334.21521    228.78682   -129523.41     129554.9     105.4284    36.073605 
162756000    298.89559     322.6463    359.73424   -129541.26     129551.3   -37.087937    36.067242 
162760000    280.56188      300.936    288.84731   -129548.03     129586.6    12.088686    36.069307 
162764000    298.26454    366.94184    232.72883   -129580.25    129617.78    134.21301    36.072298 
162768000    289.02544    286.79228    390.41945   -129592.45    129614.04   -103.62717    36.071401 
162772000    289.37275    543.22037    216.94057   -129600.03    129629.07     326.2798    36.072555 
162776000    265.97051    278.00679    268.08018   -129608.98    129646.54    9.9266034    36.076848 
162780000    294.51972    440.40978    377.58229   -129614.04    129634.56    62.827488     36.07668 
162784000    256.57001    262.79688    329.83317   -129636.42    129678.31   -67.036289    36.075179 
162788000    252.57022    293.79312    346.02549    -129676.5    129710.34   -52.232371    36.078199 
162792000    279.29315    334.87875     255.5552   -129697.37    129716.93    79.323557    36.076148 
162796000    256.91617    357.70756    400.17117   -129701.66    129738.26   -42.463612    36.075904 
162800000    265.53523    290.99459    280.01731   -129734.79    129759.25    10.977282    36.072931 
162804000    293.31093    351.32621    451.22295   -129749.37    129754.54   -99.896738    36.070031 
162808000    275.74819    378.74643    214.99642   -129771.42    129783.48    163.75001    36.074357 
162812000    267.25826    350.33018    229.38486   -129776.18    129823.47    120.94532     36.07486 
162816000    289.53904    160.13141    521.66066   -129827.95    129849.87   -361.52925    36.070319 
162820000    291.31874    663.59246    323.19513   -129830.97    129844.47    340.39733    36.077499 
162824000     288.9566    524.60745    353.92693   -129855.91    129877.84    170.68052    36.076774 
162828000    289.43636    234.16775    390.23202   -129898.15    129912.03   -156.06427     36.07225 
162832000    284.35672    419.73113    336.57503   -129945.02    129953.81    83.156094    36.080499 
162836000     311.7953    203.69615     474.0577   -129950.23    129972.72   -270.36155    36.084153 
162840000    250.91128     425.2537    208.52815   -129961.14    129989.29    216.72555    36.082791 
162844000    292.33084    152.49076    334.93361   -129984.05    130001.21   -182.44285    36.089424 
162848000    300.45049    405.95848    204.72632   -130018.54    130030.95    201.23216    36.092067 
162852000    297.58999    386.86924    196.23702   -130041.95    130037.29    190.63222     36.08832 
162856000    288.56114    422.54483    427.76855   -130036.44       130049    -5.223723    36.081502 
162860000    286.62747    295.48262    170.25387   -130037.49    130071.18    125.22874    36.076339 
162864000    247.66868    274.54539    259.77437   -130046.26    130096.77    14.771015    36.080345 
162868000    288.87877    250.15082    457.39407   -130064.82    130085.53   -207.24325    36.081115 
162872000    284.32216    388.02667    504.02246   -130108.07    130131.67   -115.99579    36.084648 
162876000    279.19895    402.63352     314.6563   -130122.96    130159.76    87.977223    36.086124 
162880000    280.43272    333.23853    398.53053   -130146.64    130163.62   -65.291992    36.091751 
162884000    277.02922    286.46931    217.20298   -130201.99    130224.56    69.266326    36.094349 
162888000    267.48964    418.60076    382.98074   -130189.32    130224.52    35.620014    36.095529 
162892000    306.38948    320.59529    384.49232   -130239.87    130237.99   -63.897028    36.097072 
162896000    260.87151    315.82367    393.31019   -130267.42    130281.48   -77.486519    36.100386 
162900000    315.89161    641.18477    231.35469   -130310.55    130289.58    409.83007    36.106407 
162904000    283.31627    243.70264    320.14436   -130323.08    130344.16   -76.441721    36.101583 
162908000    290.73633    365.89107    326.30252   -130317.99     130351.8    39.588545    36.099645 
162912000    263.00732    366.84606    360.94375   -130332.16     130373.9    5.9023104    36.102232 
162916000    287.28945    364.15633    376.25478   -130334.32    130365.09   -12.098449    36.103134 
162920000    269.58481    403.99789    315.64492   -130371.72    130395.12    88.352974    36.105168 
162924000    304.12291    402.73164    175.17062   -130396.89    130398.41    227.56102    36.106186 
162928000    310.11365    370.10566      419.326   -130402.09    130405.83   -49.220334    36.102453 
162932000    296.25617    546.21393    553.27783   -130395.94    130422.24    -7.063903    36.105064 
162936000    264.15926    472.60588    361.74281   -130439.06    130466.11    110.86307    36.106647 
162940000    279.72719    306.92465    373.04566   -130460.45    130468.67   -66.121013    36.106303 
162944000    276.85053    282.77429    211.19935   -130480.98    130486.76    71.574938     36.10643 
162948000    277.53302    382.99073    378.37445   -130489.01    130522.68    4.6162753    36.108837 
162952000    281.11292    327.05667    510.48055   -130501.07    130536.14   -183.42388    36.109441 
162956000    294.44793    298.27324     275.1053   -130516.32    130545.98    23.167941    36.099598 
162960000    272.57273    273.51628    328.22588   -130536.45    130558.08     -54.7096    36.098828 
162964000    241.50539    365.89462    234.67641   -130516.99    130577.51    131.21821     36.09056 
162968000     301.4697    278.82221    442.17941   -130552.31    130570.87    -163.3572    36.088842 
162972000    267.52192    427.92948    368.31224    -130574.4    130605.49    59.617237    36.085565 
162976000    258.42923    271.17939    449.89776   -130598.16    130634.51   -178.71837    36.083727 
162980000    243.74782    209.39154    188.19769   -130617.54    130652.76    21.193853    36.086479 
162984000    314.41427    303.28189    255.09297   -130656.95    130660.07    48.188918    36.089717 
162988000    263.15153    221.86352     385.9117   -130652.64    130676.27   -164.04818    36.082493 
162992000     257.7692     302.1406    561.00957   -130653.48    130704.05   -258.86897    36.084386 
162996000    270.63738    350.70205    210.26756   -130674.09    130717.15    140.43448     36.08368 
163000000    276.52442    242.03947    164.67788   -130674.53    130711.03    77.361588    36.087498 
163004000    299.36069    312.79944    419.05583    -130699.1    130718.02   -106.25639    36.084926 
163008000    280.04468    410.77441    440.44182   -130720.25    130741.62   -29.667409    36.090276 
163012000    296.99301     484.3016    415.72175   -130735.97    130758.59    68.579845    36.088054 
163016000    279.60101     215.9172    212.98976   -130762.84    130780.67     2.927439    36.095768 
163020000     307.1042    482.82489    313.58739   -130784.88    130782.37    169.23749    36.094837 
163024000    294.56846    241.23711    373.03623   -130792.82    130792.36   -131.79912    36.098156 
163028000    279.07003    416.82566    248.83687   -130800.69    130822.87     167.9888    36.098494 
163032000    299.48645    384.42273    270.22308   -130831.51    130826.16    114.19965    36.101194 
163036000    263.67912    403.84133    262.91999   -130844.22    130866.48    140.92134    36.105505 
163040000    270.13692    566.43625    147.96509   -130855.34    130894.06    418.47116    36.108451 
163044000    261.05547    243.38163    294.63981   -130873.91    130905.74   -51.258184     36.10893 
163048000    280.76463    388.61897    510.55873   -130891.17    130904.75   -121.93976    36.104404 
163052000    300.25529    351.38163    274.58213   -130910.37    130916.86    76.799508    36.107755 
163056000     292.1014    259.79949    294.04039   -130936.34     130952.6   -34.240896     36.11313 
163060000    301.94657    217.49006    452.44499   -130954.45    130959.11   -234.95493    36.114452 
163064000    295.15332    470.12093    248.38187   -130979.97    130986.13    221.73905    36.117292 
163068000    301.45573     436.3154    342.00504   -131005.36     131028.7    94.310358    36.117022 
163072000    320.44985    815.43198    302.00247   -131021.23    131021.74    513.42951    36.123505 
163076000    283.07755    156.57921    422.65155   -131017.94    131037.58   -266.07234    36.122973 
163080000     317.5962    262.55432    357.37406   -131036.19    131049.94   -94.819745    36.120804 
163084000    275.20106    344.80646    336.13253   -131053.12    131075.09    8.6739278    36.114223 
163088000    310.38969     487.0665      211.829   -131084.49    131092.66    275.23749    36.112569 
163092000    298.37392    307.33351    420.44786   -131106.89     131131.6   -113.11435    36.113488 
163096000    284.45003    279.49117    377.34276   -131119.04    131140.27   -97.851591    36.117144 
163100000    271.88325    284.30223    223.39697   -131127.83    131160.42     60.90526    36.112121 
163104000    308.54905    302.78876    260.72339   -131173.68    131158.82    42.065372    36.111373 
163108000    284.89535    323.89987    392.50078   -131171.15    131201.08   -68.600911     36.10751 
163112000    303.50389    237.35569    379.27912   -131213.97    131208.17   -141.92343    36.103867 
163116000    279.91029    475.07703    458.26717   -131211.75    131255.35     16.80986    36.103291 
163120000    282.68989    289.18982    299.05776   -131259.71    131265.94   -9.8679417    36.103088 
163124000    308.43876    376.73195    520.80125    -131289.9    131303.86   -144.06931    36.103249 
163128000    275.75003    355.51897    350.77007   -131296.43     131322.5    4.7489058    36.106328 
163132000    257.26538    233.86286    206.65132   -131290.11    131345.47    27.211539    36.106967 
163136000    308.28383    584.63691    201.50933   -131321.18    131337.82    383.12758    36.108051 
163140000    243.46798      241.841     191.8838   -131317.58    131359.54    49.957201    36.103833 
163144000    292.82815    531.28694    410.43687   -131371.17    131386.31    120.85007     36.10375 
163148000    283.42523    238.22615    254.12196    -131373.2    131396.11    -15.89581    36.101654 
163152000    300.36334    217.14748    311.38328   -131418.06    131428.95   -94.235798    36.098356 
163156000     293.5471    386.86657     492.6174   -131445.94    131445.99   -105.75084    36.101657 
163160000    265.50012     285.2716     159.0608   -131452.46     131499.6    126.21079    36.104178 
163164000    279.27154    314.13664    306.00876   -131495.18    131520.01     8.127877    36.105486 
163168000     287.3312    380.18841    318.49625   -131487.05     131536.2    61.692161    36.105329 
163172000     285.7769    442.15233    378.02539   -131522.98    131560.28     64.12694    36.104621 
163176000    287.40633    315.55362    342.28214    -131597.9    131608.61   -26.728521    36.109347 
163180000    298.89115    248.89955    210.50165   -131597.22    131617.71    38.397898    36.110894 
163184000    268.27826    279.99291     226.8223      -131615    131642.28    53.170611    36.112836 
163188000    277.92484    328.63685    184.65408   -131653.29    131677.24    143.98277    36.115975 
163192000    267.10598    374.28581    367.30443   -131677.76    131721.39     6.981382    36.118731 
163196000    305.50811    307.03638    331.30499   -131722.09    131730.99   -24.268608    36.111466 
163200000    278.61505     483.1174    389.80404   -131735.95    131761.56    93.313351    36.117269 
163204000    274.23183    446.18535    289.72015   -131739.82    131782.68    156.46521    36.120017 
163208000    256.95317    161.47481    211.38737   -131774.25    131819.02   -49.912561    36.121121 
163212000     283.8654    503.78384    315.86349   -131831.39    131858.18    187.92035    36.126495 
163216000     285.4841    231.72572    265.57772   -131861.47    131884.79   -33.852003    36.123653 
163220000    294.89561    267.81347    451.80693   -131885.37    131893.27   -183.99346    36.122522 
163224000    283.25454    227.28248     270.7669    -131895.8    131919.52   -43.484419    36.128388 
163228000    285.10749    317.21079    465.62463   -131940.39    131934.84   -148.41383    36.123886 
163232000    280.08834    371.09125     400.3188   -131961.09    131986.01   -29.227551    36.122186 
163236000    279.89787    386.13436    556.77426   -132000.14    132014.17    -170.6399    36.118155 
163240000    287.70677    559.26791    255.98279   -132036.59    132045.57    303.28512    36.123633 
163244000    286.90063    505.82578    251.10147   -132040.05    132060.38     254.7243    36.125292 
163248000    272.43928    546.00232    419.43393   -132047.66    132084.49    126.56838    36.119322 
163252000    286.30614    244.71886    223.44485   -132062.88    132076.25    21.274011    36.126011 
163256000    265.82603    233.08313    349.56867   -132056.03    132075.98   -116.48553    36.129109 
163260000     257.6289    355.30047    224.12399    -132041.1     132073.7    131.17648    36.133453 
163264000    225.33044    352.67656    148.02546   -132056.44     132112.1     204.6511    36.132605 
163268000    290.58026    326.38864    368.93856   -132114.76    132118.73    -42.54992    36.132235 
163272000    279.38572     408.0309    430.43031   -132128.49    132155.03   -22.399414    36.130757 
163276000    322.12063    657.19379    217.52722   -132149.16    132152.08    439.66657    36.136537 
163280000    291.79335    268.56522    252.12277   -132155.74     132174.8    16.442457    36.131911 
163284000    264.78414    320.81883    378.79108   -132170.68    132194.17   -57.972249    36.130855 
163288000    274.78544    382.26147    395.00312   -132175.13    132193.77   -12.741654    36.137184 
163292000    251.65593    232.75928    292.22012   -132175.48    132233.32   -59.460838    36.136278 
163296000    287.60772    534.22593    224.89708   -132212.44    132220.74    309.32885    36.133176 
163300000    305.68214     513.5628    436.00573   -132221.64     132225.7    77.557069    36.137023 
163304000    273.58916    296.69062    371.75355   -132236.93    132258.66   -75.062937    36.138126 
163308000    294.25559    509.92942    174.12879   -132232.29    132247.63    335.80063    36.140299 
163312000    284.71208    351.57721    401.67708    -132286.4    132301.51   -50.099868     36.14135 
163316000    299.72296    244.14429    455.24776   -132313.19     132320.7   -211.10347    36.138718 
163320000    273.17284    418.26918    457.92632   -132324.21    132348.68   -39.657144    36.144117 
163324000    259.31557    385.31321    404.38245   -132332.11    132378.81   -19.069235    36.143583 
163328000    283.23614     348.6114     206.4922   -132367.54    132401.63     142.1192    36.145702 
163332000    291.09532    360.74823    366.18674   -132414.49    132420.52   -5.4385037    36.147697 
163336000    311.72009    309.40462    315.62044    -132440.9    132450.53   -6.2158184    36.144365 
163340000     287.7676    443.17731     332.8526   -132439.63    132465.78    110.32471    36.141324 
163344000    267.25931    279.32865    319.69959   -132437.79    132479.82   -40.370932    36.141326 
163348000    286.76422    306.15717    185.83655   -132456.97    132492.96    120.32061    36.146088 
163352000    284.19627    368.27998    314.07107   -132493.83    132522.84    54.208907    36.139838 
163356000    279.68925    427.10191     244.6783   -132494.49    132522.95     182.4236     36.13872 
163360000      292.102    400.11804    298.24848   -132526.02    132540.54    101.86956    36.135703 
163364000    280.01517     387.7974    194.54365   -132556.38    132578.56    193.25374     36.13505 
163368000    284.66692    333.36293    411.75271   -132569.32     132597.2   -78.389781     36.13404 
163372000     285.1128     256.1092    243.59067   -132596.77    132628.09    12.518532    36.133806 
163376000    265.67125    292.41916     310.8136   -132608.41    132653.72   -18.394436     36.13441 
163380000    256.98513    251.09916    389.65706   -132618.65    132669.94    -138.5579     36.13678 
163384000    277.79616    506.57109    223.05402   -132647.24    132672.37    283.51707    36.132074 
163388000    253.54998    354.38207    324.25472   -132658.65     132702.3    30.127346    36.131922 
163392000    315.65904    544.45326    210.26121   -132727.26    132711.68    334.19205    36.131087 
163396000    287.02197    376.76747    205.03751   -132716.06    132745.36    171.72996    36.132789 
163400000    297.49776    405.77876    383.37775   -132731.01    132734.24     22.40101    36.135314 
163404000    271.61881    269.85679    313.83792   -132735.62    132768.23   -43.981127    36.128387 
163408000    306.64182    363.09778    269.19105   -132747.52    132770.06    93.906725    36.126742 
163412000    274.73504    305.22875    424.73696   -132770.88    132800.99   -119.50821    36.126001 
163416000    305.59041    428.05334     339.6136   -132809.61    132829.74     88.43974    36.129554 
163420000    253.06282    417.19401    278.00957   -132821.23    132851.73    139.18444    36.133442 
163424000    267.26303    401.07357    600.65395   -132817.18    132868.83   -199.58038    36.130939 
163428000    283.26204     207.1136     350.6419   -132833.24    132869.06   -143.52831    36.133144 
163432000     275.0564    551.88198    315.54733   -132852.99    132887.57    236.33464    36.135776 
163436000    273.99391    637.47073    299.50765   -132866.62    132906.85    337.96308     36.13832 
163440000    294.39305    275.59919    454.20661   -132904.39    132920.64   -178.60741    36.135141 
163444000    262.22222    241.18582    521.77727    -132923.2    132946.19   -280.59144    36.133178 
163448000    307.77756    490.80043    606.85268    -132948.5    132952.33   -116.05225    36.136648 
163452000    285.03253    252.48893    411.14193   -132946.96     132963.6   -158.65301     36.13918 
163456000    287.00801    264.11702    407.68766   -132949.54    132978.15   -143.57064    36.138831 
163460000    257.84405     202.8821    432.42815   -132952.21     133012.9   -229.54604    36.138933 
163464000    266.88348    349.86256    276.51917   -132982.64    133031.13    73.343389    36.144283 
163468000    277.60278    422.34967    272.59962   -132991.83     133015.9    149.75006    36.142135 
163472000    297.30537    408.59386    361.22652   -132996.78     133022.6    47.367331    36.143973 
163476000    267.87921    222.65935    326.88183   -133001.34     133036.7   -104.22248    36.138427 
163480000    286.29662    353.63062    400.53897   -133016.88    133047.29   -46.908349    36.137981 
163484000     278.0842    358.70679     413.1405   -133021.38    133063.26   -54.433712    36.135492 
163488000    282.18787    550.98052    376.86859   -133045.72    133079.01    174.11193    36.133116 
163492000    258.28681    512.49727    250.12833   -133065.37    133100.96    262.36894    36.127717 
163496000    300.54658    387.27577    385.39956   -133114.64    133115.63    1.8762116    36.126581 
163500000    292.53343    344.55786    523.42375   -133098.63    133115.18   -178.86589    36.129741 
163504000    300.90878    298.59777    329.93493   -133120.58    133131.45   -31.337159     36.12847 
163508000    306.03265    213.71279    334.35219   -133130.23    133145.13    -120.6394    36.127817 
163512000     283.9601     282.5304    222.95849   -133171.23    133187.75    59.571908    36.129421 
163516000    272.97987    263.32092    215.03245   -133171.61    133214.92    48.288476     36.12717 
163520000    269.40404    335.94417     292.4801      -133182    133219.68    43.464071    36.125786 
163524000    313.97228     296.7432    274.23816   -133216.31    133222.08    22.505043    36.130702 
163528000    295.55387    350.44081    439.32942   -133220.31    133238.46   -88.888613    36.133969 
163532000    279.92878    309.26626    353.03731   -133239.81    133269.01   -43.771046    36.133392 
163536000    297.57433    397.19629     423.1718   -133256.08    133273.45   -25.975509    36.130008 
163540000    277.86325    426.87223    213.65324   -133314.45    133333.99      213.219    36.132957 
163544000    259.78584    210.60637    398.77942   -133340.51    133378.91   -188.17305     36.12941 
163548000    283.77704    347.10514    192.58336   -133383.89    133417.33    154.52178    36.133779 
163552000    259.53598    336.58251    302.61441   -133432.55    133451.67    33.968099    36.130432 
163556000    266.64165    252.70438    201.88119   -133442.94       133486    50.823191     36.12861 
163560000    277.35165      380.743    349.03828   -133481.99    133505.86    31.704721     36.12948 
163564000    266.76511    305.72857    237.76438   -133499.04    133535.15    67.964185    36.127524 
163568000    256.98873    332.12218    161.34584   -133519.54    133554.59    170.77634    36.133284 
163572000    276.21041    393.57947    345.19081   -133543.67       133563    48.388664    36.133327 
163576000    280.41547     189.0779    425.68322   -133556.44     133576.4   -236.60532    36.135613 
163580000    301.23081    374.13285    382.98715   -133564.98    133580.98   -8.8543045    36.134786 
163584000    278.86792     466.2775    272.75093   -133567.24    133588.63    193.52657    36.136996 
163588000    279.76219    370.28216    421.81635    -133586.6    133620.59   -51.534199    36.136653 
163592000    291.88251     425.4686     333.8613   -133579.65    133595.34    91.607306    36.134197 
163596000    294.09235    426.33705    281.88119   -133599.51    133617.81    144.45587    36.134967 
163600000    290.69528    319.85563    283.42008   -133625.58    133635.91    36.435556    36.132853 
163604000     254.0849     343.2745    408.01262   -133639.96    133674.47   -64.738119    36.128303 
163608000    289.12319      217.079    227.48399    -133670.2    133685.19   -10.404991    36.126812 
163612000    274.24057    371.78553    350.90141   -133687.34    133709.11    20.884117    36.130867 
163616000    281.40565    506.28244    337.05771   -133716.09    133743.12    169.22473    36.138279 
163620000    301.09832    275.71024    434.08727   -133745.43    133747.91   -158.37703     36.13613 
163624000    303.41718    402.54568    419.16644   -133762.25    133768.52   -16.620758    36.136057 
163628000    287.68561    422.79171    470.40107   -133763.97    133773.05    -47.60936    36.136753 
163632000    285.08271    379.00101    331.34964   -133796.77    133820.97    47.651365    36.135926 
163636000    311.37675    260.08117    362.37142   -133837.71    133844.77   -102.29025    36.136915 
163640000     284.0904    416.96071    230.63424   -133867.24    133880.52    186.32648    36.138113 
163644000    270.70209    426.67959    201.33962   -133880.68    133902.03    225.33997     36.13997 
163648000    274.22235    404.37911     320.1447   -133888.96    133913.18    84.234413    36.136581 
163652000    278.71464    285.96196    203.52403   -133925.34    133941.84    82.437924     36.12859 
163656000    297.61552     458.6159    349.85338   -133953.79    133968.25    108.76252     36.13279 
163660000    273.03788    376.38211    294.66503   -133989.06    134008.62    81.717084    36.133795 
163664000    296.52013    318.24425     258.1984   -134001.26    134014.62    60.045853    36.133902 
163668000    289.28362    474.78372    310.59299   -134044.05    134044.02    164.19073    36.135113 
163672000      286.282    430.03933    316.03706   -134025.98    134047.82    114.00227    36.137903 
163676000    299.75244    513.86482    314.87994   -134077.69    134070.76    198.98488    36.138641 
163680000    297.04685    291.49863    251.27742   -134086.05    134096.68    40.221215    36.136771 
163684000    303.21954    363.77441     295.7338      -134120    134129.68    68.040612    36.132909 
163688000     279.0177    272.03216    414.01902   -134121.65    134150.84   -141.98686    36.135037 
163692000    275.64419    378.59484    379.99395   -134144.48    134176.92   -1.3991065    36.133514 
163696000    274.25954    302.32007    338.97567   -134158.17    134192.08     -36.6556    36.139048 
163700000    286.16358    472.35105    267.78398   -134159.42    134181.56    204.56707    36.144153 
163704000    296.33876    233.13391    433.54984   -134177.07    134181.98   -200.41593    36.149485 
163708000    314.17432    363.31488    339.59207   -134192.68    134184.35     23.72281    36.150203 
163712000    291.54227    444.74582    477.57422   -134193.55    134206.01   -32.828399    36.147321 
163716000    270.51966    374.17231    278.26056   -134223.54    134239.02    95.911749    36.144412 
163720000    259.64112    379.85683    415.89286   -134237.11    134270.55   -36.036029    36.143672 
163724000    299.81591     495.6514    466.43275    -134240.4    134252.95    29.218648    36.144886 
163728000    294.63943    478.56433    227.76034   -134256.41    134291.85    250.80399    36.150379 
163732000     276.6919    450.37139    278.58818   -134301.16     134338.7    171.78321    36.153765 
163736000    278.98164     480.8681    420.84333   -134340.23    134359.02    60.024768    36.156062 
163740000    263.89442    397.00812    467.26238   -134358.59    134388.47   -70.254263     36.15633 
163744000    292.16745    306.97435    186.96133   -134381.84    134380.91    120.01303    36.151137 
163748000    288.31809    468.92824    244.25736   -134384.02    134403.32    224.67088     36.15386 
163752000    273.26757    351.56692     369.2846   -134390.33    134414.26    -17.71768    36.156822 
163756000    272.40145    448.87144    527.06515   -134404.43    134426.57   -78.193713    36.163047 
163760000    277.05658    340.81083    340.66324   -134412.46    134443.36   0.14758635    36.161553 
163764000    254.62787    384.53081    349.38907   -134418.41    134462.73    35.141742    36.164035 
163768000    271.35646    494.02526    222.51119    -134433.3    134457.78    271.51407    36.166332 
163772000    282.92754     209.4163    300.69402   -134448.39       134463   -91.277718    36.162083 
163776000    322.97798    545.49726    324.37103   -134478.18    134483.43    221.12623     36.16029 
163780000    291.90252    256.34374    381.11998   -134505.98    134515.47   -124.77624    36.155717 
163784000     270.1822    452.09612    501.14901    -134520.9    134562.52   -49.052889    36.156596 
163788000    276.31427     324.2315    266.01146   -134551.26    134589.22     58.22004    36.155169 
163792000    278.43359    486.64602    260.05806   -134577.37    134600.09    226.58796    36.153336 
163796000    265.93234     246.6074    392.44551    -134580.9    134620.26    -145.8381    36.154503 
163800000    243.51297    322.99712     238.6942   -134580.16     134632.7    84.302923    36.159903 
163804000    265.55249    380.58811    260.36683    -134597.1     134630.3    120.22129    36.159482 
163808000    273.04998    275.21459    355.76694   -134600.71    134635.83   -80.552358    36.157844 
163812000    294.63732    335.05113    383.43515   -134614.16    134653.35   -48.384021     36.15519 
163816000    273.02923    275.44097    330.71973   -134654.51    134671.17   -55.278764    36.154629 
163820000    268.30126    237.19017    283.57435   -134678.15    134694.15   -46.384172    36.160205 
163824000     280.6812    429.62476    236.84178   -134699.28    134712.38    192.78299    36.163235 
163828000    296.54958    319.02671    281.90333   -134712.97    134726.38    37.123373    36.163955 
163832000    265.42352    334.41448    385.97482   -134740.97    134784.04   -51.560335    36.165983 
163836000    264.63315    365.43475    305.90148   -134791.01     134824.6    59.533276    36.166999 
163840000    279.42664     172.7409    314.85145   -134821.26    134848.44   -142.11055    36.162685 
163844000    250.37737    339.96519    187.32577   -134821.06     134859.8    152.63941     36.15727 
163848000    269.82503    454.08489    177.20632   -134846.21    134870.33    276.87857    36.158825 
163852000    306.11869    479.23272    438.40754   -134840.55    134840.77    40.825179    36.157832 
163856000    291.82017    489.31798    324.68834   -134854.74    134861.65    164.62964    36.155521 
163860000    295.56623    249.20662    387.72552   -134879.21    134894.51   -138.51889    36.154372 
163864000    283.75187    257.06451    307.01468   -134918.76     134943.8   -49.950174    36.155474 
163868000     268.2696    396.85945     347.7215   -134945.35     134964.8    49.137947    36.152892 
163872000     279.4786    286.30446    287.09813   -134971.99    135002.07  -0.79366523    36.146658 
163876000    262.97907     252.1652      277.666   -134980.25    135003.11     -25.5008    36.142697 
163880000    282.50692    395.32478    444.68145   -135004.03    135009.55   -49.356668    36.138172 
163884000    281.42979    537.84223    317.96738   -135013.15    135034.57    219.87485    36.135905 
163888000    263.98713    341.70987    249.33597   -135036.84    135068.21    92.373901    36.134752 
163892000    253.55926    302.67269    219.73871   -135039.85    135081.67    82.933985    36.140124 
163896000    287.46573    361.49337    291.39124   -135079.52    135097.21    70.102133     36.13915 
163900000    288.45739    540.96603    243.26337   -135106.09    135123.74    297.70266    36.138402 
163904000    301.53442    495.79769    289.49548   -135114.51    135135.04    206.30222     36.14317 
163908000    281.81881    309.03804    251.61147   -135140.39    135166.02    57.426569    36.144254 
163912000    291.47279    545.49694    333.69332   -135150.94    135177.07    211.80362    36.147469 
163916000     281.0282    223.67176    500.50394   -135161.55     135193.8   -276.83218    36.150418 
163920000    282.78892    346.02302    308.81968   -135206.28    135229.96    37.203339    36.149075 
163924000    284.26821    300.52054    568.62882    -135240.5    135259.15   -268.10828    36.148316 
163928000    263.61255    454.88358    395.43763   -135239.65    135284.31    59.445949    36.140163 
163932000     327.7243    570.98797    247.21448   -135291.42    135299.76     323.7735    36.140039 
163936000    257.99544    456.84825    344.49423   -135296.34    135323.88    112.35402    36.135847 
163940000    266.30084    217.57068    552.70076   -135302.09    135363.05   -335.13009     36.13554 
163944000    310.43867    286.03765    404.96521   -135353.69    135358.06   -118.92756    36.134215 
163948000    253.97091    152.15206    270.83288   -135349.69    135377.84   -118.68082    36.133832 
163952000     289.6667    318.57332    218.70603   -135376.96    135399.92    99.867298    36.131731 
163956000    295.35587    125.31777    234.34891   -135406.59    135426.11   -109.03113    36.130215 
163960000    289.61219     387.6919    376.76212   -135413.23    135449.74    10.929788    36.128476 
163964000    278.54754    303.06963    359.51126   -135459.13    135483.16   -56.441623     36.13235 
163968000    257.90635    293.64099    280.37616   -135479.75    135512.15    13.264833    36.134137 
163972000    284.52511    514.49142    452.32011   -135495.24    135523.24    62.171307    36.134683 
163976000    245.17515    196.51952    264.08506   -135514.01    135546.65   -67.565538    36.132553 
163980000    268.98029    268.89088    368.54675   -135533.67    135546.84   -99.655866    36.132794 
163984000    291.64012    299.35679    199.85057   -135568.78    135587.24    99.506214    36.134749 
163988000    270.22118    545.96434    341.88255   -135574.58    135598.69    204.08179    36.133572 
163992000      286.689    391.77957    374.65955   -135592.56     135601.6    17.120021     36.13519 
163996000    297.40498    334.24663    413.31191    -135619.1    135624.89   -79.065283    36.138903 
164000000    273.73546     356.3807    280.21937   -135624.14    135651.32     76.16133    36.140454 
164004000    283.92976    339.87875    290.79467    -135646.9    135686.46    49.084081    36.139195 
164008000    293.92603    341.57927    176.70142   -135653.93    135664.99    164.87785      36.1386 
164012000     295.4215     553.5502    301.82896    -135698.7    135711.54    251.72123    36.132348 
164016000    291.28117    249.51496    224.08202   -135714.72    135734.62    25.432939    36.130971 
164020000    298.26543    211.31687    351.88194    -135742.4    135774.59   -140.56506    36.130946 
164024000       296.93    325.50621    612.38674   -135773.89    135793.75   -286.88053    36.130228 
164028000    280.96899    393.16441    280.19047   -135782.36    135804.35    112.97395    36.132621 
164032000    284.65125    283.35806     328.2782    -135790.3    135827.91   -44.920134    36.126139 
164036000    297.69487    274.22286    402.31154   -135810.22    135840.49   -128.08868    36.126429 
164040000    271.90793    354.80607    353.26942   -135866.92    135895.71    1.5366555    36.126256 
164044000     272.7335    302.46534    248.31865   -135896.25    135922.05    54.146689    36.125119 
164048000    272.01563     300.0823    344.72502   -135895.63    135921.01    -44.64272    36.125169 
164052000    307.09138    685.19292    455.08024    -135931.7       135938    230.11268    36.121307 
164056000    301.01957    380.71287    316.21959   -135934.48    135956.35    64.493284    36.121008 
164060000    281.71165    241.07556    290.77974   -135964.36    135973.69   -49.704179    36.118164 
164064000    277.30513    542.92673    243.85421   -135989.41    136023.59    299.07252    36.115097 
164068000    253.08815    550.87284    209.02807   -136010.07    136048.53    341.84476    36.119154 
164072000    270.29585    235.65039    296.47707   -136015.22    136049.15    -60.82668    36.124879 
164076000    286.24952    435.30916    376.97169   -136041.86    136069.12    58.337466    36.123244 
164080000     265.8278    556.13165    478.91261   -136055.11    136091.77    77.219031    36.124149 
164084000     270.6535    249.42833    244.94006   -136065.57    136096.03    4.4882771    36.129133 
164088000    295.71621    202.86313    260.77861   -136112.61    136117.04    -57.91548    36.133644 
164092000    291.47994    773.26688    272.12782   -136140.34    136141.98    501.13907    36.136089 
164096000    286.63435     188.3271    448.56942   -136148.32    136157.76   -260.24232    36.134029 
164100000    283.93023    470.37699    180.15999   -136173.82     136191.4    290.21701    36.132862 
164104000    284.01239    376.36682    237.06288   -136213.83    136231.38    139.30394    36.130076 
164108000    308.52094    419.32394    357.50837   -136226.54    136223.96     61.81557    36.130449 
164112000     267.9058    398.57714    392.39583   -136226.15    136262.41    6.1813082    36.131705 
164116000    281.50098    117.69429    422.68631   -136275.21    136305.32   -304.99202     36.12594 
164120000    283.63282    386.15113    336.56898    -136295.1    136332.08     49.58215    36.127135 
164124000    272.48894    262.80711     402.0482   -136322.23    136337.85   -139.24109    36.126974 
164128000    284.47497    432.54331    334.56127   -136343.78     136348.3    97.982039    36.124722 
164132000    293.60069    385.53659    291.97607   -136345.27    136367.35    93.560516    36.122501 
164136000    291.24872    320.56926    389.26477    -136377.7    136399.87   -68.695511    36.124085 
164140000    264.80643    408.30171    336.29881   -136391.46    136420.38    72.002896    36.127602 
164144000    267.84896    264.34461    263.32061   -136407.41    136452.58    1.0240001    36.125593 
164148000    299.83035    383.74886    434.42995   -136422.95    136446.74   -50.681087    36.124783 
164152000    244.04867    290.15771    202.40357   -136431.59    136490.22    87.754138    36.123097 
164156000     260.7819    462.32694    250.25468   -136462.93    136511.02    212.07226    36.121726 
164160000    253.27582    323.68984    240.73122   -136477.42    136528.82    82.958624    36.122894 
164164000    284.96512    278.15127    277.20827   -136486.17     136527.2   0.94300549    36.125726 
164168000    279.70038    414.50896    403.46192   -136547.74    136557.61    11.047045    36.128488 
164172000    275.83327    330.51098    581.55287   -136582.97    136624.67   -251.04189    36.128669 
164176000    268.36057    277.31332    271.18892   -136592.61    136628.33    6.1243926    36.129019 
164180000    277.97023    374.56292    434.49441   -136615.39    136639.09   -59.931489    36.126499 
164184000    275.38644    383.04821    279.85457   -136623.17    136647.65    103.19364    36.125682 
164188000     270.9501    326.63452    410.49399   -136618.35    136656.22   -83.859473    36.126002 
164192000    284.83111    369.76183    350.72745   -136672.77    136686.06    19.034385    36.122981 
164196000    309.54751    476.58539    299.33077   -136682.63    136690.82    177.25462    36.122861 
164200000    270.17315    355.16609    261.36497   -136713.77     136741.6    93.801117    36.124462 
164204000    277.63166    277.87317    365.58625   -136736.95     136761.2   -87.713074      36.1236 
164208000    288.60147    433.50845    536.54804   -136749.04     136762.8   -103.03959    36.119267 
164212000    284.65096    378.59273    346.31245   -136768.42    136775.27     32.28028    36.119254 
164216000    285.96022    356.35111    364.51843   -136781.49    136800.32   -8.1673138    36.118254 
164220000    245.27424    298.33565    250.82056   -136777.31    136824.51    47.515083    36.119856 
164224000    277.88615     395.9939    405.70225   -136795.32     136824.7   -9.7083471    36.116597 
164228000     310.5202    399.76956     263.8254   -136816.58    136828.27    135.94416    36.112192 
164232000    276.56186    541.87681    319.34129   -136818.93     136836.6    222.53551    36.110817 
164236000    282.31038    423.03577    284.34499    -136828.1    136847.76    138.69079    36.113284 
164240000    282.14118     382.3644    270.64485   -136863.32    136871.65    111.71956    36.107118 
164244000    278.05789    410.12261    259.57465    -136870.4    136906.02    150.54797    36.111153 
164248000    305.32018     288.0199    374.86158   -136914.19    136929.35   -86.841671    36.112111 
164252000    275.11494     319.1933    292.51603   -136920.13    136941.13    26.677265    36.115583 
164256000    282.36115    253.78112    324.51613   -136932.81    136968.09   -70.735012    36.118985 
164260000    279.01984    291.61178    385.95156   -136968.62    136989.47   -94.339784    36.115089 
164264000    279.95243    296.86121    186.86011   -136985.59    137038.35    110.00109    36.116273 
164268000    262.74074    390.63128    211.22049   -137013.93    137062.47    179.41079    36.118763 
164272000    270.60188     295.5589    207.49286   -137051.98       137092    88.066042    36.117734 
164276000    311.57773    702.38762    268.19793   -137101.38    137109.27    434.18968    36.123184 
164280000    276.92985    394.22854    251.85453    -137125.8    137154.01    142.37401    36.125265 
164284000    263.78846    398.23902    284.08124   -137144.35    137172.57    114.15778    36.126933 
164288000    276.03066    331.85516    249.55671   -137159.98    137183.58    82.298448    36.130678 
164292000    254.11471    306.47904    250.25999   -137169.95    137203.21    56.219045    36.130715 
164296000    289.59952      509.385    566.88073   -137205.47    137229.11   -57.495725    36.132143 
164300000    258.51758    468.47817    322.13841   -137213.88    137263.86    146.33976    36.129361 
164304000    331.65798    356.77875     285.7725   -137266.95    137248.32    71.006246    36.128509 
164308000    304.91326    361.37001    339.33034   -137266.88    137270.65    22.039665    36.130494 
164312000    285.32839    295.59374    201.24186   -137288.87    137307.81    94.351883    36.129517 
164316000    321.61317    319.88865      239.123   -137307.91     137300.9    80.765642    36.130431 
164320000    278.23579     346.5724     314.1227   -137306.43    137333.21      32.4497    36.129826 
164324000    287.02549     271.2914    473.70555   -137331.52    137352.39   -202.41415    36.128456 
164328000     286.8181    298.23565    423.16897   -137337.18    137374.92   -124.93332    36.129522 
164332000    296.19703    447.74868     382.6825   -137355.17    137377.21    65.066176    36.123138 
164336000    288.97507    419.79593    649.85675   -137402.04    137413.81   -230.06083    36.118774 
164340000    252.34642    163.50497    313.63036   -137390.35    137429.94   -150.12539    36.121348 
164344000    259.75256    231.39307    329.71691    -137404.6    137439.07   -98.323842    36.120595 
164348000    265.64626    410.98832    185.50354   -137403.37    137446.94    225.48478    36.118206 
164352000    294.83667    433.01066    227.82219   -137441.07    137472.43    205.18848    36.116701 
164356000    248.44683     409.7481     281.8876   -137449.46    137489.15     127.8605    36.114927 
164360000    263.03213    312.50043     189.8084   -137456.23    137495.83    122.69204    36.119804 
164364000    273.31095     399.7256    286.22294   -137468.86    137507.96    113.50266     36.12225 
164368000    296.97127    144.53166    400.72908   -137507.57    137530.86   -256.19742     36.11656 
164372000    304.43149    635.12027    681.28335   -137527.88    137556.64   -46.163078    36.118387 
164376000    277.47931    379.95956    224.88452   -137553.56    137580.65    155.07504    36.116261 
164380000    247.71959    296.62961     299.2063   -137570.13    137602.12   -2.5766909     36.11431 
164384000    259.61817    360.32298    303.21065   -137620.16    137648.44     57.11233    36.117277 
164388000    278.54582     336.8313    361.07528   -137613.03    137650.82   -24.243984    36.115598 
164392000    284.53724    494.55394    353.10533   -137635.55    137660.44    141.44861    36.117587 
164396000    287.84181     341.6783    247.18036   -137644.43    137666.14     94.49794    36.114923 
164400000    281.30158     292.6737    227.48944   -137649.69    137681.02    65.184268    36.114877 
164404000    291.18606    332.40139    440.16376   -137680.45    137699.99   -107.76236    36.116255 
164408000    286.91206    435.51455    351.98141   -137700.15    137714.31    83.533144    36.118183 
164412000    260.67221    323.93181    443.60896   -137708.98    137743.12   -119.67715    36.114392 
164416000    287.38192    498.41131    292.44921   -137740.85    137771.15     205.9621      36.1157 
164420000    284.59943     353.6543    406.15715   -137733.05    137774.67   -52.502857    36.111354 
164424000    280.72089    355.68651    287.34984   -137747.16    137762.51    68.336667    36.115575 
164428000    255.81679    273.53803    279.69468   -137760.34    137801.88   -6.1566481    36.118156 
164432000    272.03602    349.57246    215.23741    -137777.3    137817.26    134.33506    36.116283 
164436000     280.5489    373.52201    175.18625   -137803.69    137824.96    198.33576    36.118002 
164440000    257.60914    302.98363    432.24028   -137819.16    137837.26   -129.25665    36.117209 
164444000    282.44058    333.00757    546.39096   -137821.61    137846.03    -213.3834    36.115674 
164448000    286.01886    336.96309    339.75474   -137838.74    137864.43   -2.7916504    36.116729 
164452000    276.30155    255.14052    384.73064   -137878.03    137915.49   -129.59012    36.116817 
164456000    267.20053    407.44922     196.7954   -137896.09    137932.18    210.65382    36.116854 
164460000    280.15366    369.44936    275.42729   -137913.06    137951.05    94.022066    36.119769 
164464000      308.533    523.27839    229.91882   -137968.82     137954.8    293.35957    36.118784 
164468000    276.42759    337.97988    277.91099    -137969.8    137996.58     60.06889    36.121252 
164472000    259.31028    271.00814    428.73524   -137997.16    138032.74    -157.7271    36.115419 
164476000    279.00587    403.17565    487.57716   -138016.25    138046.07   -84.401515    36.111302 
164480000    255.52619    342.21138     262.7549   -138035.92    138071.13     79.45648    36.107799 
164484000    277.81846    232.28848     194.0514    -138043.6    138075.55     38.23708    36.108192 
164488000    243.62839    333.06149    271.89655   -138057.52    138087.34    61.164945    36.111918 
164492000     297.9727    348.06783    248.58512    -138068.7    138083.22    99.482714    36.110041 
164496000    288.35729    399.60566    362.53502      -138096     138105.9    37.070635    36.113472 
164500000    268.92482    350.63463    240.96201   -138129.92    138153.94    109.67262    36.111094 
164504000    269.52797    293.08298    239.02529   -138163.43    138195.77    54.057689     36.11343 
164508000    274.69232    323.09651     450.6348   -138197.69    138225.21   -127.53828    36.113607 
164512000    278.25972    412.91762    247.58377   -138222.94    138261.27    165.33385    36.113316 
164516000     284.8422    474.20172    326.57277   -138275.76    138285.97    147.62895    36.116215 
164520000    291.26641    401.46167    257.28174   -138305.41    138312.66    144.17993    36.117248 
164524000    275.02957    333.23949    253.61339   -138308.82    138331.03    79.626095    36.121867 
164528000    266.81356    337.06309     183.3654   -138328.26    138348.68    153.69769    36.120296 
164532000    289.44919    356.42467    283.10582   -138340.77    138360.05    73.318853    36.120364 
164536000    277.97941    296.93993    470.27604   -138359.19    138383.91   -173.33611    36.123049 
164540000    326.88296    299.16773    453.96693   -138382.54     138411.9   -154.79919    36.123888 
164544000    290.55222    325.11629    349.27445   -138421.07    138440.32   -24.158163    36.120195 
164548000    290.41643    199.97735    397.26063   -138434.13    138458.09   -197.28329    36.117997 
164552000    295.46362    685.61764    462.31518   -138464.33    138498.57    223.30246    36.119665 
164556000     289.5219    503.93488    386.35773   -138491.19    138502.86    117.57715    36.127829 
164560000    296.06463    430.58972    273.80805    -138535.6    138534.04    156.78167    36.124992 
164564000    290.90519    409.19022    296.60082   -138555.67     138562.8     112.5894    36.131093 
164568000    302.81801    207.88709    338.01227   -138570.75    138578.39   -130.12518     36.12956 
164572000    292.41346    447.59132     284.5933   -138586.36    138603.41    162.99802    36.129007 
164576000    253.58826    252.87549    389.46538   -138611.51       138657   -136.58989    36.122736 
164580000    248.67923    312.07042    412.06401   -138629.14    138678.53   -99.993592    36.122968 
164584000    258.85387    245.51413    323.22219   -138640.48    138695.28   -77.708051      36.1219 
164588000    266.51249    249.44755     396.3145    -138674.1    138720.37   -146.86694    36.121474 
164592000    294.40942    501.58982    255.61212   -138703.53    138734.66    245.97771    36.113784 
164596000    282.33995    353.27429    237.14213   -138718.03    138752.29    116.13216    36.119022 
164600000    287.64133    407.01908    250.85583   -138751.52    138771.19    156.16325    36.121382 
164604000    299.78604    435.37918    357.48183   -138752.12    138763.65    77.897354    36.119917 
164608000    311.67184    363.29373    378.94766   -138743.39    138765.63   -15.653934    36.120244 
164612000    268.94095    393.55256     530.8931   -138752.79    138775.22   -137.34054     36.12048 
164616000    298.10748    302.02336    261.18057   -138762.39    138790.43    40.842785    36.121783 
164620000      289.397    406.13089    327.39656   -138773.93    138806.51    78.734337    36.122501 
164624000    297.06757     500.4578    271.90706   -138789.75    138803.04    228.55074    36.118722 
164628000    321.82262    412.14053    329.00907   -138833.42    138811.51    83.131457    36.116227 
164632000    301.21831    574.62813    434.39382   -138844.54    138846.63    140.23432    36.114803 
164636000    290.11365    338.14954    352.11288   -138866.89    138892.25    -13.96334    36.115062 
164640000    275.99374    334.49514    412.31648   -138896.82    138915.14   -77.821337     36.12031 
164644000    277.63945    572.48099    429.52341   -138892.41    138931.06    142.95758    36.122065 
164648000    268.00028    293.12153    256.87881   -138906.44    138944.34    36.242718    36.119522 
164652000    265.18378    309.05473    299.83719   -138930.57    138952.98    9.2175374    36.114075 
164656000    287.32947     306.2188    310.33783   -138956.35    138973.87   -4.1190275    36.114009 
164660000     285.4244    298.48131    295.58983   -138993.55    139009.85    2.8914762    36.118382 
164664000    268.52236    338.17804    244.48382   -138993.13    139007.17    93.694223    36.114379 
164668000    279.72284    329.02451    247.77545   -139000.03    139024.02    81.249058    36.110289 
164672000    281.72496    511.48151    309.92067   -139008.93    139036.54    201.56084    36.117854 
164676000    280.22396    304.87105    350.30984   -139039.59    139049.64   -45.438787      36.1234 
164680000     280.1012    277.83529    255.92393   -139049.45    139074.71    21.911352    36.117976 
164684000    283.16827    226.21901     391.0967   -139053.97    139071.95   -164.87769    36.117251 
164688000    300.41277    279.37081    195.83736   -139087.25    139095.71    83.533453      36.1209 
164692000    284.37702    287.55365      336.173   -139105.97    139121.96   -48.619352    36.117174 
164696000    322.96478    319.10419    426.64782   -139122.18     139133.7   -107.54363    36.119666 
164700000    306.39581    397.58314    347.87193   -139138.48    139155.17    49.711207    36.119824 
164704000    274.83955     524.6376    267.22246   -139174.62    139196.08    257.41514    36.119852 
164708000    256.71692    351.47656    267.04557   -139136.96    139194.82    84.430989    36.119808 
164712000    302.38857    351.16813    235.08329   -139194.63    139179.23    116.08484     36.11957 
164716000    294.20421     382.9861    465.24524   -139218.29    139246.35   -82.259142    36.119492 
164720000     299.7008     568.2026    392.79849   -139264.77    139275.49    175.40411    36.120253 
164724000    287.71999    244.12339    139.34944   -139285.93    139294.43    104.77395    36.118329 
164728000    300.87289    422.45024    327.90213   -139296.47    139299.56    94.548114    36.116364 
164732000    293.16914    277.68477    377.63374   -139295.06     139324.4   -99.948968    36.114957 
164736000    250.73617    398.76594    141.66158   -139300.07    139350.04    257.10436    36.114541 
164740000    272.05603    328.82806     620.4269   -139329.67    139354.07   -291.59884    36.110732 
164744000    286.48513    351.48164    420.61374   -139369.24    139389.01   -69.132101    36.107681 
164748000    282.96998    323.42766    307.06555   -139390.48    139414.31    16.362112    36.112599 
164752000    264.34856    316.51072    284.88539   -139392.13    139425.79    31.625333    36.115735 
164756000     269.3291    196.52256    391.68294   -139418.51    139454.82   -195.16038     36.11459 
164760000     305.8968    429.35799    205.74162   -139454.19    139476.15    223.61637    36.112588 
164764000     271.8352    537.14489    293.61157    -139481.4    139508.58    243.53332    36.113618 
164768000    291.81279    273.16341     328.3627    -139509.7    139527.55   -55.199283    36.115146 
164772000    267.37699    418.99353     610.1158    -139511.2    139557.14   -191.12227    36.107479 
164776000    308.41133    240.58253    435.31538   -139540.48    139574.72   -194.73286    36.109224 
164780000    275.13211    359.08031    357.41264   -139565.66    139587.29    1.6676728    36.109296 
164784000    277.68933    338.36044    318.08955   -139594.79    139636.35    20.270891    36.100184 
164788000    291.37557    522.09232    197.70351   -139621.31    139648.71    324.38881    36.104358 
164792000    256.45927    213.94396    226.18795    -139629.6    139683.22   -12.243991    36.097262 
164796000    315.17977    454.27667    403.68531   -139669.94    139678.62    50.591358    36.097147 
164800000    260.96245    345.60146    146.82093   -139674.69    139723.24    198.78053    36.101088 
164804000    289.32057     361.6294    239.52534   -139724.25    139725.95    122.10406    36.099453 
164808000    313.69962    287.33621    382.25532   -139730.21    139717.35   -94.919116    36.102882 
164812000    268.07744    283.01051     429.1699   -139724.81    139737.59    -146.1594    36.096894 
164816000    281.33355     376.6594    395.71397   -139725.72    139727.47   -19.054577    36.098912 
164820000    324.60937     392.3296    314.94631   -139738.56    139734.94    77.383293    36.099432 
164824000    293.37795    413.46914    183.43152   -139745.19    139765.03    230.03761    36.095853 
164828000    278.98056    612.41562    169.60487   -139776.04    139799.91    442.81075    36.095476 
164832000    286.05241    295.75195    379.66661   -139778.97     139813.8   -83.914656    36.100564 
164836000    294.07248    619.26767    269.27212   -139811.87    139828.32    349.99555    36.103573 
164840000    278.79686    351.68051    416.22415   -139841.78    139854.89   -64.543646     36.10514 
164844000    270.12867    243.77726    255.12685   -139844.84    139881.09   -11.349594    36.104934 
164848000    272.91074    249.24593    204.69116   -139841.35    139884.64    44.554767    36.100505 
164852000    274.39442    411.22782    452.22316   -139891.13    139914.77   -40.995342    36.098262 
164856000    296.30684    226.52086    254.41211    -139893.8    139922.53   -27.891253    36.100896 
164860000    303.72052    541.49936    272.15599   -139920.87    139937.28    269.34337    36.097081 
164864000    292.10033    497.36333     255.8725   -139945.25    139969.65    241.49083    36.099297 
164868000    295.81796    270.95741    344.01669   -139996.26    140024.57   -73.059284    36.095917 
164872000    280.40429    315.80468    197.60131   -140033.82    140074.22    118.20337    36.094893 
164876000    281.45753    347.58349     284.1538   -140064.18     140088.2     63.42969    36.095479 
164880000     278.7502     282.5292    316.45835   -140078.49    140101.12    -33.92915    36.097164 
164884000    268.05328    254.16637    280.10417   -140096.85    140127.18   -25.937807    36.097847 
164888000    303.91093    566.63679    320.26448   -140143.66    140141.09    246.37232    36.101892 
164892000    295.55203    248.60023    194.09475   -140154.09    140161.53    54.505473    36.104552 
164896000    304.35217    402.65066     233.5341   -140179.62     140163.5    169.11656    36.102625 
164900000    288.14751    414.59403    281.24535    -140180.8    140213.92    133.34869    36.105559 
164904000    277.64544    301.57468    329.62242   -140202.93    140236.96   -28.047739    36.105273 
164908000    293.27326    550.19429    240.22814   -140241.27    140243.83    309.96615    36.104304 
164912000    288.51083    307.89867    292.03768   -140255.92    140279.56    15.860985    36.104265 
164916000    287.05774    269.80003    320.45956   -140252.69    140285.12   -50.659529    36.100712 
164920000    295.10316    438.78985    202.92667   -140290.98    140301.37    235.86318    36.104677 
164924000    289.48354    317.42024    317.93106   -140303.97     140315.7   -0.5108142    36.104721 
164928000    293.98904    404.87702    335.56727   -140324.25    140339.41    69.309746    36.104961 
164932000    289.79711    376.89533      233.951   -140323.53    140336.62    142.94433    36.102814 
164936000    271.78309    314.90915    364.38432   -140330.71    140360.61   -49.475171    36.103114 
164940000    280.50916    427.89528    373.87952   -140362.07     140374.5    54.015765    36.102969 
164944000    303.92412    304.58967    443.71333   -140402.91    140434.95   -139.12365    36.102061 
164948000    298.94173    611.31992     283.5666   -140436.16    140462.58    327.75332    36.101317 
164952000    270.17936    336.75488    264.75205   -140468.99    140481.66    72.002827    36.103773 
164956000    298.92628    258.34453    248.66362   -140488.26    140495.51    9.6809039    36.099971 
164960000    283.60615    298.24092    494.53747   -140504.21    140542.71   -196.29655     36.09861 
164964000    294.30173     351.2657    287.59315   -140544.84    140562.94    63.672549    36.095672 
164968000    293.02161    191.88128    368.09271   -140578.23    140590.92   -176.21142    36.092735 
164972000     295.7211    378.25893    278.44677   -140577.32    140589.71    99.812169    36.092634 
164976000    309.36013    368.34622    427.02663   -140604.15    140605.11   -58.680408    36.092378 
164980000    290.12305    290.54882    326.66667   -140617.05    140633.83   -36.117848      36.0915 
164984000    305.20274    193.58445     306.3622   -140643.77    140654.41   -112.77775    36.089941 
164988000    290.30719    428.44989    244.16073   -140662.86    140687.97    184.28916    36.096049 
164992000     277.5738    391.30114    423.26034   -140680.61    140711.03   -31.959208    36.101286 
164996000    292.72226    182.60229    524.10931   -140710.75     140720.1   -341.50702    36.095475 
165000000    263.85111    303.20593    372.38722   -140707.53    140748.83   -69.181287    36.091816 
165004000    255.57526    374.82812    266.80191   -140729.85    140770.42    108.02621    36.092831 
165008000    261.16893    581.39372    217.40674   -140754.86    140782.52    363.98698     36.09686 
165012000    268.45822    209.32165    511.38745   -140754.32    140776.77    -302.0658    36.098542 
165016000    328.97192    553.32199    372.78759   -140779.51    140774.65     180.5344    36.100071 
165020000    291.14393     581.7445     280.2023   -140766.75    140805.51     301.5422    36.099921 
165024000    258.59249    275.20245    312.09958   -140793.95    140831.19   -36.897133    36.100904 
165028000    275.75981    449.52571    304.07339   -140801.46    140835.38    145.45232    36.104216 
165032000    290.84097     377.7781    389.49874   -140853.56    140863.17   -11.720645     36.10304 
165036000    335.13813    489.22362    421.34267    -140882.6    140868.82    67.880949    36.105523 
165040000    280.27053    181.04204    441.11988   -140897.16    140920.15   -260.07784    36.104546 
165044000    273.69976    187.53203    198.47562   -140934.38    140965.54   -10.943591    36.101091 
165048000    294.94386    465.52294    252.02906   -140970.38    140980.26    213.49388    36.098773 
165052000    284.86738    207.74807     241.3227   -140962.71    140988.77   -33.574631    36.095704 
165056000    304.89062    310.87133    486.04802   -141009.21    140999.48    -175.1767    36.097699 
165060000      249.939    274.13994    347.32575   -141014.28    141068.81   -73.185816     36.09397 
165064000    292.32062    278.33303    434.39014   -141043.64    141070.08   -156.05711    36.095904 
165068000    269.66989    509.28898    309.45047    -141084.5     141101.6    199.83851    36.099204 
165072000     296.3676    290.91758    456.51982   -141111.74    141116.66   -165.60225     36.10107 
165076000    289.80852     255.5872    194.51643    -141116.9    141155.13    61.070771    36.100211 
165080000    308.86343    368.95348    336.45566   -141160.15    141157.97     32.49782    36.099044 
165084000    270.05985    301.92824    99.884379    -141157.3    141179.44    202.04386    36.101295 
165088000    307.14688    333.56645    306.99136   -141157.35    141163.18    26.575091     36.10116 
165092000     289.6479     298.4804    300.67904   -141174.81     141197.1   -2.1986429    36.101923 
165096000    343.10006    359.78236    268.88651   -141213.69    141196.93    90.895848    36.100389 
165100000    289.97846    334.58815    177.33548   -141227.18    141251.95    157.25267    36.099488 
165104000    275.80307    363.79471    96.219566   -141259.74    141284.43    267.57515    36.100193 
165108000    308.30004     410.3804    353.46982   -141293.63    141302.19    56.910575     36.09708 
165112000    287.17461    468.13812    372.49139   -141295.47    141316.95    95.646725     36.10002 
165116000    272.47561    300.95623    284.10701   -141322.36    141353.33    16.849223    36.095034 
165120000    271.54339    262.02013    371.81994   -141356.98    141387.71   -109.79981    36.099066 
165124000    261.52384    441.49446    300.87671   -141359.31    141406.87    140.61775    36.098498 
165128000    256.77121    555.81877    279.50063   -141364.24    141406.71    276.31813    36.097105 
165132000    291.84758    262.12007    325.72972   -141375.73    141403.61   -63.609647    36.101217 
165136000    278.77447    513.11069    250.92951   -141378.65    141404.23    262.18117    36.103916 
165140000     261.3483    288.24741    441.25896   -141367.64     141415.3   -153.01154    36.100712 
165144000    287.34256    367.14848    448.71055   -141412.66    141433.12   -81.562075    36.098878 
165148000    287.54835    253.39249    324.61832   -141431.57    141481.87    -71.22583    36.092154 
165152000    332.12978    490.90136    697.92487    -141491.2    141486.21    -207.0235     36.08764 
165156000    300.45052    592.59481    480.15102   -141519.52     141529.4    112.44379    36.084803 
165160000    293.33061    320.85712    212.39972   -141549.58    141579.63     108.4574    36.086452 
165164000    253.74442    214.65518    356.19098   -141565.11    141587.23    -141.5358     36.08277 
165168000     284.8657    331.35983     480.5567   -141573.68    141596.12   -149.19687    36.081752 
165172000    267.46778    511.30662    164.67991   -141601.85    141627.63    346.62671    36.083103 
165176000    277.44507    435.05648     244.3926   -141605.35    141624.87    190.66388     36.08048 
165180000    310.08745    620.87518    492.32231   -141617.23    141627.17    128.55287    36.082121 
165184000    288.65273    203.44513    430.81302   -141616.44    141632.94   -227.36788    36.080818 
165188000    288.21554    464.11916    247.05046   -141633.71    141664.36     217.0687     36.07954 
165192000     271.1189    193.92727    328.13897   -141647.15    141678.11    -134.2117    36.076805 
165196000    289.36514    433.38085    448.35158   -141662.58    141687.51   -14.970732    36.073626 
165200000     302.7857    336.76844    405.89804    -141697.1    141714.08   -69.129604    36.071617 
165204000    301.15845    360.90414     395.5497   -141698.88    141722.21   -34.645557     36.07444 
165208000    294.22905    338.69092    388.46776   -141734.56    141746.89   -49.776839    36.078397 
165212000    281.43286     377.5945    395.38631   -141728.63    141749.33   -17.791816    36.074174 
165216000    284.17656    350.65088    369.47475   -141712.28    141744.75   -18.823871    36.070785 
165220000      272.622    438.76586    220.15828   -141753.25    141776.64    218.60758    36.072551 
165224000    236.92722    310.75308     251.7476   -141760.39    141807.47    59.005482    36.069954 
165228000    264.77249    370.79799    388.87648   -141799.33     141833.1   -18.078491    36.067611 
165232000    267.38271    451.15018    267.25336   -141820.49    141868.29    183.89682      36.0638 
165236000    273.75555    518.00569    159.72497   -141844.23    141887.43    358.28071    36.060746 
165240000    263.70233    320.66331    212.67439   -141865.75    141905.42    107.98892    36.063499 
165244000    304.52327    366.47393    600.25719   -141892.35    141895.34   -233.78326    36.062601 
165248000    269.50709    453.54869    296.31444   -141886.47    141906.74    157.23426    36.061836 
165252000    272.28256    454.57813    355.02919   -141895.91    141911.15    99.548943    36.060794 
165256000    296.57242    316.69633    414.14902   -141897.08    141916.36   -97.452685    36.056871 
165260000    279.30762     439.3549    383.67566   -141929.19    141936.51    55.679241    36.058458 
165264000    270.90264    374.33974    278.51844   -141927.33    141960.48    95.821293    36.061232 
165268000    289.45132    387.17714    278.12372   -141951.86    141967.89    109.05342    36.058506 
165272000    262.25584    384.81406    325.45611   -141945.63    141984.33    59.357945    36.058482 
165276000    296.53917    360.71635    535.49975   -141955.02    141979.56   -174.78341    36.050983 
165280000    270.68531    442.75275    261.41617   -141974.56       141991    181.33657    36.051838 
165284000    267.37271    361.18549    114.36777   -141981.14     142005.7    246.81771    36.048331 
165288000    296.01601    476.00053    390.27535   -142023.91    142054.57    85.725185    36.047684 
165292000    299.44453    338.28525    376.17066   -142047.76    142072.04   -37.885401    36.052937 
165296000    251.14597    339.97996    272.11142   -142058.05    142109.42    67.868538    36.052766 
165300000    254.35299     324.0969    136.24899   -142099.23    142131.55    187.84791    36.056175 
165304000    289.90355    646.22051    307.93324   -142119.34    142146.01    338.28727    36.056579 
165308000    297.69966    298.77447    509.66015   -142142.67    142153.62   -210.88567    36.062373 
165312000    283.52349    317.93377     403.5102   -142162.83    142194.12    -85.57643     36.06389 
165316000    280.70046    309.31278    319.97737   -142193.94    142227.36   -10.664591    36.065632 
165320000    277.89755    286.12625     333.4387   -142224.57    142257.74   -47.312449    36.065107 
165324000    313.09945    401.63312    385.37922   -142251.91    142250.49    16.253902     36.06255 
165328000     288.8052    369.16234      379.042   -142272.75    142277.94   -9.8796602    36.063319 
165332000    292.89724    362.88563    279.45427   -142278.03    142307.45    83.431359    36.066133 
165336000    265.65057    255.64747    258.74152   -142300.51    142344.45   -3.0940467    36.065389 
165340000    280.92731    521.66696    318.34546   -142311.77    142332.08    203.32151    36.068901 
165344000    262.07874    230.67197    372.39982   -142307.75    142360.22   -141.72785    36.068127 
165348000    259.01871    418.47215    224.26743   -142322.82    142370.95    194.20472    36.069223 
165352000    243.20827    213.13384    256.47178   -142340.35    142393.99   -43.337943    36.066715 
165356000    286.18129    313.73337    294.13187   -142374.25    142400.53    19.601503    36.061224 
165360000    271.32568    556.25677    258.75816   -142394.31    142421.33    297.49861     36.06438 
165364000    273.91933    443.47733    354.65822   -142416.13    142437.82    88.819117    36.068251 
165368000    294.22388     220.2072    476.55469   -142413.24    142425.84   -256.34749    36.073647 
165372000     273.8133    421.54754    242.19378   -142406.42    142452.19    179.35377    36.072626 
165376000    269.90819    216.86268    296.74302   -142419.63    142457.44   -79.880336    36.069549 
165380000    260.55145    249.83314    368.88674    -142413.4    142457.86    -119.0536    36.070274 
165384000    268.81557    422.25881    291.10276   -142419.44    142468.29    131.15605     36.07164 
165388000    271.26575    525.54074    249.79071   -142447.52    142490.78    275.75002    36.075402 
165392000     277.6287     338.6058    382.69786    -142455.2    142481.37   -44.092064    36.075046 
165396000     291.0161    355.78098    269.22107   -142463.94       142485    86.559916    36.078423 
165400000    253.19883    234.66792    400.22005   -142465.36    142523.54   -165.55213       36.075 
165404000    271.65512    282.92318    220.97069   -142500.79       142538    61.952493    36.073307 
165408000    293.66559    556.80403    382.95201   -142541.05    142560.93    173.85202    36.077043 
165412000    294.96373    302.21356    312.48237    -142573.8    142585.15   -10.268812    36.073246 
165416000    277.79177      341.088    473.90657   -142598.83    142619.43   -132.81857    36.074974 
165420000    277.42096    350.72167    363.75556    -142645.8    142654.48   -13.033888    36.076826 
165424000    258.94396    361.20339    334.22772   -142654.97    142694.07    26.975674    36.080561 
165428000     277.0384    339.18586    351.84208   -142718.12    142734.21   -12.656216    36.079322 
165432000    295.27547    610.98833     443.0382   -142711.05    142748.87    167.95013    36.078366 
165436000    292.81528    475.40801    389.90311   -142758.03    142788.04    85.504905    36.080066 
165440000    261.47979    327.16155    261.87345   -142773.09    142813.02    65.288109    36.082544 
165444000    274.03816    373.48899    407.90101   -142826.15    142851.03   -34.412018     36.07879 
165448000    240.93418    252.20416    244.10058   -142833.14     142883.6    8.1035821    36.078412 
165452000    252.12299    389.52102    231.42479   -142873.52    142917.58    158.09623    36.077334 
165456000    274.94522    162.94205    171.61468   -142863.44    142897.43     -8.67263    36.078912 
165460000    289.47605    463.66496    425.09267    -142877.8    142901.39    38.572291    36.068466 
165464000     273.6737    515.66662    180.64857   -142906.05    142912.24    335.01805    36.070263 
165468000    304.60878    279.68961    189.59909   -142942.06    142954.28    90.090522    36.068252 
165472000    302.29236    449.36926    359.93569   -142978.02     142989.2     89.43357    36.068991 
165476000     271.4337    396.54089    255.82799   -142990.77    143032.54     140.7129    36.069164 
165480000    284.37247     261.1793    379.57778   -143024.99     143028.5   -118.39848    36.073396 
165484000    281.93174    412.22554    374.44508   -143024.03    143061.06    37.780457     36.07539 
165488000    264.67067    319.48502    308.54915   -143034.07    143085.43    10.935873    36.070791 
165492000    261.91179    229.51777    458.56079   -143049.72    143091.15   -229.04302    36.071658 
165496000    295.35505    323.32578    441.53139   -143082.47    143105.07   -118.20561    36.072678 
165500000    280.12417    366.21314    299.75681   -143101.66    143132.25    66.456329    36.077722 
165504000    284.77675      322.382    308.60383    -143133.3    143159.77    13.778168    36.076145 
165508000    286.34851    292.72832    324.37294   -143169.68    143202.02   -31.644624    36.075698 
165512000    274.55413    304.21886    383.04008   -143184.79    143217.11   -78.821215    36.074319 
165516000    296.94927    195.91487    633.99467   -143200.13     143230.9    -438.0798    36.071749 
165520000    307.27288    358.47658    321.78619   -143239.11    143231.01    36.690389    36.072444 
165524000    280.72848    295.04865    197.60172   -143232.58     143272.1    97.446932    36.068847 
165528000    275.02059    381.71584    387.55525   -143233.45    143267.34   -5.8394128    36.068373 
165532000    296.87542    331.06688    309.41738   -143277.32    143274.78    21.649498    36.074846 
165536000    315.59922    489.99063    363.95191   -143275.06    143278.71    126.03872     36.07338 
165540000    293.40654    317.13326      294.114   -143288.37    143314.84    23.019251    36.072454 
165544000    279.52621    499.87993    391.92686    -143306.2    143336.23    107.95307    36.068963 
165548000     265.6865    282.89498    298.40714   -143299.92    143326.49   -15.512157    36.073888 
165552000    305.59903    391.17539    360.16685   -143326.87    143328.62    31.008543     36.06397 
165556000    285.66341    264.12901    245.60413   -143328.76    143354.08    18.524876    36.061416 
165560000     296.8225    347.05162     327.3829    -143366.4    143375.71    19.668718    36.065777 
165564000      278.679    598.20456    266.18935   -143381.88    143407.09    332.01521    36.064031 
165568000    263.10322      167.553    308.14043   -143375.22    143411.52   -140.58743    36.062245 
165572000    291.09936    221.40018    281.64925   -143401.05    143417.53   -60.249071    36.062434 
165576000    284.41342     429.2013    268.24639   -143416.72    143441.59    160.95491    36.066849 
165580000    252.23437     321.9692     210.9197   -143402.74    143459.93     111.0495    36.061533 
165584000    247.47666    610.46417    299.84852   -143427.84    143462.42    310.61565    36.065666 
165588000    290.71984    304.92957    341.83114   -143440.08    143452.96   -36.901574     36.06643 
165592000    281.87701    388.19392    292.31845   -143439.45    143461.91    95.875468    36.064411 
165596000    289.67378    335.19327    377.39931    -143458.6    143469.61   -42.206039    36.062208 
165600000     271.1305    278.02668    471.78446   -143454.57    143500.51   -193.75778    36.061315 
165604000     289.7617    272.62479    329.94108    -143494.1    143501.66   -57.316297     36.05805 
165608000    280.63921    373.98676    298.14152   -143504.54    143539.59    75.845238    36.059548 
165612000    282.34121     420.9741    429.36368   -143559.66    143591.55   -8.3895811    36.055986 
165616000    321.67167    586.30579    270.79681   -143623.42    143619.18    315.50898    36.060488 
165620000    284.96122     325.2022    388.99395   -143639.45    143660.12   -63.791747    36.060791 
165624000    297.80244    282.58047    448.39096   -143645.72    143683.34   -165.81049    36.062759 
165628000    269.15446     343.8576    423.88518   -143679.74    143704.96   -80.027587    36.067426 
165632000    275.60486    304.53628    223.57078   -143710.75     143732.7    80.965502    36.062856 
165636000    262.98882      299.241    319.53538   -143719.99    143747.95   -20.294389    36.062475 
165640000    280.14541    384.40916    283.90788   -143743.94    143766.15    100.50128    36.063727 
165644000    260.28184    437.87841    188.47325   -143756.71     143796.6    249.40516    36.060806 
165648000    272.03696    415.78025    307.27578   -143795.12    143819.06    108.50446    36.066753 
165652000    271.41964    398.24692    244.05786   -143786.08    143821.32    154.18906    36.063842 
165656000    297.38985    631.73335    247.94501   -143824.76     143846.9    383.78834    36.066379 
165660000    290.32555    434.49418     506.3599   -143846.57    143870.64   -71.865721      36.0662 
165664000     307.0182    464.88503    520.10618   -143894.67    143890.08   -55.221149    36.071219 
165668000    266.53535    292.46948    256.85172   -143892.65    143929.08    35.617756    36.070743 
165672000    266.71038    294.47019    259.16443   -143899.32    143940.94    35.305761    36.072094 
165676000     296.7407    334.39451    369.48323   -143949.98    143949.53   -35.088716    36.070869 
165680000    284.39583    224.91932    300.97531   -143959.62    143977.88   -76.055986    36.065189 
165684000    304.24395    325.84887    457.80481   -143960.09    143973.53   -131.95594    36.063734 
165688000    282.62359    416.76085    255.35963   -143990.97     144007.7    161.40122    36.063733 
165692000    278.09047    379.27971    303.50883   -144002.18    144017.76     75.77088    36.066798 
165696000    261.51086    330.89629    333.37146   -144027.19    144061.09   -2.4751776    36.068526 
165700000    269.02987    404.25239    214.84194   -144033.75    144082.02    189.41045    36.066991 
165704000    279.38824    509.60073    297.39225   -144062.23     144077.6    212.20847    36.063842 
165708000    287.21953    264.81256    384.48634   -144088.14    144099.26   -119.67378    36.067659 
165712000    269.50185    283.60038    501.96459   -144105.57    144126.28   -218.36422    36.066157 
165716000    270.58705    578.14019    394.63129   -144130.33     144168.5     183.5089    36.062779 
165720000    271.64173    436.98127    337.71906   -144165.84     144191.2    99.262207    36.066098 
165724000    273.39619    415.41279     274.3837   -144200.04    144234.97    141.02909    36.070735 
165728000    303.59366     264.0577    523.52304   -144234.94    144258.12   -259.46534    36.071249 
165732000    271.17537    178.33985    251.84761   -144271.89    144296.49   -73.507761    36.071434 
165736000    289.98768    318.56887    448.18202   -144295.41    144317.57   -129.61315    36.067451 
165740000    309.02422    376.18018    335.03851   -144327.61    144345.93    41.141663      36.0704 
165744000    292.68587    346.59153    405.31316   -144338.18    144376.44   -58.721626     36.07016 
165748000     289.9177    242.37888    344.00303   -144354.58    144374.55   -101.62415    36.075241 
165752000    281.50478    266.30711     119.9825   -144346.74    144375.22    146.32461    36.074477 
165756000     272.5831    331.49786    151.58621   -144389.32     144413.3    179.91165    36.073126 
165760000    295.43436    731.41858    379.47408   -144424.68    144440.47    351.94449    36.076957 
165764000    271.33419    393.27476    300.20859    -144428.3    144471.77    93.066171    36.075334 
165768000    273.64232    257.73606    354.02236   -144453.83    144483.38   -96.286297    36.076131 
165772000    282.54782    391.53092    455.13259   -144489.43    144512.43   -63.601674    36.079264 
165776000    298.43452    382.07504    212.65893   -144530.47    144555.97    169.41612     36.07908 
165780000    262.46131    446.24471    268.78139   -144546.98     144582.4    177.46332     36.07828 
165784000    300.04114    403.20823    295.94877   -144583.18    144581.12    107.25946    36.078609 
165788000    296.85148    313.30905    493.67301   -144585.15    144594.56   -180.36395    36.080755 
165792000    304.51697    429.68966    205.97027   -144619.47    144611.72    223.71939    36.082725 
165796000     265.5777    315.30849     279.9412   -144592.55     144647.2    35.367297    36.086831 
165800000    291.60462    278.23766    293.31364   -144648.28    144656.44   -15.075981    36.087941 
165804000    301.19806    273.80863    419.08667   -144653.92    144670.78   -145.27805    36.082597 
165808000    288.22695    507.90055    299.93649   -144672.46    144706.62    207.96406    36.079331 
165812000    305.56762    468.65683    311.07154   -144702.19    144715.96    157.58529    36.078535 
165816000    300.47772    400.04425    280.29896   -144724.28    144736.05    119.74529    36.073208 
165820000    291.87891    535.57668    336.20125   -144724.89    144741.92    199.37543    36.074772 
165824000    317.81903     367.6825    353.34947   -144725.71    144724.54    14.333034    36.068847 
165828000    308.64817    338.28986    308.97763   -144760.46    144758.21    29.312229    36.061846 
165832000    282.46627    253.82437    445.62234   -144766.11    144797.46   -191.79797     36.06101 
165836000    287.02669    432.46744    392.96025   -144795.43    144815.66    39.507195    36.060079 
165840000    260.59052    267.10074    374.76464   -144788.86    144827.28    -107.6639     36.05959 
165844000    255.40014    292.67659    196.90918   -144806.71    144856.14    95.767402    36.059394 
165848000    300.72913    215.89567     400.5658   -144827.04     144856.8   -184.67012    36.058601 
165852000    295.40745    783.71376    203.55949   -144879.41    144884.82    580.15426    36.067815 
165856000    275.61403    452.55282      304.357   -144875.65    144917.31    148.19581    36.069543 
165860000    287.74928    261.72706    229.37652   -144912.79    144941.45    32.350538    36.070725 
165864000    293.38161     434.9716    350.85995   -144932.93    144957.34    84.111649    36.073045 
165868000    266.05376    337.20143    301.90558   -144952.41    144984.37    35.295847    36.071067 
165872000    278.19898    193.30767    357.74505   -144952.36    145000.22   -164.43738    36.071841 
165876000    282.48757    360.41392     253.3004   -144972.12    145003.33    107.11351    36.072454 
165880000    298.42757    191.47033    413.11377   -144988.53    145010.78   -221.64344    36.074157 
165884000    274.75766    391.56451    184.09288   -144980.71     145016.5    207.47163    36.074333 
165888000    277.23049     302.9391     371.6237   -144999.57    145028.57   -68.684599    36.073358 
165892000    288.24338    442.29798    258.11692   -145024.95    145036.72    184.18106    36.074722 
165896000    286.72359    402.05065    204.56024   -145041.44     145057.3    197.49042    36.075463 
165900000    254.22936    181.99303     311.8864   -145057.14    145100.63   -129.89337    36.075962 
165904000    287.90527    387.98582    142.77906   -145103.02    145128.49    245.20676    36.079108 
165908000    312.24067    326.18782     388.0136   -145111.91    145116.88    -61.82578    36.076756 
165912000    286.54526    197.57079    255.30395   -145143.83    145154.38   -57.733164    36.075203 
165916000    287.65322    467.35565    192.81601   -145170.19    145199.29    274.53963    36.077169 
165920000    299.21035     274.2221    221.54142   -145188.29    145202.91    52.680672    36.074378 
165924000    285.23533    326.24177      309.933   -145187.46    145207.74    16.308779    36.078682 
165928000    285.41624    344.76225    280.73049   -145218.62    145253.81    64.031753    36.077596 
165932000    257.42054      277.281    310.15714   -145247.93    145285.46   -32.876134    36.078903 
165936000    295.47026    409.97302    559.67619   -145273.16    145290.94   -149.70316    36.079124 
165940000    298.20072    318.74628    382.42046   -145276.61    145302.81   -63.674179    36.083219 
165944000    269.64114    327.78692    442.29737   -145297.67    145344.28   -114.51046    36.080308 
165948000    264.15711    504.80783    187.96707   -145331.03    145365.87    316.84077    36.081421 
165952000     264.7132    340.56082    377.38516   -145354.17    145390.35   -36.824349    36.079043 
165956000    291.03472    422.10989    254.14339   -145410.92    145427.13     167.9665    36.075275 
165960000    286.39606    210.52746    293.95482   -145425.18    145455.86   -83.427365    36.068112 
165964000    259.10008    379.44132    244.05337   -145437.49    145464.11    135.38795    36.067718 
165968000    283.51006    406.95282    389.23303   -145466.06    145475.32    17.719786    36.066152 
165972000    261.55727     293.8699    289.89199   -145482.59    145522.34    3.9779084    36.064684 
165976000    265.20685    469.95643    257.98515   -145524.91    145541.16    211.97128    36.058407 
165980000    284.99502     279.9054    145.57202    -145535.5    145561.23    134.33338    36.057343 
165984000    277.80424    283.26832    448.12072   -145561.31     145584.6    -164.8524    36.056863 
165988000    304.48283    240.09204    214.00456   -145567.81    145579.12    26.087474    36.062046 
165992000    289.27122    512.24882     363.8744    -145583.5    145590.02    148.37442    36.061876 
165996000    305.89765    258.18973    108.75456   -145619.35    145640.16    149.43517    36.060287 
166000000    262.49646      286.102    323.63561   -145617.81    145653.26   -37.533608    36.061409 
166004000    288.12842    316.18498    341.90449   -145666.84    145675.83    -25.71951    36.057694 
166008000    306.96656    622.08476    263.43625   -145690.13    145694.85    358.64851    36.062161 
166012000    270.89298    349.37658    411.93006   -145700.61    145718.53   -62.553477    36.058327 
166016000    272.78025     319.9562    169.05654      -145717    145741.33    150.89966    36.059178 
166020000     281.5078    506.34184    271.61839   -145724.72    145766.71    234.72346    36.064728 
166024000    301.77448    619.59312    213.12687    -145754.2    145762.99    406.46625      36.0664 
166028000    296.66264    356.61429    455.65785   -145766.61    145782.24   -99.043557      36.0652 
166032000    275.14889    345.67836    490.40242   -145769.98     145811.2   -144.72406    36.069125 
166036000    313.44084    697.72833    237.37387   -145795.46    145809.39    460.35446     36.06501 
166040000    295.31963    425.69196    461.81523   -145797.09    145817.12   -36.123271    36.059906 
166044000     274.8008    241.82062    223.19972   -145800.43    145812.96    18.620906    36.058121 
166048000    308.46124    453.68851    394.69347   -145848.59    145847.57    58.995039    36.060782 
166052000     286.6383    421.77375    381.41992   -145848.81    145865.05    40.353831    36.059958 
166056000    299.87746    684.26561    370.23491   -145879.52    145903.05     314.0307    36.056742 
166060000    277.89029    528.88892    120.53937   -145900.17    145926.41    408.34955    36.054926 
166064000    304.62446    420.68343    381.97976   -145933.35    145935.76    38.703672     36.04773 
166068000    321.77391    509.92368    413.31274   -145950.18     145953.7     96.61094    36.043653 
166072000     297.1768    525.88493    223.16367    -145955.6    145974.04    302.72126    36.042405 
166076000    285.60357    621.25538    368.71876   -145951.16    146003.42    252.53662     36.04198 
166080000    295.57897    588.90788    468.16913   -145970.61    145994.68    120.73875     36.04573 
166084000    309.06324    346.46221    315.42461   -145995.35    146009.51    31.037596    36.045011 
166088000    289.18209    478.69446    450.71458   -146002.49    146005.88    27.979882    36.042942 
166092000    297.58079      375.428    328.33446   -146006.82    146014.83    47.093532    36.041017 
166096000    274.45712    390.93762    412.52383    -146017.2     146043.5   -21.586206    36.041044 
166100000    295.07992    452.21091    358.11131   -146048.12    146062.87    94.099601    36.041628 
166104000    235.50111    283.76787    132.60741   -146067.47     146117.3    151.16046    36.036784 
166108000    292.58358    284.51391    289.04978    -146121.8    146138.67   -4.5358753    36.036342 
166112000    284.52515     443.7426    220.90204   -146148.78    146179.65    222.84056     36.04158 
166116000    256.49284    218.45284    181.77418   -146152.66    146206.49    36.678657    36.039572 
166120000    271.72735    225.67932    199.93045   -146183.03    146234.16    25.748865    36.043739 
166124000    291.15505    268.67361    475.29514   -146231.46    146258.85   -206.62153    36.043989 
166128000    283.94528    441.78018    293.81861   -146248.46    146271.76    147.96157    36.046253 
166132000    278.66093    492.16402    425.93141   -146280.56    146307.46    66.232607    36.044723 
166136000    259.85062    396.92396    233.12588   -146312.53    146360.16    163.79808    36.051826 
166140000    283.61675    289.19819    276.02571   -146352.65    146378.33    13.172477    36.052419 
166144000    287.39759    169.04902    200.99684   -146335.22    146364.41   -31.947827    36.051352 
166148000    271.14873    428.04034     312.0699      -146351    146384.16    115.97044     36.05508 
166152000    308.77525    322.02589    276.83535   -146351.99    146366.74    45.190539    36.055509 
166156000    325.56842    434.42438    532.88748   -146384.54    146381.22   -98.463107    36.051076 
166160000    275.23523    255.74796     388.8983   -146410.83    146435.47   -133.15034    36.048202 
166164000    277.04996    321.16915     295.8273   -146443.63    146462.82    25.341846     36.05177 
166168000    287.58563    333.51599    323.44116   -146479.72    146514.03    10.074835    36.050005 
166172000    284.95378    335.72072    199.97849   -146508.37     146522.5    135.74223    36.049071 
166176000    318.02203    468.28877     361.5404   -146513.77    146527.31    106.74838    36.047726 
166180000    281.66577    226.43892    285.67372   -146525.91    146527.37     -59.2348    36.048333 
166184000    289.60021    289.90653    441.60948   -146541.71     146578.6   -151.70295     36.04609 
166188000    271.29263    513.50329     199.8492   -146586.65    146608.09    313.65409    36.047193 
166192000    276.72808    223.35732    306.70413   -146612.07    146634.33   -83.346806    36.048643 
166196000     318.4802    481.88988    473.45926   -146657.59    146662.97    8.4306177    36.045572 
166200000    273.46579    332.74647    213.49219   -146671.12    146694.79    119.25428    36.046127 
166204000    271.60802    616.45773    295.73126   -146680.99     146713.4    320.72647    36.050204 
166208000    270.30195    363.23271    152.07222   -146710.98    146752.64    211.16049    36.052163 
166212000     297.4367    337.31134    337.16185   -146751.11    146759.58   0.14949236    36.052145 
166216000    313.39134    320.15497    472.80724   -146767.72    146767.81   -152.65228    36.054351 
166220000    294.27402     345.5989    302.76187    -146767.6    146786.09    42.837031    36.055669 
166224000    288.14672    491.24887    431.74412   -146754.57    146781.66    59.504754    36.056354 
166228000    291.76008    444.92078    267.21838   -146788.73    146797.69     177.7024    36.059881 
166232000    322.33255    483.88139    263.13404   -146807.86    146823.71    220.74735     36.06425 
166236000    273.66351    328.54407    277.60585   -146824.01    146860.98    50.938222    36.064736 
166240000    291.10148    324.91205    270.39683   -146845.31    146854.27     54.51522    36.064819 
166244000    291.33613    332.19308    343.93264   -146851.89    146861.43   -11.739564    36.065746 
166248000    281.28905    358.68245    176.69354   -146871.11    146898.73    181.98891    36.065166 
166252000    274.74471    352.36046    153.99167   -146899.42    146926.99    198.36878    36.066769 
166256000     290.2429    239.74984    158.75169   -146913.88    146949.46    80.998152    36.066485 
166260000    305.13981    518.89032    368.36164   -146964.45    146987.54    150.52868    36.068245 
166264000    266.60761    245.16629    269.90312   -146988.79    147029.76   -24.736834     36.06654 
166268000    282.91456    256.44351    299.03728   -147012.48    147040.38   -42.593779    36.062986 
166272000    289.10918    322.98389    421.51664   -147053.03    147071.22   -98.532752    36.065875 
166276000    262.04322    311.47984    285.47337   -147068.17    147096.87    26.006477    36.068525 
166280000    290.85003    339.66161    424.33073   -147098.36     147097.4   -84.669113    36.065675 
166284000     352.4145    436.13757    390.47339   -147134.62     147115.4    45.664182    36.062539 
166288000    267.69834    429.90053    248.66939   -147143.65    147168.54    181.23113    36.063564 
166292000    256.85099    603.98189    203.68608   -147151.93    147195.42    400.29581    36.063324 
166296000    286.42492    367.82122    289.35548      -147160     147187.9    78.465741    36.067289 
166300000    249.05255    273.75121    245.65455   -147191.29    147224.85    28.096663    36.063285 
166304000    278.65609    398.38737    463.31305   -147214.18    147243.32   -64.925682    36.060263 
166308000    278.64524    334.09182    333.76917   -147215.77    147254.45   0.32265274     36.06068 
166312000      240.123    328.18773    222.31152   -147209.21    147258.89    105.87621    36.059766 
166316000    287.69369    452.95314     350.9037   -147233.81     147241.3    102.04944    36.058622 
166320000    285.19306    275.37083    617.85998   -147277.24    147297.08   -342.48915    36.062907 
166324000    287.24278    164.96618    354.40034   -147279.26     147289.9   -189.43416    36.062137 
166328000    293.27819    477.66628    309.74659   -147282.87    147303.73    167.91969    36.059766 
166332000    306.48099    299.12897    449.65028   -147326.74     147325.2    -150.5213    36.058888 
166336000    273.03449    482.16533    345.95101   -147318.34    147350.22    136.21432     36.05492 
166340000    269.88678    307.03842    257.88674   -147340.75    147377.76    49.151686    36.051252 
166344000    247.72907    441.05588    173.86313   -147345.77    147384.49    267.19275     36.05014 
166348000    287.05868    485.97618    315.95253   -147371.04    147389.48    170.02366    36.056348 
166352000    301.03346    432.22858    578.88598   -147399.21    147409.02   -146.65739    36.053782 
166356000    269.06872    346.84616    195.74919   -147428.91    147454.38    151.09697    36.052711 
166360000    258.09285    266.15928    410.80653   -147420.29    147468.54   -144.64725    36.053955 
166364000    286.23198    325.06485    406.79636   -147442.47    147472.16   -81.731509    36.059219 
166368000    290.15217    191.70502    237.03489   -147459.77    147471.52   -45.329872    36.055503 
166372000    293.89279    475.03998    372.92349   -147491.11    147500.29    102.11649    36.053617 
166376000    284.46235    265.48867     313.9954   -147508.19    147531.44   -48.506735    36.055763 
166380000    288.35774    211.69577    441.43467   -147527.86    147549.68    -229.7389     36.05041 
166384000    264.86391    701.53836    333.38229   -147548.41    147571.39    368.15607    36.050668 
166388000    293.78027    419.55315    366.11193   -147601.57    147595.43    53.441216    36.053647 
166392000    305.95257    332.87886    194.03339   -147636.01    147624.79    138.84547    36.053792 
166396000    296.57019    371.23525    652.25446   -147631.94    147649.81   -281.01922    36.046581 
166400000     275.8757    292.74624    189.65591    -147644.6    147679.13    103.09033    36.040756 
166404000    274.52023    330.77594    287.38153   -147650.91    147682.35    43.394416    36.042479 
166408000    279.30687    284.64908     375.7832   -147658.23    147683.11   -91.134118    36.042629 
166412000    274.69839    352.54515    239.14601   -147694.07    147705.93    113.39914    36.043929 
166416000     247.0441    229.98012     287.6066   -147705.17    147755.67    -57.62648    36.045082 
166420000    281.30156    308.57008    432.94885   -147736.73    147771.61   -124.37878     36.03968 
166424000    258.36135    394.80691    287.99554   -147748.61    147801.36    106.81137    36.041914 
166428000    268.68591    306.55077    304.02602   -147766.73    147805.14    2.5247451    36.047692 
166432000    263.41324    381.65986    281.23424   -147781.16    147821.28    100.42562    36.048874 
166436000    304.57801    470.19767     554.7871   -147780.98    147814.53   -84.589431    36.050015 
166440000    275.90554    277.38278    297.01779    -147779.8    147831.18   -19.635017    36.052238 
166444000    297.53138    274.75649    257.04266   -147810.69    147812.85    17.713832    36.050948 
166448000    309.20977    254.26477     327.6246   -147820.99    147815.54   -73.359824    36.048645 
166452000    295.48632    475.74546    593.38689    -147862.3    147875.73   -117.64143     36.05769 
166456000    284.10817    332.13259     273.6206   -147873.74    147893.87    58.511994    36.061715 
166460000     278.4418    174.75759    257.69981   -147907.55    147914.05   -82.942215    36.059726 
166464000    300.14664    507.96734    378.18694   -147914.65    147915.82     129.7804    36.058634 
166468000    275.24699    331.28452    442.79536   -147915.53    147949.41   -111.51084    36.052543 
166472000    298.53444    355.48432    289.69412   -147943.46    147975.88    65.790206    36.056546 
166476000    282.76103    437.01867    397.89125   -147951.71    147987.14    39.127421    36.055945 
166480000    266.29649    335.55434    241.38951   -147961.54    147999.26    94.164827    36.054621 
166484000    264.49006    192.87613     213.0105   -147978.52    148016.59   -20.134368    36.059064 
166488000    313.60353    275.79642    346.38102    -147992.3    147994.59   -70.584598    36.061382 
166492000    304.85207    316.50966    305.35361   -147999.53    148012.49    11.156043    36.057405 
166496000    306.58202    255.99062    410.92978   -148008.44    148010.76   -154.93916    36.056525 
166500000    299.79143     347.7793    330.46888   -148010.87    148022.22    17.310422    36.057747 
166504000    305.04876    376.26347     361.6117   -148037.66    148045.78    14.651765    36.065683 
166508000    317.56322    434.41249    327.42136   -148054.45     148055.7    106.99114    36.061699 
166512000    259.38648    357.32907    361.93589   -148068.48    148099.24   -4.6068274    36.058956 
166516000    279.51841    196.05399    370.83679   -148083.17    148101.85    -174.7828    36.059929 
166520000    283.77086     397.6394    582.80912   -148094.54    148131.76   -185.16972    36.059547 
166524000    282.16397    404.04824    309.96399   -148114.41    148143.45    94.084253    36.061914 
166528000    270.36752    395.40924    272.93473   -148133.97    148173.71     122.4745    36.058216 
166532000    296.30412    178.64469    286.55292   -148152.68    148161.88   -107.90823    36.061469 
166536000    305.57091    540.95322    360.69033   -148182.38    148188.05    180.26288    36.061299 
166540000    298.19992    277.94223    179.12409   -148209.14    148227.76    98.818142    36.064113 
166544000    272.95635    458.13414    341.33082   -148196.56    148242.81    116.80333    36.063607 
166548000    259.37736     276.6748    145.71713    -148223.4    148272.84    130.95767    36.064623 
166552000    282.87719    415.97419    451.63818   -148261.76    148272.06   -35.663992    36.064761 
166556000    280.55157    294.35068    207.26528   -148279.74    148298.09    87.085396    36.060519 
166560000    250.32002    367.45222    319.72399    -148324.6    148364.65    47.728229    36.059071 
166564000    267.18741    410.06735    558.98939   -148349.67    148387.62   -148.92204    36.056112 
166568000    274.73842    149.46344    329.63813   -148375.64    148429.36   -180.17469    36.056173 
166572000    297.27675    304.14803    258.81098   -148400.21    148425.24    45.337044    36.051032 
166576000    291.78155    342.44406    403.18573   -148412.54    148421.08   -60.741666    36.049478 
166580000    291.24624    305.62386    263.59009   -148431.19    148450.95     42.03377    36.049988 
166584000    285.19908    330.98085    296.41186   -148447.44    148471.22    34.568984    36.047692 
166588000    287.44637    384.76299    310.26616   -148457.41    148481.01    74.496839    36.044524 
166592000     308.8621    276.67835    235.86103   -148494.55    148505.23    40.817317    36.044763 
166596000    307.12132    428.47371    211.54731   -148487.88     148514.7    216.92641    36.045218 
166600000     269.4596    386.82724    349.97612   -148498.52    148521.38    36.851119     36.04881 
166604000    275.84267    361.59706    384.75672    -148494.6    148534.61   -23.159659    36.048575 
166608000    241.49536    276.06761    285.63669   -148509.87    148560.55   -9.5690758    36.049883 
166612000    278.01058       275.41    143.68177   -148533.66    148566.34    131.72823    36.049192 
166616000    320.77652    543.87626    273.77665   -148560.46    148564.45    270.09962    36.047857 
166620000    307.32512    434.48217    303.83597   -148559.23    148584.31     130.6462    36.045584 
166624000    271.93842    342.79803    250.57133   -148580.38    148612.03    92.226697     36.04678 
166628000    308.93377    294.22866    254.10188   -148597.95    148626.09    40.126782    36.043324 
166632000     289.5886    417.50387    221.66633   -148604.78    148614.55    195.83753    36.040456 
166636000    289.65483    499.24981    467.74549   -148621.24    148640.34    31.504321    36.045544 
166640000     293.7196    320.66877    571.28031   -148648.46    148665.48   -250.61154    36.043185 
166644000    281.74778    372.46755    225.69804   -148662.65    148700.93    146.76951    36.040216 
166648000    288.46419    326.59793    374.41897   -148677.32    148690.74   -47.821035    36.041385 
166652000    301.67685    474.57746    285.08493   -148708.35    148728.39    189.49254    36.046359 
166656000    273.75643    353.81724    387.18163   -148734.39    148763.06   -33.364383    36.048282 
166660000    270.06649    258.42724    403.27012   -148742.03    148796.77   -144.84288    36.046967 
166664000    273.44215    456.57067    344.78063      -148770    148804.47    111.79004    36.045743 
166668000     261.1149    313.37606    292.16758    -148780.6    148806.72    21.208487    36.045699 
166672000    236.64654    316.90482    364.90447   -148781.57    148843.74   -47.999648    36.048078 
166676000    301.61423    369.57736    358.30094   -148810.72    148829.33    11.276419    36.047761 
166680000    303.71025    452.07611     271.3706   -148834.49    148831.69    180.70551    36.050297 
166684000    292.09272    364.76187    420.56118   -148840.37    148872.53   -55.799311    36.048639 
166688000     274.9928    295.28948    232.67557   -148871.17    148890.32    62.613911    36.047008 
166692000    284.81467    541.91896    280.20343   -148904.68    148930.38    261.71554     36.04787 
166696000    298.91267    326.05144    336.04075   -148928.33    148945.64   -9.9893149    36.044268 
166700000    254.31281    379.98247    395.05672    -148933.1    148972.11   -15.074251    36.041367 
166704000    260.81425     286.6396    303.13497   -148943.18    148983.73   -16.495375    36.042888 
166708000    249.42778    342.05321    305.82951   -148973.84    149024.69    36.223702    36.047092 
166712000    289.51761    489.42329    264.29588    -149007.7    149020.35    225.12741    36.049983 
166716000    320.04241    332.30639    228.99432   -149039.84    149037.02    103.31207    36.051466 
166720000    314.25932    306.74107    403.27106   -149040.66    149046.34   -96.529986    36.049565 
166724000    296.52631    573.60444    288.08015   -149034.63     149052.4    285.52429    36.049975 
166728000    289.71961    370.96195    440.62874    -149054.8    149070.61   -69.666785    36.048243 
166732000     282.4368    381.91314     364.6787   -149052.44    149087.33    17.234439     36.05082 
166736000    312.39098    349.32303    261.03374   -149099.72    149096.54    88.289281    36.052738 
166740000    275.94745    201.21272    397.83982   -149089.83    149104.78    -196.6271    36.054897 
166744000    278.99733    302.42768    245.87716   -149124.26    149123.55    56.550518    36.054661 
166748000     311.5745    355.11885     196.9088   -149130.99    149141.21    158.21006    36.059017 
166752000    296.94859    363.11913    376.50463   -149130.34    149144.52     -13.3855    36.061386 
166756000    280.78253    318.11653    330.66104   -149125.66    149160.88   -12.544503    36.059406 
166760000    265.48335    293.74963     318.9522   -149145.32     149190.2   -25.202572    36.061027 
166764000    286.72951    360.90119    418.12147   -149183.58    149196.81   -57.220285    36.061266 
166768000      260.487    383.88176    248.83108    -149187.3    149197.61    135.05069    36.058369 
166772000    292.09996    341.97144    337.72803   -149189.81    149227.45    4.2434064    36.057041 
166776000    279.28538    390.72023    394.04431   -149231.54    149266.09   -3.3240803     36.05342 
166780000    295.37586    565.12666    380.06333      -149253     149280.6    185.06333     36.05333 
166784000    302.83003    460.18326    317.53688   -149262.92    149277.69    142.64638    36.050477 
166788000    295.31507    346.97004     195.8592   -149281.15    149308.01    151.11084    36.050496 
166792000    277.40037    464.80509    511.47701   -149288.91    149319.37   -46.671918    36.051756 
166796000    254.08132    511.53673    145.35239    -149299.2    149343.09    366.18434    36.049022 
166800000    287.99222    338.52476    400.37909   -149303.98    149334.87   -61.854336     36.05232 
166804000    279.02632    456.85545    437.92148    -149322.9    149361.27    18.933973    36.052162 
166808000    285.30224    424.84265    441.26967   -149324.19    149365.85   -16.427022    36.053578 
166812000    285.83501     435.0643    367.79799   -149360.26    149395.15    67.266316    36.057952 
166816000    240.44923    475.54024    256.29019   -149355.92     149424.9    219.25004    36.054304 
166820000    284.55704    311.02838     351.8501   -149372.51    149414.43   -40.821714    36.049677 
166824000    258.62374    334.87615    302.00647   -149391.93    149434.64    32.869673    36.051524 
166828000    252.78983     254.9482    172.05897   -149416.71    149459.25    82.889228    36.053922 
166832000     295.8005     476.9876    331.99361   -149447.35    149450.65    144.99399    36.053754 
166836000    291.91616    503.01214    451.15475   -149453.95    149469.08    51.857389    36.052832 
166840000    289.02045    326.76938    187.00192   -149473.25    149493.06    139.76746    36.052434 
166844000    283.63033    302.44334    334.45204   -149491.77    149515.64   -32.008703    36.045931 
166848000    267.03447    183.86663    238.62459   -149529.04     149558.1   -54.757958    36.050794 
166852000    282.65013    311.05421    405.18531   -149551.75    149571.52     -94.1311     36.05003 
166856000    243.84201    393.62265    284.32703   -149577.82     149619.6    109.29562    36.053105 
166860000    285.17712    351.67209    345.06545   -149618.18    149633.34    6.6066348    36.051192 
166864000    273.78343    474.76803     379.3893   -149623.83    149653.46     95.37873    36.049917 
166868000    298.58046    683.63187    323.43412   -149665.53    149663.17    360.19774    36.050032 
166872000    262.93916    281.25343     137.5279   -149660.79     149692.7    143.72553    36.050721 
166876000    285.76538    305.92926    478.24092   -149684.67    149715.94   -172.31166     36.04829 
166880000    287.51647    354.17812    340.26364    -149715.8    149739.87     13.91448    36.048034 
166884000    293.50889    196.70141    180.36494   -149758.36    149774.41    16.336469    36.046048 
166888000    283.83452    163.45358    541.26422   -149785.37    149801.45   -377.81064    36.039541 
166892000    309.36095    426.01862    525.80605   -149815.59     149819.1   -99.787428     36.03745 
166896000    293.57319    416.70854     422.3009   -149834.82    149859.64   -5.5923625    36.039084 
166900000    315.94923    605.90947    348.14819   -149847.16     149859.9    257.76128    36.043779 
166904000    277.78507     361.1939    320.02718   -149871.27    149909.56    41.166718     36.04325 
166908000    303.60994    330.77444     337.0397   -149911.59    149930.11   -6.2652605    36.042878 
166912000    261.31947    272.07532    275.80915   -149908.13    149953.56   -3.7338374     36.04347 
166916000    270.03217    256.45864    289.43009   -149939.82    149974.54   -32.971451     36.04304 
166920000      261.662    320.99736    242.88604    -149948.1    149981.91    78.111322    36.048402 
166924000    256.67224    342.67218    268.93246   -149960.48    150003.94    73.739726    36.050915 
166928000    300.41611    486.18801    376.73624   -149992.68    150011.22    109.45177    36.052611 
166932000    265.17774    663.81466    327.14876    -150021.1     150033.8     336.6659    36.051944 
166936000     267.2605    354.94561    246.08052   -150039.79    150074.25    108.86509    36.051772 
166940000    272.23076    331.31222     346.3584   -150080.36    150092.15   -15.046182    36.052584 
166944000    273.52816    329.94522    192.64165   -150070.89    150107.26    137.30357    36.049538 
166948000    297.89811    178.07129     448.5517   -150108.84    150126.26   -270.48041    36.047993 
166952000    294.42463    312.26819    217.53004   -150122.98     150135.4     94.73815    36.049009 
166956000    278.62381    185.82883    385.89423   -150123.87    150147.49    -200.0654    36.048447 
166960000    253.04483    384.90283    363.11477   -150111.56    150154.47    21.788061    36.050912 
166964000    265.34548    250.36456    312.39955   -150143.44    150169.39   -62.034992    36.050738 
166968000    285.94335    247.83563    298.35318   -150185.19    150189.21   -50.517551    36.051279 
166972000    297.71343    318.46389    449.34309    -150201.2    150198.69    -130.8792     36.04749 
166976000     290.0742    288.45867    564.83514   -150209.73     150207.8   -276.37647    36.052195 
166980000    281.16169    395.66605    330.38589   -150225.11    150245.15    65.280166    36.049434 
166984000    306.43317    326.92751    423.65664   -150241.98    150251.16   -96.729131    36.051305 
166988000    285.89633    570.24295    165.15741   -150263.55    150286.88    405.08554    36.050317 
166992000    260.29177    240.25519    305.02605   -150256.49    150283.14   -64.770853    36.052981 
166996000    296.94774    318.24411    321.31269   -150275.56    150295.04    -3.068579    36.058448 
167000000    306.88315    378.23127    538.65062   -150271.96    150293.63   -160.41935    36.054841 
167004000    263.97616    344.09029    300.16131   -150297.12     150332.2    43.928984    36.052647 
167008000    295.58164    331.62588    516.58693   -150326.84    150323.77   -184.96106    36.049007 
167012000    332.18535    475.46786    263.73717   -150362.53    150348.91    211.73069    36.049101 
167016000    271.05064    324.79663    278.47709   -150370.22    150408.58    46.319549    36.051135 
167020000    294.09771     521.6648    449.30223   -150380.17    150401.37    72.362575    36.057245 
167024000    288.35898     405.0587    255.00651   -150417.53    150433.94    150.05219     36.05648 
167028000    266.33819    379.84343    239.83832   -150436.99    150466.78    140.00512    36.051618 
167032000    295.70228    295.02549     377.6222   -150441.81    150471.29   -82.596709    36.051909 
167036000    314.69468     380.6879    402.72664   -150471.78    150478.83   -22.038743    36.050778 
167040000    269.19791    418.13441    322.34967   -150499.68    150530.16    95.784735     36.05088 
167044000    275.23945    369.88463    276.22467   -150530.66    150569.87    93.659956    36.052572 
167048000    289.93244    318.10605    417.75619   -150555.93    150556.97   -99.650143    36.047842 
167052000    251.10832    316.24773    265.47942   -150555.15    150586.21    50.768309    36.050358 
167056000    281.10976    429.60276    359.73424   -150558.19    150572.46    69.868521     36.04868 
167060000    295.99795    357.99041    301.73695   -150577.02    150583.72    56.253459    36.049353 
167064000    279.95409    316.25647    261.09363   -150586.57    150610.92    55.162842     36.04537 
167068000    277.74726    300.81829    294.74275   -150575.24    150612.83    6.0755436    36.042838 
167072000    322.49424    544.58597    188.46601   -150613.66    150622.58    356.11996    36.044796 
167076000    317.10866    524.93161    374.33397   -150642.57    150650.65    150.59764    36.042461 
167080000    261.16883    224.59405    271.73982   -150667.13    150683.07    -47.14577    36.040637 
167084000    295.96729    508.28952    349.53072   -150671.76    150707.48     158.7588    36.047204 
167088000    276.23373    278.83879    365.55461   -150679.65    150708.01   -86.715825    36.042712 
167092000     307.7364    511.24297    422.67551   -150713.62    150735.55    88.567461    36.044561 
167096000     271.0245    318.23151    546.37217    -150731.4    150765.62   -228.14066    36.042401 
167100000    309.15592    328.48761    285.77325   -150780.74    150799.24     42.71436    36.040661 
167104000    299.23316    485.57363    434.30536   -150812.02    150841.87    51.268266    36.038674 
167108000    264.86656    302.65306    286.83743   -150834.22    150873.04    15.815638    36.044553 
167112000    271.98315    231.28048    369.75993   -150855.38    150904.15   -138.47946    36.043226 
167116000    268.16811    150.57853    309.45681   -150885.46    150932.51   -158.87828    36.045202 
167120000     277.6738    329.79405    325.50974   -150895.42    150932.48    4.2843084    36.043536 
167124000    255.50605    157.51648    179.87152   -150891.58    150949.44    -22.35504    36.043601 
167128000     263.8477    225.96908    334.35336   -150928.94    150957.06   -108.38428    36.050553 
167132000    318.06797    442.61907    377.80343   -150975.93    150986.15    64.815636    36.053274 
167136000    271.03817    448.49317    295.39146    -150970.5    151006.15    153.10171    36.054793 
167140000    291.08357    433.57076    448.78181   -150992.54    151023.84   -15.211051     36.05751 
167144000    271.26191     705.8551    352.11326   -151002.32    151033.71    353.74184    36.061568 
167148000    292.23737    239.74376    324.36389   -151016.33     151044.4   -84.620137    36.063968 
167152000    288.49103    320.78845    205.61678   -151031.37    151057.62    115.17167    36.066217 
167156000    283.34231    311.06592    341.58751   -151046.25    151078.81    -30.52159    36.063173 
167160000    251.47309    127.94283    309.69569   -151082.73    151128.82   -181.75285    36.066153 
167164000    288.99377    331.92387    265.80489   -151115.53    151143.04    66.118982    36.065587 
167168000    287.83897    433.59557    441.08408   -151136.07    151159.11   -7.4885089    36.062666 
167172000    318.67793    405.31132    384.92491   -151183.66    151174.39    20.386411    36.060914 
167176000    254.41644    213.14281     351.8895    -151183.3    151217.89   -138.74669    36.057969 
167180000    278.41781    479.15762    262.42363   -151213.03    151248.01    216.73398    36.059275 
167184000    263.86968    206.17521    389.41028   -151221.02    151249.37   -183.23507    36.054657 
167188000    252.79891     377.2182    246.39764   -151251.46    151287.09    130.82056    36.053549 
167192000    279.39157    204.43628    170.28625   -151264.96    151302.38     34.15003    36.055615 
167196000    241.85279    408.36258     377.4607   -151280.08    151335.78    30.901882    36.055171 
167200000    275.81545    448.20343    425.82451    -151319.2    151353.58    22.378924    36.054614 
167204000    277.14612    373.15094     290.1684   -151326.34    151351.59    82.982544     36.05035 
167208000    275.03935    311.32459    256.51783   -151346.89       151387    54.806756     36.05185 
167212000    298.13714    457.07217    213.88634   -151368.33    151389.52    243.18582    36.056357 
167216000    268.19922    236.23444    270.24476    -151396.5    151410.34   -34.010322    36.058602 
167220000    285.44142    324.51484    431.75739   -151413.11    151420.31   -107.24256    36.059211 
167224000    291.71065    318.05517    363.39618   -151421.61     151437.9   -45.341004    36.065071 
167228000    307.68855    374.67982    339.22914   -151458.86     151473.9    35.450681    36.064974 
167232000    248.00182    245.24818    264.25342   -151441.65    151483.01   -19.005246    36.065978 
167236000    259.32509    316.01784    422.64305    -151452.1    151499.85   -106.62521    36.069473 
167240000    272.43336    272.58822    373.32229   -151464.34    151494.87   -100.73407    36.068595 
167244000    305.92034    473.79199    370.76524   -151468.19    151499.85    103.02675    36.071138 
167248000    285.23309      402.119    365.04222   -151492.27    151512.58    37.076781    36.075265 
167252000    295.95998    251.11705    396.12317    -151483.7    151514.34   -145.00612    36.075007 
167256000    300.58677    504.41589    134.20879   -151516.69    151530.03     370.2071    36.079776 
167260000    301.25327    419.16285    353.52077   -151543.86    151546.62    65.642081     36.08532 
167264000    289.54907    315.09947    366.98876    -151548.7     151585.8   -51.889283    36.084577 
167268000    275.56844    251.09076    530.00471   -151576.36    151599.69   -278.91395    36.086566 
167272000    299.44672    286.08567     441.9671   -151624.88    151625.62   -155.88143    36.085118 
167276000     290.0302     352.8795    337.11156   -151643.09    151666.12    15.767949    36.083165 
167280000    302.73844    509.01707    554.27085   -151685.15    151679.38   -45.253782    36.088675 
167284000     273.9696    347.67382    409.41693   -151684.81    151721.63   -61.743112    36.088045 
167288000    292.85781    346.96067    395.24725   -151706.65    151740.57   -48.286578    36.087896 
167292000    287.97639       255.44    206.22564   -151731.65    151772.77    49.214361    36.092137 
167296000    279.93401    263.26939    333.74377      -151757     151781.6   -70.474379    36.090382 
167300000     273.2459    423.11824     310.4115   -151787.24    151824.78    112.70673    36.092428 
167304000    296.59453    399.80008    453.27812   -151803.01    151830.15   -53.478032    36.091402 
167308000    289.99316    472.96913    387.05435   -151837.58    151871.66    85.914775    36.086532 
167312000    267.57291    363.11936    300.52859   -151868.54    151902.86    62.590769    36.085744 
167316000    290.29015    130.74226    204.49672   -151896.16    151909.76   -73.754453    36.084604 
167320000    277.11046    373.76924    401.92553   -151897.36    151942.73   -28.156294    36.090063 
167324000    298.05248    219.31474     387.4611   -151928.75    151953.62   -168.14637    36.087611 
167328000    298.20334    273.68449    353.89259    -151947.8    151963.51   -80.208105    36.090383 
167332000    293.85339    417.63369    363.26606   -151964.29    152000.23    54.367637    36.087532 
167336000    284.42272    329.87526    431.06309   -151983.75    152021.82   -101.18784    36.085238 
167340000    296.00928    228.49835    212.19058   -151989.43     152023.4    16.307763    36.085006 
167344000     274.7323    384.44366    271.26447   -152002.51    152034.58    113.17919    36.082413 
167348000    272.20915    497.93712    233.07633   -152052.64    152095.57    264.86078    36.083894 
167352000    258.64415    212.28783    234.77946    -152068.6    152109.83   -22.491629     36.08885 
167356000    296.27588    401.99228    334.78965   -152115.55    152118.76    67.202626    36.090144 
167360000     316.9649    380.81478    344.02876   -152122.27    152126.57    36.786014    36.086889 
167364000    268.90595    328.42942    297.96375   -152093.53    152132.34     30.46567    36.084041 
167368000    269.25364     320.0961     269.6029   -152117.91    152149.72    50.493193    36.081033 
167372000    288.92682    395.48464     413.5466   -152128.54    152148.11   -18.061958    36.075795 
167376000    303.81669     343.6497    453.57675      -152157    152173.53   -109.92705    36.076797 
167380000    296.69046    440.01178    259.21928   -152179.21    152189.29     180.7925    36.081284 
167384000    293.76295    348.19202    259.30042   -152214.88    152242.95    88.891594    36.081372 
167388000     310.3034    469.95788    283.28164   -152242.73    152256.21    186.67624    36.083734 
167392000     285.0874     475.2055    304.41386   -152261.82    152314.07    170.79164    36.082707 
167396000    263.16078    161.63828    288.15669    -152284.4    152327.73   -126.51841    36.082143 
167400000    299.08942    409.67392    432.30964   -152322.51    152347.98   -22.635715    36.081856 
167404000    274.11126    510.20053    506.02659    -152352.3    152381.38    4.1739487    36.082757 
167408000    277.01504    320.81161    272.45436   -152366.98    152395.09    48.357253    36.085099 
167412000    271.52927    339.27746    271.06259   -152374.64     152404.5    68.214877    36.083138 
167416000    266.89942    377.83693    362.62818   -152403.47    152441.45    15.208747     36.08149 
167420000    267.67099    285.58651    241.15818   -152435.95    152466.81    44.428324    36.078078 
167424000    292.23314    204.44497    277.11905   -152471.61    152482.78   -72.674081    36.077602 
167428000    297.42581    275.68687     359.9096   -152489.98    152508.98   -84.222729    36.077519 
167432000    283.07463     418.9504    331.07405   -152542.54    152563.43    87.876355    36.080248 
167436000    301.70763     555.4015    378.89099   -152582.95    152580.47     176.5105    36.081228 
167440000    258.35814    236.94389    133.57219   -152583.51    152626.26     103.3717    36.082357 
167444000    252.64009     242.9861     255.7377   -152614.87    152648.35   -12.751603     36.07714 
167448000    275.40648    429.65309    189.17144   -152643.58     152658.3    240.48164    36.078319 
167452000     263.5451    237.36817    353.13701   -152668.05    152707.58   -115.76884    36.076572 
167456000    287.72079    291.04654    302.00882    -152707.3    152730.29   -10.962278    36.074532 
167460000    276.68746    258.00796    461.18749   -152703.25     152725.8   -203.17953    36.072806 
167464000    280.61027    517.41596    332.45641   -152713.15    152734.74    184.95954    36.075077 
167468000    292.07426    612.23723    271.42891   -152754.63    152763.64    340.80832    36.078189 
167472000    298.57753    423.36348     317.5231   -152763.84    152786.52    105.84037    36.073421 
167476000    257.14969     297.3003    303.67362   -152784.21    152820.73     -6.37332    36.077618 
167480000    276.82528    350.27825    346.79965   -152789.48    152817.21    3.4786032     36.07579 
167484000     274.0188     379.9672    390.11073   -152815.32    152841.41   -10.143526    36.072858 
167488000    284.12588     341.9209    393.05772   -152818.53    152853.93   -51.136817    36.077028 
167492000    279.70946    205.72833    301.41546   -152858.32    152881.34    -95.68713    36.075238 
167496000    281.74902    247.52301    356.69721   -152866.63    152904.26    -109.1742    36.075806 
167500000    280.01416    386.33809    419.73966   -152913.29    152921.06   -33.401567    36.074411 
167504000    267.97582    352.06526    287.61609   -152927.67     152942.9    64.449167    36.072547 
167508000    278.18062    279.73211    172.21992   -152956.08    152991.38    107.51219    36.072951 
167512000    276.19703    250.52944     140.0022    -152991.1    153011.48    110.52724    36.075297 
167516000    277.76447    241.44254    236.94945   -153021.76    153033.26    4.4930826    36.071919 
167520000    323.12479    392.53308    363.04047    -153055.6    153049.92    29.492612    36.073209 
167524000    286.99681    308.61381    351.01637   -153061.74    153083.38   -42.402563    36.071584 
167528000    292.54892    310.95504    474.23112   -153073.77    153077.93   -163.27607    36.077917 
167532000    275.41258    412.77486    441.21536   -153050.23    153083.52   -28.440497    36.074889 
167536000    254.52885    285.30135    158.03905   -153062.24    153121.59    127.26229    36.071882 
167540000    286.32542    418.88533    394.68673   -153107.07    153119.46    24.198601    36.071448 
167544000     290.4174    423.40808    318.66276   -153135.04    153127.16    104.74531    36.076415 
167548000    242.90835    290.57639     292.5903   -153119.76    153163.11    -2.013903    36.075423 
167552000    264.04873    321.26595    287.03396    -153127.8    153181.29    34.231992    36.081138 
167556000    278.83727    312.45146    299.64555   -153160.69    153195.47    12.805908    36.082256 
167560000    264.91037    354.07168    349.23096    -153188.8    153216.39    4.8407218      36.0853 
167564000    328.04655    377.25034     353.3469    -153229.5     153239.3    23.903444    36.087819 
167568000    284.55035    559.10737    304.03317   -153251.51    153270.38     255.0742     36.08699 
167572000    256.17018    118.83062    213.32028   -153243.23    153284.88   -94.489661    36.085952 
167576000    285.29324    365.69264    350.84615   -153255.52    153289.02    14.846492    36.086752 
167580000    284.25214    477.06756    461.55803   -153292.63    153303.97    15.509531    36.090729 
167584000    282.19038    435.75404    325.25334   -153306.35    153322.67    110.50071     36.09168 
167588000    303.88583    313.76846    361.99103   -153321.61    153347.47   -48.222569    36.091748 
167592000    255.86306    296.52369    325.67791   -153324.26    153367.01   -29.154223    36.092289 
167596000    279.51632    251.65442    415.59707    -153338.2    153358.66   -163.94265    36.084361 
167600000    286.82599    372.92724    377.51807    -153366.2    153400.82    -4.590832    36.084066 
167604000    271.48856    259.45452    275.21435   -153378.25    153408.42   -15.759828    36.083196 
167608000    283.13506    276.72917    257.18523   -153416.79    153430.65    19.543939    36.078184 
167612000     304.3691    521.25495     387.1937   -153429.35     153443.4    134.06124    36.079693 
167616000    261.32031     391.1272     260.8111   -153442.17    153490.56    130.31611    36.082958 
167620000    307.90779    320.10499    265.03521   -153492.08    153501.54    55.069779    36.083501 
167624000    291.55062    548.73165    386.49549   -153481.99    153497.84    162.23616     36.08219 
167628000    279.56731     241.8419    341.30399   -153508.32    153527.46   -99.462088    36.084837 
167632000    265.31422    354.77944    328.25335   -153512.71    153551.57    26.526092     36.08874 
167636000    291.26773    252.95673    366.07666   -153565.13     153589.9   -113.11993    36.085684 
167640000    278.83987    434.75982    452.93239    -153591.5    153629.81   -18.172566    36.087743 
167644000    294.07249    319.77783    283.23844   -153627.98    153640.42    36.539391    36.087494 
167648000    295.83098    240.74399    204.14406   -153648.02    153669.73    36.599936     36.08446 
167652000    260.65129    419.19505     339.4663    -153661.8    153703.57    79.728754     36.08672 
167656000    297.01608      314.971    261.69313   -153699.63    153714.02    53.277865    36.087876 
167660000    267.41658    438.90764    296.74219   -153706.31    153732.82    142.16545    36.084917 
167664000    294.02272    370.91525    287.43633   -153699.52    153736.99    83.478921    36.087946 
167668000    295.33879    378.14484    216.50768   -153729.25    153752.16    161.63716     36.08454 
167672000    284.43898    363.62424    247.97193   -153756.71    153773.22     115.6523    36.082841 
167676000    301.07285    421.40081     299.0833   -153799.67    153806.02    122.31751    36.081895 
167680000    281.50015    404.14286    374.98188   -153816.13    153849.01    29.160981    36.079267 
167684000    272.22039    434.02487    296.45716   -153853.64    153882.61    137.56772    36.078748 
167688000    266.37386    431.93192    272.08015    -153885.6    153921.74    159.85177    36.077419 
167692000    268.65877    527.76134    423.66182   -153893.81    153927.01    104.09952    36.079015 
167696000    284.63329      596.349    606.97073   -153905.43    153939.79   -10.621729     36.07938 
167700000    267.98051    353.90273    282.47833   -153907.93    153946.36    71.424407    36.082751 
167704000     282.0692    359.93936    430.61611   -153938.24     153960.8   -70.676757    36.092828 
167708000     252.3754    326.50866    272.46561   -153952.72    154001.12    54.043043    36.093165 
167712000    289.36789    282.52311    328.71068   -153974.86    154001.69   -46.187565    36.090735 
167716000    311.00705    289.19066    431.06214   -154017.57    154022.25   -141.87148     36.09219 
167720000    292.88038    341.20344    162.25578      -154066    154089.69    178.94766    36.090985 
167724000    261.45598    312.07487    209.35418   -154085.14     154110.7    102.72069    36.090653 
167728000    296.73998    313.33279    320.18834    -154099.1    154106.53   -6.8555545    36.086508 
167732000    293.74544    689.42556    278.61514   -154150.96    154150.14    410.81042    36.089006 
167736000    278.66527    388.32313    296.70017   -154177.17    154205.36    91.622957    36.086323 
167740000      258.705    255.81737     271.8185   -154216.05    154241.65   -16.001128    36.086508 
167744000    273.13786    359.80553    448.69058   -154242.79    154284.63   -88.885049    36.089285 
167748000    264.72512    320.81972    539.23757   -154262.98    154302.34   -218.41785    36.083844 
167752000    267.68755    237.68538    511.57974   -154271.32    154299.63   -273.89436    36.080718 
167756000    283.26094    270.77673    257.05148   -154291.91    154312.66    13.725244     36.07956 
167760000    305.98115    254.67102    383.73122   -154290.58    154301.51    -129.0602    36.082049 
167764000     284.7518    272.10576    403.35329   -154284.17    154298.69   -131.24753    36.083821 
167768000    274.83928    289.42889    296.59266   -154305.44    154338.43   -7.1637677    36.081409 
167772000    294.11378      307.829    437.87905   -154336.15    154353.65   -130.05005    36.082515 
167776000    309.66488    401.23114    469.06311   -154343.47    154352.69    -67.83197    36.083265 
167780000     292.8373    423.45298    284.65136   -154347.48    154378.45    138.80161    36.084864 
167784000    267.74919    350.40343    264.11347   -154361.06     154384.4    86.289961    36.084024 
167788000    270.05406    471.92343    363.00562   -154352.82    154392.42    108.91781      36.0786 
167792000    283.77949    309.26816    361.28651   -154376.31    154406.33   -52.018347    36.073377 
167796000    277.60187    407.66798    501.78197   -154381.98    154406.48   -94.113993     36.07275 
167800000     267.9409    334.07087    223.17328   -154377.22    154423.65    110.89759    36.068275 
167804000    303.98327    302.67234    394.59054   -154415.77    154445.66   -91.918191    36.065938 
167808000     287.3961    301.98372    287.35413   -154432.26    154477.53    14.629594    36.067578 
167812000    261.24462    243.21333    185.34608   -154444.15    154489.69    57.867258    36.067309 
167816000    277.71766     251.5794    273.67408    -154482.1    154493.71   -22.094679    36.070667 
167820000    284.67805    246.44543    297.82242   -154504.01    154525.51   -51.376995     36.07509 
167824000    278.95485    651.45226    374.61395   -154529.56    154558.76    276.83832    36.080214 
167828000    264.57205    289.74464    326.37744   -154548.65    154570.56   -36.632805    36.081827 
167832000    293.86564    244.63198    336.12899   -154562.66    154590.28   -91.497011    36.074851 
167836000    325.15509    311.05798    239.39415    -154602.4    154611.53    71.663831    36.074945 
167840000    282.74678    304.66866    334.50643   -154578.98    154604.67   -29.837772     36.07121 
167844000    259.58549    191.31394    290.71061   -154589.08    154637.34   -99.396667    36.070144 
167848000    276.75723    352.79226    223.63412   -154617.83    154651.99    129.15814    36.071246 
167852000    264.81343    327.23104    270.60677   -154622.91     154656.5    56.624273     36.07096 
167856000    277.06426    207.12617    237.94999   -154612.97    154649.96   -30.823815    36.070477 
167860000     275.8159    322.64639    256.49381   -154634.76    154654.47    66.152582    36.070917 
167864000     288.2812    398.39862    473.34097   -154677.77    154694.36   -74.942347    36.068344 
167868000    285.97892    470.97878    407.83686   -154694.59    154730.92    63.141913    36.071859 
167872000    269.07783     158.7695    271.17935    -154717.8    154760.29   -112.40985    36.070668 
167876000    268.29621     324.7597    257.46051   -154745.37    154771.98     67.29919    36.068513 
167880000    269.97237    631.05612    320.99298   -154747.05    154795.65    310.06314    36.069738 
167884000    256.86933    260.70266    294.41823   -154767.14    154816.48   -33.715576    36.072113 
167888000    275.58828    503.59356     486.9723    -154777.2    154819.42    16.621266    36.071371 
167892000    285.41565    320.09321    236.97247   -154827.63    154857.04    83.120739    36.069771 
167896000    305.80641    414.09751    178.96704   -154860.04    154868.11    235.13048    36.065633 
167900000    261.13132    326.08346    276.62415   -154872.86    154912.15     49.45931    36.065401 
167904000    279.84976    392.95536    349.93235   -154887.88    154914.96    43.023012    36.063332 
167908000    259.22165    299.41427    124.73434   -154898.96    154933.36    174.67993    36.069914 
167912000    267.06327    309.35789    334.26544   -154890.07    154947.91   -24.907544    36.071347 
167916000    292.14957    164.09244     438.6039   -154951.74    154962.11   -274.51146    36.070135 
167920000    278.80552     380.8594    590.15703   -154971.56    154997.92   -209.29764    36.072883 
167924000    246.90294    280.16697    201.79647   -154993.86    155050.08    78.370501    36.074431 
167928000    315.92376    406.08039    382.53417   -155039.26    155033.32    23.546215     36.07366 
167932000    328.64111    431.81493    347.41155   -155040.91    155032.84    84.403379     36.07515 
167936000    315.97615    288.99376    304.40268   -155046.82    155043.28   -15.408921    36.069234 
167940000    250.55513     218.1343    303.29873   -155042.98    155096.66   -85.164426    36.064227 
167944000    263.70543     345.2378    226.61956   -155061.84    155099.09    118.61824    36.066088 
167948000     289.1033     322.9815    272.16862   -155090.82     155111.8    50.812879    36.069378 
167952000    298.44415    403.52139    381.27153   -155128.42    155131.03    22.249859    36.067327 
167956000    306.52562    298.52049    355.27505   -155116.87     155114.3   -56.754564    36.066567 
167960000    275.02988    239.05337    386.89949   -155082.48    155125.78   -147.84612    36.065376 
167964000    293.55622    576.04968    225.15484    -155103.6    155134.66    350.89484    36.071484 
167968000    300.79687    276.43263    314.68785   -155142.98    155154.93    -38.25522    36.073065 
167972000    278.49626    421.17765    336.68594   -155152.78    155163.52    84.491707    36.069467 
167976000    281.64189    367.38512    382.12576   -155186.78    155192.14   -14.740647    36.074498 
167980000    304.36287    439.75933     426.6534   -155233.99    155221.76    13.105928    36.070435 
167984000    297.65022    314.38941    191.21092    -155239.5    155237.99    123.17848    36.072802 
167988000    270.59907     288.9224    382.60575   -155262.75    155307.28    -93.68335     36.07553 
167992000    296.43329    300.04808    510.49508   -155294.92    155310.43     -210.447    36.074104 
167996000    291.63042    388.83236    442.25408   -155305.65    155303.03   -53.421727    36.073835 
168000000      298.665    332.48939    368.02265   -155312.89    155331.96   -35.533259    36.074012 
168004000    285.70116    222.69999    479.21292   -155313.58    155336.38   -256.51293    36.074631 
168008000    306.70906    624.54426    367.11362   -155331.84    155340.89    257.43063    36.072713 
168012000    280.83557    443.02014    341.70824   -155347.62    155390.07     101.3119    36.068697 
168016000     308.1246    360.60794    386.33511   -155371.35    155382.29   -25.727167    36.068887 
168020000    269.95131    279.65331     277.1856   -155378.43    155393.88    2.4677114    36.065855 
168024000    313.39655    571.65841     242.4047   -155375.51    155401.15    329.25371    36.068109 
168028000    283.29377    199.11644    317.37629   -155403.14    155421.86   -118.25985    36.069203 
168032000    282.39169    419.20831     344.9957   -155443.82    155456.36    74.212608    36.065589 
168036000    303.47496    150.06106    353.92913   -155467.48    155472.95   -203.86807    36.068913 
168040000    262.30474    287.19305    198.40261   -155476.86    155501.36    88.790438    36.069789 
168044000    283.59855    623.09782    278.95637   -155512.93    155538.29    344.14145    36.071959 
168048000     296.0833    479.48326    461.20335    -155507.4    155525.17    18.279909    36.073441 
168052000    301.34027    312.28639    261.35812   -155524.44    155536.27    50.928271    36.077292 
168056000    275.25091     373.3215    432.49755   -155548.01    155577.16    -59.17605     36.07835 
168060000    336.96078    684.31704    475.02682   -155561.53    155571.69    209.29022    36.078999 
Loop time of 3558.99 on 4 procs for 32000000 steps with 196 atoms

Performance: 971.063 ns/day, 0.025 hours/ns, 8991.327 timesteps/s
100.0% CPU use with 4 MPI tasks x no OpenMP threads

MPI task timing breakdown:
Section |  min time  |  avg time  |  max time  |%varavg| %total
---------------------------------------------------------------
Pair    | 360.17     | 517.95     | 682.2      | 691.5 | 14.55
Bond    | 542.18     | 941.58     | 1421.8     |1226.3 | 26.46
Neigh   | 33.076     | 33.48      | 33.862     |   4.8 |  0.94
Comm    | 791.03     | 1391.8     | 1923.6     |1366.4 | 39.11
Output  | 11.825     | 12.921     | 14.933     |  34.3 |  0.36
Modify  | 469.25     | 502.35     | 541.13     | 146.8 | 14.12
Other   |            | 158.9      |            |       |  4.47

Nlocal:    49 ave 95 max 9 min
Histogram: 1 1 0 0 0 0 1 0 0 1
Nghost:    147 ave 187 max 101 min
Histogram: 1 0 0 1 0 0 0 0 1 1
Neighs:    954 ave 1752 max 177 min
Histogram: 1 0 1 0 0 0 0 1 0 1

Total # of neighbors = 3816
Ave neighs/atom = 19.4694
Ave special neighs/atom = 5.87755
Neighbor list builds = 346869
Dangerous builds = 0

write_restart FINALCONFIG

Total wall time: 1:02:14
